xi,eta,X,Y,uX,uY,epsilon_X,epsilon_Y,gamma_XY,sigma_XX,sigma_YY,sigma_XY,fx,fy,dxidx,dxidy,detadx,detady,
0.41702,0.7655,1.6681,0.39825,6.8516,26.787,-1.7715,0.5905,-1.4353,-2.362,1.8323e-12,-0.71764,0,0,0.25,-0,-0,0.66667
0.72032,0.30817,2.8813,-0.28774,-2.8103,7.7432,2.2108,-0.73695,-1.7063,2.9478,-3.4758e-11,-0.85317,0,0,0.25,1.7764e-15,0,0.66667
0.00011437,0.73538,0.0004575,0.35307,7.3718,62.545,-0.00043073,0.00014358,-1.557,-0.0005743,8.4877e-09,-0.77852,0,0,0.25,-0,-0,0.66667
0.30233,0.8122,1.2093,0.4683,8.9105,35.947,-1.5102,0.5034,-1.221,-2.0136,-7.7605e-12,-0.61051,0,0,0.25,-1.7579e-16,0,0.66667
0.14676,0.23669,0.58702,-0.39496,-8.0778,49.331,0.61827,-0.20609,-1.4445,0.82436,7.6332e-10,-0.72223,0,0,0.25,-0,-0,0.66667
0.092339,0.062824,0.36935,-0.65576,-13.78,54.246,0.64589,-0.2153,-0.47252,0.86119,1.2219e-07,-0.23626,0,0,0.25,-2.9606e-16,0,0.66667
0.18626,0.62204,0.74504,0.18307,3.6695,45.801,-0.36371,0.12124,-1.8819,-0.48495,-1.3561e-11,-0.94094,0,0,0.25,-0,-0,0.66667
0.34556,0.94394,1.3822,0.66591,12.427,32.556,-2.4545,0.81817,-0.42371,-3.2727,7.2609e-13,-0.21185,0,0,0.25,-0,-0,0.66667
0.39677,0.34766,1.5871,-0.22851,-3.9865,28.263,0.96709,-0.32236,-1.8144,1.2895,-1.4108e-12,-0.90718,0,0,0.25,-0,-0,0.66667
0.53882,0.43363,2.1553,-0.099561,-1.4503,17.982,0.57221,-0.19074,-1.9647,0.76295,-2.1538e-14,-0.98236,0,0,0.25,-0,-0,0.66667
0.41919,0.27723,1.6768,-0.33416,-5.7198,26.587,1.4942,-0.49805,-1.6035,1.9922,-1.7384e-12,-0.80174,0,0,0.25,-2.9606e-16,0,0.66667
0.68522,0.69207,2.7409,0.28811,3.1172,9.4531,-2.1058,0.70193,-1.7054,-2.8077,9.8008e-12,-0.85268,0,0,0.25,-0,-0,0.66667
0.20445,0.18359,0.81781,-0.47461,-9.5357,44.275,1.035,-0.34501,-1.2,1.38,2.0392e-10,-0.59998,0,0,0.25,-0,-0,0.66667
0.87812,0.73211,3.5125,0.34817,1.5409,2.0961,-3.2612,1.0871,-1.5685,-4.3482,1.0829e-09,-0.78425,0,0,0.25,-2.3685e-15,0,0.66667
0.027388,0.7503,0.10955,0.37544,7.8393,60.071,-0.10968,0.03656,-1.4998,-0.14624,-1.341e-09,-0.7499,0,0,0.25,-0,-0,0.66667
0.67047,0.45507,2.6819,-0.067393,-0.75242,10.121,0.48197,-0.16066,-1.9837,0.64262,-2.0698e-12,-0.99187,0,0,0.25,-1.9782e-15,0,0.66667
0.4173,0.75403,1.6692,0.38104,6.5484,26.756,-1.6961,0.56537,-1.4839,-2.2615,1.6976e-12,-0.74196,0,0,0.25,1.1842e-15,0,0.66667
0.55869,0.15501,2.2348,-0.51748,-7.4356,16.941,3.0839,-1.028,-1.0486,4.1118,7.8271e-13,-0.52432,0,0,0.25,-1.2583e-15,0,0.66667
0.14039,0.66052,0.56155,0.24078,4.9094,49.874,-0.36056,0.12019,-1.795,-0.48074,6.4156e-10,-0.8975,0,0,0.25,-0,-0,0.66667
0.1981,0.29391,0.79241,-0.30913,-6.1863,44.783,0.65322,-0.21774,-1.6594,0.87096,2.9045e-10,-0.82972,0,0,0.25,2.9606e-16,0,0.66667
0.80074,0.44476,3.203,-0.082854,-0.58648,4.3018,0.70768,-0.23589,-1.9754,0.94357,-1.5143e-10,-0.9877,0,0,0.25,-0,-0,0.66667
0.96826,0.8319,3.873,0.49785,0.50102,0.69154,-5.1418,1.7139,-1.119,-6.8558,-2.3405e-08,-0.5595,0,0,0.25,-0,-0,0.66667
0.31342,0.90051,1.2537,0.60077,11.432,35.111,-2.0085,0.66949,-0.71742,-2.678,-1.1458e-13,-0.35871,0,0,0.25,1.4803e-16,0,0.66667
0.69232,0.31828,2.7693,-0.27258,-2.8899,9.0846,2.013,-0.67099,-1.7357,2.684,-1.3138e-11,-0.86784,0,0,0.25,-0,-0,0.66667
0.87639,0.17908,3.5056,-0.48138,-2.2168,2.3116,4.5,-1.5,-1.1763,6,-3.6242e-09,-0.58817,0,0,0.25,-0,-0,0.66667
0.89461,0.45874,3.5784,-0.061888,-0.22777,1.5179,0.59056,-0.19685,-1.9859,0.78742,1.8405e-08,-0.99296,0,0,0.25,1.1842e-15,0,0.66667
0.085044,0.67898,0.34018,0.26847,5.5494,54.845,-0.24354,0.08118,-1.7431,-0.32472,9.5351e-10,-0.87155,0,0,0.25,7.4015e-17,0,0.66667
0.039055,0.41442,0.15622,-0.12837,-2.6617,59.004,0.053476,-0.017825,-1.9408,0.071302,-1.4187e-08,-0.9704,0,0,0.25,-0,-0,0.66667
0.16983,0.056519,0.67932,-0.66522,-13.699,47.374,1.2051,-0.40169,-0.42696,1.6068,-3.8935e-10,-0.21348,0,0,0.25,3.9662e-16,-1.8327e-16,0.66667
0.87814,0.85403,3.5126,0.53104,2.4383,2.3464,-4.9742,1.6581,-0.99698,-6.6322,1.2551e-09,-0.49849,0,0,0.25,-0,-0,0.66667
0.098347,0.88562,0.39339,0.57843,12.084,53.692,-0.6068,0.20227,-0.80976,-0.80906,-1.1581e-08,-0.40488,0,0,0.25,-0,-0,0.66667
0.42111,0.88824,1.6844,0.58236,10.086,26.613,-2.6158,0.87195,-0.79427,-3.4878,9.0061e-13,-0.39713,0,0,0.25,-5.9212e-16,2.8915e-16,0.66667
0.95789,0.4772,3.8316,-0.034205,-0.040256,0.38981,0.34949,-0.1165,-1.9954,0.46599,-7.6433e-09,-0.9977,0,0,0.25,2.3685e-15,0,0.66667
0.53317,0.77997,2.1327,0.41995,6.2441,18.516,-2.3883,0.7961,-1.3741,-3.1844,-9.4746e-13,-0.68706,0,0,0.25,5.9212e-16,0,0.66667
0.69188,0.39922,2.7675,-0.15117,-1.5966,9.0436,1.1156,-0.37188,-1.9185,1.4875,-1.0267e-11,-0.95926,0,0,0.25,-5.9212e-16,0,0.66667
0.31552,0.26626,1.2621,-0.35062,-6.5754,34.806,1.18,-0.39333,-1.5624,1.5733,8.0128e-12,-0.7812,0,0,0.25,-0,-0,0.66667
0.6865,0.27109,2.746,-0.34337,-3.7147,9.4307,2.5144,-0.83813,-1.581,3.3525,-9.2077e-12,-0.79049,0,0,0.25,-0,-0,0.66667
0.83463,0.64719,3.3385,0.22078,1.3114,3.2145,-1.9656,0.65519,-1.826,-2.6208,1.9388e-10,-0.91301,0,0,0.25,5.9212e-16,0,0.66667
0.018288,0.040255,0.073153,-0.68962,-14.645,60.907,0.13453,-0.044842,-0.30894,0.17937,-4.9716e-07,-0.15447,0,0,0.25,-0,-0,0.66667
0.75014,0.38441,3.0006,-0.17338,-1.5217,6.3394,1.3873,-0.46243,-1.8936,1.8497,-5.8869e-11,-0.94682,0,0,0.25,-0,-0,0.66667
0.98886,0.68293,3.9554,0.27439,-0.0089523,0.20602,-2.8942,0.96475,-1.7324,-3.859,-5.7562e-09,-0.86619,0,0,0.25,-0,-0,0.66667
0.74817,0.69364,2.9927,0.29045,2.5839,6.4969,-2.318,0.77265,-1.7004,-3.0906,7.7798e-11,-0.85021,0,0,0.25,-0,-0,0.66667
0.28044,0.87009,1.1218,0.55513,10.765,37.816,-1.6606,0.55354,-0.90513,-2.2142,-1.0153e-11,-0.45257,0,0,0.25,-1.3e-16,-1.6424e-16,0.66667
0.78928,0.78155,3.1571,0.42232,3.2287,4.9673,-3.5555,1.1852,-1.3665,-4.7407,2.0405e-10,-0.68325,0,0,0.25,-0,-0,0.66667
0.10323,0.17645,0.4129,-0.48532,-10.079,53.236,0.53438,-0.17813,-1.1617,0.7125,4.1765e-09,-0.58087,0,0,0.25,-0,-0,0.66667
0.44789,0.24052,1.7916,-0.38921,-6.4716,24.474,1.8595,-0.61983,-1.4608,2.4793,-1.256e-12,-0.73039,0,0,0.25,-0,-0,0.66667
0.9086,0.94322,3.6344,0.66483,2.3912,1.9231,-6.4434,2.1478,-0.42875,-8.5912,8.7916e-08,-0.21437,0,0,0.25,-0,-0,0.66667
0.29361,0.66536,1.1745,0.24804,4.7066,36.589,-0.77685,0.25895,-1.781,-1.0358,-2.1519e-11,-0.89049,0,0,0.25,-0,-0,0.66667
0.28778,0.26459,1.1511,-0.35312,-6.749,37.11,1.0839,-0.36131,-1.5557,1.4452,2.4499e-11,-0.77784,0,0,0.25,-0,-0,0.66667
0.13003,0.17012,0.52011,-0.49481,-10.215,50.842,0.68629,-0.22876,-1.1286,0.91506,2.9455e-09,-0.56432,0,0,0.25,-0,-0,0.66667
0.019367,0.14803,0.077468,-0.52795,-11.103,60.803,0.10906,-0.036355,-1.0087,0.14542,2.134e-08,-0.50435,0,0,0.25,-1.8504e-17,0,0.66667
0.67884,0.90997,2.7153,0.61495,6.956,10.136,-4.4528,1.4843,-0.65541,-5.9371,-5.6399e-13,-0.3277,0,0,0.25,2.3685e-15,0,0.66667
0.21163,0.77616,0.84651,0.41424,8.2734,43.632,-0.93509,0.3117,-1.3897,-1.2468,-1.9883e-10,-0.69483,0,0,0.25,-3.1878e-16,0,0.66667
0.26555,0.28807,1.0622,-0.3179,-6.1515,38.971,0.90045,-0.30015,-1.6415,1.2006,5.2763e-11,-0.82075,0,0,0.25,-0,-0,0.66667
0.49157,0.74725,1.9663,0.37088,5.8367,21.321,-1.9447,0.64823,-1.5111,-2.5929,-6.6613e-14,-0.75555,0,0,0.25,-0,-0,0.66667
0.053363,0.86256,0.21345,0.54385,11.419,57.732,-0.30956,0.10319,-0.94748,-0.41274,-6.2396e-08,-0.47374,0,0,0.25,1.0821e-17,0,0.66667
0.57412,0.61368,2.2965,0.17051,2.3443,15.723,-1.0442,0.34807,-1.8961,-1.3923,-1.1572e-12,-0.94803,0,0,0.25,-0,-0,0.66667
0.14673,0.9395,0.58691,0.65924,13.674,49.406,-1.0318,0.34393,-0.4551,-1.3757,-1.3269e-09,-0.22755,0,0,0.25,5.9212e-16,0,0.66667
0.58931,0.60561,2.3572,0.15841,2.1176,14.776,-0.99578,0.33193,-1.9101,-1.3277,-1.3308e-12,-0.95506,0,0,0.25,-0,-0,0.66667
0.69976,0.10229,2.799,-0.59657,-6.3672,9.0666,4.4528,-1.4843,-0.73437,5.9371,-1.664e-12,-0.36718,0,0,0.25,-0,-0,0.66667
0.10233,0.98938,0.40934,0.73408,15.478,53.372,-0.80129,0.2671,-0.08321,-1.0684,3.7571e-08,-0.041605,0,0,0.25,1.4803e-16,0,0.66667
0.41406,0.98682,1.6562,0.73022,12.885,27.288,-3.2251,1.075,-0.10312,-4.3001,2.6223e-13,-0.051561,0,0,0.25,5.9212e-16,0,0.66667
0.6944,0.90075,2.7776,0.60113,6.515,9.3354,-4.4525,1.4842,-0.71492,-5.9367,8.1268e-13,-0.35746,0,0,0.25,-8.8818e-16,0,0.66667
0.41418,0.73179,1.6567,0.34769,5.9857,26.975,-1.5361,0.51202,-1.5692,-2.0481,1.7828e-12,-0.78461,0,0,0.25,5.9212e-16,0,0.66667
0.049953,0.96362,0.19981,0.69543,14.742,58.056,-0.37055,0.12352,-0.2807,-0.49407,-2.5384e-07,-0.14035,0,0,0.25,1.1102e-16,0,0.66667
0.5359,0.99431,2.1436,0.74146,11.265,18.69,-4.2384,1.4128,-0.045165,-5.6512,-2.3181e-13,-0.022583,0,0,0.25,2.9606e-16,0,0.66667
0.66379,0.020758,2.6552,-0.71886,-8.5444,11.08,5.0899,-1.6966,-0.1618,6.7865,7.1054e-14,-0.0809,0,0,0.25,-0,-0,0.66667
0.51489,0.16433,2.0596,-0.50351,-7.7325,19.815,2.7653,-0.92178,-1.0991,3.6871,7.6161e-14,-0.54953,0,0,0.25,-1.1842e-15,0,0.66667
0.94459,0.88471,3.7784,0.57707,1.189,1.1303,-5.8144,1.9381,-0.81522,-7.7525,-3.8986e-09,-0.40761,0,0,0.25,-0,-0,0.66667
0.58656,0.11667,2.3462,-0.575,-7.9081,15.264,3.5975,-1.1992,-0.82381,4.7967,9.1394e-13,-0.41191,0,0,0.25,-0,-0,0.66667
0.9034,0.45466,3.6136,-0.068006,-0.22741,1.3254,0.65533,-0.21844,-1.9831,0.87377,5.7245e-09,-0.99155,0,0,0.25,-0,-0,0.66667
0.13747,0.83135,0.5499,0.49702,10.24,50.18,-0.72883,0.24294,-1.1212,-0.97177,-2.7555e-09,-0.5606,0,0,0.25,-0,-0,0.66667
0.13928,0.69424,0.55711,0.29136,5.9508,49.979,-0.43285,0.14428,-1.6986,-0.57713,-9.5534e-10,-0.8493,0,0,0.25,-0,-0,0.66667
0.80739,0.69526,3.2296,0.29288,2.0303,4.177,-2.5224,0.84079,-1.6946,-3.3632,3.205e-10,-0.84729,0,0,0.25,2.3685e-15,0,0.66667
0.39768,0.57866,1.5907,0.11799,2.0519,28.166,-0.5005,0.16683,-1.9495,-0.66733,6.3949e-13,-0.97476,0,0,0.25,5.9212e-16,0,0.66667
0.16535,0.083831,0.66142,-0.62425,-12.841,47.751,1.101,-0.36702,-0.61369,1.4681,6.6804e-10,-0.30684,0,0,0.25,-1.4803e-16,0,0.66667
0.92751,0.26774,3.71,-0.34839,-0.87913,1.0485,3.4468,-1.1489,-1.5676,4.5957,5.1935e-09,-0.78378,0,0,0.25,-0,-0,0.66667
0.34777,0.76325,1.3911,0.39487,7.2387,32.202,-1.4648,0.48826,-1.4449,-1.9531,1.8252e-13,-0.72247,0,0,0.25,-0,-0,0.66667
0.75081,0.874,3.0032,0.56101,5.0773,6.6908,-4.4929,1.4976,-0.88251,-5.9905,3.5029e-11,-0.44126,0,0,0.25,1.3323e-15,0,0.66667
0.726,0.49922,2.904,-0.0011652,-0.011075,7.3741,0.0090236,-0.0030079,-2.0005,0.012031,2.3904e-12,-1.0003,0,0,0.25,-0,-0,0.66667
0.88331,0.57864,3.5332,0.11796,0.48594,1.7999,-1.1114,0.37047,-1.9495,-1.4819,-2.4523e-09,-0.97476,0,0,0.25,-1.1842e-15,0,0.66667
0.62367,0.62708,2.4947,0.19062,2.3808,12.742,-1.2681,0.42271,-1.872,-1.6908,-1.019e-12,-0.93599,0,0,0.25,-0,-0,0.66667
0.75094,0.38512,3.0038,-0.17233,-1.508,6.3047,1.3803,-0.46011,-1.8946,1.8405,-5.9638e-11,-0.94731,0,0,0.25,-0,-0,0.66667
0.3489,0.51957,1.3956,0.029352,0.53287,32.014,-0.10924,0.036412,-1.9962,-0.14565,-3.4009e-13,-0.9981,0,0,0.25,-1.1842e-15,0,0.66667
0.26993,0.39182,1.0797,-0.16228,-3.1194,38.564,0.46723,-0.15574,-1.9056,0.62297,3.4746e-11,-0.95282,0,0,0.25,2.9606e-16,0,0.66667
0.89589,0.25282,3.5835,-0.37077,-1.3979,1.7018,3.5431,-1.181,-1.5115,4.7242,3.0653e-10,-0.75575,0,0,0.25,-0,-0,0.66667
0.42809,0.5703,1.7124,0.10546,1.7771,25.839,-0.48155,0.16052,-1.9599,-0.64206,8.1993e-13,-0.97997,0,0,0.25,-0,-0,0.66667
0.96484,0.92833,3.8594,0.64249,0.84715,1.0116,-6.6123,2.2041,-0.5319,-8.8164,-3.314e-07,-0.26595,0,0,0.25,-0,-0,0.66667
0.66344,0.16741,2.6538,-0.49889,-5.7962,10.782,3.5305,-1.1768,-1.1142,4.7073,3.8902e-13,-0.5571,0,0,0.25,-0,-0,0.66667
0.6217,0.76088,2.4868,0.39132,4.9555,12.985,-2.595,0.86501,-1.4551,-3.46,-1.8516e-12,-0.72755,0,0,0.25,-1.1842e-15,0,0.66667
0.11475,0.42252,0.45898,-0.11621,-2.3804,52.159,0.14224,-0.047414,-1.9511,0.18966,-3.0399e-09,-0.97555,0,0,0.25,-1.4803e-16,0,0.66667
0.94949,0.59068,3.798,0.13602,0.20901,0.53151,-1.3776,0.4592,-1.9347,-1.8368,-1.3216e-08,-0.96734,0,0,0.25,2.9606e-16,0,0.66667
0.44991,0.59821,1.7996,0.14731,2.4239,24.221,-0.70697,0.23566,-1.9232,-0.94263,9.0222e-13,-0.96158,0,0,0.25,-0,-0,0.66667
0.57839,0.016081,2.3136,-0.72588,-10.278,15.968,4.4783,-1.4928,-0.12679,5.9711,-1.8208e-13,-0.063396,0,0,0.25,2.3685e-15,0,0.66667
0.40814,0.79667,1.6325,0.44501,7.7439,27.493,-1.9373,0.64577,-1.2956,-2.5831,1.7484e-12,-0.64782,0,0,0.25,-0,-0,0.66667
0.23703,0.047652,0.94811,-0.67852,-13.59,41.559,1.7155,-0.57183,-0.36262,2.2873,6.9594e-12,-0.18131,0,0,0.25,-0,-0,0.66667
0.90338,0.069426,3.6135,-0.64586,-2.4366,1.9884,6.2235,-2.0745,-0.5169,8.2981,-1.2278e-08,-0.25845,0,0,0.25,-0,2.1884e-16,0.66667
0.57368,0.45803,2.2947,-0.062959,-0.86461,15.725,0.38526,-0.12842,-1.9853,0.51368,3.4833e-13,-0.99266,0,0,0.25,-0,-0,0.66667
0.0028703,0.76336,0.011481,0.39504,8.2609,62.295,-0.012095,0.0040316,-1.4447,-0.016127,-2.645e-08,-0.72234,0,0,0.25,4.6259e-18,0,0.66667
0.61714,0.86404,2.4686,0.54606,7.0628,13.408,-3.5946,1.1982,-0.93895,-4.7929,-1.5767e-12,-0.46947,0,0,0.25,-5.9212e-16,0,0.66667
0.32664,0.70793,1.3066,0.31189,5.7933,33.879,-1.0867,0.36223,-1.6541,-1.4489,-5.2406e-12,-0.82707,0,0,0.25,-0,-0,0.66667
0.52706,0.94802,2.1082,0.67203,10.277,19.181,-3.7781,1.2594,-0.3937,-5.0375,-2.0517e-13,-0.19685,0,0,0.25,-0,-0,0.66667
0.88594,0.046994,3.5438,-0.67951,-3.0472,2.4415,6.4214,-2.1405,-0.35749,8.5619,2.1222e-10,-0.17874,0,0,0.25,-0,-0,0.66667
0.35727,0.87399,1.4291,0.56098,10.296,31.541,-2.1378,0.71261,-0.88224,-2.8505,1.3438e-12,-0.44112,0,0,0.25,8.8818e-16,-2.7721e-16,0.66667
0.90854,0.80798,3.6341,0.46198,1.5532,1.5551,-4.477,1.4923,-1.2417,-5.9694,1.0222e-08,-0.62084,0,0,0.25,-0,-0,0.66667
0.62336,0.040489,2.4934,-0.68927,-8.9281,13.246,4.5831,-1.5277,-0.31089,6.1107,2.9754e-13,-0.15544,0,0,0.25,-1.1842e-15,0,0.66667
0.015821,0.82076,0.063285,0.48114,10.097,61.122,-0.081197,0.027066,-1.1775,-0.10826,1.8751e-08,-0.58876,0,0,0.25,-0,-0,0.66667
0.92944,0.52135,3.7177,0.032029,0.074381,0.81644,-0.31753,0.10584,-1.9956,-0.42338,2.5954e-08,-0.99779,0,0,0.25,-0,-0,0.66667
0.6909,0.64605,2.7636,0.21908,2.3259,9.1236,-1.6145,0.53817,-1.829,-2.1527,1.1968e-11,-0.91448,0,0,0.25,-0,-0,0.66667
0.99732,0.52553,3.9893,0.038299,-0.017909,0.018386,-0.40743,0.13581,-1.995,-0.54324,3.3524e-06,-0.99752,0,0,0.25,1.1842e-15,0,0.66667
0.17234,0.77014,0.68936,0.40521,8.2204,47.068,-0.7449,0.2483,-1.4165,-0.9932,-6.0363e-10,-0.70824,0,0,0.25,-0,-0,0.66667
0.13714,0.44245,0.54854,-0.086328,-1.7573,50.151,0.12628,-0.042093,-1.9737,0.16837,4.0009e-09,-0.98685,0,0,0.25,2.9606e-16,0,0.66667
0.9326,0.1066,3.7304,-0.5901,-1.5088,1.3383,5.8701,-1.9567,-0.76113,7.8268,-7.5079e-08,-0.38057,0,0,0.25,-0,-0,0.66667
0.69682,0.7649,2.7873,0.39735,4.1941,8.9647,-2.9534,0.98445,-1.4377,-3.9378,1.1671e-11,-0.71884,0,0,0.25,1.1842e-15,0,0.66667
0.066,0.68562,0.264,0.27842,5.7738,56.567,-0.19601,0.065337,-1.7251,-0.26135,1.5712e-09,-0.86254,0,0,0.25,9.2519e-17,0,0.66667
0.75546,0.78652,3.0219,0.42977,3.7674,6.3206,-3.4632,1.1544,-1.3431,-4.6177,7.9667e-11,-0.67157,0,0,0.25,-0,-0,0.66667
0.75388,0.82434,3.0155,0.48651,4.3159,6.4571,-3.9122,1.3041,-1.1578,-5.2163,6.2232e-11,-0.57892,0,0,0.25,-0,-0,0.66667
0.92302,0.66459,3.6921,0.24688,0.65121,1.0288,-2.4307,0.81023,-1.7836,-3.2409,-1.0565e-08,-0.8918,0,0,0.25,-0,-0,0.66667
0.71152,0.45153,2.8461,-0.072711,-0.72385,8.0598,0.55185,-0.18395,-1.9802,0.7358,-1.0233e-11,-0.99011,0,0,0.25,-0,-0,0.66667
0.12427,0.41282,0.49708,-0.13077,-2.6727,51.305,0.17334,-0.05778,-1.9398,0.23112,5.1e-09,-0.96992,0,0,0.25,-0,-0,0.66667
0.01988,0.41813,0.079521,-0.12281,-2.5492,60.747,0.026042,-0.0086808,-1.9457,0.034722,-2.8944e-07,-0.97287,0,0,0.25,-0,-0,0.66667
0.026211,0.61218,0.10484,0.16828,3.4942,60.172,-0.047047,0.015682,-1.8985,-0.06273,-1.0872e-07,-0.94927,0,0,0.25,-3.7007e-17,0,0.66667
0.028306,0.29358,0.11323,-0.30963,-6.4502,59.985,0.093487,-0.031162,-1.6587,0.12465,1.1522e-09,-0.82936,0,0,0.25,-0,-0,0.66667
0.24621,0.89366,0.98484,0.59049,11.703,40.728,-1.5508,0.51693,-0.75964,-2.0677,-2.4235e-11,-0.37982,0,0,0.25,-0,-0,0.66667
0.86003,0.69778,3.4401,0.29667,1.5018,2.5216,-2.7216,0.90719,-1.6874,-3.6287,7.2446e-10,-0.84368,0,0,0.25,-0,-0,0.66667
0.53883,0.42705,2.1553,-0.10943,-1.5942,17.983,0.62894,-0.20965,-1.9566,0.83859,9.7589e-14,-0.9783,0,0,0.25,5.9212e-16,0,0.66667
0.55282,0.46517,2.2113,-0.052249,-0.74366,17.057,0.3081,-0.1027,-1.9904,0.4108,1.3398e-13,-0.99519,0,0,0.25,-5.9212e-16,0,0.66667
0.84203,0.49463,3.3681,-0.008057,-0.045311,2.9126,0.072366,-0.024122,-2.0003,0.096488,9.9215e-10,-1.0001,0,0,0.25,-3.5527e-15,0,0.66667
0.12417,0.052057,0.49669,-0.67191,-14.036,51.41,0.88996,-0.29665,-0.395,1.1866,8.4791e-09,-0.1975,0,0,0.25,1.4803e-16,0,0.66667
0.27918,0.28218,1.1167,-0.32673,-6.2726,37.822,0.973,-0.32433,-1.6216,1.2973,3.4584e-11,-0.81082,0,0,0.25,1.1842e-15,0,0.66667
0.58576,0.087677,2.343,-0.61848,-8.5517,15.367,3.8644,-1.2881,-0.63955,5.1525,5.0959e-13,-0.31978,0,0,0.25,5.9212e-16,0,0.66667
0.9696,0.42581,3.8784,-0.11128,-0.078678,0.27172,1.1509,-0.38364,-1.9561,1.5346,3.5101e-07,-0.97805,0,0,0.25,-1.1842e-15,0,0.66667
0.56103,0.82255,2.2441,0.48383,6.9082,16.758,-2.8954,0.96514,-1.1677,-3.8605,-1.3058e-12,-0.58387,0,0,0.25,1.1842e-15,0,0.66667
0.018647,0.95834,0.074589,0.68752,14.598,60.874,-0.13675,0.045584,-0.31904,-0.18233,1.092e-06,-0.15952,0,0,0.25,-0,-0,0.66667
0.80063,0.53649,3.2025,0.054737,0.38743,4.3004,-0.46746,0.15582,-1.9894,-0.62328,-5.8888e-11,-0.99472,0,0,0.25,-0,-0,0.66667
0.23297,0.36165,0.9319,-0.20753,-4.0752,41.732,0.51572,-0.17191,-1.8468,0.68763,1.0401e-10,-0.92339,0,0,0.25,-2.9606e-16,0,0.66667
0.80711,0.7965,3.2284,0.44475,3.1391,4.3479,-3.8289,1.2763,-1.2958,-5.1052,3.2293e-10,-0.64791,0,0,0.25,-1.1842e-15,0,0.66667
0.38786,0.95404,1.5514,0.68106,12.274,29.24,-2.8177,0.93922,-0.35034,-3.7569,5.1048e-13,-0.17517,0,0,0.25,-5.9212e-16,-2.9505e-16,0.66667
0.86354,0.49395,3.4542,-0.0090723,-0.04392,2.2901,0.083566,-0.027855,-1.9996,0.11142,-8.3631e-09,-0.99981,0,0,0.25,-5.9212e-16,0,0.66667
0.74712,0.21536,2.9885,-0.42696,-3.8559,6.672,3.4026,-1.1342,-1.3524,4.5368,-6.3479e-11,-0.6762,0,0,0.25,-1.2591e-15,0,0.66667
0.55624,0.57963,2.225,0.11945,1.6919,16.847,-0.70871,0.23624,-1.9483,-0.94495,-5.5278e-13,-0.97417,0,0,0.25,-1.1842e-15,0,0.66667
0.13646,0.13934,0.54582,-0.54099,-11.175,50.281,0.78743,-0.26248,-0.95867,1.0499,3.4311e-10,-0.47934,0,0,0.25,-0,-0,0.66667
0.059918,0.79638,0.23967,0.44457,9.2818,57.13,-0.28413,0.094711,-1.2969,-0.37884,4.1617e-09,-0.64843,0,0,0.25,-0,-0,0.66667
0.12134,0.67439,0.48537,0.26159,5.3644,51.579,-0.33859,0.11286,-1.7561,-0.45145,-4.1886e-10,-0.87805,0,0,0.25,-0,-0,0.66667
0.044552,0.78309,0.17821,0.42464,8.8726,58.518,-0.2018,0.067265,-1.3598,-0.26906,3.7683e-09,-0.67992,0,0,0.25,-0,-0,0.66667
0.10749,0.66305,0.42998,0.24457,5.0297,52.82,-0.28043,0.093476,-1.7876,-0.3739,4.4901e-09,-0.89381,0,0,0.25,-0,-0,0.66667
0.22571,0.069303,0.90284,-0.64604,-12.983,42.511,1.5554,-0.51847,-0.51556,2.0739,1.5506e-11,-0.25778,0,0,0.25,-0,-0,0.66667
0.71299,0.38368,2.852,-0.17448,-1.7337,8.0218,1.3269,-0.44231,-1.8912,1.7693,-2.2548e-11,-0.94559,0,0,0.25,-0,-0,0.66667
0.55972,0.083583,2.2389,-0.62462,-9.0391,16.997,3.7292,-1.2431,-0.61252,4.9723,2.8799e-13,-0.30626,0,0,0.25,-0,-3.9469e-16,0.66667
0.012556,0.90984,0.050224,0.61475,12.995,61.421,-0.082335,0.027445,-0.65677,-0.10978,-4.9324e-07,-0.32838,0,0,0.25,-0,-3.5231e-16,0.66667
0.071974,0.96087,0.2879,0.69131,14.611,56.078,-0.53074,0.17691,-0.30023,-0.70765,-3.2094e-07,-0.15012,0,0,0.25,-0,-0,0.66667
0.96728,0.87002,3.8691,0.55503,0.6158,0.80555,-5.7265,1.9088,-0.90534,-7.6354,-5.6834e-08,-0.45267,0,0,0.25,-1.1842e-15,0,0.66667
0.5681,0.29118,2.2724,-0.31323,-4.3748,16.173,1.8981,-0.63269,-1.6505,2.5308,1.5167e-12,-0.82524,0,0,0.25,-1.1842e-15,0,0.66667
0.20329,0.30427,0.81317,-0.29359,-5.8595,44.326,0.63665,-0.21222,-1.6941,0.84886,2.5288e-10,-0.84707,0,0,0.25,-0,-0,0.66667
0.25233,0.6315,1.0093,0.19724,3.8328,40.068,-0.53087,0.17696,-1.8619,-0.70783,-6.263e-11,-0.93095,0,0,0.25,-0,-0,0.66667
0.74383,0.86372,2.9753,0.54558,5.0496,6.9671,-4.3287,1.4429,-0.94085,-5.7716,2.7502e-11,-0.47042,0,0,0.25,-1.1842e-15,0,0.66667
0.19543,0.70603,0.78172,0.30905,6.1915,45.017,-0.64423,0.21474,-1.6595,-0.85898,-3.1107e-10,-0.82973,0,0,0.25,-2.9606e-16,0,0.66667
0.58136,0.27133,2.3254,-0.34301,-4.6862,15.362,2.1271,-0.70903,-1.5813,2.8361,1.6906e-12,-0.79067,0,0,0.25,-0,-0,0.66667
0.97002,0.50071,3.8801,0.0010632,0.00071828,0.24581,-0.011001,0.0036617,-2.0015,-0.01467,-7.8841e-06,-1.0007,0,0,0.25,-0,-0,0.66667
0.84683,0.79527,3.3873,0.4429,2.5045,3.0631,-4.0006,1.3335,-1.302,-5.3342,1.0788e-09,-0.65102,0,0,0.25,-0,-0,0.66667
0.23985,0.60418,0.95939,0.15627,3.0548,41.132,-0.3998,0.13327,-1.9125,-0.53307,-7.2183e-11,-0.95624,0,0,0.25,-0,-0,0.66667
0.49377,0.38588,1.9751,-0.17118,-2.6668,21.073,0.90158,-0.30053,-1.895,1.2021,-1.4916e-13,-0.94751,0,0,0.25,-0,-0,0.66667
0.61996,0.74546,2.4798,0.36819,4.6728,13.067,-2.4348,0.8116,-1.518,-3.2464,-1.7746e-12,-0.75901,0,0,0.25,-1.4803e-15,0,0.66667
0.82898,0.13694,3.3159,-0.54459,-3.4838,3.7597,4.8156,-1.6052,-0.94561,6.4207,-3.5756e-10,-0.4728,0,0,0.25,-0,-0,0.66667
0.15679,0.99325,0.62717,0.73987,15.384,48.55,-1.2374,0.41246,-0.054343,-1.6498,-1.3211e-09,-0.027171,0,0,0.25,4.4409e-16,0,0.66667
0.018576,0.083942,0.074305,-0.62409,-13.197,60.878,0.12366,-0.04122,-0.6149,0.16488,1.6856e-07,-0.30745,0,0,0.25,-1.8504e-17,0,0.66667
0.070022,0.79263,0.28009,0.43894,9.1498,56.217,-0.32784,0.10928,-1.3141,-0.43713,6.0565e-09,-0.65704,0,0,0.25,-0,-0,0.66667
0.48635,0.22987,1.9454,-0.4052,-6.4323,21.712,2.1021,-0.70069,-1.4161,2.8027,-4.3787e-13,-0.70804,0,0,0.25,-0,-0,0.66667
0.60633,0.37903,2.4253,-0.18145,-2.3482,13.756,1.1735,-0.39117,-1.8834,1.5647,1.0655e-12,-0.94168,0,0,0.25,-0,-0,0.66667
0.56885,0.14636,2.2754,-0.53046,-7.4999,16.311,3.2187,-1.0729,-0.99879,4.2916,6.7191e-13,-0.4994,0,0,0.25,-0,-0,0.66667
0.31736,0.37352,1.2694,-0.18972,-3.5361,34.605,0.64223,-0.21408,-1.8726,0.85631,7.7686e-12,-0.9363,0,0,0.25,7.0314e-16,0,0.66667
0.98862,0.025421,3.9545,-0.71187,-0.30264,0.96616,7.5068,-2.5023,-0.19814,10.009,-6.1767e-06,-0.099069,0,0,0.25,-1.1842e-15,0,0.66667
0.57975,0.7844,2.319,0.4266,5.8736,15.529,-2.638,0.87935,-1.3539,-3.5174,-2.0561e-12,-0.67693,0,0,0.25,2.3685e-15,0,0.66667
0.38014,0.34034,1.5206,-0.2395,-4.2455,29.564,0.97112,-0.32371,-1.7962,1.2948,-1.1864e-12,-0.89812,0,0,0.25,-8.8818e-16,0,0.66667
0.55095,0.34642,2.2038,-0.23037,-3.3011,17.228,1.3538,-0.45128,-1.8118,1.8051,1.1758e-12,-0.90589,0,0,0.25,-2.3685e-15,0,0.66667
0.74533,0.65726,2.9813,0.23588,2.1127,6.5813,-1.8753,0.62511,-1.8029,-2.5005,6.6492e-11,-0.90143,0,0,0.25,-0,-0,0.66667
0.66923,0.98039,2.6769,0.72058,8.4551,10.799,-5.1438,1.7146,-0.15352,-6.8584,-1.7364e-13,-0.076758,0,0,0.25,-0,-0,0.66667
0.26492,0.49757,1.0597,-0.0036445,-0.070164,38.977,0.010299,-0.0034329,-2.0012,0.013732,5.658e-12,-1.0006,0,0,0.25,-7.4015e-17,0,0.66667
0.066335,0.40013,0.26534,-0.1498,-3.0978,56.53,0.106,-0.035332,-1.9202,0.14133,-2.18e-08,-0.96009,0,0,0.25,3.7007e-17,0,0.66667
0.37008,0.11586,1.4803,-0.57621,-10.471,30.538,2.2746,-0.7582,-0.81897,3.0328,-1.6025e-12,-0.40949,0,0,0.25,-0,-0,0.66667
0.62972,0.21454,2.5189,-0.4282,-5.3441,12.559,2.8762,-0.95873,-1.3482,3.8349,1.8965e-12,-0.6741,0,0,0.25,-5.9212e-16,0,0.66667
0.21017,0.31647,0.8407,-0.2753,-5.4746,43.722,0.61718,-0.20573,-1.7305,0.82291,1.9413e-10,-0.86524,0,0,0.25,-0,-0,0.66667
0.75276,0.78244,3.011,0.42366,3.7485,6.4277,-3.4017,1.1339,-1.3628,-4.5357,7.3602e-11,-0.68141,0,0,0.25,-0,-0,0.66667
0.066536,0.79272,0.26615,0.43907,9.1571,56.532,-0.31162,0.10387,-1.314,-0.4155,8.2841e-09,-0.65698,0,0,0.25,1.4803e-16,0,0.66667
0.26032,0.77512,1.0413,0.41268,8.0395,39.447,-1.1459,0.38197,-1.3942,-1.5279,-5.4047e-11,-0.69711,0,0,0.25,2.9606e-16,0,0.66667
0.80475,0.67466,3.219,0.262,1.8353,4.2459,-2.249,0.74966,-1.755,-2.9986,2.4395e-10,-0.8775,0,0,0.25,-0,-0,0.66667
0.19343,0.05046,0.77374,-0.67431,-13.772,45.315,1.3913,-0.46377,-0.38247,1.8551,2.5022e-11,-0.19123,0,0,0.25,-0,-0,0.66667
0.63946,0.055376,2.5578,-0.66694,-8.3286,12.308,4.5491,-1.5164,-0.41892,6.0655,4.5652e-13,-0.20946,0,0,0.25,-0,-2.0842e-16,0.66667
0.52467,0.41447,2.0987,-0.1283,-1.9109,18.934,0.71801,-0.23934,-1.9409,0.95734,3.5855e-13,-0.97044,0,0,0.25,-1.1842e-15,0,0.66667
0.92481,0.049945,3.6992,-0.67508,-2.0096,1.6457,6.6594,-2.2198,-0.37917,8.8792,-9.4125e-09,-0.18959,0,0,0.25,-0,-0,0.66667
0.2633,0.1957,1.0532,-0.45646,-8.895,39.212,1.282,-0.42732,-1.2592,1.7093,3.879e-11,-0.62961,0,0,0.25,-0,-0,0.66667
0.065961,0.014927,0.26384,-0.72761,-15.43,56.623,0.51193,-0.17064,-0.11704,0.68258,-5.5053e-08,-0.058521,0,0,0.25,-0,-0,0.66667
0.73507,0.81244,2.9403,0.46866,4.4292,7.2489,-3.6746,1.2249,-1.2208,-4.8995,3.4352e-11,-0.61042,0,0,0.25,-1.4248e-15,0,0.66667
0.77218,0.33477,3.0887,-0.24785,-2.006,5.468,2.0414,-0.68047,-1.7809,2.7219,-1.2172e-10,-0.89046,0,0,0.25,-5.9212e-16,0,0.66667
0.90782,0.26441,3.6313,-0.35339,-1.1655,1.4268,3.422,-1.1407,-1.5558,4.5627,3.0487e-10,-0.7779,0,0,0.25,-0,-0,0.66667
0.93197,0.019914,3.7279,-0.72013,-1.9863,1.6307,7.1588,-2.3863,-0.15538,9.5451,1.2433e-08,-0.077688,0,0,0.25,-0,-0,0.66667
0.013952,0.031277,0.055806,-0.70308,-14.947,61.298,0.10463,-0.03487,-0.24388,0.13951,1.1443e-05,-0.12194,0,0,0.25,-0,-0,0.66667
0.23436,0.086751,0.93745,-0.61987,-12.383,41.755,1.5496,-0.51653,-0.63462,2.0661,3.0008e-11,-0.31731,0,0,0.25,-4.4409e-16,2.0583e-16,0.66667
0.61678,0.47309,2.4671,-0.040361,-0.51001,13.104,0.26553,-0.08851,-1.9941,0.35404,-6.6197e-14,-0.99705,0,0,0.25,-0,-0,0.66667
0.94902,0.076726,3.7961,-0.63491,-1.241,1.1871,6.4271,-2.1424,-0.56602,8.5695,-2.0389e-07,-0.28301,0,0,0.25,-0,8.7861e-17,0.66667
0.95018,0.57818,3.8007,0.11728,0.17636,0.51389,-1.1886,0.3962,-1.9506,-1.5848,-6.6777e-08,-0.9753,0,0,0.25,-1.1842e-15,0,0.66667
0.55665,0.69103,2.2266,0.28655,4.076,16.888,-1.7014,0.56713,-1.7082,-2.2685,-1.3567e-12,-0.85408,0,0,0.25,-0,-0,0.66667
0.91561,0.67466,3.6624,0.26199,0.76938,1.1806,-2.5587,0.8529,-1.7551,-3.4116,1.6661e-09,-0.87753,0,0,0.25,-1.1842e-15,0,0.66667
0.64157,0.022684,2.5663,-0.71597,-8.9501,12.269,4.8997,-1.6332,-0.17771,6.5329,1.3589e-13,-0.088853,0,0,0.25,-0,-0,0.66667
0.39001,0.92783,1.56,0.64175,11.508,29.038,-2.6697,0.88991,-0.53601,-3.5596,8.6331e-13,-0.26801,0,0,0.25,-5.9212e-16,-2.53e-16,0.66667
0.48599,0.037084,1.944,-0.69437,-11.257,22.012,3.5996,-1.1999,-0.28616,4.7994,1.2523e-13,-0.14308,0,0,0.25,-0,-0,0.66667
0.60431,0.18248,2.4172,-0.47628,-6.2842,14.084,3.0701,-1.0234,-1.1934,4.0934,1.726e-12,-0.5967,0,0,0.25,9.4994e-16,0,0.66667
0.54955,0.60082,2.1982,0.15123,2.1673,17.29,-0.8865,0.2955,-1.9188,-1.182,-9.8715e-13,-0.95938,0,0,0.25,-0,-0,0.66667
0.92618,0.76435,3.7047,0.39653,1.0361,1.1307,-3.9174,1.3058,-1.4402,-5.2232,-9.7475e-10,-0.72011,0,0,0.25,-0,-0,0.66667
0.91873,0.23191,3.6749,-0.40214,-1.1706,1.2729,3.9409,-1.3136,-1.4245,5.2545,2.9235e-09,-0.71225,0,0,0.25,-0,-0,0.66667
0.39488,0.80231,1.5795,0.45346,7.9976,28.518,-1.91,0.63666,-1.2684,-2.5466,1.941e-12,-0.63418,0,0,0.25,5.9212e-16,0,0.66667
0.96326,0.9542,3.8531,0.6813,0.97883,1.1168,-7.0003,2.3334,-0.34872,-9.3337,1.0839e-06,-0.17436,0,0,0.25,-0,-0,0.66667
0.17396,0.49282,0.69582,-0.010764,-0.2164,46.875,0.019972,-0.0066575,-1.9998,0.02663,2.7962e-10,-0.99989,0,0,0.25,-0,-0,0.66667
0.12633,0.56279,0.50532,0.094185,1.9231,51.119,-0.12692,0.042305,-1.97,-0.16922,5.2505e-09,-0.985,0,0,0.25,-0,-0,0.66667
0.13508,0.38654,0.54032,-0.17019,-3.4703,50.34,0.24522,-0.081739,-1.8962,0.32695,3.4202e-10,-0.94812,0,0,0.25,-0,-0,0.66667
0.50566,0.27933,2.0226,-0.331,-5.1003,20.317,1.7853,-0.59511,-1.6109,2.3804,2.417e-13,-0.80543,0,0,0.25,-0,-0,0.66667
0.021525,0.19526,0.086099,-0.45711,-9.5796,60.605,0.10495,-0.034984,-1.2566,0.13994,2.0471e-08,-0.62829,0,0,0.25,7.4015e-17,0,0.66667
0.94797,0.55603,3.7919,0.084049,0.13332,0.53374,-0.84988,0.28329,-1.9746,-1.1332,6.3591e-09,-0.98731,0,0,0.25,-0,-0,0.66667
0.82712,0.79877,3.3085,0.44815,2.8519,3.6786,-3.9539,1.318,-1.2859,-5.2718,6.0629e-10,-0.64296,0,0,0.25,1.1842e-15,0,0.66667
0.015019,0.87567,0.060076,0.56351,11.876,61.197,-0.090275,0.030092,-0.87263,-0.12037,8.5566e-08,-0.43632,0,0,0.25,-3.7007e-17,0,0.66667
0.1762,0.039335,0.70479,-0.691,-14.223,46.827,1.2987,-0.43289,-0.30196,1.7316,4.9193e-11,-0.15098,0,0,0.25,-0,-0,0.66667
0.33206,0.4427,1.3283,-0.085955,-1.582,33.384,0.30445,-0.10148,-1.9738,0.40594,2.3599e-12,-0.9869,0,0,0.25,-0,-0,0.66667
0.131,0.50089,0.52399,0.0013316,0.027143,50.699,-0.0018607,0.00062023,-2.0006,-0.0024809,-5.0028e-09,-1.0003,0,0,0.25,-0,-0,0.66667
0.80949,0.9747,3.238,0.71206,5.1956,4.7096,-6.1483,2.0494,-0.19739,-8.1977,4.1895e-12,-0.098693,0,0,0.25,-0,-0,0.66667
0.34474,0.29184,1.3789,-0.31224,-5.7189,32.41,1.1482,-0.38272,-1.6535,1.5309,1.0452e-12,-0.82676,0,0,0.25,-0,-0,0.66667
0.94011,0.84743,3.7604,0.52114,1.1346,1.0933,-5.2259,1.742,-1.0349,-6.9679,-4.6996e-08,-0.51747,0,0,0.25,2.3685e-15,0,0.66667
0.58201,0.85033,2.3281,0.52549,7.2569,15.486,-3.2623,1.0874,-1.0181,-4.3497,-1.1249e-12,-0.50904,0,0,0.25,-1.1842e-15,0,0.66667
0.87883,0.39457,3.5153,-0.15814,-0.67989,1.9279,1.4825,-0.49415,-1.9105,1.9766,-3.8953e-09,-0.95526,0,0,0.25,-0,-0,0.66667
0.84473,0.6288,3.3789,0.1932,1.0753,2.8866,-1.7408,0.58028,-1.8683,-2.3211,-6.1806e-10,-0.93413,0,0,0.25,-0,-0,0.66667
0.90539,0.41505,3.6216,-0.12742,-0.41785,1.3019,1.2306,-0.4102,-1.9426,1.6408,-1.4829e-08,-0.97131,0,0,0.25,-0,-0,0.66667
0.45988,0.91288,1.8395,0.61932,10.303,23.787,-3.038,1.0127,-0.63581,-4.0507,3.7859e-13,-0.3179,0,0,0.25,-0,-0,0.66667
0.54635,0.89228,2.1854,0.58842,8.674,17.813,-3.4291,1.143,-0.76909,-4.5722,-3.7748e-13,-0.38454,0,0,0.25,-0,-0,0.66667
0.7986,0.060767,3.1944,-0.65885,-5.0036,4.9863,5.6124,-1.8708,-0.45773,7.4832,3.3926e-11,-0.22887,0,0,0.25,1.6283e-15,0,0.66667
0.28572,0.024953,1.1429,-0.71257,-13.92,37.476,2.1717,-0.72389,-0.19449,2.8956,-2.2338e-13,-0.097245,0,0,0.25,-0,-0,0.66667
0.49025,0.70925,1.961,0.31387,4.9356,21.38,-1.6414,0.54712,-1.6491,-2.1885,1.9396e-13,-0.82453,0,0,0.25,-5.9212e-16,0,0.66667
0.59911,0.031142,2.3964,-0.70329,-9.5687,14.68,4.4944,-1.4981,-0.24219,5.9925,3.9391e-13,-0.12109,0,0,0.25,-1.4988e-15,0,0.66667
0.015533,0.94002,0.062133,0.66003,13.99,61.154,-0.10936,0.036453,-0.45252,-0.14581,2.0245e-06,-0.22626,0,0,0.25,-0,-0,0.66667
0.59348,0.86699,2.3739,0.55048,7.4591,14.814,-3.4848,1.1616,-0.92318,-4.6464,-1.2992e-12,-0.46159,0,0,0.25,-0,2.4525e-16,0.66667
0.43368,0.57866,1.7347,0.118,1.9767,25.422,-0.54583,0.18194,-1.9498,-0.72778,6.5109e-13,-0.97492,0,0,0.25,5.9212e-16,0,0.66667
0.80736,0.82224,3.2294,0.48336,3.4254,4.3903,-4.1626,1.3875,-1.1687,-5.5502,3.342e-10,-0.58434,0,0,0.25,-0,-0,0.66667
0.31524,0.61723,1.261,0.17584,3.2816,34.777,-0.59129,0.1971,-1.89,-0.78838,-8.7104e-12,-0.94502,0,0,0.25,-0,-0,0.66667
0.89289,0.51368,3.5716,0.020517,0.07678,1.5517,-0.1954,0.065134,-1.9982,-0.26054,2.2368e-08,-0.99909,0,0,0.25,-0,-0,0.66667
0.57786,0.70046,2.3114,0.30069,4.1255,15.552,-1.8534,0.61779,-1.6788,-2.4712,-1.8068e-12,-0.8394,0,0,0.25,-0,-0,0.66667
0.18401,0.33289,0.73604,-0.25067,-5.0367,46.008,0.49201,-0.164,-1.7761,0.65602,3.6933e-10,-0.88807,0,0,0.25,-2.9606e-16,0,0.66667
0.78793,0.74957,3.1517,0.37435,2.8641,4.9645,-3.1463,1.0488,-1.5024,-4.195,2.3039e-10,-0.75118,0,0,0.25,-1.4063e-15,0,0.66667
0.61203,0.16101,2.4481,-0.50849,-6.6241,13.663,3.3196,-1.1065,-1.0811,4.4261,1.6052e-12,-0.54053,0,0,0.25,-0,-0,0.66667
0.053909,0.075316,0.21564,-0.63703,-13.447,57.693,0.36631,-0.1221,-0.55621,0.48841,2.99e-07,-0.27811,0,0,0.25,-0,-0,0.66667
0.42019,0.076161,1.6808,-0.63576,-11.064,26.73,2.8495,-0.94984,-0.56271,3.7993,-3.7237e-13,-0.28135,0,0,0.25,5.9212e-16,-2.9138e-16,0.66667
0.67907,0.014685,2.7163,-0.72797,-8.344,10.307,5.273,-1.7577,-0.11477,7.0307,2.7534e-13,-0.057383,0,0,0.25,-0,-0,0.66667
0.9186,0.96902,3.6744,0.70354,2.2947,1.8196,-6.8935,2.2978,-0.24121,-9.1914,7.327e-08,-0.12061,0,0,0.25,-0,1.0311e-17,0.66667
0.00040202,0.73607,0.0016081,0.3541,7.3937,62.519,-0.0015185,0.00050617,-1.5544,-0.0020246,7.3219e-09,-0.77718,0,0,0.25,-5.7824e-19,0,0.66667
0.97676,0.16819,3.907,-0.49772,-0.32533,0.60759,5.1856,-1.7285,-1.1183,6.9141,8.5491e-08,-0.55915,0,0,0.25,-0,-0,0.66667
0.37658,0.33489,1.5063,-0.24766,-4.4054,29.847,0.99482,-0.33161,-1.7821,1.3264,-1.2812e-12,-0.89103,0,0,0.25,2.9606e-16,0,0.66667
0.97378,0.62236,3.8951,0.18354,0.10196,0.26501,-1.9064,0.63548,-1.8806,-2.5419,-1.0999e-07,-0.94028,0,0,0.25,2.9606e-16,0,0.66667
0.60472,0.84913,2.4189,0.5237,6.9302,14.111,-3.378,1.126,-1.0248,-4.504,-1.4979e-12,-0.5124,0,0,0.25,-2.3685e-15,0,0.66667
0.82885,0.61039,3.3154,0.16559,1.0139,3.3674,-1.464,0.48799,-1.9026,-1.952,2.4846e-10,-0.95129,0,0,0.25,-0,-0,0.66667
0.57471,0.63837,2.2988,0.20755,2.8535,15.7,-1.2723,0.42411,-1.8463,-1.6964,-1.387e-12,-0.92314,0,0,0.25,-0,-0,0.66667
0.62808,0.19138,2.5123,-0.46293,-5.8129,12.687,3.1014,-1.0338,-1.2385,4.1352,1.8823e-12,-0.61923,0,0,0.25,-0,-0,0.66667
0.28558,0.93256,1.1423,0.64883,12.618,37.444,-1.9764,0.65882,-0.50321,-2.6353,-1.2692e-12,-0.25161,0,0,0.25,2.9606e-16,0,0.66667
0.58683,0.65822,2.3473,0.23733,3.1949,14.961,-1.4856,0.49519,-1.8001,-1.9808,-1.4415e-12,-0.90003,0,0,0.25,-2.3685e-15,0,0.66667
0.75002,0.052986,3.0001,-0.67052,-6.1792,6.9041,5.3643,-1.7881,-0.40198,7.1524,-5.8824e-12,-0.20099,0,0,0.25,5.9212e-16,0,0.66667
0.85831,0.94407,3.4333,0.66611,3.6595,3.1121,-6.0985,2.0328,-0.42294,-8.1313,-1.815e-09,-0.21147,0,0,0.25,-0,-0,0.66667
0.75508,0.10195,3.0203,-0.59707,-5.3476,6.5672,4.8089,-1.603,-0.73202,6.4119,-2.1244e-11,-0.36601,0,0,0.25,-0,-0,0.66667
0.69806,0.58231,2.7922,0.12346,1.2804,8.7267,-0.91931,0.30644,-1.9451,-1.2257,1.0685e-11,-0.97254,0,0,0.25,-0,-0,0.66667
0.86448,0.19316,3.4579,-0.46025,-2.3136,2.5899,4.2441,-1.4147,-1.2467,5.6587,-5.2156e-11,-0.62333,0,0,0.25,2.3685e-15,0,0.66667
0.32268,0.015682,1.2907,-0.72648,-13.858,34.45,2.5005,-0.83349,-0.12261,3.334,-2.6157e-13,-0.061303,0,0,0.25,1.1842e-15,0,0.66667
0.67079,0.14898,2.6832,-0.52653,-6.0227,10.43,3.7674,-1.2558,-1.0147,5.0232,8.7041e-14,-0.50736,0,0,0.25,-5.9212e-16,3.8576e-16,0.66667
0.45087,0.66329,1.8035,0.24493,4.0353,24.181,-1.178,0.39265,-1.7869,-1.5706,9.2493e-13,-0.89343,0,0,0.25,-0,-0,0.66667
0.3821,0.65826,1.5284,0.23738,4.2002,29.409,-0.96752,0.32251,-1.7999,-1.29,1.5411e-12,-0.89997,0,0,0.25,-0,-0,0.66667
0.41081,0.60289,1.6432,0.15434,2.6507,27.161,-0.67632,0.22544,-1.9148,-0.90175,1.2817e-12,-0.95741,0,0,0.25,-0,-0,0.66667
0.40148,0.65624,1.6059,0.23436,4.0704,27.901,-1.0036,0.33455,-1.8056,-1.3382,1.6082e-12,-0.90281,0,0,0.25,2.6599e-16,0,0.66667
0.31738,0.90403,1.2695,0.60605,11.504,34.79,-2.0517,0.68391,-0.6945,-2.7356,3.1131e-13,-0.34725,0,0,0.25,1.4803e-16,0,0.66667
0.62192,0.25607,2.4877,-0.3659,-4.624,12.951,2.4273,-0.8091,-1.5241,3.2364,1.857e-12,-0.76204,0,0,0.25,-0,-0,0.66667
0.43025,0.91629,1.721,0.62444,10.744,25.967,-2.8657,0.95525,-0.61282,-3.821,4.4342e-13,-0.30641,0,0,0.25,1.1842e-15,0,0.66667
0.9738,0.26277,3.8952,-0.35584,-0.23169,0.42571,3.6962,-1.2321,-1.549,4.9283,-1.8464e-09,-0.7745,0,0,0.25,-2.3685e-15,0,0.66667
0.6778,0.52651,2.7112,0.039763,0.43544,9.7349,-0.28748,0.095828,-1.9943,-0.38331,1.4786e-12,-0.99714,0,0,0.25,-0,-0,0.66667
0.19857,0.55568,0.79428,0.083525,1.6635,44.711,-0.17691,0.058971,-1.975,-0.23588,-1.566e-10,-0.98748,0,0,0.25,-2.9606e-16,0,0.66667
0.4267,0.66776,1.7068,0.25163,4.2605,25.984,-1.1453,0.38177,-1.7742,-1.5271,1.5777e-12,-0.88708,0,0,0.25,-0,-0,0.66667
0.34335,0.20883,1.3734,-0.43675,-8.0506,32.579,1.5995,-0.53318,-1.3222,2.1327,-3.9768e-13,-0.66108,0,0,0.25,-0,-0,0.66667
0.79764,0.69944,3.1906,0.29916,2.1749,4.5323,-2.5453,0.84842,-1.6819,-3.3937,2.6009e-10,-0.84097,0,0,0.25,-0,-0,0.66667
0.88,0.89083,3.52,0.58625,2.6885,2.3974,-5.5029,1.8343,-0.77715,-7.3373,-7.6578e-10,-0.38858,0,0,0.25,-0,-0,0.66667
0.90384,0.68531,3.6154,0.27797,0.94573,1.4328,-2.6799,0.8933,-1.7262,-3.5732,-1.9195e-09,-0.86308,0,0,0.25,-2.9606e-16,0,0.66667
0.66272,0.6735,2.6509,0.26025,2.9801,10.607,-1.8397,0.61324,-1.7582,-2.453,2.9728e-12,-0.87912,0,0,0.25,-0,-0,0.66667
0.27021,0.57254,1.0808,0.1088,2.0895,38.533,-0.3136,0.10453,-1.9573,-0.41813,-2.4635e-11,-0.97867,0,0,0.25,-0,-0,0.66667
0.25237,0.90755,1.0095,0.61133,12.091,40.215,-1.6456,0.54855,-0.67226,-2.1942,-1.3107e-11,-0.33613,0,0,0.25,5.9212e-16,0,0.66667
0.8549,0.60397,3.4196,0.15596,0.80844,2.569,-1.4222,0.47406,-1.913,-1.8962,5.7885e-10,-0.95648,0,0,0.25,-0,-0,0.66667
0.52771,0.4464,2.1109,-0.080401,-1.1912,18.72,0.45257,-0.15086,-1.9767,0.60343,-5.3318e-14,-0.98836,0,0,0.25,1.1842e-15,0,0.66667
0.80216,0.39913,3.2086,-0.1513,-1.0661,4.2734,1.2946,-0.43152,-1.9182,1.7261,-6.146e-11,-0.95912,0,0,0.25,-5.9212e-16,0,0.66667
0.57249,0.070747,2.29,-0.64388,-9.1354,16.218,3.9319,-1.3106,-0.52541,5.2425,1.7275e-13,-0.26271,0,0,0.25,1.1842e-15,0,0.66667
0.73314,0.94816,2.9326,0.67224,6.5556,7.6375,-5.257,1.7523,-0.39333,-7.0093,1.807e-12,-0.19667,0,0,0.25,-0,2.6613e-16,0.66667
0.51901,0.096499,2.076,-0.60525,-9.3107,19.64,3.3507,-1.1169,-0.69807,4.4677,-1.0303e-13,-0.34904,0,0,0.25,1.1842e-15,0,0.66667
0.77088,0.68874,3.0835,0.28311,2.3089,5.5456,-2.3279,0.77597,-1.7156,-3.1039,1.457e-10,-0.85781,0,0,0.25,-2.3685e-15,0,0.66667
0.56886,0.32867,2.2754,-0.257,-3.5761,16.092,1.5594,-0.5198,-1.7642,2.0792,1.172e-12,-0.88211,0,0,0.25,1.1842e-15,0,0.66667
0.46571,0.26073,1.8628,-0.3589,-5.8345,23.156,1.7829,-0.59429,-1.5417,2.3772,-8.975e-13,-0.77083,0,0,0.25,-0,-0,0.66667
0.34269,0.83409,1.3708,0.50114,9.2736,32.669,-1.8318,0.61061,-1.1073,-2.4424,9.4991e-13,-0.55364,0,0,0.25,-0,-0,0.66667
0.068209,0.32015,0.27284,-0.26978,-5.5914,56.366,0.19628,-0.065426,-1.7408,0.26171,-3.4918e-09,-0.87038,0,0,0.25,-0,-0,0.66667
0.37792,0.6022,1.5117,0.1533,2.7175,29.716,-0.61796,0.20599,-1.9163,-0.82395,6.3749e-13,-0.95816,0,0,0.25,-0,-0,0.66667
0.079626,0.7934,0.3185,0.44011,9.1611,55.351,-0.3738,0.1246,-1.3112,-0.4984,-2.0337e-09,-0.65562,0,0,0.25,-0,-0,0.66667
0.98282,0.91129,3.9313,0.61694,0.33204,0.78744,-6.4676,2.1559,-0.64733,-8.6234,1.5358e-07,-0.32367,0,0,0.25,-0,1.6021e-16,0.66667
0.18161,0.26992,0.72645,-0.34513,-6.9612,46.238,0.66858,-0.22286,-1.5757,0.89144,4.6505e-10,-0.78785,0,0,0.25,2.9606e-16,0,0.66667
0.81186,0.75257,3.2474,0.37885,2.5905,4.1044,-3.2808,1.0936,-1.491,-4.3744,4.1823e-10,-0.74548,0,0,0.25,-0,-0,0.66667
0.87496,0.75787,3.4998,0.3868,1.7689,2.2198,-3.61,1.2033,-1.4687,-4.8133,1.3773e-09,-0.73437,0,0,0.25,-0,-0,0.66667
0.68841,0.50119,2.7537,0.0017857,0.018997,9.1899,-0.013112,0.0043708,-2.0015,-0.017483,1.8915e-14,-1.0007,0,0,0.25,-4.737e-15,0,0.66667
0.56949,0.1455,2.278,-0.53175,-7.5105,16.272,3.2301,-1.0767,-0.99383,4.3069,6.1418e-13,-0.49692,0,0,0.25,5.9212e-16,0,0.66667
0.16097,0.39547,0.64389,-0.15679,-3.1708,48.033,0.26922,-0.08974,-1.912,0.35896,-1.2633e-11,-0.95598,0,0,0.25,-1.4803e-16,0,0.66667
0.46688,0.13774,1.8675,-0.54339,-8.9149,23.209,2.7061,-0.90204,-0.94995,3.6081,-7.2031e-13,-0.47498,0,0,0.25,1.1842e-15,0,0.66667
0.34517,0.58735,1.3807,0.13102,2.388,32.325,-0.48241,0.1608,-1.9394,-0.64321,-1.746e-12,-0.96971,0,0,0.25,5.9212e-16,0,0.66667
0.22504,0.22191,0.90016,-0.41714,-8.2802,42.471,1.0013,-0.33377,-1.3815,1.3351,1.5518e-10,-0.69073,0,0,0.25,-5.9212e-16,0,0.66667
0.59251,0.67916,2.37,0.26873,3.5837,14.63,-1.6984,0.56615,-1.7435,-2.2646,-1.8374e-12,-0.87176,0,0,0.25,-0,-0,0.66667
0.31227,0.47161,1.2491,-0.042588,-0.79519,35.006,0.14186,-0.047285,-1.9949,0.18914,2.7433e-12,-0.99746,0,0,0.25,1.1842e-15,0,0.66667
0.91631,0.91367,3.6652,0.6205,2.0089,1.6825,-6.0648,2.0216,-0.6306,-8.0863,7.0881e-09,-0.3153,0,0,0.25,-0,-0,0.66667
0.90964,0.17183,3.6385,-0.49225,-1.6487,1.5797,4.7762,-1.5921,-1.1379,6.3683,1.1981e-09,-0.56893,0,0,0.25,-1.1842e-15,0,0.66667
0.25712,0.53442,1.0285,0.051628,0.9986,39.642,-0.14159,0.047198,-1.9906,-0.18879,-1.5273e-11,-0.99531,0,0,0.25,5.9212e-16,0,0.66667
0.11089,0.86258,0.44357,0.54387,11.31,52.562,-0.64332,0.21444,-0.94818,-0.85775,-3.7125e-09,-0.47409,0,0,0.25,-0,-0,0.66667
0.19296,0.99456,0.77185,0.74184,15.227,45.389,-1.5269,0.50897,-0.043117,-2.0359,1.0485e-10,-0.021559,0,0,0.25,-8.8818e-16,0,0.66667
0.49958,0.71834,1.9983,0.32751,5.0884,20.735,-1.7452,0.58175,-1.6204,-2.327,-1.9718e-13,-0.81021,0,0,0.25,6.6613e-16,0,0.66667
0.72859,0.25635,2.9143,-0.36547,-3.4954,7.4285,2.8403,-0.94677,-1.5248,3.7871,-4.2083e-11,-0.76238,0,0,0.25,-2.3685e-15,0,0.66667
0.20819,0.34881,0.83278,-0.22678,-4.5081,43.886,0.50362,-0.16787,-1.8171,0.67149,1.8116e-10,-0.90854,0,0,0.25,-0,-0,0.66667
0.24803,0.42095,0.99213,-0.11857,-2.3065,40.425,0.31371,-0.10457,-1.9497,0.41827,4.6416e-11,-0.97487,0,0,0.25,-0,-0,0.66667
0.85167,0.62289,3.4067,0.18434,0.97905,2.6766,-1.6746,0.5582,-1.8795,-2.2328,-7.7284e-10,-0.93973,0,0,0.25,5.9212e-16,0,0.66667
0.41585,0.92533,1.6634,0.63799,11.154,27.06,-2.8299,0.94331,-0.55194,-3.7732,5.4401e-13,-0.27597,0,0,0.25,5.9212e-16,0,0.66667
0.61669,0.80406,2.4667,0.45609,5.8619,13.336,-3.0001,1,-1.2598,-4.0002,-2.0424e-12,-0.62988,0,0,0.25,-0,-0,0.66667
0.23367,0.01841,0.93466,-0.72239,-14.539,41.872,1.8005,-0.60017,-0.14469,2.4007,-3.4497e-12,-0.072347,0,0,0.25,-0,-0,0.66667
0.10197,0.34928,0.40787,-0.22608,-4.6531,53.316,0.2459,-0.081967,-1.818,0.32787,-3.5839e-09,-0.90899,0,0,0.25,-0,-0,0.66667
0.51586,0.46645,2.0634,-0.05032,-0.7586,19.52,0.27688,-0.092295,-1.9925,0.36918,-1.1616e-13,-0.99623,0,0,0.25,5.9212e-16,0,0.66667
0.47714,0.213,1.9086,-0.43049,-6.9247,22.383,2.191,-0.73033,-1.3408,2.9213,-5.9619e-13,-0.67038,0,0,0.25,2.9606e-16,0,0.66667
0.15267,0.02292,0.61069,-0.71562,-14.873,48.903,1.1654,-0.38846,-0.17891,1.5538,5.1572e-10,-0.089456,0,0,0.25,-0,-0,0.66667
0.62181,0.75101,2.4872,0.37651,4.7624,12.966,-2.4973,0.83242,-1.4969,-3.3297,-1.7952e-12,-0.74845,0,0,0.25,-2.3685e-15,0,0.66667
0.54401,0.69071,2.176,0.28607,4.1541,17.709,-1.66,0.55333,-1.7096,-2.2133,-1.1929e-12,-0.85481,0,0,0.25,-0,-0,0.66667
0.65414,0.1128,2.6165,-0.58081,-6.953,11.383,4.0525,-1.3508,-0.80036,5.4034,1.1511e-12,-0.40018,0,0,0.25,-0,-0,0.66667
0.14455,0.12956,0.57818,-0.55567,-11.46,49.567,0.85674,-0.28558,-0.90235,1.1423,1.4064e-09,-0.45117,0,0,0.25,-0,-0,0.66667
0.75153,0.27947,3.0061,-0.3308,-2.9159,6.3862,2.6518,-0.88393,-1.6121,3.5357,-8.7523e-11,-0.80605,0,0,0.25,1.4803e-16,0,0.66667
0.22205,0.25541,0.8882,-0.36688,-7.2781,42.714,0.86896,-0.28965,-1.5216,1.1586,1.6958e-10,-0.76079,0,0,0.25,-0,-0,0.66667
0.51935,0.46352,2.0774,-0.05472,-0.82074,19.282,0.30314,-0.10105,-1.9895,0.40418,-4.4409e-15,-0.99473,0,0,0.25,-5.9212e-16,0,0.66667
0.7853,0.42123,3.1412,-0.11816,-0.89901,4.8883,0.98976,-0.32992,-1.9497,1.3197,-8.7947e-11,-0.97483,0,0,0.25,-0,-0,0.66667
0.02233,0.58435,0.089322,0.12653,2.6262,60.524,-0.030137,0.010046,-1.9424,-0.040183,1.7537e-07,-0.97119,0,0,0.25,-0,-0,0.66667
0.32436,0.65355,1.2974,0.23033,4.275,34.04,-0.79691,0.26564,-1.8119,-1.0625,-6.753e-12,-0.90594,0,0,0.25,6.6613e-16,0,0.66667
0.87292,0.19874,3.4917,-0.45189,-2.1266,2.3567,4.2077,-1.4026,-1.2738,5.6102,-1.6781e-09,-0.63688,0,0,0.25,-0,-0,0.66667
0.84471,0.51017,3.3788,0.015252,0.084314,2.8316,-0.13743,0.045809,-1.9994,-0.18324,-1.5637e-09,-0.99969,0,0,0.25,-0,-0,0.66667
0.53844,0.56601,2.1538,0.099019,1.4432,18.007,-0.56871,0.18957,-1.9652,-0.75827,-4.3393e-13,-0.98258,0,0,0.25,-1.1842e-15,0,0.66667
0.86661,0.38999,3.4664,-0.16502,-0.78494,2.2487,1.5254,-0.50846,-1.9022,2.0339,7.276e-10,-0.95109,0,0,0.25,-0,-0,0.66667
0.94981,0.8486,3.7992,0.52291,0.935,0.95753,-5.2977,1.7659,-1.028,-7.0636,-7.3085e-09,-0.51402,0,0,0.25,-2.3685e-15,0,0.66667
0.82641,0.60697,3.3056,0.16046,0.99597,3.4442,-1.4144,0.47147,-1.9083,-1.8859,2.0377e-10,-0.95414,0,0,0.25,-0,-0,0.66667
0.85412,0.52038,3.4165,0.030564,0.15857,2.5559,-0.27846,0.09282,-1.996,-0.37128,-2.2659e-10,-0.99799,0,0,0.25,-0,-0,0.66667
0.098743,0.73637,0.39497,0.35456,7.3296,53.619,-0.37345,0.12448,-1.5522,-0.49793,1.0979e-09,-0.7761,0,0,0.25,-1.4803e-16,0,0.66667
0.6513,0.435,2.6052,-0.097499,-1.1417,11.157,0.67735,-0.22578,-1.9666,0.90314,-1.3383e-12,-0.98329,0,0,0.25,1.6283e-15,0,0.66667
0.70352,0.62066,2.8141,0.18099,1.8507,8.4807,-1.3582,0.45274,-1.8846,-1.8109,1.7396e-11,-0.94229,0,0,0.25,-0,-0,0.66667
0.61024,0.35589,2.441,-0.21617,-2.7786,13.538,1.4071,-0.46903,-1.834,1.8761,1.229e-12,-0.91698,0,0,0.25,-0,-0,0.66667
0.79962,0.88475,3.1985,0.57712,4.3026,4.8066,-4.9224,1.6408,-0.81553,-6.5632,8.7352e-11,-0.40776,0,0,0.25,-0,-0,0.66667
0.034571,0.93998,0.13828,0.65997,13.976,59.438,-0.24337,0.081124,-0.45197,-0.3245,-1.4518e-07,-0.22598,0,0,0.25,-0,-0,0.66667
0.77024,0.15509,3.081,-0.51737,-4.331,5.8283,4.2506,-1.4169,-1.049,5.6675,-1.0458e-10,-0.52449,0,0,0.25,-0,-0,0.66667
0.73173,0.61159,2.9269,0.16738,1.5661,7.1489,-1.3064,0.43547,-1.9,-1.7419,3.7645e-11,-0.94999,0,0,0.25,-1.1842e-15,0,0.66667
0.2597,0.55495,1.0388,0.08243,1.5924,39.424,-0.22834,0.076113,-1.9754,-0.30445,-2.6569e-11,-0.98769,0,0,0.25,-0,-0,0.66667
0.25707,0.081222,1.0283,-0.62817,-12.406,39.826,1.7225,-0.57416,-0.59608,2.2966,8.8614e-12,-0.29804,0,0,0.25,-0,-0,0.66667
0.6323,0.95857,2.5292,0.68785,8.7436,12.739,-4.6393,1.5464,-0.31692,-6.1857,-4.4853e-13,-0.15846,0,0,0.25,-0,-0,0.66667
0.3453,0.50138,1.3812,0.0020751,0.037778,32.305,-0.0076429,0.0025476,-2.0012,-0.010191,-1.2023e-13,-1.0006,0,0,0.25,-0,-0,0.66667
0.79659,0.49989,3.1864,-0.00016278,-0.0011739,4.444,0.0013831,-0.00046105,-2.0019,0.0018442,-1.5758e-10,-1.0009,0,0,0.25,1.8966e-15,0,0.66667
0.44615,0.54442,1.7846,0.066626,1.0999,24.486,-0.31706,0.10569,-1.9833,-0.42275,4.6049e-13,-0.99164,0,0,0.25,-0,-0,0.66667
0.78275,0.6879,3.131,0.28185,2.1876,5.0775,-2.3533,0.78443,-1.719,-3.1377,1.6088e-10,-0.85951,0,0,0.25,-0,-0,0.66667
0.99047,0.67713,3.9619,0.2657,-0.028034,0.18602,-2.8071,0.93571,-1.7482,-3.7428,6.7439e-09,-0.87412,0,0,0.25,1.1842e-15,0,0.66667
0.30025,0.3487,1.201,-0.22695,-4.2849,36.03,0.72684,-0.24228,-1.8171,0.96912,1.6599e-11,-0.90854,0,0,0.25,-0,-0,0.66667
0.14301,0.21311,0.57202,-0.43034,-8.8243,49.672,0.65643,-0.21881,-1.3419,0.87524,1.423e-09,-0.67094,0,0,0.25,-2.2204e-16,0,0.66667
0.90131,0.60768,3.6052,0.16153,0.55675,1.4049,-1.5529,0.51764,-1.9064,-2.0706,-6.3296e-09,-0.95321,0,0,0.25,-0,-0,0.66667
0.54156,0.77411,2.1662,0.41117,6.0313,17.954,-2.3752,0.79173,-1.3985,-3.1669,-1.07e-12,-0.69926,0,0,0.25,8.8818e-16,0,0.66667
0.97474,0.61732,3.899,0.17598,0.090268,0.25079,-1.8297,0.60991,-1.8894,-2.4396,9.7167e-09,-0.9447,0,0,0.25,-0,-0,0.66667
0.6366,0.46662,2.5464,-0.050077,-0.60628,11.966,0.34005,-0.11335,-1.9917,0.45339,-3.9607e-14,-0.99583,0,0,0.25,-1.6283e-15,0,0.66667
0.99391,0.27526,3.9757,-0.3371,0.06964,0.23845,3.5739,-1.1913,-1.5957,4.7652,-5.9171e-09,-0.79783,0,0,0.25,5.9212e-16,0,0.66667
0.54607,0.10574,2.1843,-0.59139,-8.7238,17.834,3.4447,-1.1482,-0.7566,4.593,1.5854e-13,-0.3783,0,0,0.25,1.1842e-15,0,0.66667
0.52643,0.39061,2.1057,-0.16408,-2.4392,18.826,0.92134,-0.30711,-1.9035,1.2285,5.1653e-13,-0.95173,0,0,0.25,-1.1842e-15,0,0.66667
0.13543,0.69224,0.54171,0.28837,5.8956,50.322,-0.41656,0.13885,-1.7043,-0.55542,-1.2994e-09,-0.85216,0,0,0.25,2.9606e-16,0,0.66667
0.35571,0.048348,1.4228,-0.67748,-12.551,31.757,2.5705,-0.85683,-0.36746,3.4273,-6.5237e-13,-0.18373,0,0,0.25,-5.9212e-16,-3.8206e-16,0.66667
0.026219,0.56508,0.10487,0.09762,2.0251,60.171,-0.027301,0.0091012,-1.9665,-0.036401,1.2925e-06,-0.98323,0,0,0.25,-0,-0,0.66667
0.1604,0.055937,0.64158,-0.6661,-13.762,48.203,1.1396,-0.37987,-0.42232,1.5195,2.3242e-10,-0.21116,0,0,0.25,1.4803e-16,0,0.66667
0.74564,0.14103,2.9825,-0.53846,-4.9484,6.8787,4.2826,-1.4275,-0.96835,5.7102,-3.1572e-11,-0.48417,0,0,0.25,-1.1842e-15,0,0.66667
0.0304,0.50571,0.1216,0.0085664,0.17758,59.79,-0.0027784,0.00092976,-2.0005,-0.0037026,5.4605e-06,-1.0002,0,0,0.25,-0,-0,0.66667
0.36654,0.95013,1.4662,0.67519,12.394,30.898,-2.6398,0.87995,-0.37817,-3.5198,5.7887e-13,-0.18908,0,0,0.25,-5.9212e-16,0,0.66667
0.86235,0.0080939,3.4494,-0.73786,-4.0215,3.1574,6.7871,-2.2624,-0.064121,9.0495,7.1725e-09,-0.03206,0,0,0.25,4.737e-15,0,0.66667
0.69268,0.3833,2.7707,-0.17505,-1.846,9.0131,1.2933,-0.43111,-1.8906,1.7244,-1.144e-11,-0.94529,0,0,0.25,-0,-0,0.66667
0.69094,0.14015,2.7638,-0.53977,-5.866,9.4203,3.9781,-1.326,-0.96348,5.3042,-2.3945e-12,-0.48174,0,0,0.25,-0,-0,0.66667
0.18864,0.91449,0.75455,0.62174,12.678,45.71,-1.251,0.41701,-0.6259,-1.668,-4.4257e-11,-0.31295,0,0,0.25,5.9212e-16,0,0.66667
0.4419,0.37747,1.7676,-0.18379,-3.0544,24.823,0.86631,-0.28877,-1.8804,1.1551,-1.1176e-12,-0.94018,0,0,0.25,-0,-0,0.66667
0.58158,0.72005,2.3263,0.33007,4.5046,15.34,-2.0476,0.68254,-1.6135,-2.7302,-2.0266e-12,-0.80673,0,0,0.25,-0,-0,0.66667
0.98975,0.53793,3.959,0.056899,-0.0082531,0.072697,-0.6007,0.20023,-1.9882,-0.80094,-3.6754e-06,-0.99408,0,0,0.25,-0,-0,0.66667
0.20391,0.43516,0.81562,-0.097265,-1.9329,44.245,0.21155,-0.070517,-1.9676,0.28207,1.3762e-10,-0.98382,0,0,0.25,1.1102e-16,0,0.66667
0.24773,0.10903,0.99093,-0.58645,-11.61,40.596,1.5497,-0.51656,-0.77682,2.0662,2.4359e-11,-0.38841,0,0,0.25,-0,-0,0.66667
0.26217,0.87064,1.0487,0.55596,10.899,39.354,-1.5548,0.51825,-0.90129,-2.073,-1.8159e-11,-0.45064,0,0,0.25,-1.4803e-16,0,0.66667
0.75017,0.16266,3.0007,-0.50601,-4.5592,6.6396,4.049,-1.3497,-1.0904,5.3987,-4.578e-11,-0.54522,0,0,0.25,-0,-0,0.66667
0.45698,0.75884,1.8279,0.38826,6.3875,23.808,-1.8926,0.63085,-1.4637,-2.5234,9.7033e-13,-0.73183,0,0,0.25,-0,-0,0.66667
0.056929,0.63569,0.22772,0.20353,4.2179,57.384,-0.12359,0.041197,-1.852,-0.16479,4.9363e-08,-0.92599,0,0,0.25,-0,-0,0.66667
0.50852,0.45822,2.0341,-0.062668,-0.9549,20.024,0.33992,-0.11331,-1.9852,0.45323,4.2688e-14,-0.99261,0,0,0.25,-0,-0,0.66667
0.21196,0.051528,0.84784,-0.67271,-13.63,43.709,1.5209,-0.50698,-0.39015,2.0279,3.2518e-11,-0.19508,0,0,0.25,2.9606e-16,0,0.66667
0.7986,0.30729,3.1944,-0.28906,-2.0902,4.4887,2.4624,-0.82078,-1.7035,3.2831,-2.8107e-10,-0.85173,0,0,0.25,1.7764e-15,0,0.66667
0.29733,0.52923,1.1893,0.043851,0.82729,36.247,-0.13907,0.046358,-1.9946,-0.18543,-4.8791e-12,-0.99731,0,0,0.25,-2.9606e-16,0,0.66667
0.027606,0.46876,0.11042,-0.046866,-0.97181,60.044,0.0138,-0.0045978,-1.9933,0.018401,3.43e-06,-0.99663,0,0,0.25,-0,-0,0.66667
0.59343,0.62718,2.3737,0.19077,2.5324,14.536,-1.2076,0.40252,-1.8721,-1.6101,-1.5277e-12,-0.93603,0,0,0.25,-0,-0,0.66667
0.84384,0.30896,3.3754,-0.28656,-1.6175,2.9807,2.5793,-0.85977,-1.7093,3.4391,-2.153e-10,-0.85466,0,0,0.25,-5.9212e-16,0,0.66667
0.38102,0.89776,1.5241,0.59664,10.753,29.698,-2.4248,0.80828,-0.73372,-3.2331,1.2526e-12,-0.36686,0,0,0.25,2.9606e-16,0,0.66667
0.74986,0.95443,2.9994,0.68164,6.2959,6.931,-5.4521,1.8174,-0.34823,-7.2695,2.4607e-12,-0.17412,0,0,0.25,1.1842e-15,0,0.66667
0.51114,0.4202,2.0446,-0.11969,-1.8183,19.853,0.65259,-0.21753,-1.9483,0.87011,8.9539e-14,-0.97416,0,0,0.25,-0,-0,0.66667
0.54095,0.70737,2.1638,0.31106,4.5438,17.925,-1.7949,0.59829,-1.6552,-2.3931,-1.0686e-12,-0.82759,0,0,0.25,-5.9212e-16,0,0.66667
0.95943,0.57324,3.8377,0.10986,0.12357,0.38898,-1.1243,0.37476,-1.9563,-1.499,3.5551e-07,-0.97815,0,0,0.25,-0,-0,0.66667
0.80396,0.57202,3.2158,0.10803,0.7533,4.1927,-0.9264,0.3088,-1.9578,-1.2352,1.635e-10,-0.97889,0,0,0.25,-0,-0,0.66667
0.032323,0.24778,0.12929,-0.37832,-7.898,59.623,0.13044,-0.04348,-1.4923,0.17392,-1.8044e-09,-0.74616,0,0,0.25,-0,-0,0.66667
0.70939,0.71073,2.8375,0.3161,3.1983,8.2816,-2.3919,0.79729,-1.6442,-3.1892,2.3807e-11,-0.82209,0,0,0.25,1.1842e-15,0,0.66667
0.465,0.32335,1.86,-0.26497,-4.2952,23.158,1.3143,-0.43809,-1.7499,1.7523,-7.8637e-13,-0.87494,0,0,0.25,-0,-0,0.66667
0.94755,0.90312,3.7902,0.60468,1.1943,1.1438,-6.1116,2.0372,-0.70016,-8.1488,-1.6708e-07,-0.35008,0,0,0.25,2.8053e-16,0,0.66667
0.22143,0.92424,0.88573,0.63635,12.806,42.873,-1.503,0.50101,-0.55978,-2.004,-3.0917e-11,-0.27989,0,0,0.25,-0,-0,0.66667
0.26707,0.027346,1.0683,-0.70898,-14.002,39.033,2.0197,-0.67324,-0.21361,2.693,1.3185e-12,-0.1068,0,0,0.25,2.9606e-16,0,0.66667
0.081474,0.59929,0.3259,0.14893,3.0726,55.16,-0.12943,0.043143,-1.9213,-0.17257,-3.4663e-09,-0.96064,0,0,0.25,-0,-0,0.66667
0.42862,0.26328,1.7145,-0.35508,-6.0227,25.887,1.6234,-0.54114,-1.5508,2.1645,-1.6998e-12,-0.77538,0,0,0.25,-0,-0,0.66667
0.10902,0.46135,0.43608,-0.057968,-1.1883,52.672,0.067409,-0.02247,-1.9887,0.089879,-1.3492e-08,-0.99435,0,0,0.25,1.4803e-16,0,0.66667
0.63379,0.33156,2.5351,-0.25267,-3.0944,12.194,1.7081,-0.56938,-1.7721,2.2775,4.7051e-13,-0.88605,0,0,0.25,5.9212e-16,0,0.66667
0.80296,0.89313,3.2119,0.58969,4.3377,4.7083,-5.0507,1.6836,-0.76272,-6.7342,1.6346e-10,-0.38136,0,0,0.25,-1.1842e-15,0,0.66667
0.6968,0.209,2.7872,-0.4365,-4.6224,9.006,3.2443,-1.0814,-1.3218,4.3258,-9.6447e-12,-0.66092,0,0,0.25,5.9212e-16,0,0.66667
0.76621,0.18089,3.0648,-0.47867,-4.0511,5.9375,3.9121,-1.304,-1.186,5.2161,-8.7408e-11,-0.59301,0,0,0.25,-0,-0,0.66667
0.34245,0.071596,1.3698,-0.64261,-12.002,32.786,2.3473,-0.78245,-0.53196,3.1298,-1.1371e-12,-0.26598,0,0,0.25,5.9212e-16,0,0.66667
0.84585,0.9988,3.3834,0.74821,4.5396,3.6388,-6.7506,2.2502,-0.010701,-9.0008,3.5925e-09,-0.0053506,0,0,0.25,1.3323e-15,0,0.66667
0.42877,0.20554,1.7151,-0.44169,-7.5221,25.928,2.0201,-0.67336,-1.3054,2.6935,-1.565e-12,-0.6527,0,0,0.25,-0,-0,0.66667
0.82401,0.509,3.296,0.013498,0.084561,3.4855,-0.11864,0.039547,-1.9989,-0.15819,-2.0356e-11,-0.99947,0,0,0.25,-0,-0,0.66667
0.6265,0.23424,2.506,-0.39864,-4.9996,12.716,2.664,-0.88799,-1.4348,3.552,1.8869e-12,-0.71741,0,0,0.25,-0,-0,0.66667
0.14342,0.33686,0.57369,-0.2447,-4.9854,49.603,0.37436,-0.12479,-1.7872,0.49915,3.0634e-10,-0.89358,0,0,0.25,-1.4803e-16,0,0.66667
0.078387,0.42365,0.31355,-0.11453,-2.3631,55.438,0.095762,-0.031921,-1.9536,0.12768,3.128e-09,-0.9768,0,0,0.25,-0,-0,0.66667
0.018333,0.35307,0.073331,-0.2204,-4.5828,60.889,0.043099,-0.014366,-1.8271,0.057465,-4.0792e-08,-0.91356,0,0,0.25,-0,-0,0.66667
0.066725,0.97154,0.2669,0.70731,14.976,56.551,-0.50341,0.1678,-0.22164,-0.67122,2.7251e-08,-0.11082,0,0,0.25,-0,-0,0.66667
0.45858,0.0013703,1.8343,-0.74794,-12.598,24.024,3.6586,-1.2195,-0.011484,4.8782,-5.8398e-13,-0.0057422,0,0,0.25,2.3685e-15,0,0.66667
0.11334,0.96778,0.45337,0.70167,14.726,52.382,-0.84831,0.28277,-0.25025,-1.1311,-4.1238e-09,-0.12512,0,0,0.25,2.1279e-16,0,0.66667
0.027783,0.34728,0.11113,-0.22908,-4.7621,60.03,0.067889,-0.02263,-1.8138,0.090518,3.2049e-08,-0.90692,0,0,0.25,-0,-0,0.66667
0.75486,0.18688,3.0194,-0.46968,-4.1438,6.3941,3.7818,-1.2606,-1.2164,5.0424,-7.4974e-11,-0.60821,0,0,0.25,1.2212e-15,0,0.66667
0.39485,0.25428,1.5794,-0.36858,-6.474,28.471,1.5524,-0.51745,-1.5171,2.0698,-2.1145e-12,-0.75857,0,0,0.25,-0,-0,0.66667
0.74694,0.36221,2.9878,-0.20668,-1.8378,6.4945,1.6467,-0.5489,-1.8477,2.1956,-6.446e-11,-0.92383,0,0,0.25,-0,-0,0.66667
0.4524,0.14295,1.8096,-0.53558,-8.9341,24.251,2.5845,-0.86151,-0.98021,3.446,-8.1912e-13,-0.4901,0,0,0.25,-0,-0,0.66667
0.45009,0.72696,1.8003,0.34044,5.6338,24.284,-1.6344,0.54481,-1.5878,-2.1793,1.0474e-12,-0.79389,0,0,0.25,-0,-0,0.66667
0.47807,0.38599,1.9123,-0.17101,-2.7198,22.184,0.87204,-0.29068,-1.8952,1.1627,-4.5319e-13,-0.94761,0,0,0.25,-0,-0,0.66667
0.474,0.36327,1.896,-0.2051,-3.2817,22.486,1.037,-0.34567,-1.8497,1.3827,-6.0818e-13,-0.92484,0,0,0.25,-0,-0,0.66667
0.80316,0.22394,3.2127,-0.4141,-2.9676,4.4495,3.5476,-1.1825,-1.3901,4.7301,-3.6686e-10,-0.69506,0,0,0.25,-2.3685e-15,0,0.66667
0.40239,0.26003,1.6096,-0.35996,-6.2741,27.884,1.545,-0.515,-1.5389,2.06,-2.0419e-12,-0.76943,0,0,0.25,-0,-0,0.66667
0.90469,0.54607,3.6187,0.069107,0.22768,1.2984,-0.66688,0.22229,-1.9829,-0.88918,-4.6058e-09,-0.99143,0,0,0.25,1.1842e-15,0,0.66667
0.037061,0.36103,0.14824,-0.20845,-4.3286,59.187,0.082404,-0.027468,-1.8446,0.10987,5.2845e-08,-0.9223,0,0,0.25,-7.4015e-17,0,0.66667
0.77387,0.022193,3.0955,-0.71671,-6.0967,6.0225,5.9162,-1.9721,-0.17291,7.8883,-3.3173e-13,-0.086453,0,0,0.25,-0,-0,0.66667
0.12564,0.30208,0.50257,-0.29688,-6.0873,51.198,0.39786,-0.13262,-1.6869,0.53049,1.7748e-10,-0.84346,0,0,0.25,-1.4803e-16,0,0.66667
0.61851,0.73591,2.4741,0.35386,4.5006,13.139,-2.3346,0.7782,-1.5538,-3.1128,-1.8507e-12,-0.77692,0,0,0.25,-7.3247e-16,0,0.66667
0.010364,0.67108,0.041457,0.25662,5.3417,61.614,-0.02837,0.0094565,-1.765,-0.037826,-2.3084e-08,-0.8825,0,0,0.25,-0,-0,0.66667
0.53863,0.61673,2.1545,0.1751,2.5551,18.015,-1.006,0.33533,-1.8904,-1.3413,-8.9972e-13,-0.94518,0,0,0.25,5.9212e-16,0,0.66667
0.003018,0.17081,0.012072,-0.49378,-10.371,62.282,0.015896,-0.0052985,-1.1326,0.021194,1.2281e-07,-0.56629,0,0,0.25,-0,5.8938e-16,0.66667
0.95119,0.70633,3.8048,0.30949,0.47896,0.6385,-3.1401,1.0467,-1.6592,-4.1868,-6.382e-09,-0.82962,0,0,0.25,-0,-0,0.66667
0.9054,0.10992,3.6216,-0.58512,-2.1164,1.8267,5.6509,-1.8836,-0.78273,7.5345,-1.0785e-08,-0.39137,0,0,0.25,-1.1842e-15,2.957e-16,0.66667
0.79597,0.86274,3.1839,0.54411,4.1031,4.8859,-4.6197,1.5399,-0.94745,-6.1595,1.6564e-10,-0.47373,0,0,0.25,1.1842e-15,-3.2791e-16,0.66667
0.91527,0.80119,3.6611,0.45178,1.3961,1.4075,-4.4107,1.4702,-1.2735,-5.8809,6.8675e-09,-0.63673,0,0,0.25,-0,-0,0.66667
0.14556,0.38076,0.58223,-0.17885,-3.6363,49.406,0.27769,-0.092565,-1.8861,0.37026,1.2166e-10,-0.94306,0,0,0.25,-0,-0,0.66667
0.15773,0.45044,0.63092,-0.074336,-1.5034,48.315,0.12507,-0.041689,-1.9803,0.16676,-2.3193e-10,-0.99013,0,0,0.25,2.9606e-16,0,0.66667
0.18763,0.90376,0.75053,0.60564,12.343,45.791,-1.2121,0.40404,-0.69729,-1.6162,-4.6315e-12,-0.34865,0,0,0.25,-3.3307e-16,0,0.66667
0.6225,0.46076,2.49,-0.058862,-0.735,12.774,0.39084,-0.13028,-1.9877,0.52112,-9.6451e-14,-0.99384,0,0,0.25,-0,-0,0.66667
0.90581,0.9188,3.6232,0.62819,2.2963,1.9025,-6.0696,2.0232,-0.5971,-8.0928,-8.6203e-09,-0.29855,0,0,0.25,-0,-0,0.66667
0.98996,0.98044,3.9598,0.72066,0.27506,0.97952,-7.6099,2.5366,-0.15262,-10.146,8.723e-07,-0.076309,0,0,0.25,-0,-0,0.66667
0.71112,0.40281,2.8445,-0.14579,-1.4555,8.0992,1.1058,-0.36861,-1.9245,1.4744,-1.8631e-11,-0.96223,0,0,0.25,1.4803e-15,0,0.66667
0.7318,0.74508,2.9272,0.36762,3.4797,7.285,-2.8696,0.95654,-1.5199,-3.8261,4.651e-11,-0.75993,0,0,0.25,2.9606e-16,0,0.66667
0.90929,0.85251,3.6372,0.52876,1.7985,1.6468,-5.1286,1.7095,-1.0057,-6.8381,-9.3675e-10,-0.50285,0,0,0.25,-0,-0,0.66667
0.40087,0.68436,1.6035,0.27654,4.8121,27.963,-1.1825,0.39417,-1.7283,-1.5767,1.7483e-12,-0.86415,0,0,0.25,-0,-0,0.66667
0.24985,0.15918,0.9994,-0.51123,-10.066,40.379,1.3625,-0.45416,-1.0721,1.8166,4.2537e-11,-0.53605,0,0,0.25,-0,-2.4315e-16,0.66667
0.17343,0.79035,0.69372,0.43553,8.8435,46.98,-0.8057,0.26857,-1.3257,-1.0743,-6.6041e-10,-0.66284,0,0,0.25,-0,-0,0.66667
0.11946,0.97041,0.47783,0.70561,14.791,51.839,-0.8991,0.2997,-0.23019,-1.1988,1.0703e-08,-0.1151,0,0,0.25,-2.9606e-16,0,0.66667
0.81261,0.84334,3.2504,0.51501,3.5731,4.2543,-4.464,1.488,-1.0588,-5.952,1.5401e-10,-0.52941,0,0,0.25,5.181e-16,0,0.66667
0.14679,0.13326,0.58717,-0.55011,-11.334,49.366,0.86135,-0.28712,-0.92346,1.1485,2.0551e-09,-0.46173,0,0,0.25,-0,-0,0.66667
0.2643,0.72521,1.0572,0.33782,6.5462,39.083,-0.95236,0.31745,-1.5947,-1.2698,-5.4497e-11,-0.79736,0,0,0.25,-5.9212e-16,0,0.66667
0.81909,0.31561,3.2764,-0.27658,-1.8024,3.761,2.4165,-0.8055,-1.7281,3.222,-2.6274e-10,-0.86406,0,0,0.25,2.3685e-15,0,0.66667
0.31059,0.5345,1.2423,0.051749,0.96743,35.146,-0.17144,0.057146,-1.9913,-0.22859,-3.9683e-12,-0.99564,0,0,0.25,-0,-0,0.66667
0.98242,0.3513,3.9297,-0.22306,-0.047261,0.21276,2.3374,-0.77915,-1.8233,3.1166,2.761e-08,-0.91164,0,0,0.25,-2.3685e-15,0,0.66667
0.26664,0.95957,1.0666,0.68936,13.598,39.056,-1.9606,0.65355,-0.31061,-2.6142,-1.5943e-12,-0.15531,0,0,0.25,2.9606e-16,0,0.66667
0.53365,0.017028,2.1346,-0.72446,-11.025,18.814,4.1238,-1.3746,-0.13354,5.4984,1.6875e-14,-0.066771,0,0,0.25,-0,-0,0.66667
0.31447,0.73063,1.2579,0.34595,6.4916,34.891,-1.1604,0.38681,-1.5743,-1.5472,-8.9454e-12,-0.78714,0,0,0.25,-0,-0,0.66667
0.91077,0.55158,3.6431,0.07737,0.23676,1.1745,-0.75164,0.25055,-1.9781,-1.0022,-1.2824e-08,-0.98905,0,0,0.25,1.1842e-15,0,0.66667
0.36656,0.39116,1.4662,-0.16327,-2.9243,30.617,0.63836,-0.21279,-1.9042,0.85115,-9.4258e-14,-0.95211,0,0,0.25,-4.3409e-16,0,0.66667
0.43359,0.8565,1.7344,0.53476,9.11,25.638,-2.4732,0.82441,-0.98262,-3.2977,8.1135e-13,-0.49131,0,0,0.25,-0,-0,0.66667
0.51229,0.034253,2.0492,-0.69862,-10.939,20.206,3.8176,-1.2725,-0.26518,5.0901,-6.0174e-14,-0.13259,0,0,0.25,-0,1.0561e-16,0.66667
0.93889,0.72753,3.7555,0.34129,0.70486,0.85294,-3.4179,1.1393,-1.5861,-4.5572,-3.1545e-09,-0.79303,0,0,0.25,2.3685e-15,0,0.66667
0.030949,0.36445,0.1238,-0.20332,-4.2235,59.742,0.067121,-0.022374,-1.8534,0.089494,-1.2646e-08,-0.9267,0,0,0.25,-0,-0,0.66667
0.71688,0.31476,2.8675,-0.27786,-2.7415,7.8973,2.1247,-0.70823,-1.7265,2.8329,-3.1087e-11,-0.86325,0,0,0.25,-2.3685e-15,0,0.66667
0.89102,0.85273,3.5641,0.52909,2.1711,2.0377,-5.0286,1.6762,-1.0052,-6.7047,8.7595e-09,-0.50258,0,0,0.25,-0,-0,0.66667
0.027287,0.27446,0.10915,-0.33831,-7.0546,60.079,0.098468,-0.032823,-1.5929,0.13129,1.9133e-09,-0.79646,0,0,0.25,-0,-0,0.66667
0.52205,0.92251,2.0882,0.63376,9.7298,19.469,-3.5291,1.1764,-0.57093,-4.7055,-4.4142e-13,-0.28547,0,0,0.25,1.1842e-15,0,0.66667
0.32599,0.33953,1.304,-0.2407,-4.4633,33.909,0.83697,-0.27899,-1.7946,1.116,5.8486e-12,-0.8973,0,0,0.25,-7.4015e-16,0,0.66667
0.85949,0.25559,3.438,-0.36662,-1.8807,2.6074,3.3611,-1.1204,-1.5231,4.4815,-8.2659e-10,-0.76154,0,0,0.25,-0,-0,0.66667
0.55852,0.69003,2.2341,0.28504,4.0418,16.767,-1.6982,0.56605,-1.7116,-2.2642,-1.3536e-12,-0.85581,0,0,0.25,-0,-0,0.66667
0.69023,0.86982,2.7609,0.55472,6.0496,9.4759,-4.0841,1.3614,-0.9062,-5.4455,1.8776e-12,-0.4531,0,0,0.25,-5.9212e-16,0,0.66667
0.45285,0.65775,1.8114,0.23663,3.8885,24.033,-1.143,0.38101,-1.8025,-1.524,7.4207e-13,-0.90126,0,0,0.25,1.1842e-15,0,0.66667
0.62831,0.027557,2.5132,-0.70866,-9.1056,12.996,4.7494,-1.5831,-0.2148,6.3326,-1.2124e-13,-0.1074,0,0,0.25,1.1842e-15,0,0.66667
0.2901,0.20927,1.1604,-0.4361,-8.3521,36.949,1.3494,-0.44981,-1.3231,1.7993,1.6507e-11,-0.66154,0,0,0.25,2.9606e-16,0,0.66667
0.0093486,0.28707,0.037394,-0.31939,-6.6605,61.707,0.031849,-0.010616,-1.637,0.042465,7.6167e-09,-0.81851,0,0,0.25,-0,-0,0.66667
0.57676,0.2741,2.307,-0.33885,-4.6668,15.646,2.0846,-0.69487,-1.5921,2.7795,1.6376e-12,-0.79607,0,0,0.25,-0,-0,0.66667
0.31144,0.92233,1.2458,0.6335,12.098,35.296,-2.1045,0.70151,-0.57304,-2.8061,2.0806e-13,-0.28652,0,0,0.25,-5.9212e-16,2.958e-16,0.66667
0.51727,0.83517,2.0691,0.50275,7.6941,19.653,-2.7739,0.92464,-1.1015,-3.6986,-5.4579e-13,-0.55073,0,0,0.25,5.9212e-16,0,0.66667
0.91641,0.69139,3.6656,0.28708,0.8382,1.1877,-2.8062,0.93541,-1.707,-3.7416,-5.2444e-09,-0.85352,0,0,0.25,2.3685e-15,0,0.66667
0.42647,0.36825,1.7059,-0.19762,-3.3418,25.982,0.89899,-0.29966,-1.8609,1.1987,-1.1546e-12,-0.93046,0,0,0.25,-2.9606e-16,0,0.66667
0.2474,0.070582,0.98958,-0.64413,-12.802,40.656,1.6998,-0.56659,-0.52477,2.2664,1.2442e-11,-0.26239,0,0,0.25,5.9212e-16,-2.4685e-16,0.66667
0.37129,0.12777,1.4852,-0.55835,-10.124,30.43,2.2113,-0.73711,-0.89206,2.9484,-1.6083e-12,-0.44603,0,0,0.25,-0,-0,0.66667
0.93186,0.72999,3.7274,0.34499,0.81014,0.97049,-3.4291,1.143,-1.5761,-4.5722,-5.966e-09,-0.78803,0,0,0.25,-0,-0,0.66667
0.93687,0.75732,3.7475,0.38599,0.84135,0.93883,-3.8573,1.2858,-1.4709,-5.143,-3.5488e-09,-0.73543,0,0,0.25,-0,-0,0.66667
0.84433,0.12589,3.3773,-0.56116,-3.293,3.3154,5.0539,-1.6846,-0.88198,6.7386,-2.373e-09,-0.44099,0,0,0.25,-0,-0,0.66667
0.92021,0.14392,3.6808,-0.53411,-1.5923,1.4477,5.2426,-1.7475,-0.98556,6.9901,-1.6853e-08,-0.49278,0,0,0.25,-0,-4.6058e-17,0.66667
0.2279,0.25044,0.9116,-0.37434,-7.4072,42.21,0.91,-0.30333,-1.5024,1.2133,1.4347e-10,-0.7512,0,0,0.25,-0,-0,0.66667
0.087482,0.79664,0.34993,0.44496,9.2516,54.645,-0.41521,0.1384,-1.2951,-0.55361,-4.9095e-09,-0.64754,0,0,0.25,-0,-0,0.66667
0.22731,0.21676,0.90924,-0.42486,-8.427,42.277,1.0301,-0.34338,-1.3585,1.3735,1.4522e-10,-0.67926,0,0,0.25,-3.3307e-16,0,0.66667
0.31438,0.036855,1.2575,-0.69472,-13.298,35.101,2.3296,-0.77654,-0.28442,3.1062,-1.2612e-13,-0.14221,0,0,0.25,-0,-0,0.66667
0.17477,0.82128,0.69906,0.48193,9.802,46.876,-0.89839,0.29946,-1.174,-1.1979,-4.7614e-10,-0.58702,0,0,0.25,-0,-0,0.66667
0.60709,0.98884,2.4284,0.73326,9.8587,14.255,-4.7484,1.5828,-0.088056,-6.3312,-2.2649e-14,-0.044028,0,0,0.25,-0,2.7186e-16,0.66667
0.41359,0.46434,1.6543,-0.053489,-0.91486,26.934,0.23597,-0.078657,-1.9897,0.31463,1.3656e-13,-0.99485,0,0,0.25,-8.8818e-16,0,0.66667
0.81635,0.66144,3.2654,0.24216,1.5967,3.8276,-2.1087,0.7029,-1.7916,-2.8116,4.2418e-10,-0.89579,0,0,0.25,-0,-0,0.66667
0.18513,0.28239,0.74052,-0.32641,-6.5705,45.924,0.64458,-0.21486,-1.6223,0.85944,4.1287e-10,-0.81113,0,0,0.25,-0,-0,0.66667
0.70188,0.46054,2.8075,-0.059197,-0.60642,8.5243,0.44319,-0.14773,-1.9878,0.59092,-6.2431e-12,-0.99392,0,0,0.25,-5.9212e-16,0,0.66667
0.24036,0.46871,0.96142,-0.046935,-0.91616,41.079,0.12033,-0.040111,-1.9929,0.16044,2.6536e-11,-0.99647,0,0,0.25,-3.03e-16,0,0.66667
0.57422,0.32472,2.2969,-0.26292,-3.625,15.758,1.6104,-0.53679,-1.7536,2.1472,1.5263e-12,-0.87681,0,0,0.25,-1.1842e-15,0,0.66667
0.34899,0.81063,1.396,0.46594,8.5625,32.141,-1.7345,0.57816,-1.2286,-2.3126,8.8773e-13,-0.61428,0,0,0.25,8.1416e-16,0,0.66667
0.056964,0.93735,0.22786,0.65602,13.86,57.421,-0.39861,0.13287,-0.47062,-0.53148,-7.3119e-07,-0.23531,0,0,0.25,-3.5851e-17,0,0.66667
0.22881,0.50881,0.91525,0.013219,0.25953,42.074,-0.032264,0.010755,-1.9988,-0.043019,-3.4318e-11,-0.9994,0,0,0.25,-0,-0,0.66667
0.6641,0.47164,2.6564,-0.042542,-0.48256,10.455,0.30136,-0.10045,-1.9937,0.40181,-1.1648e-12,-0.99685,0,0,0.25,-0,-0,0.66667
0.49725,0.51585,1.989,0.023772,0.36788,20.804,-0.12608,0.042028,-1.9975,-0.16811,-7.5995e-14,-0.99877,0,0,0.25,-0,-0,0.66667
0.51902,0.75746,2.0761,0.3862,5.8539,19.44,-2.138,0.71268,-1.4696,-2.8507,-4.7251e-13,-0.73479,0,0,0.25,-0,-0,0.66667
0.17472,0.54071,0.69888,0.06106,1.2275,46.809,-0.1138,0.037932,-1.9865,-0.15173,-4.7856e-11,-0.99327,0,0,0.25,-2.9606e-16,0,0.66667
0.57072,0.46964,2.2829,-0.045534,-0.62853,15.91,0.27719,-0.092398,-1.9931,0.36959,1.541e-13,-0.99657,0,0,0.25,-0,-0,0.66667
0.99675,0.161,3.987,-0.50851,0.089942,0.4775,5.4064,-1.8021,-1.0809,7.2086,-1.3803e-07,-0.54044,0,0,0.25,-0,-0,0.66667
0.81684,0.28888,3.2673,-0.31667,-2.0964,3.8716,2.7591,-0.91971,-1.6431,3.6789,-3.8533e-10,-0.82157,0,0,0.25,-0,-0,0.66667
0.59437,0.87103,2.3775,0.55654,7.5325,14.768,-3.5285,1.1762,-0.89976,-4.7046,-1.4517e-12,-0.44988,0,0,0.25,1.4803e-15,0,0.66667
0.97599,0.78684,3.904,0.43026,0.2671,0.50606,-4.4792,1.4931,-1.3415,-5.9723,-5.648e-09,-0.67075,0,0,0.25,-2.3685e-15,0,0.66667
0.90156,0.92953,3.6063,0.64429,2.4744,2.0229,-6.1959,2.0653,-0.52367,-8.2612,-5.9357e-09,-0.26184,0,0,0.25,5.9212e-16,0,0.66667
0.59561,0.018087,2.3824,-0.72287,-9.9206,14.919,4.5925,-1.5308,-0.14188,6.1233,4.8406e-14,-0.070938,0,0,0.25,-0,-0,0.66667
0.032426,0.49057,0.12971,-0.014143,-0.29316,59.606,0.0048929,-0.0016323,-1.9995,0.0065231,-2.0592e-06,-0.99975,0,0,0.25,3.7007e-17,0,0.66667
0.093577,0.53087,0.37431,0.046298,0.95213,54.064,-0.046212,0.015404,-1.9942,-0.061617,-6.824e-08,-0.99712,0,0,0.25,-0,-0,0.66667
0.065372,0.033657,0.26149,-0.69951,-14.806,56.672,0.48777,-0.16259,-0.26094,0.65036,-1.7974e-07,-0.13047,0,0,0.25,-0,-0,0.66667
0.45173,0.72381,1.8069,0.33571,5.5437,24.16,-1.6176,0.5392,-1.5999,-2.1568,9.9509e-13,-0.79997,0,0,0.25,-0,-0,0.66667
0.37543,0.69553,1.5017,0.29329,5.23,29.954,-1.1745,0.3915,-1.6947,-1.566,1.5526e-12,-0.84736,0,0,0.25,-0,-0,0.66667
0.97535,0.64852,3.9014,0.22279,0.11294,0.27717,-2.3178,0.7726,-1.823,-3.0904,-2.789e-09,-0.9115,0,0,0.25,-0,-0,0.66667
0.16798,0.89582,0.67193,0.59373,12.179,47.509,-1.0639,0.35462,-0.74614,-1.4185,-7.4985e-10,-0.37307,0,0,0.25,1.4803e-16,0,0.66667
0.97279,0.56419,3.8912,0.09629,0.055031,0.23285,-0.99914,0.33305,-1.9677,-1.3322,-1.332e-06,-0.98385,0,0,0.25,-2.3685e-15,0,0.66667
0.76747,0.86915,3.0699,0.55372,4.7079,5.9922,-4.533,1.511,-0.91027,-6.044,4.976e-11,-0.45513,0,0,0.25,-0,-0,0.66667
0.82424,0.22624,3.297,-0.41063,-2.6411,3.7248,3.6102,-1.2034,-1.4003,4.8136,-5.1195e-10,-0.70013,0,0,0.25,-2.3685e-15,0,0.66667
0.63262,0.8604,2.5305,0.54059,6.7658,12.518,-3.6479,1.216,-0.95992,-4.8638,-1.4753e-12,-0.47996,0,0,0.25,-1.9334e-15,0,0.66667
0.66873,0.36484,2.6749,-0.20274,-2.2813,10.256,1.4462,-0.48207,-1.8535,1.9283,-4.5304e-12,-0.92676,0,0,0.25,5.9212e-16,0,0.66667
0.47688,0.74241,1.9075,0.36361,5.8307,22.356,-1.8496,0.61653,-1.5294,-2.4661,3.1264e-13,-0.76468,0,0,0.25,-5.9212e-16,0,0.66667
0.013136,0.46859,0.052545,-0.047109,-0.97745,61.36,0.0066,-0.0022051,-1.9934,0.0087975,-7.6333e-06,-0.99669,0,0,0.25,5.4933e-18,0,0.66667
0.35301,0.94008,1.412,0.66012,12.241,31.957,-2.4856,0.82854,-0.45085,-3.3142,9.4147e-13,-0.22543,0,0,0.25,-1.1842e-15,0,0.66667
0.49207,0.4744,1.9683,-0.038396,-0.59845,21.167,0.20153,-0.067177,-1.9945,0.26871,-1.1814e-13,-0.99723,0,0,0.25,-0,-0,0.66667
0.73009,0.85606,2.9204,0.53409,5.167,7.557,-4.1593,1.3864,-0.98511,-5.5457,1.8834e-11,-0.49256,0,0,0.25,-0,-0,0.66667
0.46863,0.0050218,1.8745,-0.74247,-12.352,23.297,3.7114,-1.2371,-0.041018,4.9485,2.0206e-14,-0.020509,0,0,0.25,-0,-1.5972e-16,0.66667
0.4574,0.88319,1.8296,0.57479,9.5583,23.922,-2.8044,0.93479,-0.82496,-3.7392,4.1767e-13,-0.41248,0,0,0.25,-0,-0,0.66667
0.13766,0.26484,0.55065,-0.35274,-7.2224,50.133,0.51797,-0.17266,-1.5571,0.69063,6.0268e-10,-0.77854,0,0,0.25,-0,-0,0.66667
0.010889,0.68672,0.043555,0.28008,5.8338,61.566,-0.032531,0.010844,-1.7218,-0.043374,1.7846e-08,-0.86091,0,0,0.25,1.8504e-17,0,0.66667
0.75828,0.83746,3.0331,0.50619,4.4288,6.2994,-4.0942,1.3647,-1.0886,-5.4589,5.8942e-11,-0.5443,0,0,0.25,5.9212e-16,0,0.66667
0.31995,0.86043,1.2798,0.54065,10.202,34.538,-1.8451,0.61505,-0.95971,-2.4602,-5.7876e-13,-0.47985,0,0,0.25,-0,-0,0.66667
0.98438,0.31945,3.9375,-0.27082,-0.041666,0.23755,2.8437,-0.94789,-1.74,3.7916,-1.3352e-08,-0.87002,0,0,0.25,-0,-0,0.66667
0.22023,0.4353,0.88094,-0.097057,-1.9144,42.822,0.228,-0.076001,-1.9676,0.304,4.904e-11,-0.98381,0,0,0.25,-0,-0,0.66667
0.33871,0.50907,1.3548,0.013607,0.24905,32.839,-0.049162,0.016387,-1.9988,-0.06555,-1.7483e-13,-0.9994,0,0,0.25,-1.1842e-15,0,0.66667
0.5239,0.61367,2.0956,0.17051,2.5449,18.998,-0.95286,0.31762,-1.8958,-1.2705,-5.8969e-13,-0.94788,0,0,0.25,5.9212e-16,0,0.66667
0.75489,0.0091619,3.0196,-0.73626,-6.7405,6.8242,5.9285,-1.9762,-0.072094,7.9046,-1.1446e-11,-0.036047,0,0,0.25,-0,-0,0.66667
0.46386,0.37444,1.8554,-0.18835,-3.0506,23.213,0.93191,-0.31064,-1.8746,1.2425,-4.3993e-13,-0.93732,0,0,0.25,-7.4015e-16,0,0.66667
0.12482,0.28014,0.49929,-0.32978,-6.7706,51.276,0.43909,-0.14636,-1.615,0.58545,9.17e-10,-0.80751,0,0,0.25,2.2204e-16,0,0.66667
0.3125,0.29996,1.25,-0.30006,-5.6291,35.036,1.0002,-0.3334,-1.6802,1.3336,1.0221e-11,-0.84012,0,0,0.25,-0,-0,0.66667
0.50452,0.52287,2.0181,0.034305,0.52559,20.298,-0.18461,0.061537,-1.9954,-0.24615,-2.8172e-15,-0.99771,0,0,0.25,-0,-0,0.66667
0.67385,0.31868,2.6954,-0.27198,-3.0298,10.027,1.9549,-0.65164,-1.7373,2.6066,-5.8653e-12,-0.86867,0,0,0.25,-0,-0,0.66667
0.77015,0.54256,3.0806,0.063843,0.51717,5.4709,-0.52447,0.17482,-1.9849,-0.69929,2.8585e-11,-0.99243,0,0,0.25,1.1842e-15,0,0.66667
0.13034,0.17934,0.52134,-0.48099,-9.9215,50.812,0.66869,-0.2229,-1.1769,0.89159,2.052e-09,-0.58847,0,0,0.25,-1.4803e-16,0,0.66667
0.022915,0.35841,0.091661,-0.21238,-4.4145,60.472,0.051912,-0.017304,-1.8386,0.069216,-6.6553e-08,-0.91932,0,0,0.25,-0,-0,0.66667
0.51908,0.0024929,2.0763,-0.74626,-11.626,19.811,4.132,-1.3773,-0.020501,5.5093,3.6149e-13,-0.010251,0,0,0.25,-0,-0,0.66667
0.80999,0.020865,3.24,-0.7187,-5.2388,4.7063,6.2095,-2.0698,-0.16323,8.2793,-2.2709e-11,-0.081613,0,0,0.25,-0,-2.6276e-16,0.66667
0.012604,0.45379,0.050415,-0.069322,-1.4385,61.409,0.0093212,-0.0031086,-1.9824,0.012428,-2.2484e-06,-0.9912,0,0,0.25,-1.8504e-17,0,0.66667
0.67247,0.055898,2.6899,-0.66615,-7.7027,10.541,4.7783,-1.5928,-0.42287,6.3711,5.6755e-13,-0.21143,0,0,0.25,-5.9212e-16,0,0.66667
0.68681,0.435,2.7472,-0.097497,-1.0429,9.2828,0.71426,-0.23809,-1.9675,0.95235,-6.1667e-12,-0.98374,0,0,0.25,1.4803e-15,0,0.66667
0.44925,0.28739,1.797,-0.31891,-5.2779,24.334,1.5282,-0.5094,-1.6383,2.0376,-1.031e-12,-0.81917,0,0,0.25,-1.1842e-15,0,0.66667
0.91479,0.19753,3.6592,-0.4537,-1.4114,1.4196,4.4271,-1.4757,-1.2673,5.9028,-7.7315e-09,-0.63367,0,0,0.25,2.3685e-15,0,0.66667
0.64436,0.4203,2.5774,-0.11955,-1.4235,11.545,0.82168,-0.27389,-1.9486,1.0956,-7.0755e-13,-0.97428,0,0,0.25,-0,-0,0.66667
0.0052398,0.20711,0.020959,-0.43934,-9.2039,62.081,0.024555,-0.0081851,-1.313,0.03274,8.9547e-09,-0.65648,0,0,0.25,-0,-0,0.66667
0.48443,0.57285,1.9377,0.10927,1.7217,21.716,-0.56462,0.18821,-1.958,-0.75283,1.6376e-13,-0.97901,0,0,0.25,-0,-0,0.66667
0.85932,0.14044,3.4373,-0.53934,-2.8577,2.8513,4.9436,-1.6479,-0.96602,6.5915,-1.5662e-09,-0.48301,0,0,0.25,1.1842e-15,3.683e-16,0.66667
0.8304,0.016633,3.3216,-0.72505,-4.7741,4.0529,6.4222,-2.1407,-0.1305,8.5629,5.6018e-10,-0.065252,0,0,0.25,-2.3685e-15,0,0.66667
0.64915,0.8039,2.5966,0.45585,5.4591,11.503,-3.1564,1.0521,-1.2605,-4.2086,-1.1158e-12,-0.63026,0,0,0.25,-5.9212e-16,0,0.66667
0.6737,0.39339,2.6948,-0.15991,-1.7741,9.9771,1.1492,-0.38305,-1.9089,1.5322,-5.0575e-12,-0.95445,0,0,0.25,-1.1842e-15,0,0.66667
0.5785,0.24869,2.314,-0.37697,-5.1863,15.565,2.3261,-0.77538,-1.4963,3.1015,1.7757e-12,-0.74817,0,0,0.25,-7.4015e-17,0,0.66667
0.27412,0.80773,1.0965,0.46159,8.9401,38.3,-1.3497,0.44989,-1.2423,-1.7996,-2.7751e-11,-0.62113,0,0,0.25,3.1034e-16,0,0.66667
0.56053,0.71072,2.2421,0.31608,4.4728,16.656,-1.8898,0.62994,-1.6449,-2.5198,-1.5272e-12,-0.82245,0,0,0.25,-0,-0,0.66667
0.67173,0.62115,2.6869,0.18173,2.0278,10.089,-1.3021,0.43404,-1.8838,-1.7362,4.9014e-12,-0.9419,0,0,0.25,-0,-0,0.66667
0.35243,0.34464,1.4097,-0.23303,-4.2311,31.764,0.87603,-0.29201,-1.8074,1.168,5.6727e-13,-0.90372,0,0,0.25,-0,-0,0.66667
0.85583,0.65273,3.4233,0.2291,1.1865,2.5853,-2.0914,0.69715,-1.8138,-2.7886,1.1255e-10,-0.90689,0,0,0.25,-4.2683e-17,0,0.66667
0.19504,0.51527,0.78015,0.0229,0.45661,45.018,-0.047642,0.015881,-1.9971,-0.063523,-8.0857e-11,-0.99857,0,0,0.25,-5.9212e-16,0,0.66667
0.74732,0.86961,2.9893,0.55441,5.0752,6.8296,-4.4194,1.4731,-0.90742,-5.8926,2.9632e-11,-0.45371,0,0,0.25,-5.9212e-16,0,0.66667
0.2896,0.35335,1.1584,-0.21998,-4.182,36.917,0.67953,-0.22651,-1.8272,0.90604,2.337e-11,-0.9136,0,0,0.25,-0,-0,0.66667
0.7738,0.19872,3.0952,-0.45191,-3.7003,5.5998,3.73,-1.2433,-1.273,4.9734,-1.2497e-10,-0.6365,0,0,0.25,-0,-0,0.66667
0.42774,0.59783,1.7109,0.14674,2.4754,25.874,-0.66952,0.22317,-1.9234,-0.8927,8.1807e-13,-0.96172,0,0,0.25,1.1842e-15,0,0.66667
0.8077,0.9076,3.2308,0.6114,4.4145,4.5798,-5.2675,1.7558,-0.6715,-7.0233,1.459e-10,-0.33575,0,0,0.25,2.3685e-15,0,0.66667
0.35353,0.62332,1.4141,0.18498,3.3516,31.662,-0.69755,0.23252,-1.8788,-0.93007,-5.6499e-13,-0.93939,0,0,0.25,-7.6183e-16,0,0.66667
0.21369,0.80105,0.85477,0.45158,9.0258,43.465,-1.0293,0.34311,-1.2742,-1.3724,-2.0664e-10,-0.63711,0,0,0.25,-0,-0,0.66667
0.76728,0.81803,3.0691,0.47705,4.0198,5.892,-3.9043,1.3014,-1.1914,-5.2058,8.9429e-11,-0.59568,0,0,0.25,-0,-0,0.66667
0.30864,0.73296,1.2346,0.34943,6.5849,35.372,-1.1504,0.38347,-1.5652,-1.5339,-1.148e-11,-0.7826,0,0,0.25,-0,-0,0.66667
0.73325,0.037188,2.933,-0.69422,-6.7894,7.6721,5.4297,-1.8099,-0.28704,7.2396,-2.1378e-12,-0.14352,0,0,0.25,2.3685e-15,0,0.66667
0.74447,0.1909,2.9779,-0.46365,-4.242,6.8297,3.6819,-1.2273,-1.2358,4.9092,-4.9471e-11,-0.6179,0,0,0.25,-2.3685e-15,0,0.66667
0.2214,0.1725,0.88559,-0.49125,-9.8026,42.812,1.1601,-0.3867,-1.1415,1.5468,1.3448e-10,-0.57077,0,0,0.25,-0,-0,0.66667
0.21411,0.83309,0.85645,0.49963,10.008,43.446,-1.1411,0.38036,-1.1118,-1.5214,-1.3652e-10,-0.55591,0,0,0.25,-0,-0,0.66667
0.19895,0.49478,0.79579,-0.0078289,-0.15583,44.675,0.016614,-0.0055379,-1.9998,0.022152,2.2087e-10,-0.99991,0,0,0.25,-8.8818e-16,0,0.66667
0.14252,0.78951,0.57007,0.43426,8.9077,49.716,-0.66016,0.22005,-1.3296,-0.88022,-1.4907e-09,-0.6648,0,0,0.25,-0,-0,0.66667
0.37708,0.70695,1.5083,0.31042,5.5307,29.831,-1.2486,0.4162,-1.6572,-1.6648,1.653e-12,-0.82859,0,0,0.25,-0,-0,0.66667
0.026628,0.82468,0.10651,0.48703,10.218,60.144,-0.13833,0.04611,-1.1559,-0.18444,3.8256e-08,-0.57797,0,0,0.25,-0,-0,0.66667
0.11092,0.24085,0.44368,-0.38873,-8.025,52.53,0.45993,-0.15331,-1.4628,0.61323,5.3485e-10,-0.73142,0,0,0.25,-0,-0,0.66667
0.67456,0.57903,2.6983,0.11854,1.3107,9.9181,-0.85294,0.28431,-1.9496,-1.1372,4.2936e-12,-0.9748,0,0,0.25,-1.1842e-15,0,0.66667
0.79978,0.57762,3.1991,0.11643,0.82877,4.3465,-0.99324,0.33108,-1.9513,-1.3243,1.1144e-10,-0.97566,0,0,0.25,-0,-0,0.66667
0.08053,0.70157,0.32212,0.30235,6.2606,55.255,-0.25971,0.086571,-1.6746,-0.34628,3.3956e-09,-0.8373,0,0,0.25,1.4803e-16,0,0.66667
0.2317,0.60343,0.92681,0.15515,3.0455,41.834,-0.38345,0.12782,-1.9142,-0.51126,-7.5181e-11,-0.95711,0,0,0.25,-0,-0,0.66667
0.20763,0.26797,0.8305,-0.34804,-6.9456,43.961,0.77081,-0.25694,-1.5686,1.0277,2.508e-10,-0.78428,0,0,0.25,2.9606e-16,0,0.66667
0.91733,0.93397,3.6693,0.65096,2.1074,1.7266,-6.3696,2.1232,-0.49359,-8.4928,3.3379e-08,-0.24679,0,0,0.25,-1.1842e-15,0,0.66667
0.71131,0.24993,2.8453,-0.3751,-3.7892,8.2411,2.846,-0.94867,-1.5004,3.7947,-2.2697e-11,-0.75022,0,0,0.25,-1.7579e-15,0,0.66667
0.55388,0.3859,2.2155,-0.17115,-2.4365,17.014,1.0112,-0.33706,-1.895,1.3482,7.4274e-13,-0.94751,0,0,0.25,-0,-0,0.66667
0.30452,0.53411,1.2181,0.051171,0.96071,35.649,-0.16621,0.055405,-1.9908,-0.22162,-4.6664e-12,-0.99541,0,0,0.25,-0,-0,0.66667
0.83485,0.80735,3.3394,0.46103,2.8129,3.4505,-4.1055,1.3685,-1.2441,-5.474,3.8648e-10,-0.62204,0,0,0.25,1.1842e-15,0,0.66667
0.43531,0.59396,1.7412,0.14094,2.3577,25.304,-0.65444,0.21815,-1.9307,-0.87258,7.1937e-13,-0.96535,0,0,0.25,1.1842e-15,0,0.66667
0.92346,0.7841,3.6938,0.42615,1.1702,1.2191,-4.1977,1.3992,-1.3553,-5.5969,2.9283e-09,-0.67763,0,0,0.25,2.3685e-15,0,0.66667
0.70605,0.022107,2.8242,-0.71684,-7.6329,8.9615,5.3987,-1.7996,-0.17275,7.1982,9.5923e-14,-0.086374,0,0,0.25,-0,-0,0.66667
0.47803,0.36938,1.9121,-0.19593,-3.1181,22.195,0.99903,-0.33301,-1.8633,1.332,-4.0129e-13,-0.93163,0,0,0.25,-8.8818e-16,0,0.66667
0.12621,0.48856,0.50484,-0.017157,-0.35018,51.128,0.023098,-0.0076992,-1.999,0.030797,-3.9827e-09,-0.9995,0,0,0.25,-0,-0,0.66667
0.97604,0.25886,3.9042,-0.36171,-0.20338,0.41136,3.7659,-1.2553,-1.5341,5.0211,-3.6239e-09,-0.76706,0,0,0.25,-0,-0,0.66667
0.15983,0.51478,0.63933,0.022177,0.4481,48.127,-0.03781,0.012603,-1.9976,-0.050413,-8.323e-11,-0.99882,0,0,0.25,-0,-0,0.66667
0.2026,0.38323,0.81041,-0.17515,-3.4866,44.366,0.37852,-0.12617,-1.8914,0.50469,1.9801e-10,-0.94572,0,0,0.25,-0,-0,0.66667
0.43118,0.93483,1.7247,0.65225,11.235,25.924,-2.9999,0.99996,-0.48759,-3.9998,4.7518e-13,-0.24379,0,0,0.25,-1.4803e-16,0,0.66667
0.4042,0.52781,1.6168,0.041718,0.72032,27.653,-0.17986,0.059955,-1.9946,-0.23982,4.3252e-13,-0.99728,0,0,0.25,-0,-0,0.66667
0.14675,0.44714,0.58701,-0.079294,-1.6094,49.293,0.12412,-0.041374,-1.977,0.1655,-9.1633e-11,-0.98848,0,0,0.25,-0,-0,0.66667
0.72932,0.58857,2.9173,0.13285,1.2516,7.2448,-1.0335,0.34451,-1.9372,-1.378,2.9229e-11,-0.96858,0,0,0.25,-1.6028e-16,0,0.66667
0.18875,0.61402,0.75498,0.17103,3.424,45.581,-0.34432,0.11477,-1.8961,-0.4591,-1.2296e-10,-0.94803,0,0,0.25,-2.9606e-16,0,0.66667
0.6439,0.80578,2.5756,0.45867,5.5606,11.795,-3.1502,1.0501,-1.252,-4.2003,-1.4027e-12,-0.626,0,0,0.25,-0,-0,0.66667
0.75431,0.53135,3.0172,0.047021,0.40504,6.1245,-0.37833,0.12611,-1.9931,-0.50444,2.9653e-11,-0.99654,0,0,0.25,2.3685e-15,0,0.66667
0.21073,0.55585,0.84293,0.083768,1.6594,43.648,-0.18829,0.062765,-1.9746,-0.25106,-4.4237e-11,-0.98731,0,0,0.25,1.4803e-16,0,0.66667
0.60095,0.4743,2.4038,-0.038552,-0.503,14.044,0.24713,-0.082375,-1.9944,0.3295,2.497e-13,-0.99722,0,0,0.25,-0,-0,0.66667
0.74893,0.92472,2.9957,0.63708,5.8644,6.8921,-5.0893,1.6964,-0.55694,-6.7858,1.0487e-11,-0.27847,0,0,0.25,-2.0711e-15,0,0.66667
0.63822,0.64505,2.5529,0.21758,2.6347,11.926,-1.4812,0.49373,-1.8314,-1.9749,-2.8511e-13,-0.91572,0,0,0.25,5.9212e-16,0,0.66667
0.59713,0.87531,2.3885,0.56297,7.5843,14.61,-3.5857,1.1952,-0.87419,-4.781,-9.9054e-13,-0.4371,0,0,0.25,-2.3685e-15,0,0.66667
0.29548,0.69398,1.1819,0.29098,5.5213,36.445,-0.9171,0.3057,-1.6994,-1.2228,-2.0811e-11,-0.84971,0,0,0.25,-5.9212e-16,0,0.66667
0.73161,0.43917,2.9264,-0.091241,-0.85219,7.1288,0.71203,-0.23734,-1.9713,0.94937,-2.2972e-11,-0.98565,0,0,0.25,2.3685e-15,0,0.66667
0.94531,0.6355,3.7812,0.20324,0.35144,0.62993,-2.0494,0.68312,-1.8523,-2.7325,-5.0147e-08,-0.92615,0,0,0.25,-0,-0,0.66667
0.42556,0.15536,1.7022,-0.51696,-8.873,26.224,2.3467,-0.78222,-1.0506,3.1289,-1.1502e-12,-0.52532,0,0,0.25,-2.9606e-16,0,0.66667
0.78218,0.19467,3.1287,-0.458,-3.6253,5.2806,3.8212,-1.2737,-1.2547,5.0949,-1.8188e-10,-0.62735,0,0,0.25,-0,-0,0.66667
0.056141,0.68805,0.22456,0.28208,5.8574,57.46,-0.16892,0.056306,-1.7177,-0.22522,1.6573e-08,-0.85886,0,0,0.25,-1.4803e-16,0,0.66667
0.83527,0.028677,3.3411,-0.70698,-4.5138,3.8641,6.2989,-2.0996,-0.22304,8.3986,-1.6031e-10,-0.11152,0,0,0.25,-5.9212e-16,0,0.66667
0.19225,0.70737,0.769,0.31106,6.2404,45.296,-0.63787,0.21262,-1.6553,-0.8505,-3.3248e-10,-0.82765,0,0,0.25,-0,-0,0.66667
0.3951,0.6846,1.5804,0.2769,4.8455,28.41,-1.1669,0.38898,-1.7278,-1.5559,1.6812e-12,-0.86388,0,0,0.25,1.4803e-16,0,0.66667
0.30008,0.27699,1.2003,-0.33451,-6.3372,36.076,1.0707,-0.3569,-1.6025,1.4276,1.6175e-11,-0.80125,0,0,0.25,1.4803e-16,0,0.66667
0.080104,0.11302,0.32041,-0.58048,-12.168,55.329,0.49598,-0.16533,-0.80176,0.66131,-5.891e-09,-0.40088,0,0,0.25,-0,-0,0.66667
0.90463,0.21641,3.6185,-0.42539,-1.4801,1.5829,4.1047,-1.3682,-1.3577,5.473,2.5366e-10,-0.67883,0,0,0.25,-1.4803e-15,0,0.66667
0.37015,0.67058,1.4806,0.25588,4.5789,30.357,-1.0103,0.33676,-1.7664,-1.347,1.2607e-12,-0.8832,0,0,0.25,-5.9212e-16,0,0.66667
0.5307,0.84534,2.1228,0.51801,7.7804,18.767,-2.9323,0.97744,-1.0474,-3.9097,-9.9343e-13,-0.52372,0,0,0.25,2.3685e-15,3.2384e-16,0.66667
0.49412,0.10752,1.9765,-0.58872,-9.3611,21.327,3.1029,-1.0343,-0.76678,4.1372,-1.39e-13,-0.38339,0,0,0.25,-0,-0,0.66667
0.13216,0.061087,0.52864,-0.65837,-13.712,50.696,0.92811,-0.30937,-0.45927,1.2375,-3.5559e-09,-0.22963,0,0,0.25,1.2953e-16,0,0.66667
0.20645,0.38428,0.82582,-0.17358,-3.4494,44.03,0.38226,-0.12742,-1.8926,0.50967,1.5594e-10,-0.94629,0,0,0.25,-5.9212e-16,0,0.66667
0.076189,0.5681,0.30476,0.10216,2.1082,55.636,-0.083021,0.027674,-1.9633,-0.1107,-9.9122e-08,-0.98166,0,0,0.25,2.9606e-16,0,0.66667
0.50792,0.63661,2.0317,0.20492,3.1332,20.1,-1.1102,0.37007,-1.8498,-1.4803,-2.3792e-13,-0.9249,0,0,0.25,-0,-0,0.66667
0.26155,0.1988,1.0462,-0.4518,-8.8112,39.358,1.2605,-0.42016,-1.2736,1.6806,4.2132e-11,-0.63682,0,0,0.25,-5.9212e-16,0,0.66667
0.35706,0.84156,1.4282,0.51235,9.3771,31.524,-1.9513,0.65045,-1.0676,-2.6018,1.6581e-12,-0.53379,0,0,0.25,2.5374e-16,0,0.66667
0.10807,0.13021,0.43226,-0.55468,-11.548,52.817,0.63938,-0.21313,-0.90671,0.85251,-9.5907e-09,-0.45335,0,0,0.25,-0,-0,0.66667
0.78755,0.93291,3.1502,0.64937,5.1661,5.373,-5.4551,1.8184,-0.50058,-7.2734,5.8787e-11,-0.25029,0,0,0.25,2.9606e-16,0,0.66667
0.10658,0.87107,0.42634,0.5566,11.593,52.95,-0.6328,0.21093,-0.89896,-0.84373,1.4555e-08,-0.44948,0,0,0.25,-7.4015e-17,0,0.66667
0.98571,0.9298,3.9428,0.6447,0.29211,0.82667,-6.7785,2.2595,-0.52253,-9.038,-1.3823e-06,-0.26126,0,0,0.25,-1.1842e-15,-3.362e-16,0.66667
0.17716,0.15703,0.70864,-0.51445,-10.472,46.675,0.97216,-0.32405,-1.0597,1.2962,3.6698e-10,-0.52983,0,0,0.25,-0,-0,0.66667
0.57241,0.75599,2.2896,0.38399,5.3425,15.951,-2.3445,0.7815,-1.4755,-3.126,-1.6913e-12,-0.73774,0,0,0.25,-0,-0,0.66667
0.044845,0.56263,0.17938,0.093952,1.9463,58.478,-0.044942,0.01498,-1.97,-0.059923,-6.3097e-07,-0.985,0,0,0.25,-0,-0,0.66667
0.78712,0.43913,3.1485,-0.0913,-0.68855,4.8108,0.76655,-0.25552,-1.9708,1.0221,-2.0772e-11,-0.9854,0,0,0.25,-0,-0,0.66667
0.18961,0.30387,0.75842,-0.29419,-5.9052,45.524,0.59499,-0.19833,-1.6923,0.79332,3.1539e-10,-0.84615,0,0,0.25,-2.9606e-16,0,0.66667
0.5279,0.5253,2.1116,0.037957,0.56201,18.702,-0.21374,0.071246,-1.995,-0.28498,-2.8438e-13,-0.99748,0,0,0.25,-0,-0,0.66667
0.74008,0.36621,2.9603,-0.20069,-1.8277,6.7915,1.5843,-0.52809,-1.8562,2.1123,-5.4127e-11,-0.92811,0,0,0.25,-5.9212e-16,0,0.66667
0.14993,0.60239,0.59973,0.15358,3.1169,49.014,-0.24562,0.081872,-1.9155,-0.32749,-1.2275e-09,-0.95776,0,0,0.25,-0,-0,0.66667
0.55109,0.45316,2.2043,-0.070264,-1.0031,17.172,0.41303,-0.13768,-1.9817,0.55071,1.9651e-13,-0.99086,0,0,0.25,-0,-0,0.66667
0.21662,0.72246,0.86647,0.33368,6.6284,43.175,-0.771,0.257,-1.6048,-1.028,-2.0073e-10,-0.80239,0,0,0.25,-0,-0,0.66667
0.7592,0.24977,3.0368,-0.37534,-3.228,6.1057,3.0396,-1.0132,-1.4998,4.0527,-1.0447e-10,-0.74989,0,0,0.25,1.5173e-15,0,0.66667
0.72292,0.084038,2.8917,-0.62394,-6.2424,8.0169,4.8113,-1.6038,-0.61533,6.415,-3.8289e-12,-0.30767,0,0,0.25,5.9212e-16,0,0.66667
0.17655,0.20822,0.7062,-0.43766,-8.8774,46.706,0.82421,-0.27474,-1.3183,1.0989,5.7868e-10,-0.65916,0,0,0.25,1.4803e-16,0,0.66667
0.86197,0.89903,3.4479,0.59854,3.155,2.8822,-5.5032,1.8344,-0.72629,-7.3376,5.0177e-09,-0.36314,0,0,0.25,-0,-0,0.66667
0.019775,0.62664,0.0791,0.18996,3.9471,60.757,-0.040068,0.013356,-1.8724,-0.053424,1.3798e-07,-0.93618,0,0,0.25,-0,-0,0.66667
0.86024,0.54363,3.4409,0.065447,0.32511,2.3878,-0.60053,0.20018,-1.9849,-0.80071,-7.7752e-10,-0.99244,0,0,0.25,-0,-0,0.66667
0.5589,0.92791,2.2356,0.64186,9.3156,17.071,-3.8266,1.2755,-0.53478,-5.1021,-2.7334e-13,-0.26739,0,0,0.25,-0,-0,0.66667
0.40322,0.88194,1.6129,0.57292,10.096,27.963,-2.4641,0.82137,-0.83297,-3.2855,1.219e-12,-0.41648,0,0,0.25,-0,-0,0.66667
0.75875,0.73783,3.035,0.35675,3.0682,6.106,-2.8873,0.96243,-1.5466,-3.8497,1.0499e-10,-0.77329,0,0,0.25,2.857e-16,0,0.66667
0.71693,0.2611,2.8677,-0.35836,-3.5542,7.9603,2.7404,-0.91348,-1.5433,3.6539,-2.899e-11,-0.77165,0,0,0.25,-0,-0,0.66667
0.98733,0.60358,3.9493,0.15537,-0.0032638,0.12783,-1.6362,0.54541,-1.9139,-2.1816,-4.8086e-08,-0.95695,0,0,0.25,-0,-0,0.66667
0.27809,0.4976,1.1123,-0.0035968,-0.068696,37.862,0.010669,-0.0035563,-2.0006,0.014225,-2.1029e-12,-1.0003,0,0,0.25,1.4803e-16,0,0.66667
0.0037937,0.97111,0.015175,0.70667,15.029,62.214,-0.028587,0.0095369,-0.22503,-0.038112,1.1828e-05,-0.11251,0,0,0.25,-9.2519e-18,0,0.66667
0.9339,0.071572,3.7356,-0.64264,-1.6528,1.4248,6.4018,-2.1339,-0.53127,8.5357,1.3057e-08,-0.26564,0,0,0.25,-0,-0,0.66667
0.8579,0.74205,3.4316,0.36307,1.8828,2.6478,-3.3224,1.1075,-1.5316,-4.4299,8.9078e-10,-0.76579,0,0,0.25,5.9212e-16,0,0.66667
0.72885,0.92647,2.9154,0.63971,6.2957,7.7736,-4.9733,1.6578,-0.54424,-6.6311,4.2335e-12,-0.27212,0,0,0.25,-0,-0,0.66667
0.51669,0.65174,2.0668,0.2276,3.4387,19.508,-1.2544,0.41813,-1.8166,-1.6725,-4.7951e-13,-0.90832,0,0,0.25,5.9212e-16,0,0.66667
0.70696,0.93042,2.8278,0.64563,6.7921,8.7966,-4.8686,1.6229,-0.51775,-6.4915,4.7873e-13,-0.25888,0,0,0.25,-0,-0,0.66667
0.78053,0.45537,3.1221,-0.06695,-0.51939,5.0595,0.5574,-0.1858,-1.9842,0.74321,-4.8473e-11,-0.99208,0,0,0.25,-0,-0,0.66667
0.37488,0.11087,1.4995,-0.58369,-10.568,30.167,2.334,-0.778,-0.7889,3.112,-1.2672e-12,-0.39445,0,0,0.25,-5.9212e-16,0,0.66667
0.77032,0.95794,3.0813,0.68691,5.8938,6.1045,-5.6442,1.8814,-0.32171,-7.5255,1.3434e-11,-0.16086,0,0,0.25,1.1842e-15,0,0.66667
0.75062,0.10449,3.0025,-0.59326,-5.3957,6.7484,4.75,-1.5833,-0.74887,6.3334,-2.0472e-11,-0.37443,0,0,0.25,1.1842e-15,0,0.66667
0.61321,0.0099463,2.4528,-0.73508,-9.7681,13.901,4.8081,-1.6027,-0.078339,6.4108,3.5527e-15,-0.039169,0,0,0.25,-0,-0,0.66667
0.40187,0.45435,1.6075,-0.068473,-1.1852,27.835,0.29351,-0.097838,-1.9826,0.39135,-3.6804e-13,-0.99129,0,0,0.25,-0,-0,0.66667
0.69731,0.15606,2.7892,-0.51591,-5.4959,9.0748,3.8373,-1.2791,-1.0544,5.1164,-4.7324e-12,-0.5272,0,0,0.25,-1.6838e-15,0,0.66667
0.0031129,0.95616,0.012451,0.68424,14.53,62.275,-0.022721,0.0075784,-0.33488,-0.030292,7.3979e-06,-0.16744,0,0,0.25,4.6259e-18,-1.1396e-15,0.66667
0.7749,0.028189,3.0996,-0.70772,-5.9869,5.9651,5.8497,-1.9499,-0.2193,7.7996,-8.1974e-12,-0.10965,0,0,0.25,-1.3329e-16,0,0.66667
0.89642,0.93699,3.5857,0.65549,2.6566,2.1557,-6.2676,2.0892,-0.47298,-8.3569,-4.9553e-08,-0.23649,0,0,0.25,1.6653e-15,0,0.66667
0.23932,0.059047,0.95726,-0.66143,-13.217,41.354,1.6884,-0.56281,-0.44469,2.2512,9.863e-12,-0.22234,0,0,0.25,-2.9606e-16,0,0.66667
0.12077,0.26721,0.48307,-0.34919,-7.1812,51.642,0.44982,-0.14994,-1.5657,0.59976,1.172e-09,-0.78287,0,0,0.25,1.4803e-16,0,0.66667
0.22028,0.67864,0.88114,0.26796,5.3028,42.842,-0.62963,0.20988,-1.7449,-0.83951,-1.5479e-10,-0.87243,0,0,0.25,2.9606e-16,0,0.66667
0.3021,0.87235,1.2084,0.55852,10.683,36.016,-1.7998,0.59992,-0.89117,-2.3997,-3.0778e-12,-0.44558,0,0,0.25,-1.4803e-16,0,0.66667
0.88303,0.092388,3.5321,-0.61142,-2.7534,2.3717,5.7589,-1.9196,-0.67124,7.6786,9.5641e-09,-0.33562,0,0,0.25,2.7874e-16,0,0.66667
0.54317,0.68644,2.1727,0.27965,4.0654,17.761,-1.6203,0.54009,-1.7228,-2.1603,-1.1194e-12,-0.86139,0,0,0.25,1.5543e-15,0,0.66667
0.28671,0.99719,1.1468,0.74578,14.597,37.419,-2.2808,0.76027,-0.022684,-3.0411,6.1973e-13,-0.011342,0,0,0.25,-1.4803e-16,0,0.66667
0.13835,0.8377,0.55342,0.50655,10.439,50.104,-0.74756,0.24919,-1.088,-0.99675,-3.713e-09,-0.54398,0,0,0.25,-0,-0,0.66667
0.29014,0.36219,1.1606,-0.20672,-3.9274,36.869,0.63978,-0.21326,-1.8471,0.85303,2.2625e-11,-0.92357,0,0,0.25,-0,-0,0.66667
0.61387,0.33942,2.4555,-0.24087,-3.0762,13.337,1.5772,-0.52574,-1.7938,2.103,1.2701e-12,-0.89691,0,0,0.25,-5.9212e-16,0,0.66667
0.32414,0.4495,1.2966,-0.075744,-1.4024,34.031,0.26188,-0.087295,-1.979,0.34918,2.8501e-12,-0.9895,0,0,0.25,-5.9212e-16,0,0.66667
0.45736,0.033987,1.8294,-0.69902,-11.74,24.054,3.4102,-1.1367,-0.26309,4.5469,1.0392e-13,-0.13154,0,0,0.25,-0,-0,0.66667
0.44412,0.15561,1.7765,-0.51659,-8.6885,24.843,2.4472,-0.81574,-1.0517,3.263,-8.0891e-13,-0.52587,0,0,0.25,-7.0314e-16,0,0.66667
0.82814,0.28565,3.3125,-0.32153,-2.002,3.5022,2.8402,-0.94674,-1.6336,3.7869,-4.1285e-10,-0.8168,0,0,0.25,-0,-0,0.66667
0.42635,0.15942,1.7054,-0.51088,-8.7579,26.16,2.3233,-0.77444,-1.0723,3.0978,-1.1764e-12,-0.53617,0,0,0.25,-0,-0,0.66667
0.3457,0.86473,1.3828,0.54709,10.127,32.456,-2.0174,0.67246,-0.93572,-2.6898,1.3884e-12,-0.46786,0,0,0.25,-0,-0,0.66667
0.67497,0.57287,2.6999,0.1093,1.207,9.8944,-0.78694,0.26231,-1.9572,-1.0493,4.0383e-12,-0.97859,0,0,0.25,-0,-0,0.66667
0.22148,0.31745,0.88593,-0.27382,-5.4166,42.739,0.6469,-0.21563,-1.7338,0.86254,1.5409e-10,-0.86688,0,0,0.25,-0,-0,0.66667
0.46725,0.58764,1.869,0.13146,2.1179,22.952,-0.65521,0.2184,-1.939,-0.87361,4.603e-13,-0.96952,0,0,0.25,-0,-0,0.66667
0.31477,0.54619,1.2591,0.06929,1.2917,34.802,-0.23264,0.077547,-1.9826,-0.31019,-4.346e-12,-0.99129,0,0,0.25,-0,-0,0.66667
0.62686,0.25406,2.5074,-0.36891,-4.6144,12.67,2.4667,-0.82222,-1.5168,3.2889,1.8991e-12,-0.7584,0,0,0.25,-2.3685e-15,0,0.66667
0.87736,0.98126,3.5094,0.72189,3.5147,2.7387,-6.7558,2.2519,-0.14683,-9.0077,3.7743e-09,-0.073417,0,0,0.25,-0,-0,0.66667
0.44769,0.45122,1.7908,-0.073165,-1.2057,24.372,0.34939,-0.11646,-1.9801,0.46585,-5.0876e-13,-0.99005,0,0,0.25,-0,-0,0.66667
0.78446,0.28997,3.1378,-0.31505,-2.4338,5.0395,2.6362,-0.87874,-1.6469,3.515,-1.9621e-10,-0.82343,0,0,0.25,-0,-0,0.66667
0.45697,0.6921,1.8279,0.28815,4.7202,23.753,-1.4045,0.46817,-1.705,-1.8727,9.7589e-13,-0.85248,0,0,0.25,-0,-0,0.66667
0.65623,0.76542,2.6249,0.39813,4.669,11.062,-2.7868,0.92893,-1.4367,-3.7157,2.3448e-13,-0.71836,0,0,0.25,-1.1842e-15,0,0.66667
0.13184,0.51895,0.52736,0.028423,0.57926,50.623,-0.039971,0.013324,-1.9962,-0.053295,-1.0119e-09,-0.99811,0,0,0.25,-0,-0,0.66667
0.43298,0.21785,1.7319,-0.42323,-7.1679,25.601,1.9547,-0.65155,-1.3639,2.6062,-1.5147e-12,-0.68194,0,0,0.25,1.1102e-16,0,0.66667
0.90931,0.84675,3.6372,0.52012,1.7638,1.6318,-5.0448,1.6816,-1.0387,-6.7264,-1.3565e-08,-0.51937,0,0,0.25,2.3685e-15,0,0.66667
0.60548,0.86881,2.4219,0.55322,7.3282,14.1,-3.5729,1.191,-0.91177,-4.7639,-1.4573e-12,-0.45588,0,0,0.25,-5.2966e-16,0,0.66667
0.76677,0.66496,3.0671,0.24743,2.0464,5.6858,-2.0237,0.67458,-1.7826,-2.6983,1.1045e-10,-0.8913,0,0,0.25,2.3685e-15,0,0.66667
0.5047,0.22736,2.0188,-0.40896,-6.3345,20.435,2.2016,-0.73387,-1.4049,2.9355,5.0182e-14,-0.70245,0,0,0.25,-0,-0,0.66667
0.49806,0.10606,1.9922,-0.59092,-9.3484,21.056,3.1393,-1.0464,-0.75828,4.1857,-3.0731e-13,-0.37914,0,0,0.25,1.1842e-15,0,0.66667
0.8429,0.17196,3.3716,-0.49206,-2.8757,3.2488,4.4241,-1.4747,-1.1391,5.8988,-9.9372e-10,-0.56957,0,0,0.25,1.1842e-15,7.3235e-17,0.66667
0.067807,0.71147,0.27123,0.31721,6.584,56.406,-0.22943,0.076476,-1.6419,-0.3059,1.9927e-09,-0.82093,0,0,0.25,7.4015e-17,0,0.66667
0.57327,0.028099,2.2931,-0.70785,-10.093,16.257,4.3284,-1.4428,-0.21875,5.7713,-4.8406e-14,-0.10937,0,0,0.25,5.9212e-16,3.4674e-16,0.66667
0.94276,0.023751,3.7711,-0.71437,-1.656,1.4539,7.1838,-2.3946,-0.18509,9.5784,6.7581e-07,-0.092547,0,0,0.25,-0,-0,0.66667
0.51786,0.7344,2.0714,0.3516,5.3291,19.494,-1.9422,0.64739,-1.5601,-2.5895,-6.5847e-13,-0.78006,0,0,0.25,1.1842e-15,0,0.66667
0.19447,0.63393,0.77786,0.2009,4.015,45.082,-0.41673,0.13891,-1.8558,-0.55564,-2.4818e-10,-0.92791,0,0,0.25,-0,-0,0.66667
0.84794,0.077065,3.3918,-0.6344,-3.6977,3.3415,5.738,-1.9127,-0.56829,7.6506,-5.1027e-10,-0.28414,0,0,0.25,-0,-0,0.66667
0.25164,0.59101,1.0066,0.13651,2.6508,40.118,-0.36641,0.12214,-1.9347,-0.48855,-5.0884e-11,-0.96736,0,0,0.25,3.7007e-16,0,0.66667
0.70073,0.79246,2.8029,0.4387,4.5951,8.8161,-3.279,1.093,-1.3155,-4.372,1.1245e-11,-0.65774,0,0,0.25,1.1842e-15,0,0.66667
0.54026,0.24544,2.161,-0.38183,-5.6032,18.017,2.2004,-0.73348,-1.4815,2.9339,8.2245e-13,-0.74075,0,0,0.25,-2.9606e-16,0,0.66667
0.94884,0.28583,3.7953,-0.32125,-0.53033,0.68358,3.2513,-1.0838,-1.6332,4.3351,3.8942e-09,-0.81659,0,0,0.25,-2.3685e-15,0,0.66667
0.62434,0.13077,2.4973,-0.55385,-7.063,13.004,3.6884,-1.2295,-0.9101,4.9179,1.4753e-12,-0.45505,0,0,0.25,-0,1.8826e-16,0.66667
0.83798,0.34362,3.3519,-0.23457,-1.3668,3.1192,2.0967,-0.69891,-1.8051,2.7956,-9.7692e-11,-0.90256,0,0,0.25,-1.4895e-15,0,0.66667
0.0079329,0.37144,0.031732,-0.19284,-4.0086,61.834,0.016318,-0.0054393,-1.8678,0.021757,-6.3552e-08,-0.9339,0,0,0.25,-9.2519e-18,0,0.66667
0.98934,0.94382,3.9574,0.66573,0.21881,0.84958,-7.0255,2.3418,-0.42395,-9.3673,1.2028e-07,-0.21197,0,0,0.25,-2.3685e-15,0,0.66667
0.077715,0.74187,0.31086,0.3628,7.5308,55.515,-0.30074,0.10025,-1.5326,-0.40099,2.3696e-09,-0.76628,0,0,0.25,-0,-0,0.66667
0.32213,0.38509,1.2885,-0.17236,-3.2003,34.21,0.59225,-0.19742,-1.8936,0.78967,6.0675e-12,-0.94682,0,0,0.25,5.9212e-16,0,0.66667
0.94615,0.91218,3.7846,0.61827,1.2667,1.1911,-6.2398,2.0799,-0.64052,-8.3197,-5.1368e-08,-0.32026,0,0,0.25,2.3685e-15,0,0.66667
0.0089391,0.8855,0.035756,0.57825,12.198,61.747,-0.055137,0.018379,-0.81032,-0.073515,-2.2586e-07,-0.40516,0,0,0.25,-0,-0,0.66667
0.82273,0.98629,3.2909,0.72943,5.0051,4.3059,-6.4013,2.1338,-0.10734,-8.5351,1.6367e-10,-0.053668,0,0,0.25,-0,-0,0.66667
0.86121,0.52822,3.4448,0.042337,0.20869,2.3569,-0.38892,0.12964,-1.9945,-0.51856,-4.4995e-09,-0.99725,0,0,0.25,-0,-0,0.66667
0.43983,0.29252,1.7593,-0.31121,-5.2046,25.027,1.4601,-0.48669,-1.6554,1.9468,-1.336e-12,-0.8277,0,0,0.25,-0,-0,0.66667
0.25575,0.1184,1.023,-0.57241,-11.273,39.907,1.5615,-0.5205,-0.83468,2.082,2.0279e-11,-0.41734,0,0,0.25,1.4803e-16,0,0.66667
0.80269,0.11417,3.2108,-0.57874,-4.2549,4.6997,4.9552,-1.6517,-0.80835,6.6069,-1.1644e-10,-0.40418,0,0,0.25,-0,-0,0.66667
0.47786,0.73687,1.9114,0.3553,5.6882,22.281,-1.8111,0.60369,-1.5502,-2.4147,5.3346e-13,-0.77511,0,0,0.25,-0,-0,0.66667
0.13434,0.28461,0.53735,-0.32308,-6.6145,50.425,0.46295,-0.15432,-1.629,0.61727,4.0007e-10,-0.81448,0,0,0.25,2.9606e-16,0,0.66667
0.92785,0.61403,3.7114,0.17105,0.41298,0.89065,-1.6929,0.56428,-1.8952,-2.2571,-4.5018e-09,-0.9476,0,0,0.25,1.1842e-15,0,0.66667
0.89597,0.088964,3.5839,-0.61655,-2.4777,2.0865,5.8924,-1.9641,-0.64835,7.8565,-3.132e-08,-0.32417,0,0,0.25,-5.9212e-16,0,0.66667
0.49155,0.9408,1.9662,0.66119,10.611,21.585,-3.4667,1.1556,-0.44566,-4.6223,1.0392e-13,-0.22283,0,0,0.25,-1.1842e-15,0,0.66667
0.8567,0.39533,3.4268,-0.15701,-0.80359,2.5181,1.4348,-0.47825,-1.9121,1.913,-2.2897e-10,-0.95603,0,0,0.25,-1.1842e-15,0,0.66667
0.41858,0.024395,1.6743,-0.71341,-12.513,26.93,3.1852,-1.0617,-0.19037,4.247,9.1704e-14,-0.095185,0,0,0.25,-0,-2.0279e-16,0.66667
0.68346,0.50365,2.7339,0.0054717,0.059007,9.4415,-0.03989,0.013297,-2.0002,-0.053187,6.0078e-13,-1.0001,0,0,0.25,-4.737e-15,0,0.66667
0.39799,0.069734,1.592,-0.6454,-11.49,28.426,2.7399,-0.91329,-0.51846,3.6532,-4.1855e-13,-0.25923,0,0,0.25,-0,-0,0.66667
0.50574,0.81307,2.023,0.46961,7.2893,20.411,-2.5333,0.84444,-1.2166,-3.3778,-1.8963e-13,-0.60828,0,0,0.25,-0,-0,0.66667
0.18955,0.90487,0.75821,0.6073,12.368,45.624,-1.2279,0.4093,-0.68977,-1.6372,-6.634e-11,-0.34489,0,0,0.25,-0,-0,0.66667
0.96499,0.28151,3.86,-0.32774,-0.32634,0.48605,3.3735,-1.1245,-1.6191,4.498,3.661e-09,-0.80954,0,0,0.25,-0,-0,0.66667
0.29422,0.28752,1.1769,-0.31873,-6.0586,36.559,1.0003,-0.33342,-1.639,1.3337,2.0622e-11,-0.81949,0,0,0.25,5.9212e-16,0,0.66667
0.10346,0.97723,0.41384,0.71585,15.071,53.266,-0.78999,0.26333,-0.17741,-1.0533,-1.2458e-08,-0.088705,0,0,0.25,-0,-0,0.66667
0.14432,0.60866,0.57726,0.16299,3.3141,49.515,-0.2509,0.083633,-1.9049,-0.33453,-5.0914e-10,-0.95245,0,0,0.25,2.9606e-16,0,0.66667
0.014092,0.54121,0.056369,0.061819,1.2827,61.273,-0.0092938,0.0031003,-1.9865,-0.012391,3.5746e-06,-0.99324,0,0,0.25,3.7007e-17,0,0.66667
0.71595,0.49463,2.8638,-0.0080557,-0.079062,7.8431,0.061519,-0.020506,-2,0.082026,-1.1958e-12,-1,0,0,0.25,-0,-0,0.66667
0.5645,0.11561,2.258,-0.57659,-8.2433,16.636,3.4718,-1.1573,-0.81794,4.6291,5.3801e-13,-0.40897,0,0,0.25,-0,-0,0.66667
0.79458,0.78363,3.1783,0.42544,3.1775,4.7741,-3.6058,1.2019,-1.3573,-4.8078,2.6973e-10,-0.67866,0,0,0.25,-0,-0,0.66667
0.50708,0.74487,2.0283,0.36731,5.6582,20.242,-1.9867,0.66224,-1.5201,-2.649,-4.2188e-13,-0.76004,0,0,0.25,2.9606e-16,0,0.66667
0.79182,0.4285,3.1673,-0.10726,-0.79223,4.6375,0.9059,-0.30197,-1.9586,1.2079,-7.5076e-11,-0.97928,0,0,0.25,-1.1842e-15,0,0.66667
0.69576,0.66349,2.7831,0.24523,2.5713,8.8958,-1.82,0.60666,-1.7857,-2.4266,1.4906e-11,-0.89284,0,0,0.25,-0,-0,0.66667
0.77785,0.79587,3.1114,0.44381,3.5711,5.4307,-3.6823,1.2274,-1.2991,-4.9097,1.4853e-10,-0.64955,0,0,0.25,-0,-0,0.66667
0.40648,0.29458,1.6259,-0.30813,-5.3379,27.545,1.336,-0.44533,-1.6627,1.7813,-2.0094e-12,-0.83134,0,0,0.25,-5.9212e-16,0,0.66667
0.64777,0.74779,2.5911,0.37168,4.4385,11.499,-2.5682,0.85605,-1.5091,-3.4242,-2.5513e-13,-0.75454,0,0,0.25,-1.7764e-15,0,0.66667
0.17979,0.85284,0.71918,0.52925,10.771,46.449,-1.015,0.33834,-1.0033,-1.3533,-3.4066e-10,-0.50167,0,0,0.25,-0,-0,0.66667
0.32182,0.45699,1.2873,-0.064517,-1.1965,34.22,0.22147,-0.073824,-1.9843,0.29529,2.7386e-12,-0.99217,0,0,0.25,-8.5052e-17,0,0.66667
0.1726,0.44045,0.69042,-0.08932,-1.7974,46.997,0.16445,-0.054816,-1.9728,0.21926,4.8399e-10,-0.98641,0,0,0.25,5.9212e-16,0,0.66667
0.40864,0.25108,1.6345,-0.37338,-6.4716,27.412,1.6275,-0.5425,-1.5054,2.17,-2.1817e-12,-0.7527,0,0,0.25,1.1842e-15,0,0.66667
0.24142,0.51032,0.96567,0.015473,0.30184,40.987,-0.039846,0.013282,-1.9984,-0.053128,-8.8681e-13,-0.99918,0,0,0.25,-0,-0,0.66667
0.40692,0.045262,1.6277,-0.68211,-12.073,27.779,2.9607,-0.9869,-0.34581,3.9476,-7.9936e-15,-0.1729,0,0,0.25,-0,-0,0.66667
0.97522,0.49627,3.9009,-0.0055942,-0.0025734,0.19241,0.058194,-0.019393,-1.9999,0.077594,7.2693e-06,-0.99996,0,0,0.25,3.8488e-15,0,0.66667
0.32032,0.7315,1.2813,0.34725,6.4887,34.41,-1.1864,0.39548,-1.5703,-1.5819,-6.4045e-12,-0.78516,0,0,0.25,-0,-0,0.66667
0.98249,0.52178,3.93,0.032676,0.0051765,0.12709,-0.34244,0.11415,-1.9962,-0.45659,2.1121e-07,-0.99811,0,0,0.25,-0,-0,0.66667
0.63631,0.70967,2.5452,0.3145,3.8417,12.092,-2.1346,0.71154,-1.6479,-2.8462,-8.8751e-13,-0.82393,0,0,0.25,-0,-0,0.66667
0.37509,0.51326,1.5004,0.019893,0.35308,29.924,-0.079592,0.026531,-1.9989,-0.10612,-1.4529e-13,-0.99945,0,0,0.25,-0,-0,0.66667
0.85748,0.30267,3.4299,-0.29599,-1.5258,2.592,2.7073,-0.90243,-1.6885,3.6097,-4.7258e-10,-0.84424,0,0,0.25,1.1842e-15,0,0.66667
0.61959,0.36798,2.4783,-0.19803,-2.4954,12.982,1.3088,-0.43626,-1.8602,1.745,9.4913e-13,-0.9301,0,0,0.25,-5.9212e-16,0,0.66667
0.25203,0.2038,1.0081,-0.4443,-8.7081,40.164,1.1944,-0.39814,-1.2978,1.5926,6.0457e-11,-0.64892,0,0,0.25,-0,-0,0.66667
0.79286,0.30441,3.1714,-0.29338,-2.1795,4.7039,2.4812,-0.82706,-1.6937,3.3082,-2.184e-10,-0.84683,0,0,0.25,-0,-0,0.66667
0.43294,0.94668,1.7318,0.67002,11.536,25.812,-3.0941,1.0314,-0.40335,-4.1255,2.2271e-13,-0.20168,0,0,0.25,-0,-0,0.66667
0.35751,0.30176,1.43,-0.29737,-5.3868,31.378,1.134,-0.378,-1.6855,1.512,-4.321e-13,-0.84275,0,0,0.25,-0,-0,0.66667
0.33028,0.38914,1.3211,-0.16629,-3.0683,33.541,0.58583,-0.19528,-1.9014,0.7811,4.1173e-12,-0.95069,0,0,0.25,-0,-0,0.66667
0.69737,0.1887,2.7895,-0.46695,-4.9502,9.0121,3.4734,-1.1578,-1.2253,4.6312,-7.9865e-12,-0.61265,0,0,0.25,-0,-0,0.66667
0.26865,0.31974,1.0746,-0.27039,-5.2148,38.695,0.77484,-0.25828,-1.74,1.0331,4.8557e-11,-0.87001,0,0,0.25,-0,-0,0.66667
0.80828,0.67173,3.2331,0.2576,1.7727,4.1179,-2.2209,0.74031,-1.7633,-2.9612,2.4562e-10,-0.88167,0,0,0.25,-0,-0,0.66667
0.29529,0.40241,1.1812,-0.14639,-2.7686,36.428,0.4611,-0.1537,-1.9246,0.6148,1.4778e-11,-0.9623,0,0,0.25,7.4015e-16,0,0.66667
0.54412,0.35964,2.1765,-0.21055,-3.0487,17.666,1.222,-0.40733,-1.8419,1.6293,7e-13,-0.92096,0,0,0.25,-0,-0,0.66667
0.48792,0.019674,1.9517,-0.72049,-11.679,21.909,3.7498,-1.2499,-0.15379,4.9997,-1.2368e-13,-0.076895,0,0,0.25,1.1842e-15,0,0.66667
0.85536,0.75373,3.4214,0.38059,2.0141,2.7392,-3.4724,1.1575,-1.4853,-4.6299,8.5838e-10,-0.74264,0,0,0.25,2.3685e-15,0,0.66667
0.88839,0.49995,3.5535,-7.2455e-05,-0.00028344,1.656,0.00068659,-0.00022888,-2.0014,0.00091545,-2.158e-08,-1.0007,0,0,0.25,-1.5358e-15,0,0.66667
0.18438,0.37194,0.73754,-0.19209,-3.8538,45.967,0.37779,-0.12593,-1.8694,0.50372,-8.0129e-12,-0.93469,0,0,0.25,-1.4803e-16,0,0.66667
0.58535,0.020792,2.3414,-0.71881,-10.046,15.531,4.4881,-1.496,-0.16207,5.9841,-1.0836e-13,-0.081036,0,0,0.25,-0,-0,0.66667
0.89821,0.97006,3.5928,0.70509,2.8587,2.2249,-6.7553,2.2518,-0.2328,-9.0071,3.454e-08,-0.1164,0,0,0.25,-2.3685e-15,0,0.66667
0.44612,0.35913,1.7845,-0.21131,-3.4972,24.52,1.0055,-0.33517,-1.8403,1.3407,-1.0689e-12,-0.92013,0,0,0.25,-5.9212e-16,0,0.66667
0.92187,0.49659,3.6875,-0.0051189,-0.013408,0.95014,0.050336,-0.016779,-2.0012,0.067114,-2.8307e-07,-1.0006,0,0,0.25,-2.3685e-15,0,0.66667
0.27899,0.61758,1.116,0.17637,3.3726,37.8,-0.52487,0.17496,-1.8895,-0.69983,-2.8334e-11,-0.94476,0,0,0.25,2.9606e-16,0,0.66667
0.60883,0.34111,2.4353,-0.23833,-3.0747,13.633,1.5477,-0.51592,-1.7993,2.0637,1.4305e-12,-0.89967,0,0,0.25,-5.9212e-16,0,0.66667
0.68245,0.94513,2.7298,0.6677,7.5293,10.034,-4.8605,1.6202,-0.41447,-6.4807,-5.56e-13,-0.20724,0,0,0.25,2.3685e-15,0,0.66667
0.22821,0.027929,0.91282,-0.70811,-14.275,42.33,1.7237,-0.57456,-0.2173,2.2982,1.2156e-11,-0.10865,0,0,0.25,-2.9606e-16,0,0.66667
0.013768,0.77805,0.05507,0.41707,8.7278,61.307,-0.061248,0.020416,-1.3823,-0.081665,-8.0949e-09,-0.69117,0,0,0.25,2.313e-17,0,0.66667
0.41672,0.85534,1.6669,0.53301,9.2423,26.903,-2.3693,0.78975,-0.98913,-3.159,1.2272e-12,-0.49457,0,0,0.25,-0,-0,0.66667
0.93848,0.86094,3.7539,0.5414,1.2261,1.154,-5.4197,1.8066,-0.95781,-7.2263,2.267e-08,-0.47891,0,0,0.25,-0,-0,0.66667
0.34303,0.36286,1.3721,-0.20571,-3.7612,32.514,0.7527,-0.2509,-1.8497,1.0036,2.1815e-12,-0.92484,0,0,0.25,-0,-0,0.66667
0.77974,0.63537,3.119,0.20306,1.5883,5.1411,-1.6889,0.56296,-1.8534,-2.2518,1.2889e-10,-0.92672,0,0,0.25,-0,-0,0.66667
0.17474,0.41445,0.69895,-0.12832,-2.5813,46.811,0.23917,-0.079725,-1.9414,0.3189,3.1774e-11,-0.97068,0,0,0.25,-0,-0,0.66667
0.34195,0.60786,1.3678,0.16178,2.9578,32.591,-0.5901,0.1967,-1.9067,-0.7868,-2.2286e-12,-0.95336,0,0,0.25,-0,-0,0.66667
0.1446,0.66219,0.57839,0.24329,4.9547,49.498,-0.37525,0.12508,-1.7895,-0.50033,-4.9267e-10,-0.89475,0,0,0.25,-0,-0,0.66667
0.71677,0.78186,2.8671,0.42279,4.2174,8.0318,-3.2325,1.0775,-1.3657,-4.31,2.336e-11,-0.68287,0,0,0.25,-0,-0,0.66667
0.69931,0.22224,2.7972,-0.41665,-4.3737,8.8619,3.1079,-1.036,-1.3831,4.1438,-1.2165e-11,-0.69157,0,0,0.25,2.3685e-15,0,0.66667
0.6885,0.74969,2.754,0.37453,4.0385,9.3573,-2.7506,0.91685,-1.5029,-3.6674,9.0801e-12,-0.75144,0,0,0.25,-1.8504e-17,0,0.66667
0.2534,0.1817,1.0136,-0.47745,-9.3659,40.062,1.2905,-0.43016,-1.1896,1.7207,5.0574e-11,-0.59479,0,0,0.25,1.4803e-16,0,0.66667
0.69236,0.64782,2.7694,0.22173,2.3447,9.0518,-1.6375,0.54583,-1.8247,-2.1833,1.27e-11,-0.91237,0,0,0.25,5.9212e-16,0,0.66667
0.2273,0.64085,0.90919,0.21128,4.1609,42.224,-0.51224,0.17075,-1.8403,-0.68299,-1.1996e-10,-0.92015,0,0,0.25,-2.6917e-16,0,0.66667
0.42465,0.073921,1.6986,-0.63912,-11.074,26.399,2.8949,-0.96498,-0.54732,3.8599,-3.8303e-13,-0.27366,0,0,0.25,-0,-0,0.66667
0.37192,0.44403,1.4877,-0.083958,-1.495,30.179,0.33307,-0.11102,-1.975,0.4441,-2.1982e-13,-0.9875,0,0,0.25,-0,-0,0.66667
0.35531,0.85665,1.4212,0.53498,9.8188,31.679,-2.0276,0.67585,-0.98173,-2.7034,1.5463e-12,-0.49086,0,0,0.25,-0,-0,0.66667
0.057655,0.8131,0.23062,0.46965,9.8194,57.337,-0.28883,0.096276,-1.2165,-0.3851,-1.5777e-08,-0.60825,0,0,0.25,-1.4803e-16,0,0.66667
0.63165,0.2477,2.5266,-0.37845,-4.6878,12.405,2.5498,-0.84994,-1.491,3.3997,1.6449e-12,-0.74552,0,0,0.25,-5.9212e-16,0,0.66667
0.70732,0.67901,2.8293,0.26851,2.7259,8.346,-2.0259,0.67528,-1.7433,-2.7011,2.2724e-11,-0.87164,0,0,0.25,-5.9212e-16,0,0.66667
0.61359,0.30847,2.4544,-0.2873,-3.6785,13.38,1.8803,-0.62678,-1.7067,2.5071,1.7809e-12,-0.85337,0,0,0.25,-5.9212e-16,0,0.66667
0.64831,0.033284,2.5933,-0.70007,-8.6051,11.875,4.8412,-1.6137,-0.2577,6.455,1.017e-13,-0.12885,0,0,0.25,2.3685e-15,0,0.66667
0.16994,0.43088,0.67976,-0.10368,-2.0887,47.234,0.18795,-0.06265,-1.9621,0.2506,5.8237e-10,-0.98104,0,0,0.25,-4.7405e-17,0,0.66667
0.14945,0.55898,0.59779,0.088468,1.7943,49.053,-0.14103,0.047009,-1.9722,-0.18803,1.5161e-09,-0.98611,0,0,0.25,-1.778e-16,0,0.66667
0.51418,0.30033,2.0567,-0.2995,-4.5533,19.714,1.6426,-0.54755,-1.681,2.1902,2.075e-13,-0.8405,0,0,0.25,5.9212e-16,0,0.66667
0.87533,0.54355,3.5013,0.065318,0.28796,1.9842,-0.60986,0.20329,-1.9851,-0.81315,1.597e-09,-0.99255,0,0,0.25,-0,-0,0.66667
0.18395,0.46484,0.73581,-0.052738,-1.0564,45.994,0.10348,-0.034494,-1.9905,0.13797,3.6244e-10,-0.99523,0,0,0.25,-4.4409e-16,0,0.66667
0.46284,0.77951,1.8514,0.41926,6.8601,23.402,-2.0699,0.68996,-1.3754,-2.7598,5.1048e-13,-0.68771,0,0,0.25,8.1416e-16,0,0.66667
0.42893,0.70663,1.7157,0.30994,5.2457,25.841,-1.4181,0.47269,-1.6575,-1.8908,1.4873e-12,-0.82876,0,0,0.25,5.9212e-16,0,0.66667
0.49729,0.85799,1.9892,0.53699,8.4701,21.055,-2.8484,0.94947,-0.97431,-3.7979,-1.2856e-13,-0.48715,0,0,0.25,-0,-0,0.66667
0.16151,0.44092,0.64604,-0.088626,-1.7904,47.98,0.15268,-0.050894,-1.9723,0.20358,2.7008e-10,-0.98613,0,0,0.25,-0,-0,0.66667
0.34244,0.70226,1.3698,0.30339,5.5653,32.592,-1.1082,0.3694,-1.6726,-1.4776,-1.8074e-12,-0.83632,0,0,0.25,-0,-0,0.66667
0.26188,0.69858,1.0475,0.29787,5.7724,39.277,-0.83207,0.27736,-1.684,-1.1094,-5.9643e-11,-0.84201,0,0,0.25,-0,-0,0.66667
0.84453,0.44797,3.3781,-0.078039,-0.43241,2.8459,0.703,-0.23433,-1.9786,0.93734,6.0666e-10,-0.98929,0,0,0.25,-0,-0,0.66667
0.80033,0.99014,3.2013,0.7352,5.6213,5.0761,-6.2763,2.0921,-0.07777,-8.3685,-1.6982e-10,-0.038885,0,0,0.25,-0,-0,0.66667
0.42664,0.4639,1.7066,-0.054156,-0.91361,25.943,0.24646,-0.082152,-1.9896,0.32861,-5.6816e-13,-0.99479,0,0,0.25,8.8818e-16,0,0.66667
0.60702,0.010805,2.4281,-0.73379,-9.8679,14.26,4.7512,-1.5837,-0.085299,6.3349,1.1369e-13,-0.042649,0,0,0.25,-0,2.6789e-16,0.66667
0.14547,0.5616,0.58186,0.092399,1.8764,49.408,-0.14337,0.04779,-1.9703,-0.19116,3.6434e-10,-0.98517,0,0,0.25,-5.5511e-17,0,0.66667
0.50961,0.58758,2.0385,0.13137,2.0004,19.961,-0.71411,0.23804,-1.9383,-0.95214,-2.604e-13,-0.96916,0,0,0.25,-0,-0,0.66667
0.29695,0.43294,1.1878,-0.10059,-1.8991,36.283,0.31861,-0.1062,-1.9652,0.42481,1.0798e-11,-0.98258,0,0,0.25,1.4803e-16,0,0.66667
0.85965,0.31459,3.4386,-0.27812,-1.4086,2.5158,2.5502,-0.85007,-1.7265,3.4003,-1.0546e-09,-0.86324,0,0,0.25,-0,-0,0.66667
0.6716,0.41055,2.6864,-0.13418,-1.4956,10.078,0.9612,-0.3204,-1.9371,1.2816,-4.285e-12,-0.96855,0,0,0.25,-0,-0,0.66667
0.63347,0.15335,2.5339,-0.51997,-6.4838,12.445,3.5135,-1.1712,-1.0388,4.6846,1.7797e-12,-0.51941,0,0,0.25,-1.4408e-15,0,0.66667
0.12475,0.44549,0.49901,-0.081772,-1.6702,51.26,0.10881,-0.036271,-1.9769,0.14508,-5.4488e-09,-0.98843,0,0,0.25,-0,-0,0.66667
0.47059,0.32321,1.8824,-0.26519,-4.2692,22.755,1.3311,-0.44371,-1.7499,1.7749,-7.7249e-13,-0.87494,0,0,0.25,-0,-0,0.66667
0.98657,0.73172,3.9463,0.34759,0.038582,0.3033,-3.6578,1.2193,-1.5701,-4.8771,1.1591e-08,-0.78507,0,0,0.25,-0,-0,0.66667
0.9483,0.38557,3.7932,-0.17165,-0.27397,0.56681,1.7362,-0.57875,-1.8946,2.315,-2.7042e-08,-0.9473,0,0,0.25,-2.3685e-15,0,0.66667
0.64509,0.87411,2.5803,0.56117,6.8457,11.85,-3.8614,1.2871,-0.88106,-5.1485,-1.654e-12,-0.44053,0,0,0.25,1.7023e-15,0,0.66667
0.15172,0.86373,0.6069,0.54559,11.222,48.928,-0.88298,0.29433,-0.94098,-1.1773,-1.8839e-09,-0.47049,0,0,0.25,1.4803e-16,0,0.66667
0.63913,0.73845,2.5565,0.35768,4.3523,11.966,-2.4384,0.8128,-1.5451,-3.2512,-1.0405e-12,-0.77255,0,0,0.25,-0,-0,0.66667
0.56566,0.97989,2.2626,0.71983,10.41,16.75,-4.3433,1.4478,-0.15727,-5.791,1.8652e-14,-0.078633,0,0,0.25,-0,-0,0.66667
0.46867,0.55926,1.8747,0.088886,1.4286,22.842,-0.44435,0.14812,-1.9733,-0.59247,4.5605e-13,-0.98663,0,0,0.25,-2.9606e-16,0,0.66667
0.42804,0.5768,1.7121,0.1152,1.9417,25.845,-0.52596,0.17532,-1.9519,-0.70128,9.1582e-13,-0.97594,0,0,0.25,-5.9212e-16,0,0.66667
0.59927,0.50969,2.3971,0.014532,0.19021,14.144,-0.092893,0.030964,-1.9986,-0.12386,-4.0964e-13,-0.9993,0,0,0.25,-0,-0,0.66667
0.84997,0.52678,3.3999,0.040168,0.21448,2.6773,-0.36418,0.12139,-1.9942,-0.48557,1.5385e-09,-0.99709,0,0,0.25,1.1842e-15,0,0.66667
0.75112,0.24786,3.0045,-0.37821,-3.3519,6.4484,3.0302,-1.0101,-1.4926,4.0403,-8.3209e-11,-0.74631,0,0,0.25,-2.9606e-16,0,0.66667
0.57936,0.55503,2.3174,0.082548,1.1224,15.372,-0.51014,0.17005,-1.9762,-0.68018,-6.2494e-13,-0.98808,0,0,0.25,-5.9212e-16,0,0.66667
0.9247,0.55605,3.6988,0.08407,0.2115,0.90994,-0.82922,0.27641,-1.975,-1.1056,8.8131e-08,-0.98749,0,0,0.25,-5.9212e-16,0,0.66667
0.06474,0.071573,0.25896,-0.64264,-13.553,56.719,0.44378,-0.14793,-0.53156,0.59171,5.566e-08,-0.26578,0,0,0.25,1.4803e-16,0,0.66667
0.99135,0.18605,3.9654,-0.47093,-0.0067186,0.44626,4.9798,-1.6599,-1.2119,6.6397,-2.6165e-08,-0.60594,0,0,0.25,1.4803e-16,0,0.66667
0.052995,0.087282,0.21198,-0.61908,-13.055,57.773,0.34995,-0.11665,-0.63696,0.4666,-6.2456e-09,-0.31848,0,0,0.25,-0,-0,0.66667
0.1995,0.6076,0.79798,0.1614,3.2163,44.637,-0.34344,0.11448,-1.9068,-0.45793,-1.2624e-10,-0.95339,0,0,0.25,-0,-0,0.66667
0.42275,0.48425,1.691,-0.023632,-0.40028,26.235,0.10657,-0.035522,-1.998,0.14209,-6.1479e-14,-0.99902,0,0,0.25,-0,-0,0.66667
0.10751,0.1584,0.43004,-0.5124,-10.646,52.858,0.58761,-0.19587,-1.0675,0.78347,1.4679e-08,-0.53374,0,0,0.25,-0,-0,0.66667
0.62367,0.27271,2.4947,-0.34093,-4.2864,12.831,2.268,-0.75601,-1.587,3.0241,1.5696e-12,-0.79348,0,0,0.25,5.9212e-16,0,0.66667
0.047993,0.073561,0.19197,-0.63966,-13.513,58.226,0.32745,-0.10915,-0.5453,0.43661,-7.6193e-09,-0.27265,0,0,0.25,-7.4015e-17,0,0.66667
0.28462,0.58312,1.1385,0.12468,2.3737,37.318,-0.37853,0.12618,-1.9443,-0.5047,-1.9012e-11,-0.97216,0,0,0.25,-2.9606e-16,0,0.66667
0.061037,0.52665,0.24415,0.039981,0.8265,57.008,-0.02603,0.0086765,-1.995,-0.034707,-3.0012e-07,-0.99751,0,0,0.25,-7.4015e-17,0,0.66667
0.70352,0.70154,2.8141,0.30231,3.1096,8.5539,-2.2686,0.75619,-1.6752,-3.0248,1.9825e-11,-0.83762,0,0,0.25,-1.1842e-15,0,0.66667
0.66846,0.56295,2.6738,0.094426,1.0601,10.233,-0.67327,0.22442,-1.9693,-0.8977,2.8461e-12,-0.98466,0,0,0.25,-2.3685e-15,0,0.66667
0.37858,0.6871,1.5143,0.28065,4.9883,29.701,-1.1333,0.37777,-1.7209,-1.5111,1.6177e-12,-0.86047,0,0,0.25,5.9212e-16,0,0.66667
0.18819,0.02023,0.75278,-0.71965,-14.776,45.793,1.4446,-0.48155,-0.15879,1.9262,6.2947e-11,-0.079397,0,0,0.25,5.9212e-16,0,0.66667
0.747,0.50918,2.988,0.013767,0.12178,6.4352,-0.1097,0.036567,-1.9991,-0.14627,3.8572e-12,-0.99955,0,0,0.25,-0,-0,0.66667
0.34038,0.80899,1.3615,0.46348,8.5749,32.833,-1.6828,0.56092,-1.2367,-2.2437,8.3378e-14,-0.61833,0,0,0.25,1.4803e-16,0,0.66667
0.7953,0.52375,3.1812,0.035631,0.25861,4.4934,-0.30227,0.10076,-1.9958,-0.40302,7.5067e-12,-0.99789,0,0,0.25,-0,-0,0.66667
0.4879,0.56509,1.9516,0.097637,1.5311,21.468,-0.50813,0.16938,-1.9667,-0.67751,9.0483e-14,-0.98334,0,0,0.25,-0,-0,0.66667
0.52567,0.96997,2.1027,0.70495,10.835,19.316,-3.9528,1.3176,-0.2336,-5.2703,-2.6623e-13,-0.1168,0,0,0.25,-0,-0,0.66667
0.028491,0.57824,0.11396,0.11736,2.4348,59.964,-0.035666,0.011889,-1.9506,-0.047554,3.2867e-07,-0.97529,0,0,0.25,-0,-0,0.66667
0.64423,0.66446,2.5769,0.2467,2.9502,11.606,-1.6953,0.56508,-1.7834,-2.2603,1.0836e-13,-0.89168,0,0,0.25,-0,-0,0.66667
0.35066,0.41714,1.4026,-0.12428,-2.2549,31.882,0.46486,-0.15495,-1.9443,0.61982,6.8284e-13,-0.97213,0,0,0.25,-0,-0,0.66667
0.22921,0.98754,0.91682,0.73131,14.761,42.258,-1.788,0.59598,-0.097636,-2.3839,2.1138e-11,-0.048818,0,0,0.25,-2.9606e-16,0,0.66667
0.43388,0.23147,1.7355,-0.40279,-6.8081,25.521,1.8642,-0.62139,-1.4226,2.4855,-1.5601e-12,-0.71129,0,0,0.25,-0,-0,0.66667
0.38247,0.74851,1.5299,0.37277,6.6254,29.437,-1.5208,0.50693,-1.5063,-2.0277,1.4856e-12,-0.75316,0,0,0.25,7.4015e-16,0,0.66667
0.46979,0.99139,1.8792,0.73708,12.239,23.208,-3.6936,1.2312,-0.068637,-4.9248,2.0384e-13,-0.034318,0,0,0.25,-1.7764e-15,0,0.66667
0.97948,0.35597,3.9179,-0.21605,-0.071617,0.23322,2.2573,-0.75242,-1.8333,3.0097,5.7897e-08,-0.91665,0,0,0.25,-0,-0,0.66667
0.36438,0.42522,1.4575,-0.11217,-2.0113,30.781,0.43598,-0.14533,-1.9545,0.5813,-2.5555e-13,-0.97725,0,0,0.25,5.9212e-16,0,0.66667
0.77441,0.93138,3.0976,0.64707,5.4291,5.8709,-5.345,1.7817,-0.51095,-7.1267,1.5077e-11,-0.25548,0,0,0.25,-5.9212e-16,0,0.66667
0.55277,0.45897,2.2111,-0.061552,-0.87621,17.062,0.36292,-0.12097,-1.9858,0.48389,5.1487e-14,-0.99292,0,0,0.25,5.9212e-16,0,0.66667
0.88913,0.82647,3.5565,0.48971,2.0242,2.0175,-4.6444,1.5481,-1.1472,-6.1926,1.9173e-09,-0.5736,0,0,0.25,-0,-0,0.66667
0.35495,0.74497,1.4198,0.36746,6.6886,31.612,-1.3913,0.46376,-1.5199,-1.855,6.8012e-13,-0.75997,0,0,0.25,-0,-0,0.66667
0.24552,0.12662,0.98207,-0.56008,-11.084,40.771,1.4668,-0.48892,-0.88528,1.9557,4.0664e-11,-0.44264,0,0,0.25,5.9212e-16,0,0.66667
0.91102,0.49408,3.6441,-0.0088781,-0.027023,1.1599,0.086273,-0.028758,-1.9996,0.11503,1.5607e-07,-0.99979,0,0,0.25,1.7764e-15,0,0.66667
0.043534,0.66162,0.17414,0.24243,5.0353,58.601,-0.11257,0.037525,-1.7912,-0.1501,3.2797e-08,-0.8956,0,0,0.25,-0,-0,0.66667
0.95075,0.70915,3.803,0.31372,0.49198,0.64898,-3.1816,1.0605,-1.6499,-4.2421,-6.1091e-09,-0.82497,0,0,0.25,1.1842e-15,0,0.66667
0.55641,0.5027,2.2256,0.0040521,0.057316,16.822,-0.024049,0.0080165,-2.0002,-0.032066,-2.0399e-13,-1.0001,0,0,0.25,-0,-0,0.66667
0.37636,0.60035,1.5055,0.15052,2.672,29.838,-0.60427,0.20142,-1.9199,-0.80569,5.6988e-13,-0.95995,0,0,0.25,-0,-0,0.66667
0.99505,0.896,3.9802,0.594,-0.0040685,0.65428,-6.3046,2.1015,-0.74486,-8.4062,3.3331e-07,-0.37243,0,0,0.25,-1.1842e-15,2.6105e-16,0.66667
0.058363,0.50854,0.23345,0.012815,0.26497,57.25,-0.0079775,0.0026598,-1.9991,-0.010636,9.1826e-07,-0.99953,0,0,0.25,-0,-0,0.66667
0.51671,0.80625,2.0668,0.45937,7.016,19.653,-2.5318,0.84394,-1.2503,-3.3758,-3.3062e-13,-0.62514,0,0,0.25,-5.9212e-16,0,0.66667
0.031097,0.74523,0.12439,0.36785,7.6769,59.734,-0.12202,0.040672,-1.52,-0.16269,2.3064e-09,-0.75998,0,0,0.25,-0,-0,0.66667
0.57118,0.0011151,2.2847,-0.74833,-10.754,16.448,4.5592,-1.5197,-0.0093969,6.079,7.1454e-13,-0.0046984,0,0,0.25,-4.737e-15,0,0.66667
0.18047,0.69963,0.72187,0.29944,6.0332,46.329,-0.57643,0.19214,-1.6803,-0.76857,-3.1093e-10,-0.84014,0,0,0.25,-2.9606e-16,0,0.66667
0.63096,0.3873,2.5238,-0.16904,-2.077,12.315,1.1377,-0.37924,-1.8975,1.5169,2.4569e-13,-0.94877,0,0,0.25,-0,-0,0.66667
0.98092,0.77526,3.9237,0.41289,0.165,0.43625,-4.3201,1.44,-1.3939,-5.7602,-3.9695e-09,-0.69696,0,0,0.25,-0,-0,0.66667
0.8749,0.21868,3.4996,-0.42198,-1.9432,2.2656,3.938,-1.3127,-1.3688,5.2507,-5.0559e-10,-0.68442,0,0,0.25,-1.6977e-15,0,0.66667
0.45184,0.39203,1.8073,-0.16195,-2.6595,24.083,0.78053,-0.26018,-1.9067,1.0407,-8.6731e-13,-0.95333,0,0,0.25,-0,-0,0.66667
0.70846,0.7781,2.8338,0.41715,4.2645,8.4193,-3.1524,1.0508,-1.3815,-4.2032,1.7747e-11,-0.69075,0,0,0.25,-1.4803e-15,0,0.66667
0.77747,0.31181,3.1099,-0.28228,-2.2406,5.2834,2.341,-0.78032,-1.7176,3.1213,-1.5896e-10,-0.85879,0,0,0.25,1.2583e-15,0,0.66667
0.49484,0.46284,1.9794,-0.055739,-0.86558,20.974,0.29421,-0.09807,-1.9888,0.39228,-1.3631e-13,-0.99438,0,0,0.25,-2.9606e-16,0,0.66667
0.52853,0.82472,2.1141,0.48708,7.324,18.882,-2.746,0.91534,-1.1561,-3.6614,-5.7376e-13,-0.57804,0,0,0.25,-0,-0,0.66667
0.15078,0.95618,0.60314,0.68427,14.199,49.057,-1.1006,0.36685,-0.33438,-1.4674,-5.2846e-10,-0.16719,0,0,0.25,-0,-0,0.66667
0.3694,0.86627,1.4776,0.5494,9.9727,30.572,-2.1648,0.7216,-0.92621,-2.8864,1.7417e-12,-0.46311,0,0,0.25,-5.9212e-16,0,0.66667
0.14222,0.52989,0.56889,0.044832,0.91101,49.696,-0.068011,0.02267,-1.9941,-0.090681,2.1248e-09,-0.99705,0,0,0.25,2.9606e-16,0,0.66667
0.72689,0.79734,2.9076,0.44601,4.3193,7.59,-3.4581,1.1527,-1.2917,-4.6108,3.0512e-11,-0.64586,0,0,0.25,-1.1842e-15,0,0.66667
0.47701,0.11649,1.9081,-0.57526,-9.3416,22.515,2.927,-0.97566,-0.82274,3.9027,-3.0242e-13,-0.41137,0,0,0.25,5.9212e-16,0,0.66667
0.44888,0.48481,1.7955,-0.02278,-0.37477,24.281,0.10907,-0.036357,-1.9974,0.14543,-2.1582e-13,-0.99871,0,0,0.25,-0,-0,0.66667
0.886,0.36503,3.544,-0.20246,-0.81916,1.7775,1.9134,-0.6378,-1.8537,2.5512,2.1714e-09,-0.92685,0,0,0.25,1.1842e-15,0,0.66667
0.52762,0.20483,2.1105,-0.44276,-6.6478,18.904,2.4918,-0.83061,-1.3024,3.3224,3.4928e-13,-0.65118,0,0,0.25,5.9212e-16,0,0.66667
0.40909,0.21943,1.6364,-0.42085,-7.3074,27.404,1.8364,-0.61215,-1.3713,2.4486,-1.473e-12,-0.68567,0,0,0.25,-1.1842e-15,0,0.66667
0.26889,0.11081,1.0756,-0.58378,-11.419,38.802,1.6744,-0.55813,-0.7877,2.2325,1.0738e-11,-0.39385,0,0,0.25,-0,-0,0.66667
0.072012,0.5675,0.28805,0.10124,2.0907,56.014,-0.077769,0.025923,-1.9634,-0.10369,-1.2782e-07,-0.9817,0,0,0.25,-0,-0,0.66667
0.41814,0.52188,1.6725,0.032816,0.55857,26.585,-0.14636,0.048788,-1.9958,-0.19515,8.6722e-14,-0.9979,0,0,0.25,-0,-0,0.66667
0.025753,0.45813,0.10301,-0.062798,-1.3024,60.213,0.017251,-0.0057491,-1.9853,0.023002,1.8193e-06,-0.99263,0,0,0.25,-0,-0,0.66667
0.29115,0.94646,1.1646,0.66969,12.996,36.995,-2.0798,0.69327,-0.40481,-2.7731,-2.4425e-13,-0.2024,0,0,0.25,-0,-0,0.66667
0.50351,0.52561,2.014,0.03842,0.58949,20.368,-0.20635,0.068782,-1.9948,-0.27513,5.7926e-14,-0.99742,0,0,0.25,-5.9212e-16,0,0.66667
0.96593,0.65248,3.8637,0.22872,0.20578,0.3808,-2.3566,0.78554,-1.8145,-3.1422,5.342e-09,-0.90725,0,0,0.25,5.8203e-16,0,0.66667
0.10938,0.024019,0.43753,-0.71397,-15.01,52.738,0.83303,-0.27768,-0.18833,1.1107,1.1573e-08,-0.094164,0,0,0.25,-1.4803e-16,0,0.66667
0.67304,0.12264,2.6922,-0.56604,-6.4633,10.364,4.0636,-1.3545,-0.86198,5.4182,4.3077e-13,-0.43099,0,0,0.25,2.9606e-16,0,0.66667
0.49993,0.27832,1.9997,-0.33252,-5.165,20.714,1.7732,-0.59107,-1.6083,2.3643,-7.4385e-14,-0.80413,0,0,0.25,1.4801e-16,0,0.66667
0.7771,0.67419,3.1084,0.26129,2.0741,5.2822,-2.1658,0.72194,-1.7566,-2.8877,1.458e-10,-0.87829,0,0,0.25,-0,-0,0.66667
0.14361,0.50882,0.57443,0.013232,0.26874,49.572,-0.020269,0.0067563,-1.9992,-0.027025,-6.4855e-10,-0.9996,0,0,0.25,-0,-0,0.66667
0.083203,0.96121,0.33281,0.69181,14.596,55.071,-0.61398,0.20466,-0.29793,-0.81863,2.7306e-08,-0.14896,0,0,0.25,4.9266e-17,0,0.66667
0.39922,0.32228,1.5969,-0.26658,-4.6449,28.087,1.1352,-0.3784,-1.7466,1.5136,-2.0297e-12,-0.87328,0,0,0.25,-0,-0,0.66667
0.79696,0.33682,3.1878,-0.24477,-1.7776,4.5152,2.0808,-0.69359,-1.7878,2.7743,-1.8709e-10,-0.89389,0,0,0.25,-1.1842e-15,0,0.66667
0.19168,0.28407,0.7667,-0.32389,-6.5022,45.349,0.66221,-0.22074,-1.6274,0.88295,3.3595e-10,-0.81371,0,0,0.25,5.9212e-16,0,0.66667
0.76778,0.65575,3.0711,0.23363,1.923,5.636,-1.9134,0.63778,-1.8072,-2.5511,1.0148e-10,-0.9036,0,0,0.25,2.9606e-16,0,0.66667
0.2903,0.98991,1.1612,0.73486,14.339,37.113,-2.2755,0.7585,-0.07917,-3.034,1.0829e-12,-0.039585,0,0,0.25,5.9212e-16,0,0.66667
0.21689,0.72754,0.86757,0.34131,6.7809,43.154,-0.78962,0.26321,-1.5859,-1.0528,-1.9807e-10,-0.79294,0,0,0.25,5.9212e-16,0,0.66667
0.016716,0.41989,0.066862,-0.12016,-2.4945,61.035,0.021424,-0.0071415,-1.9486,0.028566,-1.4219e-07,-0.97432,0,0,0.25,-0,-0,0.66667
0.39866,0.24323,1.5946,-0.38515,-6.7453,28.185,1.6378,-0.54594,-1.4721,2.1838,-2.0607e-12,-0.73605,0,0,0.25,5.9212e-16,0,0.66667
0.38108,0.80404,1.5243,0.45606,8.1487,29.592,-1.8538,0.61794,-1.2599,-2.4718,2.2191e-12,-0.62995,0,0,0.25,-2.9606e-16,0,0.66667
0.65934,0.70888,2.6374,0.31331,3.6274,10.824,-2.2035,0.73451,-1.6507,-2.9381,1.7482e-12,-0.82533,0,0,0.25,5.9212e-16,0,0.66667
0.070918,0.10029,0.28367,-0.59956,-12.6,56.157,0.45355,-0.15118,-0.72145,0.60473,1.4599e-07,-0.36073,0,0,0.25,1.4803e-16,0,0.66667
0.1526,0.82149,0.61042,0.48223,9.883,48.833,-0.78496,0.26165,-1.1728,-1.0466,-1.334e-09,-0.58642,0,0,0.25,-0,-0,0.66667
0.016576,0.39518,0.066304,-0.15723,-3.2657,61.048,0.0278,-0.0092667,-1.9122,0.037067,1.4846e-07,-0.95612,0,0,0.25,-0,-0,0.66667
0.1138,0.9323,0.45519,0.64844,13.559,52.327,-0.7871,0.26237,-0.50496,-1.0495,-4.1907e-09,-0.25248,0,0,0.25,1.4803e-16,0,0.66667
0.65179,0.87058,2.6072,0.55587,6.6745,11.477,-3.8646,1.2882,-0.90149,-5.1528,-1.2643e-12,-0.45075,0,0,0.25,-5.9212e-16,0,0.66667
0.40266,0.8907,1.6106,0.58605,10.342,28.017,-2.5171,0.83902,-0.77822,-3.3561,9.4325e-13,-0.38911,0,0,0.25,-0,-0,0.66667
0.32103,0.24001,1.2841,-0.38998,-7.2962,34.37,1.3354,-0.44513,-1.4585,1.7805,4.6774e-12,-0.72925,0,0,0.25,-0,-0,0.66667
0.55791,0.011784,2.2316,-0.73232,-10.74,17.257,4.3581,-1.4527,-0.092483,5.8108,4.5741e-13,-0.046241,0,0,0.25,-2.3685e-15,0,0.66667
0.99346,0.25567,3.9738,-0.36649,0.06081,0.27792,3.8837,-1.2946,-1.5222,5.1782,-5.4778e-09,-0.76108,0,0,0.25,-0,-0,0.66667
0.83449,0.64213,3.3379,0.2132,1.2667,3.214,-1.8977,0.63257,-1.8374,-2.5303,3.526e-10,-0.91872,0,0,0.25,-1.1842e-15,0,0.66667
0.69962,0.47152,2.7985,-0.042723,-0.44047,8.6328,0.31883,-0.10628,-1.9941,0.4251,-4.3191e-12,-0.99703,0,0,0.25,-0,-0,0.66667
0.91826,0.45531,3.673,-0.067028,-0.18543,1.0252,0.65653,-0.21884,-1.9834,0.87537,-1.7855e-08,-0.99172,0,0,0.25,-0,-0,0.66667
0.039729,0.58536,0.15891,0.12804,2.6547,58.943,-0.05426,0.018087,-1.9411,-0.072346,2.0642e-08,-0.97054,0,0,0.25,-3.7007e-17,0,0.66667
0.070333,0.43132,0.28133,-0.10302,-2.1279,56.166,0.077286,-0.025762,-1.9619,0.10305,1.0622e-07,-0.98094,0,0,0.25,7.8653e-17,0,0.66667
0.47401,0.72245,1.896,0.33368,5.3629,22.544,-1.6871,0.56236,-1.6043,-2.2495,6.5781e-13,-0.80213,0,0,0.25,-1.1842e-15,0,0.66667
0.34917,0.38147,1.3967,-0.1778,-3.2327,32.012,0.6622,-0.22073,-1.8873,0.88293,1.2214e-12,-0.94365,0,0,0.25,-0,-0,0.66667
0.93725,0.73267,3.749,0.34901,0.74556,0.88748,-3.4892,1.1631,-1.5671,-4.6522,-5.0297e-09,-0.78357,0,0,0.25,-0,-0,0.66667
0.48956,0.74759,1.9583,0.37139,5.8605,21.463,-1.9394,0.64646,-1.51,-2.5858,1.7031e-13,-0.75498,0,0,0.25,-2.9606e-16,0,0.66667
0.53965,0.95875,2.1586,0.68813,10.341,18.372,-3.961,1.3203,-0.31559,-5.2814,1.4189e-13,-0.1578,0,0,0.25,5.9212e-16,0,0.66667
0.89526,0.38722,3.581,-0.16917,-0.62276,1.5425,1.6155,-0.5385,-1.8975,2.154,5.1438e-10,-0.94877,0,0,0.25,-0,-0,0.66667
0.44664,0.48058,1.7865,-0.029131,-0.48053,24.447,0.13879,-0.046262,-1.9961,0.18505,-2.3462e-13,-0.99806,0,0,0.25,-0,-0,0.66667
0.87703,0.93144,3.5081,0.64717,3.0902,2.5872,-6.0543,2.0181,-0.5112,-8.0723,1.2445e-08,-0.2556,0,0,0.25,-5.9212e-16,0,0.66667
0.25358,0.91663,1.0143,0.62495,12.363,40.119,-1.6904,0.56347,-0.61091,-2.2539,-1.1064e-11,-0.30545,0,0,0.25,-0,-0,0.66667
0.27381,0.97812,1.0952,0.71719,14.117,38.473,-2.0946,0.69821,-0.17045,-2.7929,-5.862e-14,-0.085225,0,0,0.25,-5.9212e-16,0,0.66667
0.32836,0.54779,1.3134,0.071681,1.3229,33.685,-0.25106,0.083688,-1.982,-0.33475,-2.6507e-12,-0.99098,0,0,0.25,-5.9212e-16,0,0.66667
0.54756,0.32738,2.1903,-0.25893,-3.7346,17.462,1.5123,-0.5041,-1.7617,2.0164,8.8929e-13,-0.88085,0,0,0.25,-0,-0,0.66667
0.22013,0.20872,0.88051,-0.43692,-8.7008,42.902,1.0259,-0.34196,-1.3214,1.3679,1.5808e-10,-0.66068,0,0,0.25,2.9606e-16,0,0.66667
0.67143,0.24719,2.6857,-0.37921,-4.2782,10.237,2.7159,-0.9053,-1.49,3.6212,-3.4162e-12,-0.745,0,0,0.25,-1.4803e-16,0,0.66667
0.14279,0.63638,0.57117,0.20457,4.1646,49.655,-0.31158,0.10386,-1.851,-0.41544,-1.6902e-10,-0.92551,0,0,0.25,-0,-0,0.66667
0.0941,0.72147,0.3764,0.33221,6.8685,54.035,-0.33345,0.11115,-1.609,-0.4446,1.6975e-10,-0.80448,0,0,0.25,-2.9606e-16,0,0.66667
0.87019,0.14565,3.4808,-0.53152,-2.5984,2.5483,4.9336,-1.6445,-0.99487,6.5781,-1.4297e-09,-0.49743,0,0,0.25,1.1842e-15,0,0.66667
0.23687,0.47229,0.94747,-0.04157,-0.81291,41.379,0.10503,-0.035011,-1.9945,0.14004,1.7281e-11,-0.99724,0,0,0.25,-0,-0,0.66667
0.386,0.6026,1.544,0.15389,2.7079,29.081,-0.63364,0.21121,-1.9153,-0.84486,8.7536e-13,-0.95766,0,0,0.25,-0,-0,0.66667
0.57154,0.018526,2.2862,-0.72221,-10.344,16.386,4.4029,-1.4676,-0.14455,5.8706,8.4377e-14,-0.072273,0,0,0.25,-0,-0,0.66667
0.5258,0.25784,2.1032,-0.36324,-5.4445,18.966,2.0372,-0.67908,-1.5304,2.7163,4.5475e-13,-0.7652,0,0,0.25,-0,-0,0.66667
0.076024,0.90391,0.3041,0.60587,12.728,55.699,-0.49131,0.16377,-0.69575,-0.65509,-1.6335e-07,-0.34788,0,0,0.25,-2.0354e-16,0,0.66667
0.87413,0.35793,3.4965,-0.2131,-0.95819,2.0792,1.987,-0.66233,-1.8386,2.6493,-5.8226e-10,-0.91928,0,0,0.25,1.1842e-15,0,0.66667
0.95114,0.77545,3.8045,0.41317,0.6725,0.76599,-4.1918,1.3973,-1.3934,-5.5891,-1.15e-08,-0.69671,0,0,0.25,-0,-0,0.66667
0.81251,0.63958,3.25,0.20937,1.4053,3.9381,-1.8146,0.60486,-1.8444,-2.4194,2.3147e-10,-0.92222,0,0,0.25,1.1842e-15,0,0.66667
0.2838,0.19715,1.1352,-0.45428,-8.7429,37.484,1.3752,-0.4584,-1.2661,1.8336,1.9212e-11,-0.63304,0,0,0.25,-0,-0,0.66667
0.52785,0.54238,2.1114,0.063566,0.94143,18.709,-0.3579,0.1193,-1.9852,-0.4772,-3.4323e-13,-0.99259,0,0,0.25,-1.1842e-15,0,0.66667
0.33942,0.6917,1.3577,0.28755,5.2847,32.831,-1.0411,0.34702,-1.7062,-1.3881,-2.6056e-12,-0.85309,0,0,0.25,-0,-0,0.66667
0.55467,0.71557,2.2187,0.32335,4.6223,17.038,-1.9131,0.6377,-1.6283,-2.5508,-1.2356e-12,-0.81416,0,0,0.25,-8.8818e-16,0,0.66667
0.9744,0.85768,3.8976,0.53653,0.42564,0.69913,-5.5765,1.8588,-0.97561,-7.4353,1.113e-08,-0.48781,0,0,0.25,-0,-0,0.66667
0.3117,0.86391,1.2468,0.54586,10.364,35.217,-1.8149,0.60497,-0.94076,-2.4199,-1.8506e-12,-0.47038,0,0,0.25,2.9606e-16,0,0.66667
0.6688,0.99836,2.6752,0.74754,8.8115,10.868,-5.3328,1.7776,-0.013959,-7.1104,-3.455e-13,-0.0069797,0,0,0.25,3.9968e-15,5.8963e-17,0.66667
0.32597,0.8812,1.3039,0.5718,10.763,34.067,-1.9882,0.66272,-0.83777,-2.6509,4.5564e-13,-0.41889,0,0,0.25,-0,-0,0.66667
0.77448,0.34938,3.0979,-0.22594,-1.8091,5.3621,1.8665,-0.62216,-1.8182,2.4886,-1.2429e-10,-0.90911,0,0,0.25,2.3685e-15,0,0.66667
0.32581,0.25011,1.3032,-0.37483,-6.9835,33.972,1.3026,-0.43421,-1.5018,1.7369,3.767e-12,-0.75089,0,0,0.25,-0,-0,0.66667
0.88983,0.0015812,3.5593,-0.74763,-3.318,2.5063,7.0961,-2.3654,-0.014056,9.4615,2.1127e-08,-0.007028,0,0,0.25,-0,-0,0.66667
0.75171,0.21483,3.0068,-0.42776,-3.8006,6.4768,3.4299,-1.1433,-1.3502,4.5731,-7.1207e-11,-0.67508,0,0,0.25,1.4803e-15,0,0.66667
0.76263,0.35341,3.0505,-0.21989,-1.8454,5.8382,1.7887,-0.59625,-1.8278,2.385,-9.4897e-11,-0.91391,0,0,0.25,-0,-0,0.66667
0.46948,0.0077026,1.8779,-0.73845,-12.268,23.231,3.698,-1.2327,-0.061652,4.9306,-3.3706e-13,-0.030826,0,0,0.25,-0,-0,0.66667
0.21076,0.13624,0.84306,-0.54563,-10.973,43.754,1.2267,-0.40889,-0.94059,1.6356,1.4857e-10,-0.47029,0,0,0.25,-0,-0,0.66667
0.041475,0.36969,0.1659,-0.19546,-4.0564,58.786,0.086472,-0.028824,-1.864,0.1153,1.0114e-07,-0.93201,0,0,0.25,7.4015e-17,0,0.66667
0.32183,0.35233,1.2873,-0.22151,-4.1181,34.245,0.7604,-0.25347,-1.8249,1.0139,6.8042e-12,-0.91247,0,0,0.25,-0,-0,0.66667
0.037113,0.12597,0.14845,-0.56104,-11.808,59.201,0.2221,-0.074033,-0.88141,0.29613,-2.1769e-07,-0.4407,0,0,0.25,-0,-0,0.66667
0.69386,0.87005,2.7754,0.55508,5.9943,9.2965,-4.1082,1.3694,-0.90432,-5.4776,2.2387e-12,-0.45216,0,0,0.25,1.4803e-15,0,0.66667
0.67035,0.64044,2.6814,0.21066,2.3613,10.175,-1.5063,0.50209,-1.8421,-2.0084,4.7475e-12,-0.92103,0,0,0.25,-0,-0,0.66667
0.43047,0.45787,1.7219,-0.063189,-1.0616,25.655,0.29014,-0.096715,-1.985,0.38686,-5.8578e-13,-0.99249,0,0,0.25,5.9212e-16,0,0.66667
0.76779,0.47758,3.0712,-0.033629,-0.27493,5.5626,0.27541,-0.091804,-1.996,0.36722,-1.4119e-11,-0.99799,0,0,0.25,-0,-0,0.66667
0.53601,0.77891,2.144,0.41837,6.1929,18.326,-2.392,0.79733,-1.3781,-3.1893,-8.5887e-13,-0.68904,0,0,0.25,2.9606e-16,0,0.66667
0.03986,0.82285,0.15944,0.48428,10.15,58.947,-0.2059,0.068634,-1.1653,-0.27454,1.4326e-08,-0.58267,0,0,0.25,-0,-0,0.66667
0.13479,0.60328,0.53917,0.15491,3.1583,50.365,-0.22273,0.074244,-1.914,-0.29698,2.3076e-09,-0.95701,0,0,0.25,-2.9606e-16,0,0.66667
0.19342,0.20712,0.77367,-0.43933,-8.8533,45.227,0.90638,-0.30213,-1.3129,1.2085,3.2899e-10,-0.65647,0,0,0.25,-0,-0,0.66667
0.33566,0.62815,1.3427,0.19223,3.534,33.108,-0.68825,0.22942,-1.8687,-0.91767,-3.3438e-12,-0.93435,0,0,0.25,-0,-0,0.66667
0.052313,0.9368,0.20925,0.6552,13.849,57.839,-0.36561,0.12187,-0.47431,-0.48747,-3.7204e-07,-0.23716,0,0,0.25,-8.3267e-17,0,0.66667
0.60512,0.9105,2.4205,0.61575,8.2089,14.2,-3.9744,1.3248,-0.6521,-5.2992,-8.4888e-13,-0.32605,0,0,0.25,-0,-0,0.66667
0.51206,0.50377,2.0482,0.0056572,0.085738,19.777,-0.0309,0.0103,-2.0003,-0.041199,1.6816e-13,-1.0001,0,0,0.25,-0,-0,0.66667
0.61746,0.51516,2.4698,0.022739,0.2869,13.063,-0.14976,0.049921,-1.9972,-0.19969,-2.711e-13,-0.99858,0,0,0.25,-0,-0,0.66667
0.43236,0.26311,1.7294,-0.35534,-6.0028,25.607,1.6388,-0.54626,-1.5502,2.185,-1.5584e-12,-0.77512,0,0,0.25,-1.1842e-15,0,0.66667
0.8477,0.69687,3.3908,0.29531,1.6272,2.8733,-2.6702,0.89006,-1.6895,-3.5603,1.9148e-10,-0.84476,0,0,0.25,2.3685e-15,0,0.66667
0.45406,0.85927,1.8162,0.53891,8.9744,24.133,-2.6101,0.87003,-0.96739,-3.4801,4.6718e-13,-0.48369,0,0,0.25,5.9212e-16,0,0.66667
0.015404,0.99473,0.061614,0.7421,15.819,61.169,-0.12192,0.040652,-0.042904,-0.16255,1.9615e-05,-0.021452,0,0,0.25,3.7007e-17,0,0.66667
0.87307,0.17672,3.4923,-0.48492,-2.2949,2.401,4.5159,-1.5053,-1.1638,6.0212,-2.9268e-09,-0.58191,0,0,0.25,-0,-0,0.66667
0.6562,0.87387,2.6248,0.56081,6.668,11.245,-3.9254,1.3085,-0.8835,-5.2338,-1.3609e-12,-0.44175,0,0,0.25,1.3323e-15,4.1541e-17,0.66667
0.823,0.49634,3.292,-0.0054941,-0.03461,3.5186,0.048231,-0.016077,-2,0.064309,1.6314e-10,-1,0,0,0.25,-2.9606e-16,0,0.66667
0.95178,0.1885,3.8071,-0.46724,-0.77143,0.83793,4.7436,-1.5812,-1.2251,6.3248,2.041e-08,-0.61257,0,0,0.25,-2.3685e-15,0,0.66667
0.050912,0.22251,0.20365,-0.41624,-8.6887,57.942,0.22604,-0.075348,-1.3843,0.30139,-1.4119e-08,-0.69214,0,0,0.25,-0,-0,0.66667
0.23507,0.51309,0.94029,0.019633,0.38424,41.534,-0.049228,0.016409,-1.9988,-0.065638,-1.7356e-11,-0.99938,0,0,0.25,-1.1842e-15,0,0.66667
0.063343,0.78115,0.25337,0.42172,8.7924,56.819,-0.28494,0.094981,-1.3694,-0.37992,9.0944e-09,-0.68468,0,0,0.25,-2.8334e-17,0,0.66667
0.42166,0.10358,1.6866,-0.59463,-10.301,26.582,2.6745,-0.89149,-0.74326,3.566,-6.2661e-13,-0.37163,0,0,0.25,-0,-0,0.66667
0.86383,0.76362,3.4553,0.39542,1.9744,2.5222,-3.6435,1.2145,-1.4433,-4.858,1.3593e-09,-0.72166,0,0,0.25,-0,-0,0.66667
0.081624,0.43592,0.3265,-0.096121,-1.9818,55.145,0.083689,-0.027896,-1.9679,0.11158,4.2015e-09,-0.98396,0,0,0.25,2.0354e-16,0,0.66667
0.47311,0.50473,1.8924,0.0070975,0.11338,22.515,-0.035818,0.011939,-1.9999,-0.047757,4.9661e-13,-0.99995,0,0,0.25,-0,-0,0.66667
0.12554,0.2188,0.50217,-0.4218,-8.6883,51.227,0.56484,-0.18828,-1.3692,0.75312,6.6305e-10,-0.68462,0,0,0.25,-0,-0,0.66667
0.77289,0.97313,3.0915,0.7097,6.0529,6.0474,-5.8509,1.9503,-0.20904,-7.8011,9.3214e-12,-0.10452,0,0,0.25,-0,-0,0.66667
0.84142,0.33555,3.3657,-0.24667,-1.4083,3.0221,2.2139,-0.73797,-1.7837,2.9519,-3.6597e-10,-0.89184,0,0,0.25,5.9212e-16,0,0.66667
0.043291,0.60541,0.17316,0.15811,3.2786,58.62,-0.073012,0.024337,-1.9106,-0.097349,1.3713e-07,-0.9553,0,0,0.25,-7.4015e-17,0,0.66667
0.48644,0.0021087,1.9458,-0.74684,-12.159,22.046,3.8751,-1.2917,-0.017814,5.1668,-1.4899e-13,-0.0089068,0,0,0.25,-0,-0,0.66667
0.23941,0.54655,0.95764,0.069826,1.3639,41.162,-0.17831,0.059438,-1.9818,-0.23775,-3.4054e-11,-0.99091,0,0,0.25,-0,-0,0.66667
0.95247,0.93191,3.8099,0.64786,1.1866,1.1697,-6.5821,2.194,-0.50844,-8.7761,-2.6869e-07,-0.25422,0,0,0.25,5.9212e-16,-1.7399e-16,0.66667
0.94389,0.47782,3.7756,-0.033265,-0.058038,0.5834,0.33492,-0.11164,-1.9954,0.44656,2.2405e-08,-0.9977,0,0,0.25,-0,-0,0.66667
0.61393,0.085434,2.4557,-0.62185,-8.1525,13.692,4.0723,-1.3574,-0.62468,5.4297,8.1091e-13,-0.31234,0,0,0.25,-0,-0,0.66667
0.97349,0.61607,3.8939,0.1741,0.098252,0.26214,-1.8079,0.60262,-1.8917,-2.4105,1.9533e-08,-0.94587,0,0,0.25,1.1842e-15,0,0.66667
0.34486,0.62972,1.3794,0.19458,3.5515,32.363,-0.71576,0.23859,-1.8662,-0.95435,-2.1265e-12,-0.93309,0,0,0.25,1.1842e-15,0,0.66667
0.89785,0.7549,3.5914,0.38236,1.4163,1.6723,-3.6619,1.2206,-1.48,-4.8825,5.3882e-10,-0.74,0,0,0.25,-0,-0,0.66667
0.43459,0.35308,1.7384,-0.22038,-3.696,25.38,1.0216,-0.34054,-1.8271,1.3621,-1.1462e-12,-0.91355,0,0,0.25,-1.1842e-15,0,0.66667
0.23581,0.77529,0.94326,0.41293,8.1515,41.541,-1.0387,0.34622,-1.3942,-1.3849,-1.1288e-10,-0.69712,0,0,0.25,1.4803e-16,0,0.66667
0.94083,0.010293,3.7633,-0.73456,-1.7822,1.5307,7.3717,-2.4572,-0.08112,9.8289,-5.6228e-07,-0.04056,0,0,0.25,-0,-0,0.66667
0.68422,0.89072,2.7369,0.58607,6.5165,9.8208,-4.2774,1.4258,-0.77817,-5.7031,2.8866e-13,-0.38908,0,0,0.25,-0,-0,0.66667
0.064912,0.063489,0.25965,-0.65477,-13.819,56.706,0.45335,-0.15112,-0.47678,0.60447,1.6069e-07,-0.23839,0,0,0.25,-0,-0,0.66667
0.87042,0.46582,3.4817,-0.051275,-0.23533,2.1092,0.47606,-0.15869,-1.991,0.63475,1.0137e-09,-0.9955,0,0,0.25,2.9606e-16,0,0.66667
0.70138,0.054154,2.8055,-0.66877,-7.1687,9.1019,5.0033,-1.6678,-0.40992,6.6711,2.6645e-15,-0.20496,0,0,0.25,-5.9212e-16,0,0.66667
0.60493,0.14859,2.4197,-0.52712,-6.9746,14.103,3.4013,-1.1338,-1.0117,4.535,1.4948e-12,-0.50587,0,0,0.25,-5.9212e-16,0,0.66667
0.73237,0.14282,2.9295,-0.53576,-5.146,7.4569,4.1854,-1.3951,-0.97915,5.5805,-2.0403e-11,-0.48958,0,0,0.25,-0,-5.4649e-17,0.66667
0.25344,0.051839,1.0138,-0.67224,-13.343,40.159,1.8173,-0.60577,-0.39279,2.4231,3.7588e-12,-0.1964,0,0,0.25,-0,-0,0.66667
0.60049,0.24438,2.402,-0.38344,-5.0652,14.227,2.456,-0.81866,-1.477,3.2747,2.0044e-12,-0.73849,0,0,0.25,-5.9212e-16,0,0.66667
0.81462,0.36459,3.2585,-0.20311,-1.3478,3.8616,1.7649,-0.5883,-1.8532,2.3532,-1.3688e-10,-0.9266,0,0,0.25,1.1842e-15,0,0.66667
0.054114,0.45881,0.21645,-0.061791,-1.2786,57.636,0.035667,-0.011889,-1.9857,0.047556,2.7797e-07,-0.99283,0,0,0.25,-7.4015e-17,0,0.66667
0.13051,0.63453,0.52204,0.2018,4.1225,50.752,-0.28092,0.093641,-1.8546,-0.37456,-1.2682e-09,-0.92729,0,0,0.25,-0,-0,0.66667
0.84245,4.7129e-05,3.3698,-0.74993,-4.644,3.7421,6.7389,-2.2463,-0.0019757,8.9852,-1.0982e-09,-0.00098783,0,0,0.25,-0,-0,0.66667
0.61835,0.66994,2.4734,0.25492,3.2274,13.083,-1.6814,0.56045,-1.768,-2.2418,-1.4545e-12,-0.884,0,0,0.25,-0,-0,0.66667
0.53129,0.086083,2.1252,-0.62087,-9.3926,18.838,3.5185,-1.1728,-0.63011,4.6914,1.7186e-13,-0.31506,0,0,0.25,-5.9212e-16,0,0.66667
0.24829,0.026404,0.99316,-0.71039,-14.178,40.619,1.8814,-0.62714,-0.20626,2.5086,-2.6968e-12,-0.10313,0,0,0.25,-0,-0,0.66667
0.29508,0.72698,1.1803,0.34047,6.4732,36.495,-1.0716,0.35721,-1.588,-1.4288,-2.0197e-11,-0.794,0,0,0.25,-0,-0,0.66667
0.87269,0.29859,3.4907,-0.30212,-1.389,2.1875,2.8123,-0.93745,-1.6751,3.7498,-6.157e-10,-0.83756,0,0,0.25,1.1842e-15,0,0.66667
0.42167,0.72729,1.6867,0.34093,5.8222,26.404,-1.5334,0.51114,-1.5873,-2.0446,1.66e-12,-0.79365,0,0,0.25,-0,-0,0.66667
0.06443,0.31593,0.25772,-0.2761,-5.7265,56.709,0.18975,-0.063251,-1.7297,0.253,-5.6938e-09,-0.86486,0,0,0.25,1.4803e-16,0,0.66667
0.89699,0.62131,3.5879,0.18196,0.65868,1.511,-1.741,0.58032,-1.8823,-2.3213,9.203e-09,-0.94116,0,0,0.25,1.4803e-15,0,0.66667
0.20338,0.3474,0.81352,-0.2289,-4.5601,44.306,0.49657,-0.16552,-1.8149,0.66209,1.5621e-10,-0.90746,0,0,0.25,-5.9212e-16,0,0.66667
0.82623,0.25483,3.3049,-0.36776,-2.3268,3.6109,3.2411,-1.0804,-1.5197,4.3214,-5.3358e-10,-0.75984,0,0,0.25,-0,-0,0.66667
0.88177,0.8011,3.5271,0.45164,1.9757,2.1355,-4.248,1.416,-1.2739,-5.664,4.0111e-09,-0.63694,0,0,0.25,-1.1842e-15,0,0.66667
0.48675,0.55523,1.947,0.082852,1.301,21.547,-0.43017,0.14339,-1.9757,-0.57356,8.2351e-14,-0.98785,0,0,0.25,-0,-0,0.66667
0.59846,0.63226,2.3939,0.19839,2.6088,14.234,-1.2664,0.42215,-1.8597,-1.6886,-1.5687e-12,-0.92987,0,0,0.25,-0,-0,0.66667
0.52727,0.58199,2.1091,0.12298,1.8244,18.758,-0.69168,0.23056,-1.9456,-0.92224,-5.0859e-13,-0.97282,0,0,0.25,-5.9212e-16,0,0.66667
0.62482,0.66038,2.4993,0.24058,3.0027,12.7,-1.6034,0.53446,-1.7954,-2.1378,-1.1783e-12,-0.89769,0,0,0.25,-0,-0,0.66667
0.85504,0.62513,3.4202,0.18769,0.97406,2.5814,-1.7118,0.5706,-1.8757,-2.2824,-3.3748e-11,-0.93784,0,0,0.25,-0,-0,0.66667
0.28214,0.20789,1.1286,-0.43816,-8.4351,37.616,1.3186,-0.43955,-1.3176,1.7582,2.2332e-11,-0.65878,0,0,0.25,-0,-0,0.66667
0.88376,0.97,3.535,0.705,3.2455,2.548,-6.6458,2.2153,-0.23328,-8.8611,-5.8108e-09,-0.11664,0,0,0.25,-0,-0,0.66667
0.56769,0.21751,2.2708,-0.42374,-5.9582,16.281,2.5659,-0.8553,-1.3622,3.4212,1.158e-12,-0.68109,0,0,0.25,2.2204e-16,0,0.66667
0.1151,0.30608,0.46041,-0.29087,-5.9789,52.142,0.35713,-0.11904,-1.6989,0.47617,-1.0458e-09,-0.84943,0,0,0.25,2.2204e-16,0,0.66667
0.227,0.74964,0.908,0.37446,7.4129,42.288,-0.9067,0.30223,-1.5021,-1.2089,-1.4761e-10,-0.75103,0,0,0.25,9.2519e-18,0,0.66667
0.59598,0.053452,2.3839,-0.66982,-9.1349,14.818,4.2582,-1.4194,-0.40472,5.6775,3.2996e-13,-0.20236,0,0,0.25,-5.9212e-16,0,0.66667
0.23945,0.71111,0.95778,0.31667,6.2165,41.199,-0.80881,0.2696,-1.643,-1.0784,-1.0803e-10,-0.82152,0,0,0.25,2.9606e-16,0,0.66667
0.13142,0.67167,0.52566,0.25751,5.2661,50.677,-0.36096,0.12032,-1.7633,-0.48128,3.4514e-10,-0.88164,0,0,0.25,-2.9606e-16,0,0.66667
0.16185,0.013474,0.64739,-0.72979,-15.138,48.101,1.2599,-0.41996,-0.10547,1.6799,-4.2535e-10,-0.052737,0,0,0.25,-0,-0,0.66667
0.84487,0.75115,3.3795,0.37672,2.1357,3.0395,-3.395,1.1317,-1.4968,-4.5267,8.7141e-10,-0.74841,0,0,0.25,-0,-0,0.66667
0.60218,0.8277,2.4087,0.49155,6.5202,14.227,-3.1574,1.0525,-1.1399,-4.2098,-1.9662e-12,-0.56996,0,0,0.25,1.1842e-15,0,0.66667
0.96357,0.47857,3.8543,-0.032143,-0.030344,0.32012,0.33037,-0.11012,-1.9957,0.44049,-3.0998e-07,-0.99785,0,0,0.25,-0,-0,0.66667
0.34568,0.0014392,1.3827,-0.74784,-14.045,32.617,2.7575,-0.91916,-0.012641,3.6766,7.5273e-14,-0.0063204,0,0,0.25,-0,-0,0.66667
0.59563,0.10487,2.3825,-0.59269,-8.0285,14.736,3.7656,-1.2552,-0.75089,5.0207,8.451e-13,-0.37544,0,0,0.25,-0,-0,0.66667
0.59899,0.77424,2.3959,0.41136,5.4594,14.341,-2.6283,0.87609,-1.398,-3.5044,-1.9378e-12,-0.699,0,0,0.25,-5.9212e-16,0,0.66667
0.6157,0.73944,2.4628,0.35916,4.596,13.307,-2.3588,0.78627,-1.5406,-3.1451,-2.0595e-12,-0.77028,0,0,0.25,5.9212e-16,0,0.66667
0.059177,0.51101,0.23671,0.016521,0.34158,57.176,-0.010429,0.0034767,-1.9986,-0.013905,7.1538e-07,-0.9993,0,0,0.25,-0,-0,0.66667
0.75032,0.86068,3.0013,0.54102,4.8927,6.6824,-4.33,1.4433,-0.95947,-5.7734,3.6636e-11,-0.47973,0,0,0.25,-0,-0,0.66667
0.94821,0.24959,3.7928,-0.37562,-0.64436,0.75625,3.7991,-1.2664,-1.4991,5.0654,5.3309e-09,-0.74957,0,0,0.25,4.0708e-16,0,0.66667
0.53468,0.14703,2.1387,-0.52945,-7.911,18.514,3.0196,-1.0065,-1.003,4.0261,2.78e-13,-0.50151,0,0,0.25,-0,-0,0.66667
0.19256,0.040148,0.77022,-0.68978,-14.108,45.399,1.4168,-0.47225,-0.30777,1.889,3.1947e-11,-0.15388,0,0,0.25,-0,-0,0.66667
0.75293,0.76307,3.0117,0.39461,3.4795,6.3887,-3.1692,1.0564,-1.4459,-4.2256,8.2673e-11,-0.72294,0,0,0.25,-0,-0,0.66667
0.007319,0.80168,0.029276,0.45253,9.4855,61.892,-0.035328,0.011776,-1.2711,-0.047104,-1.2516e-08,-0.63553,0,0,0.25,-9.2519e-18,0,0.66667
0.32826,0.30168,1.313,-0.29748,-5.5162,33.742,1.0416,-0.3472,-1.6858,1.3888,4.75e-12,-0.84288,0,0,0.25,-2.9606e-16,0,0.66667
0.91761,0.15324,3.6704,-0.52014,-1.5957,1.4716,5.091,-1.697,-1.0384,6.788,-3.3595e-09,-0.51922,0,0,0.25,-5.9212e-16,0,0.66667
0.58837,0.44391,2.3535,-0.084142,-1.1252,14.815,0.52807,-0.17602,-1.9745,0.7041,5.6977e-13,-0.98727,0,0,0.25,-0,-0,0.66667
0.85519,0.79561,3.4208,0.44341,2.373,2.8226,-4.0448,1.3483,-1.3002,-5.393,1.4339e-09,-0.65011,0,0,0.25,-0,-0,0.66667
0.60467,0.0044579,2.4187,-0.74331,-10.052,14.413,4.7942,-1.5981,-0.03558,6.3923,4.3521e-14,-0.01779,0,0,0.25,-0,-0,0.66667
0.82258,0.77852,3.2903,0.41779,2.714,3.7879,-3.6657,1.2219,-1.3797,-4.8876,4.7172e-10,-0.68983,0,0,0.25,-5.9212e-16,0,0.66667
0.87948,0.58716,3.5179,0.13073,0.55779,1.8993,-1.2264,0.40881,-1.939,-1.6353,5.6696e-09,-0.96952,0,0,0.25,-1.1842e-15,0,0.66667
0.32099,0.4595,1.2839,-0.060748,-1.1272,34.289,0.20799,-0.06933,-1.9862,0.27732,2.6554e-12,-0.99308,0,0,0.25,-2.9606e-16,0,0.66667
0.12295,0.54798,0.49182,0.071976,1.4707,51.421,-0.094397,0.031466,-1.9813,-0.12586,6.3076e-10,-0.99065,0,0,0.25,-0,-0,0.66667
0.7213,0.26492,2.8852,-0.35262,-3.4485,7.751,2.713,-0.90435,-1.5575,3.6174,-3.3989e-11,-0.77874,0,0,0.25,-0,-0,0.66667
0.44035,0.10761,1.7614,-0.58859,-9.9899,25.184,2.7646,-0.92154,-0.76777,3.6862,-4.1789e-13,-0.38388,0,0,0.25,-5.9212e-16,0,0.66667
0.12674,0.14001,0.50694,-0.53999,-11.183,51.146,0.72998,-0.24333,-0.96304,0.97331,1.7518e-09,-0.48152,0,0,0.25,-0,-0,0.66667
0.58982,0.35391,2.3593,-0.21914,-2.9316,14.769,1.3787,-0.45956,-1.8288,1.8382,1.2952e-12,-0.91439,0,0,0.25,1.1842e-15,0,0.66667
0.036068,0.35701,0.14427,-0.21448,-4.4548,59.278,0.082518,-0.027506,-1.8357,0.11002,3.583e-08,-0.91783,0,0,0.25,-0,-0,0.66667
0.20018,0.077774,0.80073,-0.63334,-12.864,44.71,1.3524,-0.45078,-0.5733,1.8031,8.4555e-11,-0.28665,0,0,0.25,-0,-0,0.66667
0.7883,0.20315,3.1532,-0.44528,-3.4281,5.032,3.7442,-1.2481,-1.294,4.9922,-2.1476e-10,-0.64701,0,0,0.25,1.1842e-15,0,0.66667
0.012097,0.52124,0.048387,0.031855,0.66092,61.455,-0.0041078,0.0013677,-1.996,-0.0054779,-2.382e-06,-0.998,0,0,0.25,-0,-0,0.66667
0.30335,0.88383,1.2134,0.57574,11.014,35.924,-1.8629,0.62097,-0.82077,-2.4839,-2.19e-12,-0.41039,0,0,0.25,-0,-0,0.66667
0.021376,0.11118,0.085504,-0.58323,-12.302,60.624,0.13298,-0.044328,-0.78966,0.17731,-4.4731e-07,-0.39483,0,0,0.25,-0,-0,0.66667
0.99748,0.9641,3.9899,0.69615,0.018388,0.87418,-7.4069,2.469,-0.27735,-9.8759,-1.8093e-05,-0.13867,0,0,0.25,1.7764e-15,-4.5008e-16,0.66667
0.58203,0.92291,2.3281,0.63436,8.8433,15.616,-3.9383,1.3128,-0.56852,-5.2511,-4.6185e-13,-0.28426,0,0,0.25,-0,-0,0.66667
0.29338,0.39278,1.1735,-0.16083,-3.0462,36.59,0.50328,-0.16776,-1.9075,0.67104,1.7223e-11,-0.95373,0,0,0.25,-5.9212e-16,0,0.66667
0.92895,0.99435,3.7158,0.74152,2.1583,1.7313,-7.3476,2.4492,-0.044659,-9.7968,-3.5019e-07,-0.02233,0,0,0.25,-1.7764e-15,0,0.66667
0.50712,0.12298,2.0285,-0.56553,-8.8196,20.406,3.0591,-1.0197,-0.86316,4.0788,-1.5055e-13,-0.43158,0,0,0.25,5.9212e-16,0,0.66667
0.45469,0.27625,1.8188,-0.33562,-5.523,23.944,1.6278,-0.54259,-1.6001,2.1704,-1.165e-12,-0.80006,0,0,0.25,-2.9606e-16,0,0.66667
0.58787,0.89535,2.3515,0.59303,8.1495,15.206,-3.7187,1.2396,-0.7488,-4.9582,-8.4488e-13,-0.3744,0,0,0.25,5.9212e-16,0,0.66667
0.26414,0.19676,1.0566,-0.45486,-8.8589,39.14,1.2816,-0.42718,-1.2645,1.7087,3.8309e-11,-0.63225,0,0,0.25,-0,-0,0.66667
0.30529,0.47737,1.2212,-0.033952,-0.63705,35.584,0.11056,-0.036854,-1.9952,0.14742,2.8364e-12,-0.99762,0,0,0.25,-0,-0,0.66667
0.37165,0.14856,1.4866,-0.52715,-9.537,30.379,2.0898,-0.6966,-1.0118,2.7864,-2.1161e-12,-0.5059,0,0,0.25,5.1612e-16,0,0.66667
0.24445,0.53233,0.97779,0.04849,0.94447,40.727,-0.12644,0.042145,-1.9922,-0.16858,-2.9609e-11,-0.99611,0,0,0.25,-0,-0,0.66667
0.58455,0.081756,2.3382,-0.62737,-8.7007,15.452,3.9117,-1.3039,-0.59971,5.2156,5.882e-13,-0.29985,0,0,0.25,-5.9212e-16,0,0.66667
0.69585,0.40395,2.7834,-0.14408,-1.5045,8.843,1.0694,-0.35647,-1.9264,1.4259,-1.1485e-11,-0.96322,0,0,0.25,-4.4409e-16,0,0.66667
0.071947,0.83129,0.28779,0.49693,10.384,56.051,-0.38136,0.12712,-1.1211,-0.50848,-2.1895e-08,-0.56056,0,0,0.25,-0,-0,0.66667
0.97108,0.77531,3.8843,0.41296,0.33428,0.52893,-4.2776,1.4259,-1.3939,-5.7034,-8.5875e-09,-0.69697,0,0,0.25,1.7764e-15,0,0.66667
0.75307,0.23297,3.0123,-0.40054,-3.532,6.3889,3.2175,-1.0725,-1.4291,4.2899,-8.1222e-11,-0.71453,0,0,0.25,-0,-0,0.66667
0.80616,0.609,3.2247,0.1635,1.1303,4.1358,-1.4059,0.46864,-1.904,-1.8746,1.375e-10,-0.952,0,0,0.25,1.1842e-15,0,0.66667
0.75164,0.13543,3.0066,-0.54686,-4.9258,6.6348,4.3844,-1.4615,-0.93671,5.8459,-3.8178e-11,-0.46835,0,0,0.25,-0,-0,0.66667
0.080061,0.91817,0.32024,0.62725,13.186,55.341,-0.53566,0.17855,-0.60091,-0.71422,-4.1138e-08,-0.30045,0,0,0.25,-1.4803e-16,0,0.66667
0.4817,0.97358,1.9268,0.71038,11.596,22.333,-3.65,1.2167,-0.20611,-4.8666,8.4599e-14,-0.10306,0,0,0.25,-0,-0,0.66667
0.44567,0.80946,1.7827,0.46419,7.7687,24.688,-2.2067,0.73556,-1.234,-2.9422,6.8723e-13,-0.617,0,0,0.25,2.9606e-16,0,0.66667
0.67247,0.38704,2.6899,-0.16944,-1.8862,10.045,1.2154,-0.40513,-1.8981,1.6205,-5.1338e-12,-0.94906,0,0,0.25,1.1842e-15,0,0.66667
0.44874,0.41832,1.7949,-0.12252,-2.0178,24.303,0.58644,-0.19548,-1.946,0.78191,-7.6755e-13,-0.97298,0,0,0.25,-0,-0,0.66667
0.70431,0.46385,2.8173,-0.054218,-0.55142,8.4046,0.40732,-0.13577,-1.9903,0.5431,-5.8574e-12,-0.99514,0,0,0.25,-1.4803e-15,0,0.66667
0.68165,0.037122,2.7266,-0.69432,-7.8719,10.119,5.0483,-1.6828,-0.28569,6.7311,1.8474e-13,-0.14285,0,0,0.25,-0,-0,0.66667
0.69715,0.34295,2.7886,-0.23557,-2.4592,8.8215,1.7518,-0.58392,-1.8033,2.3357,-1.5533e-11,-0.90165,0,0,0.25,-1.4803e-15,0,0.66667
0.6186,0.92771,2.4744,0.64156,8.3489,13.449,-4.2333,1.4111,-0.53579,-5.6444,-6.3149e-13,-0.2679,0,0,0.25,-0,-0,0.66667
0.15098,0.015788,0.60392,-0.72632,-15.115,49.056,1.1697,-0.3899,-0.12344,1.5596,1.8253e-09,-0.061722,0,0,0.25,-0,-0,0.66667
0.7608,0.8971,3.0432,0.59565,5.2237,6.3284,-4.8339,1.6113,-0.73796,-6.4451,2.925e-11,-0.36898,0,0,0.25,-0,-0,0.66667
0.78105,0.38766,3.1242,-0.16851,-1.3085,5.0725,1.4039,-0.46795,-1.8993,1.8718,-1.0496e-10,-0.94967,0,0,0.25,-0,-0,0.66667
0.9041,0.31027,3.6164,-0.2846,-0.96651,1.4333,2.7446,-0.91486,-1.713,3.6594,1.4753e-09,-0.85648,0,0,0.25,-1.2126e-15,0,0.66667
0.23377,0.61386,0.93507,0.17079,3.3499,41.658,-0.42587,0.14196,-1.8965,-0.56782,-9.1137e-11,-0.94827,0,0,0.25,-2.9606e-16,0,0.66667
0.17668,0.77235,0.70672,0.40853,8.2756,46.687,-0.7699,0.25663,-1.4061,-1.0265,-4.8083e-10,-0.70305,0,0,0.25,-0,-0,0.66667
0.3911,0.11183,1.5644,-0.58226,-10.387,28.903,2.429,-0.80968,-0.79476,3.2387,-1.2015e-12,-0.39738,0,0,0.25,-5.9212e-16,0,0.66667
0.32056,0.8923,1.2823,0.58845,11.132,34.519,-2.0121,0.67071,-0.76781,-2.6828,7.2164e-14,-0.3839,0,0,0.25,5.9212e-16,0,0.66667
0.81548,0.81432,3.2619,0.47148,3.2032,4.0947,-4.1012,1.3671,-1.2104,-5.4682,6.1094e-10,-0.60522,0,0,0.25,-0,-0,0.66667
0.61353,0.76502,2.4541,0.39753,5.1217,13.466,-2.6015,0.86718,-1.4374,-3.4687,-2.1618e-12,-0.7187,0,0,0.25,-0,-0,0.66667
0.76,0.24454,3.04,-0.38319,-3.2878,6.0803,3.1064,-1.0355,-1.4777,4.1419,-1.0373e-10,-0.73887,0,0,0.25,-1.1842e-15,0,0.66667
0.42767,0.26015,1.7107,-0.35978,-6.1099,25.961,1.6412,-0.54707,-1.5391,2.1883,-1.6994e-12,-0.76953,0,0,0.25,-0,-0,0.66667
0.099441,0.071717,0.39776,-0.64242,-13.47,53.607,0.68142,-0.22714,-0.53197,0.90856,-1.1962e-08,-0.26598,0,0,0.25,-0,-0,0.66667
0.11504,0.106,0.46014,-0.59099,-12.31,52.202,0.72517,-0.24172,-0.75731,0.9669,-1.9073e-09,-0.37865,0,0,0.25,-0,-0,0.66667
0.37341,0.33423,1.4936,-0.24865,-4.4358,30.098,0.99038,-0.33013,-1.7803,1.3205,-1.1412e-12,-0.89013,0,0,0.25,5.9212e-16,0,0.66667
0.19385,0.43896,0.77539,-0.091567,-1.8274,45.125,0.18933,-0.063111,-1.9706,0.25244,1.5733e-10,-0.98532,0,0,0.25,-0,-0,0.66667
0.82075,0.95153,3.283,0.67729,4.6429,4.2632,-5.9294,1.9765,-0.36801,-7.9059,1.3434e-10,-0.184,0,0,0.25,1.1842e-15,0,0.66667
0.59964,0.34772,2.3985,-0.22842,-3,14.177,1.461,-0.487,-1.8145,1.948,1.424e-12,-0.90726,0,0,0.25,-0,-0,0.66667
0.68885,0.57627,2.7554,0.1144,1.2173,9.1841,-0.84059,0.2802,-1.9534,-1.1208,7.0965e-12,-0.97669,0,0,0.25,1.1842e-15,0,0.66667
0.49111,0.068886,1.9644,-0.64667,-10.372,21.599,3.3876,-1.1292,-0.51274,4.5168,-2.4936e-13,-0.25637,0,0,0.25,-0,-0,0.66667
0.088174,0.35836,0.35269,-0.21246,-4.3832,54.558,0.19982,-0.066606,-1.8386,0.26643,-7.1227e-09,-0.91931,0,0,0.25,-1.4803e-16,0,0.66667
0.23508,0.11986,0.94031,-0.57021,-11.352,41.669,1.4298,-0.4766,-0.84479,1.9064,3.9034e-11,-0.4224,0,0,0.25,-0,-0,0.66667
0.4616,0.87241,1.8464,0.55861,9.2327,23.604,-2.7505,0.91682,-0.8907,-3.6673,3.8147e-13,-0.44535,0,0,0.25,7.4015e-16,0,0.66667
0.19859,0.47505,0.79437,-0.037432,-0.74527,44.707,0.079292,-0.026431,-1.9949,0.10572,-3.6733e-11,-0.99743,0,0,0.25,-0,-0,0.66667
0.025476,0.73998,0.1019,0.35997,7.5127,60.244,-0.097819,0.032606,-1.5386,-0.13043,-2.4172e-09,-0.7693,0,0,0.25,-0,-0,0.66667
0.7294,0.12544,2.9176,-0.56185,-5.4654,7.6277,4.3713,-1.4571,-0.8784,5.8284,-1.3374e-11,-0.4392,0,0,0.25,-2.3685e-15,0,0.66667
0.72492,0.70086,2.8997,0.30128,2.9024,7.5409,-2.3297,0.77655,-1.6763,-3.1062,3.9471e-11,-0.83817,0,0,0.25,1.1842e-15,0,0.66667
0.33039,0.98305,1.3216,0.72458,13.742,33.824,-2.5535,0.85118,-0.13295,-3.4047,-6.6613e-15,-0.066475,0,0,0.25,1.1842e-15,0,0.66667
0.84349,0.23808,3.374,-0.39288,-2.2519,3.0994,3.5348,-1.1783,-1.4515,4.7131,-8.5289e-10,-0.72575,0,0,0.25,1.1842e-15,0,0.66667
0.42844,0.54071,1.7138,0.061058,1.0281,25.807,-0.27904,0.093013,-1.986,-0.37205,4.7881e-13,-0.99302,0,0,0.25,-0,-0,0.66667
0.86469,0.079441,3.4587,-0.63084,-3.288,2.8705,5.8184,-1.9395,-0.58418,7.7579,-1.3276e-09,-0.29209,0,0,0.25,-1.024e-15,0,0.66667
0.65707,0.87765,2.6283,0.56648,6.7255,11.207,-3.9703,1.3234,-0.86025,-5.2937,-1.3942e-12,-0.43013,0,0,0.25,2.3685e-15,0,0.66667
0.58104,0.022094,2.3241,-0.71686,-10.094,15.792,4.4429,-1.481,-0.17265,5.9239,-1.7408e-13,-0.086324,0,0,0.25,-0,-0,0.66667
0.20073,0.024963,0.80291,-0.71255,-14.548,44.701,1.5256,-0.50855,-0.19495,2.0342,1.1685e-11,-0.097477,0,0,0.25,-2.9606e-16,1.9031e-16,0.66667
0.52955,0.26288,2.1182,-0.35567,-5.2991,18.71,2.009,-0.66967,-1.5501,2.6787,6.4238e-13,-0.77503,0,0,0.25,-0,-0,0.66667
0.89443,0.022617,3.5777,-0.71607,-3.0182,2.3311,6.8318,-2.2773,-0.17652,9.1091,-1.3533e-08,-0.088261,0,0,0.25,-0,-0,0.66667
0.30499,0.11459,1.22,-0.57811,-11.049,35.789,1.8808,-0.62692,-0.81086,2.5077,1.5083e-12,-0.40543,0,0,0.25,-0,-0,0.66667
0.87095,0.42729,3.4838,-0.10906,-0.49949,2.1098,1.0132,-0.33772,-1.9572,1.3509,-1.0318e-09,-0.97861,0,0,0.25,-0,-0,0.66667
0.90875,0.95096,3.635,0.67643,2.4399,1.9453,-6.5569,2.1856,-0.37274,-8.7425,1.7226e-08,-0.18637,0,0,0.25,-0,-0,0.66667
0.32984,0.76248,1.3194,0.39373,7.3193,33.651,-1.3853,0.46175,-1.4487,-1.847,-2.669e-12,-0.72434,0,0,0.25,-0,-0,0.66667
0.68307,0.48428,2.7323,-0.023585,-0.25464,9.4622,0.17185,-0.057282,-1.9973,0.22913,-1.1811e-12,-0.99863,0,0,0.25,-1.1842e-15,0,0.66667
0.89922,0.37635,3.5969,-0.18548,-0.65577,1.4636,1.779,-0.59301,-1.8781,2.372,-8.9587e-09,-0.93906,0,0,0.25,-0,-0,0.66667
0.075697,0.28745,0.30279,-0.31883,-6.6103,55.693,0.25743,-0.085811,-1.6388,0.34324,-3.8075e-09,-0.81941,0,0,0.25,-1.4803e-16,0,0.66667
0.87859,0.41294,3.5144,-0.13059,-0.56155,1.9216,1.2238,-0.40794,-1.9393,1.6318,-5.7294e-09,-0.96965,0,0,0.25,-2.3685e-15,0,0.66667
0.19084,0.084586,0.76336,-0.62312,-12.697,45.519,1.2684,-0.42281,-0.61916,1.6913,9.2618e-11,-0.30958,0,0,0.25,-1.4803e-16,0,0.66667
0.84977,0.55921,3.3991,0.088809,0.47542,2.6927,-0.80499,0.26833,-1.9721,-1.0733,-1.6819e-09,-0.98604,0,0,0.25,5.4764e-16,0,0.66667
0.66712,0.96114,2.6685,0.69171,8.1289,10.86,-4.9222,1.6407,-0.29842,-6.5629,-2.9399e-13,-0.14921,0,0,0.25,-5.9212e-16,-1.6947e-16,0.66667
0.34434,0.78821,1.3774,0.43231,7.9606,32.496,-1.5878,0.52928,-1.3361,-2.1171,4.9971e-13,-0.66807,0,0,0.25,-0,-0,0.66667
0.15138,0.33955,0.6055,-0.24068,-4.8908,48.895,0.38861,-0.12954,-1.7941,0.51815,1.114e-09,-0.89707,0,0,0.25,-2.8044e-16,0,0.66667
0.63537,0.43423,2.5415,-0.098659,-1.1985,12.044,0.66864,-0.22288,-1.9656,0.89152,-4.3843e-13,-0.9828,0,0,0.25,1.4803e-15,0,0.66667
0.84779,0.51011,3.3912,0.01517,0.082173,2.7396,-0.13719,0.045729,-1.9987,-0.18291,-2.2545e-09,-0.99935,0,0,0.25,-0,-0,0.66667
0.82185,0.74238,3.2874,0.36357,2.3551,3.7501,-3.1872,1.0624,-1.5295,-4.2496,5.166e-10,-0.76475,0,0,0.25,-5.9212e-16,0,0.66667
0.62824,0.097251,2.513,-0.60412,-7.6775,12.846,4.0484,-1.3495,-0.70282,5.3978,1.0987e-12,-0.35141,0,0,0.25,-0,-0,0.66667
0.9563,0.45302,3.8252,-0.070471,-0.087774,0.41664,0.71884,-0.23961,-1.9818,0.95845,2.7133e-07,-0.9909,0,0,0.25,1.1842e-15,0,0.66667
0.58992,0.12933,2.3597,-0.55601,-7.5875,15.036,3.4987,-1.1662,-0.90104,4.6649,1.2792e-12,-0.45052,0,0,0.25,-2.3685e-15,0,0.66667
0.19783,0.60633,0.79133,0.15949,3.1805,44.782,-0.33656,0.11219,-1.9088,-0.44875,-1.1161e-10,-0.95438,0,0,0.25,-2.9606e-16,0,0.66667
0.42933,0.40048,1.7173,-0.14928,-2.5141,25.754,0.68365,-0.22788,-1.9204,0.91154,-1.0176e-12,-0.96022,0,0,0.25,-2.9606e-16,0,0.66667
0.33675,0.38567,1.347,-0.17149,-3.1489,33.015,0.616,-0.20533,-1.8946,0.82134,2.9309e-12,-0.94731,0,0,0.25,-0,-0,0.66667
0.99195,0.13328,3.9678,-0.55008,-0.040027,0.58477,5.8203,-1.9401,-0.9235,7.7604,3.0996e-08,-0.46175,0,0,0.25,2.3685e-15,0,0.66667
0.38024,0.51084,1.5209,0.016259,0.28722,29.518,-0.065943,0.021981,-1.9984,-0.087924,-3.7198e-13,-0.99918,0,0,0.25,1.1842e-15,0,0.66667
0.9927,0.34129,3.9708,-0.23806,0.051013,0.14591,2.5208,-0.84027,-1.7987,3.3611,-3.2206e-08,-0.89935,0,0,0.25,1.7742e-15,0,0.66667
0.5188,0.32209,2.0752,-0.26686,-4.0248,19.382,1.4768,-0.49226,-1.7465,1.9691,3.5816e-13,-0.87325,0,0,0.25,-0,-0,0.66667
0.17228,0.28716,0.68912,-0.31926,-6.4563,47.055,0.58669,-0.19556,-1.6384,0.78225,4.096e-10,-0.81921,0,0,0.25,-0,-0,0.66667
0.074574,0.84822,0.2983,0.52233,10.924,55.817,-0.41549,0.1385,-1.0302,-0.55399,-3.2757e-08,-0.5151,0,0,0.25,2.9606e-16,0,0.66667
0.37031,0.054253,1.4812,-0.66862,-12.228,30.596,2.641,-0.88033,-0.41006,3.5213,-7.0499e-13,-0.20503,0,0,0.25,2.9606e-16,2.0618e-17,0.66667
0.12342,0.93093,0.49368,0.6464,13.483,51.47,-0.85097,0.28366,-0.51476,-1.1346,-1.1044e-08,-0.25738,0,0,0.25,-7.4015e-17,0,0.66667
0.63452,0.92656,2.5381,0.63985,8.0528,12.543,-4.3306,1.4435,-0.54355,-5.7741,-8.2023e-13,-0.27178,0,0,0.25,-0,-0,0.66667
0.41392,0.58092,1.6557,0.12138,2.0768,26.917,-0.53589,0.17863,-1.9467,-0.71452,8.7153e-13,-0.97334,0,0,0.25,-0,-0,0.66667
0.99092,0.82789,3.9637,0.49184,0.026247,0.48464,-5.1986,1.7329,-1.1389,-6.9315,5.6779e-08,-0.56947,0,0,0.25,-0,-0,0.66667
0.92996,0.67625,3.7198,0.26437,0.62737,0.92136,-2.6225,0.87415,-1.7506,-3.4966,-5.8791e-09,-0.87531,0,0,0.25,-0,-0,0.66667
0.14924,0.067946,0.59694,-0.64808,-13.422,49.181,1.0316,-0.34388,-0.50637,1.3755,1.8456e-09,-0.25318,0,0,0.25,-0,-0,0.66667
0.39488,0.58693,1.5795,0.13039,2.2742,28.385,-0.54922,0.18307,-1.9394,-0.73229,8.0103e-13,-0.96968,0,0,0.25,-2.9606e-16,0,0.66667
0.46158,0.1635,1.8463,-0.50475,-8.3127,23.558,2.4851,-0.82838,-1.0936,3.3135,-7.4873e-13,-0.54682,0,0,0.25,-1.1842e-15,0,0.66667
0.56095,0.38273,2.2438,-0.17591,-2.4749,16.561,1.0526,-0.35085,-1.8902,1.4034,9.0183e-13,-0.94512,0,0,0.25,-1.1842e-15,0,0.66667
0.78036,0.11102,3.1215,-0.58348,-4.733,5.532,4.8568,-1.6189,-0.78956,6.4757,-7.7218e-11,-0.39478,0,0,0.25,-0,-0,0.66667
0.48719,0.051525,1.9488,-0.67271,-10.868,21.902,3.4959,-1.1653,-0.39064,4.6612,-1.2546e-13,-0.19532,0,0,0.25,5.9212e-16,0,0.66667
0.41999,0.21967,1.68,-0.42049,-7.2199,26.575,1.8838,-0.62792,-1.3726,2.5117,-1.6118e-12,-0.6863,0,0,0.25,-0,-0,0.66667
0.262,0.083535,1.048,-0.6247,-12.3,39.407,1.7458,-0.58194,-0.61203,2.3278,8.0099e-12,-0.30602,0,0,0.25,2.9606e-16,0,0.66667
0.91081,0.91739,3.6432,0.62609,2.1657,1.7988,-6.0826,2.0275,-0.60562,-8.1102,-1.6812e-09,-0.30281,0,0,0.25,-0,-0,0.66667
0.022272,0.87417,0.089086,0.56126,11.823,60.542,-0.13333,0.044444,-0.88053,-0.17778,-1.9919e-07,-0.44027,0,0,0.25,1.09e-17,0,0.66667
0.82112,0.83692,3.2845,0.50538,3.3512,3.9541,-4.4264,1.4755,-1.0914,-5.9019,2.9927e-10,-0.54571,0,0,0.25,-5.9212e-16,0,0.66667
0.18847,0.50194,0.75387,0.0029144,0.058262,45.595,-0.0058588,0.0019529,-2.0013,-0.0078118,2.7604e-10,-1.0006,0,0,0.25,-0,-0,0.66667
0.68576,0.925,2.743,0.63749,7.1012,9.8201,-4.6631,1.5544,-0.55488,-6.2175,-1.9984e-13,-0.27744,0,0,0.25,-0,2.8425e-16,0.66667
0.35521,0.42421,1.4208,-0.11368,-2.0544,31.514,0.43072,-0.14357,-1.9534,0.57429,4.3648e-13,-0.97669,0,0,0.25,5.9212e-16,0,0.66667
0.97421,0.21512,3.8969,-0.42733,-0.29575,0.51865,4.4406,-1.4802,-1.3508,5.9208,1.0439e-08,-0.67542,0,0,0.25,1.4803e-15,0,0.66667
0.12277,0.34332,0.49109,-0.23502,-4.8146,51.448,0.30778,-0.10259,-1.8049,0.41037,3.7156e-09,-0.90244,0,0,0.25,7.4015e-17,0,0.66667
0.18757,0.44768,0.75028,-0.078484,-1.5701,45.676,0.15703,-0.052342,-1.9786,0.20937,-1.636e-11,-0.98929,0,0,0.25,-0,-0,0.66667
0.88944,0.40668,3.5578,-0.13999,-0.54502,1.6621,1.3281,-0.4427,-1.9319,1.7708,9.54e-09,-0.96594,0,0,0.25,-0,-0,0.66667
0.58341,0.68299,2.3336,0.27449,3.724,15.192,-1.7081,0.56937,-1.7321,-2.2775,-1.8839e-12,-0.86606,0,0,0.25,8.8818e-16,0,0.66667
0.30925,0.49185,1.237,-0.012222,-0.22867,35.255,0.040317,-0.013439,-1.9993,0.053756,3.5925e-13,-0.99965,0,0,0.25,5.9212e-16,0,0.66667
0.00076439,0.73394,0.0030575,0.3509,7.3261,62.486,-0.0028611,0.00095369,-1.5622,-0.0038147,7.4693e-09,-0.78112,0,0,0.25,-1.1565e-18,0,0.66667
0.2276,0.98982,0.91039,0.73473,14.845,42.398,-1.7837,0.59457,-0.079843,-2.3783,2.3934e-11,-0.039921,0,0,0.25,-2.653e-17,0,0.66667
0.1454,0.13307,0.58161,-0.5504,-11.346,49.49,0.85366,-0.28455,-0.92247,1.1382,1.7751e-09,-0.46123,0,0,0.25,-0,-0,0.66667
0.20343,0.76535,0.81374,0.39803,7.9731,44.34,-0.86371,0.2879,-1.4369,-1.1516,-2.7031e-10,-0.71845,0,0,0.25,-0,-0,0.66667
0.89632,0.42788,3.5853,-0.10818,-0.39194,1.4917,1.0343,-0.34477,-1.9577,1.3791,-1.6818e-08,-0.97887,0,0,0.25,-0,-0,0.66667
0.87309,0.6111,3.4924,0.16664,0.75266,2.0784,-1.552,0.51732,-1.901,-2.0693,-9.1415e-10,-0.95051,0,0,0.25,1.1842e-15,0,0.66667
0.70029,0.25598,2.8012,-0.36603,-3.8166,8.7646,2.7342,-0.91139,-1.5238,3.6456,-1.5537e-11,-0.7619,0,0,0.25,-0,-0,0.66667
0.4705,0.89405,1.882,0.59107,9.6875,22.995,-2.9664,0.98879,-0.75769,-3.9551,2.1005e-13,-0.37884,0,0,0.25,-0,-0,0.66667
0.82714,0.52335,3.3085,0.035019,0.21558,3.3844,-0.30896,0.10299,-1.996,-0.41195,-1.5272e-10,-0.99802,0,0,0.25,-0,-0,0.66667
0.49583,0.3491,1.9833,-0.22635,-3.5217,20.948,1.1971,-0.39905,-1.8178,1.5962,-1.3134e-13,-0.90892,0,0,0.25,-0,-0,0.66667
0.36349,0.45188,1.454,-0.072185,-1.2948,30.848,0.27988,-0.093293,-1.9808,0.37317,1.4611e-13,-0.99039,0,0,0.25,-5.9212e-16,0,0.66667
0.2756,0.65639,1.1024,0.23459,4.501,38.098,-0.68964,0.22988,-1.8051,-0.91951,-3.8438e-11,-0.90255,0,0,0.25,-1.1842e-15,0,0.66667
0.92474,0.62771,3.699,0.19157,0.48753,0.95799,-1.8896,0.62988,-1.8702,-2.5195,4.2141e-08,-0.9351,0,0,0.25,-0,-0,0.66667
0.38699,0.99597,1.548,0.74395,13.487,29.369,-3.0709,1.0236,-0.032456,-4.0946,-6.5814e-13,-0.016228,0,0,0.25,7.4015e-16,0,0.66667
0.49288,0.73206,1.9715,0.34809,5.4626,21.215,-1.83,0.61001,-1.5682,-2.44,1.2068e-13,-0.78412,0,0,0.25,-1.1842e-15,0,0.66667
0.25444,0.01507,1.0178,-0.72739,-14.488,40.11,1.9742,-0.65805,-0.11799,2.6322,-9.0927e-13,-0.058994,0,0,0.25,-0,-0,0.66667
0.88497,0.41636,3.5399,-0.12545,-0.50919,1.7625,1.1842,-0.39475,-1.9433,1.579,6.3262e-10,-0.97167,0,0,0.25,-0,-0,0.66667
0.38326,0.68616,1.5331,0.27924,4.9417,29.333,-1.1416,0.38052,-1.7232,-1.5221,1.5573e-12,-0.86159,0,0,0.25,8.8818e-16,0,0.66667
0.29757,0.93383,1.1903,0.65074,12.559,36.45,-2.0655,0.68851,-0.49543,-2.754,-2.1982e-14,-0.24771,0,0,0.25,4.4409e-16,0,0.66667
0.71759,0.13389,2.8704,-0.54916,-5.534,8.1499,4.2035,-1.4012,-0.92799,5.6046,-9.5985e-12,-0.464,0,0,0.25,-0,-0,0.66667
0.19087,0.84168,0.76348,0.51252,10.376,45.473,-1.0435,0.34782,-1.0667,-1.3913,-2.9322e-10,-0.53337,0,0,0.25,-7.4015e-17,0,0.66667
0.11819,0.2356,0.47277,-0.3966,-8.176,51.88,0.5,-0.16667,-1.4398,0.66667,5.7752e-10,-0.71988,0,0,0.25,1.4803e-16,0,0.66667
0.837,0.78453,3.348,0.4268,2.558,3.3388,-3.8104,1.2701,-1.3524,-5.0806,8.5945e-10,-0.67621,0,0,0.25,2.3685e-15,0,0.66667
0.74414,0.8335,2.9765,0.50025,4.6005,6.891,-3.9707,1.3236,-1.1095,-5.2943,4.1278e-11,-0.55475,0,0,0.25,-0,-0,0.66667
0.59052,0.41611,2.3621,-0.12584,-1.6771,14.692,0.79264,-0.26421,-1.9434,1.0569,8.9456e-13,-0.97169,0,0,0.25,-1.1842e-15,0,0.66667
0.24289,0.32033,0.97157,-0.2695,-5.2733,40.891,0.69824,-0.23275,-1.7412,0.93099,9.4004e-11,-0.87059,0,0,0.25,-0,-0,0.66667
0.62325,0.69466,2.493,0.292,3.6651,12.821,-1.9412,0.64706,-1.6971,-2.5882,-1.5635e-12,-0.84856,0,0,0.25,-0,-0,0.66667
0.63836,0.35986,2.5534,-0.21021,-2.5441,11.915,1.4314,-0.47712,-1.8425,1.9085,-1.5188e-13,-0.92127,0,0,0.25,1.1842e-15,0,0.66667
0.32757,0.96694,1.3103,0.70041,13.287,34.032,-2.4473,0.81576,-0.25718,-3.2631,-2.6046e-13,-0.12859,0,0,0.25,7.4015e-16,0,0.66667
0.067489,0.1757,0.26996,-0.48644,-10.166,56.451,0.35018,-0.11673,-1.1579,0.46691,7.3537e-09,-0.57896,0,0,0.25,-7.9923e-17,0,0.66667
0.88054,0.92236,3.5222,0.63354,2.9304,2.4745,-5.9504,1.9835,-0.57202,-7.9339,4.4984e-09,-0.28601,0,0,0.25,-0,-0,0.66667
0.45996,0.381,1.8398,-0.17851,-2.9043,23.493,0.87579,-0.29193,-1.8864,1.1677,-7.8526e-13,-0.94318,0,0,0.25,-0,-0,0.66667
0.76387,0.53964,3.0555,0.059463,0.49388,5.7262,-0.48451,0.1615,-1.9876,-0.64601,2.747e-11,-0.99379,0,0,0.25,-0,-0,0.66667
0.25389,0.063164,1.0156,-0.65525,-12.987,40.111,1.7745,-0.59151,-0.47429,2.366,4.6985e-12,-0.23714,0,0,0.25,5.9212e-16,0,0.66667
0.59139,0.72641,2.3655,0.33962,4.5538,14.744,-2.1424,0.71413,-1.59,-2.8565,-2.0994e-12,-0.79498,0,0,0.25,-0,-0,0.66667
0.4288,0.99946,1.7152,0.74918,13.043,26.206,-3.4266,1.1422,-0.0049616,-4.5688,-2.1005e-13,-0.0024808,0,0,0.25,1.8689e-15,0,0.66667
0.3821,0.59825,1.5284,0.14738,2.6023,29.386,-0.60067,0.20022,-1.9226,-0.80089,8.0536e-13,-0.96132,0,0,0.25,-0,-0,0.66667
0.12671,0.80338,0.50685,0.45507,9.3846,51.129,-0.61508,0.20503,-1.2638,-0.8201,-1.9802e-09,-0.63189,0,0,0.25,1.4803e-16,0,0.66667
0.24427,0.52402,0.97707,0.036033,0.70187,40.742,-0.093885,0.031295,-1.995,-0.12518,-1.8639e-11,-0.99748,0,0,0.25,-2.9606e-16,0,0.66667
0.079342,0.41414,0.31737,-0.1288,-2.6574,55.352,0.109,-0.036334,-1.9414,0.14534,-3.0124e-08,-0.97068,0,0,0.25,1.4803e-16,0,0.66667
0.30286,0.37385,1.2114,-0.18922,-3.563,35.805,0.61127,-0.20376,-1.8732,0.81502,1.4385e-11,-0.93662,0,0,0.25,-1.8504e-16,0,0.66667
0.7417,0.10543,2.9668,-0.59185,-5.55,7.1285,4.6825,-1.5608,-0.75363,6.2433,-1.5979e-11,-0.37681,0,0,0.25,-0,-0,0.66667
0.61502,0.43358,2.4601,-0.09963,-1.2644,13.217,0.65359,-0.21786,-1.9648,0.87145,4.6979e-13,-0.98238,0,0,0.25,-5.9212e-16,0,0.66667
0.67241,0.95375,2.6896,0.68062,7.8849,10.568,-4.8817,1.6272,-0.35303,-6.5089,-4.5608e-13,-0.17651,0,0,0.25,1.1842e-15,0,0.66667
0.0083831,0.50704,0.033532,0.010559,0.21908,61.793,-0.0009435,0.00031279,-1.9991,-0.0012589,-2.5636e-06,-0.99956,0,0,0.25,-0,-0,0.66667
0.67838,0.84177,2.7135,0.51266,5.7444,10.02,-3.7096,1.2365,-1.0659,-4.9462,9.7633e-13,-0.53293,0,0,0.25,1.3323e-15,0,0.66667
0.50318,0.15561,2.0127,-0.51659,-8.0719,20.629,2.7727,-0.92422,-1.0522,3.6969,-2.1494e-13,-0.52609,0,0,0.25,-1.8504e-16,0,0.66667
0.23091,0.63245,0.92363,0.19867,3.9046,41.909,-0.48933,0.16311,-1.8595,-0.65244,-1.1356e-10,-0.92976,0,0,0.25,-0,-0,0.66667
0.1749,0.64107,0.69959,0.21161,4.2627,46.806,-0.39478,0.13159,-1.8403,-0.52637,-2.0523e-10,-0.92014,0,0,0.25,2.9606e-16,0,0.66667
0.18498,0.40717,0.73993,-0.13925,-2.7906,45.909,0.27476,-0.091587,-1.9322,0.36635,4.4484e-10,-0.96608,0,0,0.25,-0,-0,0.66667
0.84426,0.26408,3.377,-0.35388,-2.0079,3.0328,3.1869,-1.0623,-1.5549,4.2492,-6.8945e-10,-0.77744,0,0,0.25,-0,-0,0.66667
0.98259,0.46884,3.9304,-0.046741,-0.007259,0.12819,0.48989,-0.1633,-1.9937,0.65319,3.0914e-06,-0.99684,0,0,0.25,-0,-0,0.66667
0.91374,0.66289,3.655,0.24434,0.73307,1.2025,-2.3814,0.79381,-1.7873,-3.1752,8.5688e-09,-0.89365,0,0,0.25,-0,-0,0.66667
0.34737,0.86339,1.3895,0.54509,10.075,32.321,-2.0197,0.67324,-0.94304,-2.693,1.287e-12,-0.47152,0,0,0.25,-0,-0,0.66667
0.78022,0.19649,3.1209,-0.45526,-3.6322,5.3526,3.7888,-1.2629,-1.2634,5.0518,-1.6297e-10,-0.63168,0,0,0.25,-0,-0,0.66667
0.54645,0.37227,2.1858,-0.1916,-2.7624,17.505,1.1168,-0.37226,-1.8708,1.4891,7.6139e-13,-0.9354,0,0,0.25,-0,-0,0.66667
0.81644,0.069679,3.2658,-0.64548,-4.4937,4.3441,5.6213,-1.8738,-0.51841,7.4951,-2.4258e-10,-0.2592,0,0,0.25,-2.3685e-15,0,0.66667
0.48373,0.58321,1.9349,0.12482,1.9689,21.769,-0.64403,0.21468,-1.9449,-0.85871,5.5844e-14,-0.97244,0,0,0.25,5.9212e-16,0,0.66667
0.58995,0.62996,2.3598,0.19494,2.6053,14.75,-1.2267,0.40891,-1.865,-1.6356,-1.4438e-12,-0.93251,0,0,0.25,-1.1842e-15,0,0.66667
0.78726,0.50972,3.1491,0.014579,0.10975,4.7939,-0.12243,0.040809,-1.9986,-0.16323,-4.7823e-11,-0.99928,0,0,0.25,-0,-0,0.66667
0.10023,0.81408,0.40094,0.47111,9.7831,53.502,-0.5037,0.1679,-1.2113,-0.6716,1.0008e-09,-0.60563,0,0,0.25,2.9606e-16,0,0.66667
0.53701,0.45522,2.148,-0.067177,-0.98095,18.097,0.38479,-0.12826,-1.9831,0.51306,2.9632e-13,-0.99154,0,0,0.25,-1.2281e-15,0,0.66667
0.36598,0.14457,1.4639,-0.53315,-9.6965,30.83,2.0813,-0.69377,-0.98848,2.7751,-1.7655e-12,-0.49424,0,0,0.25,5.9212e-16,0,0.66667
0.60431,0.53407,2.4172,0.051103,0.66239,13.844,-0.3294,0.1098,-1.991,-0.43921,-5.7565e-13,-0.99551,0,0,0.25,-0,-0,0.66667
0.9588,0.20666,3.8352,-0.44,-0.58916,0.70629,4.5,-1.5,-1.3108,6,1.9334e-08,-0.65541,0,0,0.25,-0,-0,0.66667
0.39282,0.35104,1.5713,-0.22344,-3.9124,28.568,0.93623,-0.31208,-1.8226,1.2483,-1.7266e-12,-0.91132,0,0,0.25,1.1842e-15,0,0.66667
0.39297,0.49951,1.5719,-0.00074152,-0.012943,28.521,0.0031082,-0.0010361,-2.0012,0.0041443,-4.618e-13,-1.0006,0,0,0.25,-9.2519e-17,0,0.66667
0.79064,0.72275,3.1625,0.33412,2.516,4.8227,-2.8178,0.93926,-1.6031,-3.757,2.3731e-10,-0.80154,0,0,0.25,2.3685e-15,0,0.66667
0.64508,0.77431,2.5803,0.41147,4.9575,11.683,-2.8313,0.94375,-1.3978,-3.775,-1.1615e-12,-0.69889,0,0,0.25,-0,-0,0.66667
0.39388,0.72085,1.5755,0.33127,5.8151,28.527,-1.3918,0.46394,-1.6105,-1.8557,2.0446e-12,-0.80527,0,0,0.25,-0,-0,0.66667
0.68896,0.11224,2.7558,-0.58164,-6.3834,9.5769,4.2744,-1.4248,-0.79703,5.6992,-8.5221e-13,-0.39852,0,0,0.25,-0,-0,0.66667
0.404,0.86863,1.616,0.55295,9.7236,27.887,-2.3828,0.79428,-0.91315,-3.1771,1.2859e-12,-0.45658,0,0,0.25,-5.9212e-16,0,0.66667
0.13611,0.82788,0.54445,0.49181,10.134,50.3,-0.71405,0.23802,-1.1392,-0.95207,-2.3558e-09,-0.5696,0,0,0.25,-0,-0,0.66667
0.45064,0.73024,1.8026,0.34536,5.7127,24.246,-1.6601,0.55336,-1.5756,-2.2134,1.0764e-12,-0.78782,0,0,0.25,-0,-0,0.66667
0.33442,0.15612,1.3377,-0.51582,-9.615,33.345,1.84,-0.61334,-1.0547,2.4534,-9.3781e-13,-0.52734,0,0,0.25,6.1987e-16,0,0.66667
0.21797,0.098926,0.87188,-0.60161,-12.099,43.155,1.3987,-0.46625,-0.71393,1.865,3.9481e-11,-0.35697,0,0,0.25,-0,-1.6365e-16,0.66667
0.92577,0.86853,3.7031,0.55279,1.5384,1.382,-5.4588,1.8196,-0.91341,-7.2783,-5.2447e-08,-0.45671,0,0,0.25,1.1842e-15,0,0.66667
0.68964,0.32787,2.7586,-0.25819,-2.7557,9.2097,1.8993,-0.6331,-1.7627,2.5324,-1.1829e-11,-0.88133,0,0,0.25,-0,-0,0.66667
0.59882,0.26376,2.3953,-0.35436,-4.6884,14.304,2.2635,-0.75449,-1.5527,3.018,1.9074e-12,-0.77635,0,0,0.25,-0,-0,0.66667
0.74666,0.4945,2.9866,-0.0082528,-0.073088,6.4501,0.065728,-0.021909,-1.9999,0.087638,-1.9129e-12,-0.99995,0,0,0.25,-5.9212e-16,0,0.66667
0.54197,0.058228,2.1679,-0.66266,-9.8995,18.187,3.8308,-1.2769,-0.43878,5.1078,-2.0206e-14,-0.21939,0,0,0.25,6.1697e-16,0,0.66667
0.70053,0.023018,2.8021,-0.71547,-7.7354,9.2233,5.3463,-1.7821,-0.17987,7.1284,2.6645e-14,-0.089934,0,0,0.25,1.1842e-15,-2.2978e-16,0.66667
0.93056,0.8719,3.7222,0.55786,1.45,1.3103,-5.5373,1.8458,-0.89361,-7.383,-5.4207e-08,-0.4468,0,0,0.25,-2.0558e-17,0,0.66667
0.86262,0.84342,3.4505,0.51514,2.6534,2.7223,-4.7399,1.58,-1.0576,-6.3199,5.1581e-09,-0.52878,0,0,0.25,-1.2212e-15,0,0.66667
0.16744,0.97023,0.66977,0.70534,14.578,47.6,-1.2598,0.41993,-0.23172,-1.6797,-2.6846e-10,-0.11586,0,0,0.25,-0,-0,0.66667
0.26314,0.15943,1.0526,-0.51085,-9.9838,39.25,1.4339,-0.47796,-1.0728,1.9118,3.0247e-11,-0.5364,0,0,0.25,-0,-0,0.66667
0.07161,0.39395,0.28644,-0.15908,-3.2876,56.053,0.12151,-0.040503,-1.9091,0.16201,-4.4823e-08,-0.95457,0,0,0.25,-0,-0,0.66667
0.97867,0.66819,3.9147,0.25229,0.096607,0.27014,-2.6337,0.87791,-1.7729,-3.5116,4.055e-08,-0.88644,0,0,0.25,-0,-0,0.66667
0.23638,0.23406,0.94554,-0.39891,-7.8677,41.487,1.0058,-0.33527,-1.4339,1.3411,1.1062e-10,-0.71696,0,0,0.25,-0,-0,0.66667
0.6606,0.52562,2.6424,0.038434,0.43977,10.643,-0.27082,0.090275,-1.9947,-0.3611,8.179e-13,-0.99735,0,0,0.25,-1.1842e-15,0,0.66667
0.089631,0.50405,0.35852,0.00607,0.12491,54.42,-0.0058033,0.0019346,-2.0001,-0.0077377,1.7485e-07,-1,0,0,0.25,-0,-0,0.66667
0.21077,0.30052,0.84308,-0.29922,-5.953,43.675,0.67272,-0.22424,-1.6807,0.89696,1.9765e-10,-0.84037,0,0,0.25,-2.9606e-16,0,0.66667
0.50282,0.76648,2.0113,0.39971,6.2043,20.557,-2.1438,0.71462,-1.4315,-2.8585,-3.4284e-13,-0.71573,0,0,0.25,-0,-0,0.66667
0.10495,0.58318,0.41981,0.12477,2.5616,53.041,-0.13968,0.046559,-1.9441,-0.18624,4.8345e-09,-0.97204,0,0,0.25,-1.4803e-16,0,0.66667
0.38887,0.039187,1.5555,-0.69122,-12.455,29.171,2.8672,-0.95572,-0.3014,3.8229,-1.8519e-13,-0.1507,0,0,0.25,-0,-2.2438e-16,0.66667
0.53799,0.91496,2.152,0.62244,9.3225,18.398,-3.5719,1.1906,-0.62181,-4.7626,-2.3781e-13,-0.3109,0,0,0.25,-0,-0,0.66667
0.3392,0.51534,1.3568,0.023016,0.42111,32.798,-0.083277,0.027759,-1.9973,-0.11104,-3.9982e-13,-0.99867,0,0,0.25,-0,-0,0.66667
0.5559,0.82919,2.2236,0.49379,7.1156,17.096,-2.928,0.97599,-1.1321,-3.904,-1.0845e-12,-0.56605,0,0,0.25,-0,-0,0.66667
0.53677,0.033895,2.1471,-0.69916,-10.565,18.575,4.003,-1.3343,-0.26226,5.3374,-5.7288e-14,-0.13113,0,0,0.25,1.1842e-15,0,0.66667
0.39061,0.83169,1.5624,0.49753,8.832,28.877,-2.073,0.69099,-1.1203,-2.7639,1.8965e-12,-0.56013,0,0,0.25,-0,1.116e-16,0.66667
0.69627,0.89243,2.7851,0.58864,6.3379,9.2252,-4.3718,1.4573,-0.76705,-5.829,1.545e-12,-0.38353,0,0,0.25,-1.1842e-15,0,0.66667
0.67848,0.79131,2.7139,0.43697,4.8624,9.9281,-3.1624,1.0541,-1.3203,-4.2166,3.3693e-12,-0.66017,0,0,0.25,-0,-0,0.66667
0.6873,0.86386,2.7492,0.54579,5.9935,9.6101,-4.0013,1.3338,-0.94123,-5.3351,1.6174e-12,-0.47062,0,0,0.25,-5.9212e-16,3.0931e-16,0.66667
0.56149,0.65652,2.246,0.23478,3.306,16.55,-1.4061,0.46871,-1.8057,-1.8748,-1.4543e-12,-0.90283,0,0,0.25,-0,-0,0.66667
0.35808,0.30396,1.4323,-0.29406,-5.3238,31.331,1.1232,-0.37439,-1.6928,1.4976,-3.3196e-13,-0.8464,0,0,0.25,-2.9606e-16,0,0.66667
0.61311,0.44538,2.4524,-0.081924,-1.0435,13.325,0.53577,-0.17859,-1.9759,0.71436,3.2357e-13,-0.98795,0,0,0.25,-0,-0,0.66667
0.93574,0.63888,3.7429,0.20832,0.44069,0.78122,-2.0792,0.69308,-1.8455,-2.7723,3.8085e-09,-0.92275,0,0,0.25,-0,-0,0.66667
0.59689,0.69919,2.3876,0.29879,3.9565,14.382,-1.9023,0.6341,-1.6822,-2.5364,-2.0964e-12,-0.84108,0,0,0.25,1.1842e-15,0,0.66667
0.97959,0.40312,3.9184,-0.14533,-0.043666,0.18774,1.5185,-0.50617,-1.9252,2.0247,-3.3962e-07,-0.9626,0,0,0.25,-5.9212e-16,0,0.66667
0.44101,0.15857,1.764,-0.51215,-8.6415,25.069,2.4092,-0.80306,-1.068,3.2122,-9.1105e-13,-0.53401,0,0,0.25,-0,-0,0.66667
0.73961,0.24531,2.9584,-0.38203,-3.5267,6.951,3.0139,-1.0046,-1.4811,4.0186,-5.7237e-11,-0.74053,0,0,0.25,1.4803e-15,0,0.66667
0.037604,0.66383,0.15042,0.24574,5.1071,59.139,-0.098569,0.032856,-1.7848,-0.13143,3.1156e-08,-0.89239,0,0,0.25,-0,-0,0.66667
0.76473,0.82381,3.0589,0.48571,4.1377,6.007,-3.962,1.3207,-1.1613,-5.2827,8.366e-11,-0.58067,0,0,0.25,1.1842e-15,0,0.66667
0.51828,0.58915,2.0731,0.13373,2.011,19.368,-0.73928,0.24643,-1.9368,-0.98571,-4.4048e-13,-0.96842,0,0,0.25,-0,-0,0.66667
0.0053165,0.49178,0.021266,-0.012323,-0.2557,62.072,0.00069903,-0.00024883,-1.999,0.00092413,-2.3727e-05,-0.99949,0,0,0.25,9.2519e-18,0,0.66667
0.2772,0.27363,1.1088,-0.33955,-6.5296,37.993,1.004,-0.33466,-1.5898,1.3386,3.6158e-11,-0.79491,0,0,0.25,-0,-0,0.66667
0.53483,0.061645,2.1393,-0.65753,-9.9261,18.649,3.7511,-1.2504,-0.46367,5.0015,9.7922e-14,-0.23183,0,0,0.25,5.5511e-16,0,0.66667
0.76796,0.28539,3.0719,-0.32192,-2.6641,5.6954,2.637,-0.87901,-1.6321,3.516,-1.3096e-10,-0.81605,0,0,0.25,-2.3685e-15,0,0.66667
0.053093,0.26418,0.21237,-0.35374,-7.3647,57.74,0.20033,-0.066776,-1.5542,0.26711,-2.0451e-09,-0.77708,0,0,0.25,-0,-0,0.66667
0.54905,0.97093,2.1962,0.7064,10.48,17.787,-4.1371,1.379,-0.22674,-5.5161,-1.1768e-13,-0.11337,0,0,0.25,-0,-0,0.66667
0.80099,0.05329,3.204,-0.67007,-5.0445,4.9223,5.725,-1.9083,-0.40318,7.6333,1.1366e-11,-0.20159,0,0,0.25,-5.9212e-16,0,0.66667
0.64958,0.23505,2.5983,-0.39742,-4.7341,11.422,2.7537,-0.9179,-1.4374,3.6716,3.7659e-13,-0.71872,0,0,0.25,1.1842e-15,0,0.66667
0.93145,0.64322,3.7258,0.21483,0.4918,0.85675,-2.1345,0.71149,-1.835,-2.8459,9.5889e-09,-0.9175,0,0,0.25,-0,-0,0.66667
0.074731,0.15584,0.29893,-0.51624,-10.793,55.802,0.41151,-0.13717,-1.0535,0.54868,4.6801e-08,-0.52673,0,0,0.25,1.8504e-17,0,0.66667
0.27681,0.99839,1.1072,0.74758,14.724,38.244,-2.2073,0.73577,-0.013479,-2.9431,-2.2429e-12,-0.0067394,0,0,0.25,7.4015e-17,0,0.66667
0.91924,0.32394,3.677,-0.26409,-0.73832,1.1132,2.5895,-0.86315,-1.7517,3.4526,-1.162e-09,-0.87586,0,0,0.25,-0,-0,0.66667
0.76501,0.06597,3.06,-0.65104,-5.6671,6.2513,5.3126,-1.7709,-0.49408,7.0834,-7.4949e-12,-0.24704,0,0,0.25,-2.3685e-15,1.1691e-16,0.66667
0.59974,0.042532,2.399,-0.6862,-9.3083,14.617,4.3898,-1.4633,-0.32498,5.8531,4.1123e-13,-0.16249,0,0,0.25,-0,-0,0.66667
0.83297,0.96011,3.3319,0.69017,4.4462,3.9001,-6.1321,2.044,-0.3059,-8.1762,9.7826e-11,-0.15295,0,0,0.25,-1.1842e-15,0,0.66667
0.89604,0.64772,3.5842,0.22158,0.81377,1.5575,-2.1178,0.70595,-1.8249,-2.8238,-2.1892e-09,-0.91245,0,0,0.25,-0,-0,0.66667
0.97272,0.57326,3.8909,0.10989,0.063428,0.23839,-1.1402,0.38005,-1.9565,-1.5202,-7.2875e-07,-0.97827,0,0,0.25,-0,-0,0.66667
0.99852,0.68117,3.9941,0.27176,-0.12057,0.13967,-2.8944,0.96481,-1.7379,-3.8593,2.9613e-09,-0.86894,0,0,0.25,-0,-1.8828e-16,0.66667
0.13965,0.89621,0.5586,0.59431,12.302,50.013,-0.88528,0.29509,-0.74438,-1.1804,-2.9958e-09,-0.37219,0,0,0.25,-0,-2.583e-16,0.66667
0.070542,0.73936,0.28217,0.35904,7.46,56.162,-0.27016,0.090053,-1.5408,-0.36021,5.4969e-09,-0.77041,0,0,0.25,7.4015e-17,0,0.66667
0.073467,0.59449,0.29387,0.14173,2.9275,55.884,-0.11107,0.037022,-1.9293,-0.14809,1.0217e-07,-0.96467,0,0,0.25,2.9606e-16,0,0.66667
0.014744,0.80366,0.058975,0.45549,9.5473,61.219,-0.071634,0.023878,-1.2627,-0.095511,-2.5694e-08,-0.63133,0,0,0.25,-0,-0,0.66667
0.97182,0.12439,3.8873,-0.56341,-0.52468,0.77523,5.8404,-1.9468,-0.87241,7.7871,-1.7039e-07,-0.43621,0,0,0.25,1.4803e-15,0,0.66667
0.094767,0.71652,0.37907,0.32478,6.7125,53.974,-0.3283,0.10943,-1.6262,-0.43774,-5.2562e-11,-0.8131,0,0,0.25,-2.0354e-16,0,0.66667
0.84174,0.65233,3.3669,0.22849,1.2999,2.9996,-2.0515,0.68384,-1.815,-2.7354,5.4672e-10,-0.90752,0,0,0.25,-1.2779e-15,0,0.66667
0.68517,0.82537,2.7407,0.48805,5.3597,9.6445,-3.5669,1.189,-1.1528,-4.7559,3.1706e-12,-0.5764,0,0,0.25,-0,-0,0.66667
0.48756,0.3318,1.9502,-0.2523,-3.9725,21.54,1.3121,-0.43738,-1.7732,1.7495,-2.417e-13,-0.88661,0,0,0.25,-5.9212e-16,0,0.66667
0.34669,0.97758,1.3868,0.71637,13.409,32.508,-2.6492,0.88306,-0.17518,-3.5322,-3.153e-14,-0.087592,0,0,0.25,-0,-0,0.66667
0.35365,0.2922,1.4146,-0.3117,-5.6675,31.693,1.1758,-0.39193,-1.6538,1.5677,-2.7511e-13,-0.8269,0,0,0.25,-0,-0,0.66667
0.25384,0.15639,1.0154,-0.51542,-10.128,40.041,1.3956,-0.46519,-1.0565,1.8607,3.7943e-11,-0.52823,0,0,0.25,1.1842e-15,0,0.66667
0.91102,0.86635,3.6441,0.54953,1.845,1.6489,-5.3401,1.78,-0.92582,-7.1201,3.7447e-08,-0.46291,0,0,0.25,-1.1842e-15,0,0.66667
0.72564,0.35065,2.9026,-0.22403,-2.1437,7.4552,1.734,-0.578,-1.8211,2.312,-3.8324e-11,-0.91055,0,0,0.25,-0,-0,0.66667
0.025926,0.00039345,0.1037,-0.74941,-15.976,60.223,0.20724,-0.069075,-0.0038875,0.27632,7.6922e-06,-0.0019438,0,0,0.25,-0,-0,0.66667
0.46152,0.83977,1.8461,0.50966,8.3968,23.566,-2.509,0.83633,-1.0764,-3.3453,4.1456e-13,-0.5382,0,0,0.25,-0,-0,0.66667
0.2813,0.90316,1.1252,0.60475,11.757,37.773,-1.8146,0.60486,-0.70105,-2.4194,-3.4319e-12,-0.35052,0,0,0.25,-5.9212e-16,0,0.66667
0.028966,0.825,0.11586,0.4875,10.227,59.933,-0.15062,0.050208,-1.1547,-0.20083,2.6963e-08,-0.57736,0,0,0.25,-0,-0,0.66667
0.88468,0.16394,3.5387,-0.50409,-2.176,2.1443,4.7569,-1.5856,-1.096,6.3426,3.3611e-10,-0.548,0,0,0.25,-0,-0,0.66667
0.77101,0.79759,3.084,0.44638,3.6938,5.7039,-3.6711,1.2237,-1.2907,-4.8947,1.1942e-10,-0.64533,0,0,0.25,-0,-0,0.66667
0.32974,0.76462,1.3189,0.39694,7.3806,33.662,-1.3961,0.46536,-1.4396,-1.8615,-2.5959e-12,-0.71981,0,0,0.25,-0,-0,0.66667
0.79656,0.31838,3.1862,-0.27242,-1.9862,4.5502,2.3147,-0.77156,-1.737,3.0862,-2.5361e-10,-0.86849,0,0,0.25,-0,-0,0.66667
0.32464,0.45433,1.2986,-0.0685,-1.2677,33.989,0.2372,-0.079067,-1.9827,0.31627,2.4718e-12,-0.99136,0,0,0.25,5.9212e-16,0,0.66667
0.30788,0.95063,1.2315,0.67594,12.979,35.618,-2.2198,0.73995,-0.37474,-2.9598,4.4853e-14,-0.18737,0,0,0.25,5.9212e-16,-5.2241e-17,0.66667
0.92811,0.17568,3.7124,-0.48648,-1.2742,1.2283,4.8161,-1.6054,-1.1577,6.4215,-6.6271e-09,-0.57883,0,0,0.25,1.1842e-15,0,0.66667
0.97692,0.72747,3.9077,0.34121,0.17433,0.37813,-3.5556,1.1852,-1.5854,-4.7407,5.5895e-09,-0.79269,0,0,0.25,-0,-0,0.66667
0.52356,0.16551,2.0942,-0.50174,-7.6081,19.228,2.802,-0.93401,-1.1042,3.736,2.8133e-13,-0.55209,0,0,0.25,-0,-0,0.66667
0.95194,0.62382,3.8077,0.18573,0.27004,0.52473,-1.8859,0.62864,-1.8787,-2.5145,4.0906e-08,-0.93937,0,0,0.25,5.9212e-16,0,0.66667
0.888,0.75097,3.552,0.37645,1.534,1.8889,-3.5658,1.1886,-1.4972,-4.7543,6.9381e-10,-0.7486,0,0,0.25,2.3685e-15,0,0.66667
0.51803,0.80664,2.0721,0.45996,7.0118,19.564,-2.5416,0.84719,-1.2481,-3.3888,-4.5808e-13,-0.62404,0,0,0.25,5.9212e-16,0,0.66667
0.37275,0.30877,1.491,-0.28685,-5.1263,30.163,1.1405,-0.38017,-1.7081,1.5207,-1.3987e-12,-0.85405,0,0,0.25,7.4015e-16,0,0.66667
0.71035,0.43003,2.8414,-0.10495,-1.0491,8.123,0.79521,-0.26507,-1.9603,1.0603,-1.4167e-11,-0.98015,0,0,0.25,-5.9212e-16,0,0.66667
0.45564,0.57075,1.8226,0.10612,1.7333,23.792,-0.51578,0.17193,-1.9599,-0.68771,7.8393e-13,-0.97997,0,0,0.25,-1.1842e-15,0,0.66667
0.60521,0.28434,2.4209,-0.32348,-4.2197,13.899,2.0883,-0.6961,-1.6283,2.7844,1.9842e-12,-0.81416,0,0,0.25,-0,-0,0.66667
0.99041,0.13647,3.9616,-0.54529,-0.072197,0.58573,5.7607,-1.9202,-0.94196,7.6809,1.8361e-08,-0.47098,0,0,0.25,2.3685e-15,0,0.66667
0.77392,0.72618,3.0957,0.33927,2.7454,5.4725,-2.8007,0.93358,-1.5902,-3.7343,1.5087e-10,-0.7951,0,0,0.25,-0,-0,0.66667
0.33428,0.54121,1.3371,0.061818,1.1356,33.201,-0.22042,0.073474,-1.9857,-0.29389,-1.8897e-12,-0.99285,0,0,0.25,-0,-0,0.66667
0.088998,0.1752,0.35599,-0.4872,-10.147,54.514,0.4625,-0.15417,-1.1553,0.61667,1.2407e-09,-0.57766,0,0,0.25,-0,-0,0.66667
0.18491,0.37657,0.73962,-0.18514,-3.7132,45.92,0.36515,-0.12172,-1.8791,0.48687,-3.2153e-11,-0.93954,0,0,0.25,5.9212e-16,0,0.66667
0.52685,0.65911,2.1074,0.23866,3.5531,18.825,-1.3412,0.44708,-1.7979,-1.7883,-8.5976e-13,-0.89893,0,0,0.25,-0,-0,0.66667
0.4171,0.082519,1.6684,-0.62622,-10.925,26.954,2.7861,-0.9287,-0.60501,3.7148,-4.432e-13,-0.3025,0,0,0.25,-0,-0,0.66667
0.80066,0.55304,3.2026,0.079561,0.56335,4.3041,-0.67948,0.22649,-1.9771,-0.90597,1.2685e-10,-0.98855,0,0,0.25,-5.9212e-16,0,0.66667
0.9332,0.76516,3.7328,0.39774,0.92894,1.0132,-3.9591,1.3197,-1.4368,-5.2788,-1.6777e-09,-0.7184,0,0,0.25,-1.1842e-15,0,0.66667
0.17786,0.86688,0.71146,0.55031,11.22,46.626,-1.0441,0.34802,-0.92268,-1.3921,-5.1742e-10,-0.46134,0,0,0.25,-2.9606e-16,0,0.66667
0.86007,0.54226,3.4403,0.06339,0.31527,2.3921,-0.58154,0.19385,-1.9859,-0.77539,-1.1375e-09,-0.99297,0,0,0.25,-0,-0,0.66667
0.95739,0.25631,3.8296,-0.36553,-0.48774,0.62153,3.7329,-1.2443,-1.5248,4.9772,6.8598e-09,-0.7624,0,0,0.25,-0,-0,0.66667
0.95947,0.92697,3.8379,0.64046,0.98391,1.0676,-6.5547,2.1849,-0.54079,-8.7396,-5.8221e-07,-0.27039,0,0,0.25,-0,-0,0.66667
0.037863,0.65843,0.15145,0.23765,4.9378,59.115,-0.095978,0.031993,-1.7995,-0.12797,3.9358e-08,-0.89974,0,0,0.25,-0,-0,0.66667
0.057584,0.57954,0.23033,0.11931,2.469,57.322,-0.073282,0.024427,-1.9486,-0.09771,5.7106e-08,-0.97429,0,0,0.25,-0,-0,0.66667
0.0057974,0.91742,0.02319,0.62614,13.246,62.032,-0.038719,0.012906,-0.60527,-0.051625,-5.806e-08,-0.30264,0,0,0.25,9.2519e-18,5.4409e-16,0.66667
0.31268,0.087831,1.2507,-0.61825,-11.784,35.184,2.062,-0.68735,-0.64183,2.7494,-3.0309e-13,-0.32091,0,0,0.25,1.4803e-16,0,0.66667
0.055698,0.099408,0.22279,-0.60089,-12.654,57.528,0.357,-0.119,-0.71592,0.476,-2.3866e-07,-0.35796,0,0,0.25,-1.4803e-16,0,0.66667
0.29386,0.77346,1.1754,0.41018,7.8272,36.624,-1.2857,0.42858,-1.4017,-1.7143,-1.6774e-11,-0.70085,0,0,0.25,2.9606e-16,0,0.66667
0.35602,0.66579,1.4241,0.24868,4.5037,31.481,-0.94438,0.31479,-1.7798,-1.2592,-3.3812e-13,-0.88989,0,0,0.25,-0,-0,0.66667
0.95368,0.36139,3.8147,-0.20791,-0.28944,0.51606,2.115,-0.705,-1.8465,2.82,-8.1699e-09,-0.92323,0,0,0.25,-1.1842e-15,0,0.66667
0.47695,0.64475,1.9078,0.21712,3.4622,22.279,-1.1046,0.3682,-1.8315,-1.4728,3.2829e-13,-0.91575,0,0,0.25,5.9212e-16,0,0.66667
0.27824,0.46086,1.113,-0.058716,-1.1216,37.85,0.17426,-0.058087,-1.9876,0.23235,1.166e-11,-0.99382,0,0,0.25,-0,-0,0.66667
0.50301,0.026034,2.012,-0.71095,-11.287,20.854,3.8145,-1.2715,-0.2031,5.086,-9.3481e-14,-0.10155,0,0,0.25,-5.9212e-16,0,0.66667
0.64336,0.010162,2.5734,-0.73476,-9.1696,12.202,5.0423,-1.6808,-0.080223,6.723,7.2831e-14,-0.040111,0,0,0.25,-0,-0,0.66667
0.11125,0.8304,0.44498,0.4956,10.279,52.52,-0.58808,0.19603,-1.1265,-0.78411,-2.6138e-09,-0.56324,0,0,0.25,-0,-0,0.66667
0.75806,0.53119,3.0322,0.046778,0.39728,5.966,-0.37825,0.12608,-1.9929,-0.50433,2.8825e-11,-0.99646,0,0,0.25,-1.2627e-15,0,0.66667
0.85195,0.94539,3.4078,0.66809,3.8274,3.2932,-6.0712,2.0237,-0.41242,-8.0949,1.3502e-09,-0.20621,0,0,0.25,-0,-0,0.66667
0.84425,0.93885,3.377,0.65828,3.9457,3.4955,-5.928,1.976,-0.46082,-7.9041,1.7871e-09,-0.23041,0,0,0.25,2.3685e-15,0,0.66667
0.89051,0.89533,3.562,0.593,2.489,2.1629,-5.6327,1.8776,-0.75013,-7.5103,9.9277e-09,-0.37506,0,0,0.25,-1.1842e-15,0,0.66667
0.38184,0.47507,1.5274,-0.0374,-0.65977,29.392,0.15233,-0.050776,-1.9946,0.20311,-1.7858e-13,-0.99732,0,0,0.25,-0,-0,0.66667
0.44381,0.55685,1.7752,0.08528,1.4119,24.661,-0.40371,0.13457,-1.9739,-0.53828,6.7735e-13,-0.98694,0,0,0.25,-8.8818e-16,0,0.66667
0.10158,0.86618,0.40633,0.54926,11.448,53.396,-0.59515,0.19838,-0.92664,-0.79353,8.6688e-09,-0.46332,0,0,0.25,1.4803e-16,0,0.66667
0.22581,0.08274,0.90323,-0.62589,-12.561,42.492,1.5075,-0.50251,-0.60631,2.01,3.4885e-11,-0.30315,0,0,0.25,-0,-0,0.66667
0.97132,0.04688,3.8853,-0.67968,-0.74891,1.0297,7.042,-2.3473,-0.35704,9.3893,2.309e-06,-0.17852,0,0,0.25,-0,-0,0.66667
0.28462,0.30902,1.1385,-0.28648,-5.4737,37.352,0.86974,-0.28991,-1.7086,1.1596,2.9449e-11,-0.85432,0,0,0.25,-2.9606e-16,0,0.66667
0.9074,0.24996,3.6296,-0.37507,-1.2492,1.4609,3.6302,-1.2101,-1.5015,4.8403,-3.0054e-10,-0.75073,0,0,0.25,4.7647e-16,0,0.66667
0.89055,0.6129,3.5622,0.16935,0.6538,1.6505,-1.6087,0.53623,-1.8984,-2.1449,2.9159e-09,-0.9492,0,0,0.25,-1.1842e-15,0,0.66667
0.9225,0.56707,3.69,0.10061,0.26213,0.95497,-0.98998,0.32999,-1.965,-1.32,8.3608e-08,-0.98248,0,0,0.25,2.3685e-15,0,0.66667
0.15615,0.86908,0.6246,0.55363,11.376,48.539,-0.92212,0.30737,-0.91114,-1.2295,-1.6408e-09,-0.45557,0,0,0.25,-2.9606e-16,1.9234e-16,0.66667
0.87972,0.90605,3.5189,0.60908,2.8167,2.4468,-5.7154,1.9051,-0.68185,-7.6205,-1.5843e-08,-0.34093,0,0,0.25,5.181e-16,0,0.66667
0.63199,0.72483,2.528,0.33724,4.1639,12.352,-2.2734,0.75781,-1.5953,-3.0312,-1.4866e-12,-0.79764,0,0,0.25,2.3685e-15,0,0.66667
0.21063,0.48226,0.84251,-0.026605,-0.52689,43.654,0.059773,-0.019924,-1.9965,0.079698,7.5092e-12,-0.99826,0,0,0.25,-2.9606e-16,0,0.66667
0.34512,0.46624,1.3805,-0.050647,-0.92236,32.321,0.18644,-0.062147,-1.992,0.24859,8.9267e-13,-0.99598,0,0,0.25,1.4803e-16,0,0.66667
0.15992,0.33473,0.63968,-0.2479,-5.0245,48.137,0.42287,-0.14096,-1.7812,0.56383,2.6769e-10,-0.89058,0,0,0.25,-1.4803e-16,0,0.66667
0.44435,0.066272,1.7774,-0.65059,-11.045,24.95,3.0836,-1.0279,-0.49504,4.1115,1.672e-13,-0.24752,0,0,0.25,-1.1842e-15,0,0.66667
0.083775,0.15423,0.3351,-0.51865,-10.829,54.989,0.46347,-0.15449,-1.044,0.61796,-4.807e-09,-0.52198,0,0,0.25,1.8504e-16,0,0.66667
0.16532,0.40922,0.66127,-0.13616,-2.7486,47.646,0.24011,-0.080036,-1.9342,0.32015,-4.4917e-10,-0.96711,0,0,0.25,-0,-0,0.66667
0.1972,0.04087,0.78879,-0.68869,-14.058,44.995,1.4486,-0.48287,-0.31292,1.9315,4.251e-11,-0.15646,0,0,0.25,-0,-0,0.66667
0.69103,0.95754,2.7641,0.68632,7.5847,9.6368,-5.0588,1.6863,-0.32476,-6.7451,-6.1284e-14,-0.16238,0,0,0.25,-0,-0,0.66667
0.5738,0.73962,2.2952,0.35943,4.9817,15.845,-2.1999,0.73331,-1.5401,-2.9332,-1.9049e-12,-0.77005,0,0,0.25,5.9212e-16,0,0.66667
0.87332,0.79489,3.4933,0.44233,2.071,2.3331,-4.1205,1.3735,-1.3042,-5.494,1.3318e-09,-0.65208,0,0,0.25,-0,-0,0.66667
0.24463,0.058835,0.97854,-0.66175,-13.187,40.901,1.7268,-0.57559,-0.44311,2.3024,1.1674e-11,-0.22156,0,0,0.25,-2.9606e-16,0,0.66667
0.62961,0.32692,2.5184,-0.25962,-3.2098,12.436,1.7436,-0.5812,-1.7596,2.3248,7.8471e-13,-0.87978,0,0,0.25,-0,-0,0.66667
0.034431,0.034899,0.13773,-0.69765,-14.811,59.453,0.25622,-0.085408,-0.26991,0.34163,-4.7917e-08,-0.13496,0,0,0.25,-0,-0,0.66667
0.5162,0.20014,2.0648,-0.4498,-6.8708,19.68,2.4766,-0.82554,-1.2808,3.3022,2.0828e-13,-0.64042,0,0,0.25,-0,-0,0.66667
0.86323,0.043143,3.4529,-0.68528,-3.6596,3.0193,6.3099,-2.1033,-0.32968,8.4132,8.1787e-11,-0.16484,0,0,0.25,-2.3685e-15,0,0.66667
0.98413,0.86776,3.9365,0.55164,0.22294,0.64374,-5.7908,1.9303,-0.91872,-7.721,4.8824e-08,-0.45936,0,0,0.25,-0,-2.2667e-16,0.66667
0.009873,0.063451,0.039492,-0.65482,-13.877,61.665,0.06896,-0.022988,-0.476,0.091946,-2.1565e-06,-0.238,0,0,0.25,-0,-0,0.66667
0.25284,0.92044,1.0114,0.63067,12.486,40.186,-1.7009,0.56696,-0.58535,-2.2679,-1.0277e-11,-0.29268,0,0,0.25,-0,-0,0.66667
0.22385,0.49,0.8954,-0.015003,-0.29528,42.504,0.035824,-0.011941,-1.9986,0.047765,1.7992e-11,-0.99929,0,0,0.25,-2.9606e-16,0,0.66667
0.047538,0.057416,0.19015,-0.66388,-14.047,58.27,0.33663,-0.11221,-0.43382,0.44884,-3.4967e-07,-0.21691,0,0,0.25,-1.8504e-17,0,0.66667
0.010172,0.97438,0.04069,0.71158,15.137,61.639,-0.077209,0.025733,-0.19949,-0.10295,-5.5944e-06,-0.099747,0,0,0.25,-0,-0,0.66667
0.4902,0.23232,1.9608,-0.40152,-6.3404,21.439,2.0995,-0.69982,-1.4259,2.7993,-3.626e-13,-0.71294,0,0,0.25,-0,-0,0.66667
0.045482,0.75299,0.18193,0.37948,7.9142,58.431,-0.1841,0.061368,-1.489,-0.24547,8.1934e-09,-0.74448,0,0,0.25,-1.4803e-16,0,0.66667
0.27833,0.47333,1.1133,-0.040001,-0.76399,37.842,0.11876,-0.039586,-1.9947,0.15834,8.3698e-12,-0.99734,0,0,0.25,-0,-0,0.66667
0.63997,0.40484,2.5599,-0.14274,-1.7177,11.797,0.9744,-0.3248,-1.9291,1.2992,-4.9549e-13,-0.96453,0,0,0.25,1.4803e-15,0,0.66667
0.29469,0.98686,1.1788,0.73029,14.204,36.746,-2.2956,0.7652,-0.10344,-3.0608,7.7649e-13,-0.051722,0,0,0.25,-2.9606e-16,0,0.66667
0.26965,0.55357,1.0786,0.080356,1.5433,38.578,-0.23113,0.077043,-1.9767,-0.30817,-1.9044e-11,-0.98833,0,0,0.25,-2.9606e-16,0,0.66667
0.59055,0.94633,2.3622,0.66949,9.2222,15.145,-4.2172,1.4057,-0.4061,-5.623,-2.5535e-13,-0.20305,0,0,0.25,-0,-0,0.66667
0.38053,0.73494,1.5221,0.35241,6.2692,29.578,-1.4304,0.47682,-1.5575,-1.9073,1.6881e-12,-0.77877,0,0,0.25,-0,-0,0.66667
0.70252,0.079398,2.8101,-0.6309,-6.709,8.9854,4.7277,-1.5759,-0.58487,6.3036,-8.6953e-13,-0.29243,0,0,0.25,-0,2.9409e-16,0.66667
0.49612,0.76159,1.9845,0.39239,6.1443,21.018,-2.0765,0.69217,-1.452,-2.7687,-2.3537e-14,-0.726,0,0,0.25,-0,-0,0.66667
0.63321,0.63443,2.5328,0.20165,2.4679,12.201,-1.362,0.454,-1.8547,-1.816,-4.6962e-13,-0.92734,0,0,0.25,-0,-0,0.66667
0.35339,0.3823,1.4136,-0.17655,-3.1987,31.672,0.66549,-0.22183,-1.8887,0.88733,8.2345e-13,-0.94437,0,0,0.25,-0,-0,0.66667
0.28704,0.1526,1.1482,-0.5211,-10.044,37.246,1.5955,-0.53184,-1.0346,2.1274,9.6876e-12,-0.51729,0,0,0.25,-0,-0,0.66667
0.13321,0.33248,0.53283,-0.25128,-5.1355,50.516,0.35704,-0.11901,-1.7746,0.47606,-7.1252e-10,-0.88731,0,0,0.25,-1.4803e-16,0,0.66667
0.93708,0.22866,3.7483,-0.40701,-0.89077,0.96325,4.0683,-1.3561,-1.4114,5.4244,5.848e-09,-0.7057,0,0,0.25,-0,-0,0.66667
0.80484,0.9553,3.2193,0.68296,5.064,4.8121,-5.8631,1.9544,-0.34061,-7.8175,2.9237e-11,-0.17031,0,0,0.25,1.1842e-15,0,0.66667
0.93803,0.6871,3.7521,0.28065,0.57829,0.80347,-2.8081,0.93604,-1.7217,-3.7441,-1.1339e-08,-0.86085,0,0,0.25,-1.8504e-16,0,0.66667
0.18538,0.96154,0.74152,0.69231,14.202,46.025,-1.369,0.45632,-0.29603,-1.8253,1.981e-11,-0.14801,0,0,0.25,-2.9606e-16,2.1018e-16,0.66667
0.93316,0.26448,3.7326,-0.35328,-0.81352,0.95862,3.5164,-1.1721,-1.5555,4.6885,5.9927e-09,-0.77776,0,0,0.25,-0,-0,0.66667
0.93575,0.86991,3.743,0.55487,1.3256,1.2209,-5.5384,1.8461,-0.90587,-7.3845,2.4656e-08,-0.45294,0,0,0.25,5.9212e-16,0,0.66667
0.28354,0.31681,1.1342,-0.27478,-5.2519,37.439,0.83106,-0.27702,-1.7321,1.1081,3.0456e-11,-0.86604,0,0,0.25,-5.9212e-16,0,0.66667
0.27463,0.91549,1.0985,0.62324,12.18,38.343,-1.8257,0.60858,-0.61824,-2.4343,-4.0724e-12,-0.30912,0,0,0.25,-0,-0,0.66667
0.55143,0.79023,2.2057,0.43535,6.295,17.331,-2.5607,0.85357,-1.3256,-3.4143,-1.243e-12,-0.66282,0,0,0.25,-0,-0,0.66667
0.18529,0.0098651,0.74116,-0.7352,-15.129,46.053,1.4531,-0.48436,-0.07804,1.9374,3.9399e-10,-0.03902,0,0,0.25,-0,-0,0.66667
0.4421,0.6481,1.7684,0.22215,3.6947,24.821,-1.0476,0.3492,-1.8241,-1.3968,9.0794e-13,-0.91207,0,0,0.25,5.9212e-16,0,0.66667
0.18532,0.44149,0.74127,-0.087767,-1.7576,45.875,0.17349,-0.057831,-1.9732,0.23132,-1.6381e-10,-0.98662,0,0,0.25,-5.9212e-16,0,0.66667
0.94738,0.48968,3.7895,-0.015483,-0.024817,0.53078,0.15646,-0.052154,-1.9984,0.20862,3.9834e-07,-0.99922,0,0,0.25,-1.2466e-15,0,0.66667
0.49382,0.18125,1.9753,-0.47812,-7.547,21.244,2.5185,-0.83949,-1.1869,3.358,-4.1167e-13,-0.59344,0,0,0.25,-0,-0,0.66667
0.96392,0.863,3.8557,0.5445,0.67293,0.82229,-5.5984,1.8661,-0.94512,-7.4646,-1.4358e-07,-0.47256,0,0,0.25,-1.1842e-15,0,0.66667
0.64494,0.24706,2.5798,-0.37941,-4.5627,11.662,2.6101,-0.87004,-1.4885,3.4802,6.9567e-13,-0.74427,0,0,0.25,1.7764e-15,0,0.66667
0.48432,0.030589,1.9373,-0.70412,-11.449,22.141,3.6375,-1.2125,-0.23907,4.85,1.843e-13,-0.11953,0,0,0.25,-3.7007e-16,2.4532e-17,0.66667
0.9677,0.57131,3.8708,0.10697,0.083922,0.29084,-1.1041,0.36804,-1.9596,-1.4722,-2.1308e-07,-0.97981,0,0,0.25,-0,-0,0.66667
0.14319,0.12282,0.57276,-0.56577,-11.68,49.69,0.86414,-0.28805,-0.86272,1.1522,1.8743e-10,-0.43136,0,0,0.25,-3.3307e-16,0,0.66667
0.63233,0.16212,2.5293,-0.50683,-6.3285,12.494,3.4185,-1.1395,-1.0863,4.558,1.7066e-12,-0.54317,0,0,0.25,-0,-0,0.66667
0.66189,0.45049,2.6476,-0.074261,-0.84729,10.578,0.52429,-0.17476,-1.9795,0.69906,-1.6687e-12,-0.98977,0,0,0.25,-0,-0,0.66667
0.43384,0.045179,1.7354,-0.68223,-11.746,25.758,3.1571,-1.0524,-0.34449,4.2095,-1.4566e-13,-0.17224,0,0,0.25,-5.9212e-16,0,0.66667
0.059357,0.21843,0.23743,-0.42235,-8.8102,57.179,0.26741,-0.089137,-1.3668,0.35655,-1.6095e-08,-0.68342,0,0,0.25,-9.9457e-17,0,0.66667
0.49272,0.24179,1.9709,-0.38731,-6.091,21.252,2.0356,-0.67853,-1.466,2.7141,-2.6756e-13,-0.73301,0,0,0.25,-5.9212e-16,0,0.66667
0.46513,0.3874,1.8605,-0.16891,-2.7302,23.114,0.83802,-0.27934,-1.898,1.1174,-5.4162e-13,-0.949,0,0,0.25,-0,-0,0.66667
0.80675,0.077218,3.227,-0.63417,-4.6183,4.6535,5.4572,-1.8191,-0.56914,7.2763,-8.8354e-11,-0.28457,0,0,0.25,1.1842e-15,0,0.66667
0.25666,0.18852,1.0266,-0.46722,-9.144,39.78,1.2791,-0.42637,-1.2244,1.7055,4.5595e-11,-0.61218,0,0,0.25,-0,-0,0.66667
0.39143,0.80879,1.5657,0.46318,8.2001,28.791,-1.9339,0.64463,-1.2382,-2.5785,2.0467e-12,-0.61912,0,0,0.25,-2.9606e-16,0,0.66667
0.24017,0.85135,0.96069,0.52702,10.439,41.213,-1.3502,0.45005,-1.012,-1.8002,-5.6765e-11,-0.50598,0,0,0.25,-0,-0,0.66667
0.68644,0.19003,2.7458,-0.46495,-5.0781,9.5535,3.4044,-1.1348,-1.2325,4.5392,-4.4582e-12,-0.61626,0,0,0.25,-0,-0,0.66667
0.98988,0.85641,3.9595,0.53462,0.076192,0.569,-5.6449,1.8816,-0.98294,-7.5265,1.8314e-08,-0.49147,0,0,0.25,-0,-0,0.66667
0.17743,0.94361,0.70972,0.66541,13.666,46.708,-1.2594,0.41978,-0.42542,-1.6791,-1.6439e-10,-0.21271,0,0,0.25,-0,-0,0.66667
0.82145,0.48853,3.2858,-0.017201,-0.10931,3.5708,0.15072,-0.050239,-1.9981,0.20095,1.9056e-10,-0.99905,0,0,0.25,-0,-0,0.66667
0.23099,0.85755,0.92395,0.53632,10.678,42.004,-1.3214,0.44047,-0.97673,-1.7619,-7.5025e-11,-0.48836,0,0,0.25,-0,-0,0.66667
0.057976,0.97748,0.2319,0.71622,15.191,57.338,-0.44291,0.14764,-0.17569,-0.59055,5.7671e-07,-0.087843,0,0,0.25,-1.4803e-16,0,0.66667
0.13882,0.34127,0.55527,-0.23809,-4.8565,50.013,0.35254,-0.11751,-1.7994,0.47005,-1.2641e-09,-0.89971,0,0,0.25,1.4803e-16,0,0.66667
0.93515,0.11339,3.7406,-0.57991,-1.4164,1.2776,5.7846,-1.9282,-0.80403,7.7128,-5.1382e-08,-0.40201,0,0,0.25,-0,-0,0.66667
0.88854,0.56128,3.5542,0.09192,0.35995,1.6656,-0.87119,0.2904,-1.9711,-1.1616,8.6379e-09,-0.98555,0,0,0.25,4.4409e-16,0,0.66667
0.28926,0.57546,1.157,0.11319,2.1482,36.928,-0.34925,0.11642,-1.9535,-0.46566,-1.5273e-11,-0.97675,0,0,0.25,-0,-0,0.66667
0.94776,0.4443,3.7911,-0.083545,-0.13321,0.53655,0.8446,-0.28153,-1.9749,1.1261,-3.9538e-09,-0.98743,0,0,0.25,-0,-0,0.66667
0.84993,0.76718,3.3997,0.40077,2.2065,2.9187,-3.6333,1.2111,-1.428,-4.8444,6.821e-10,-0.714,0,0,0.25,1.7772e-16,0,0.66667
0.43465,0.48949,1.7386,-0.015766,-0.26361,25.338,0.073097,-0.024366,-1.9988,0.097463,-3.8235e-13,-0.99941,0,0,0.25,5.9212e-16,0,0.66667
0.46805,0.087219,1.8722,-0.61917,-10.2,23.199,3.0912,-1.0304,-0.63755,4.1216,-3.3218e-13,-0.31877,0,0,0.25,2.9606e-16,1.9578e-16,0.66667
0.62985,0.41685,2.5194,-0.12472,-1.5344,12.364,0.83791,-0.2793,-1.9441,1.1172,9.2648e-14,-0.97203,0,0,0.25,-0,-0,0.66667
0.15803,0.44023,0.63213,-0.089652,-1.8133,48.289,0.15112,-0.050375,-1.9724,0.2015,-5.7391e-10,-0.98618,0,0,0.25,-0,-0,0.66667
0.014782,0.88683,0.059128,0.58024,12.24,61.219,-0.09149,0.030497,-0.80304,-0.12199,1.4772e-07,-0.40152,0,0,0.25,-0,-0,0.66667
0.26551,0.85934,1.062,0.53901,10.536,39.064,-1.5266,0.50885,-0.96725,-2.0354,-2.155e-11,-0.48363,0,0,0.25,5.9212e-16,-3.7039e-16,0.66667
0.015444,0.038171,0.061775,-0.69274,-14.716,61.163,0.11412,-0.038035,-0.29447,0.15216,4.9776e-06,-0.14724,0,0,0.25,3.7007e-17,0,0.66667
0.6745,0.69593,2.698,0.2939,3.2723,10.008,-2.1145,0.70484,-1.6928,-2.8194,5.7663e-12,-0.84641,0,0,0.25,-0,-0,0.66667
0.55147,0.95866,2.2059,0.68798,10.15,17.606,-4.047,1.349,-0.31651,-5.3959,3.9968e-15,-0.15825,0,0,0.25,-5.9212e-16,0,0.66667
0.32165,0.38164,1.2866,-0.17753,-3.2978,34.25,0.6091,-0.20303,-1.8875,0.81214,6.6224e-12,-0.94377,0,0,0.25,-0,-0,0.66667
0.7802,0.66475,3.1208,0.24713,1.9344,5.1507,-2.0567,0.68555,-1.7832,-2.7422,1.5836e-10,-0.89159,0,0,0.25,-0,-0,0.66667
0.14579,0.21052,0.58314,-0.43423,-8.8982,49.426,0.67524,-0.22508,-1.3291,0.90032,1.2239e-09,-0.66456,0,0,0.25,-0,-0,0.66667
0.24488,0.48967,0.97952,-0.015494,-0.30168,40.689,0.040472,-0.013491,-1.9985,0.053962,-2.9674e-12,-0.99925,0,0,0.25,-0,-0,0.66667
0.29231,0.29424,1.1693,-0.30865,-5.8723,36.715,0.96236,-0.32079,-1.6606,1.2832,2.2272e-11,-0.83028,0,0,0.25,-0,-0,0.66667
0.19593,0.96608,0.78373,0.69912,14.288,45.11,-1.4611,0.48704,-0.26235,-1.9482,-6.3099e-11,-0.13117,0,0,0.25,2.9606e-16,0,0.66667
0.087939,0.69379,0.35175,0.29068,6.0092,54.586,-0.27266,0.090888,-1.6993,-0.36355,6.159e-09,-0.84963,0,0,0.25,-0,-0,0.66667
0.86998,0.84083,3.4799,0.51125,2.4922,2.5212,-4.7443,1.5814,-1.071,-6.3257,3.373e-09,-0.53548,0,0,0.25,-2.9606e-16,0,0.66667
0.088189,0.71431,0.35275,0.32146,6.6514,54.566,-0.30239,0.1008,-1.6326,-0.40319,4.196e-10,-0.81628,0,0,0.25,7.4015e-17,0,0.66667
0.68371,0.98802,2.7348,0.73203,8.2962,10.08,-5.3386,1.7795,-0.094145,-7.1181,-9.7256e-14,-0.047073,0,0,0.25,-0,-0,0.66667
0.1204,0.8729,0.4816,0.55935,11.615,51.716,-0.71835,0.23945,-0.88808,-0.95781,-1.4073e-08,-0.44404,0,0,0.25,-1.4803e-16,0,0.66667
0.010699,0.77678,0.042796,0.41517,8.688,61.585,-0.04738,0.015793,-1.3872,-0.063174,-1.4191e-08,-0.69359,0,0,0.25,1.5587e-17,0,0.66667
0.55727,0.74736,2.2291,0.37104,5.2939,16.903,-2.2055,0.73518,-1.5108,-2.9407,-1.4626e-12,-0.75541,0,0,0.25,-5.9212e-16,0,0.66667
0.90711,0.68399,3.6284,0.27598,0.90382,1.3627,-2.6703,0.89011,-1.7302,-3.5604,-4.9021e-09,-0.86512,0,0,0.25,-2.9606e-16,0,0.66667
0.86046,0.46222,3.4418,-0.056668,-0.28098,2.38,0.52011,-0.17337,-1.9891,0.69349,2.8979e-09,-0.99456,0,0,0.25,-0,-0,0.66667
0.33845,0.13298,1.3538,-0.55053,-10.251,33.042,1.9875,-0.66249,-0.92193,2.65,-1.348e-12,-0.46096,0,0,0.25,1.1842e-15,0,0.66667
0.027159,0.41957,0.10864,-0.12065,-2.5034,60.085,0.034952,-0.011651,-1.9476,0.046602,-2.8317e-07,-0.97379,0,0,0.25,-0,-0,0.66667
0.80086,0.91678,3.2034,0.62517,4.6716,4.8443,-5.3405,1.7802,-0.60986,-7.1206,1.3698e-10,-0.30493,0,0,0.25,-2.3685e-15,0,0.66667
0.80598,0.82866,3.2239,0.49299,3.5218,4.452,-4.2384,1.4128,-1.1349,-5.6511,3.2865e-10,-0.56744,0,0,0.25,-0,-0,0.66667
0.86849,0.85845,3.474,0.53768,2.6662,2.6028,-4.981,1.6603,-0.97114,-6.6413,8.5726e-10,-0.48557,0,0,0.25,-0,-0,0.66667
0.66965,0.98154,2.6786,0.72232,8.4689,10.78,-5.1594,1.7198,-0.14464,-6.8792,-2.9887e-13,-0.072319,0,0,0.25,2.3685e-15,2.8634e-16,0.66667
0.80778,0.31826,3.2311,-0.27262,-1.883,4.1469,2.349,-0.78298,-1.7356,3.1319,-2.7592e-10,-0.86782,0,0,0.25,-0,-0,0.66667
0.8975,0.81972,3.59,0.47957,1.8245,1.8137,-4.5911,1.5304,-1.1818,-6.1215,1.6361e-09,-0.59088,0,0,0.25,-0,-0,0.66667
0.45383,0.59213,1.8153,0.1382,2.2631,23.931,-0.66899,0.223,-1.9335,-0.89199,6.1012e-13,-0.96677,0,0,0.25,8.1416e-16,0,0.66667
0.55783,0.037263,2.2313,-0.6941,-10.142,17.209,4.13,-1.3767,-0.28685,5.5067,9.4591e-14,-0.14343,0,0,0.25,-0,-1.9308e-16,0.66667
0.50613,0.7783,2.0245,0.41745,6.4562,20.342,-2.2537,0.75124,-1.3806,-3.005,-4.5941e-13,-0.69028,0,0,0.25,1.4803e-16,0,0.66667
0.69198,0.25839,2.7679,-0.36242,-3.8673,9.1717,2.6751,-0.89168,-1.5326,3.5667,-1.1028e-11,-0.7663,0,0,0.25,-0,-0,0.66667
0.68291,0.80952,2.7316,0.46427,5.1184,9.7318,-3.3819,1.1273,-1.2339,-4.5092,3.419e-12,-0.61697,0,0,0.25,-2.9606e-16,0,0.66667
0.52031,0.51394,2.0813,0.020906,0.31307,19.214,-0.11603,0.038677,-1.9977,-0.15471,-2.1437e-13,-0.99884,0,0,0.25,-0,-0,0.66667
0.82847,0.8045,3.3139,0.45675,2.8885,3.6465,-4.0363,1.3454,-1.2588,-5.3818,4.8705e-10,-0.62941,0,0,0.25,-1.1842e-15,0,0.66667
0.50578,0.61833,2.0231,0.1775,2.7202,20.238,-0.95758,0.31919,-1.8876,-1.2768,-9.4591e-14,-0.94381,0,0,0.25,-8.8818e-16,0,0.66667
0.82486,0.461,3.2994,-0.058505,-0.36498,3.4622,0.51476,-0.17159,-1.9877,0.68635,-4.9749e-11,-0.99385,0,0,0.25,-5.9212e-16,0,0.66667
0.28185,0.84183,1.1274,0.51274,9.9103,37.676,-1.5415,0.51383,-1.0666,-2.0553,-1.3693e-11,-0.53332,0,0,0.25,-7.4015e-17,0,0.66667
0.17849,0.86814,0.71398,0.55221,11.258,46.571,-1.0514,0.35046,-0.91535,-1.4018,-5.3829e-10,-0.45768,0,0,0.25,-4.234e-17,0,0.66667
0.96987,0.034845,3.8795,-0.69773,-0.82869,1.0868,7.2182,-2.4061,-0.27001,9.6243,4.7503e-06,-0.13501,0,0,0.25,-2.3685e-15,0,0.66667
0.74194,0.28037,2.9678,-0.32945,-3.0043,6.7995,2.6073,-0.86909,-1.6146,3.4764,-6.5649e-11,-0.8073,0,0,0.25,-2.4114e-16,0,0.66667
0.25979,0.94876,1.0392,0.67314,13.315,39.623,-1.8653,0.62178,-0.38813,-2.4871,-2.2758e-12,-0.19406,0,0,0.25,-0,-0,0.66667
0.58124,0.77911,2.3249,0.41866,5.746,15.43,-2.5956,0.86521,-1.3775,-3.4609,-1.7137e-12,-0.68876,0,0,0.25,-1.1842e-15,0,0.66667
0.95526,0.45898,3.821,-0.06153,-0.079167,0.42818,0.62696,-0.20899,-1.9865,0.83595,5.9071e-07,-0.99323,0,0,0.25,-0,-0,0.66667
0.080754,0.12323,0.32302,-0.56515,-11.835,55.268,0.4868,-0.16227,-0.86529,0.64907,-2.4283e-09,-0.43265,0,0,0.25,-2.0354e-16,0,0.66667
0.083534,0.64099,0.33414,0.21149,4.3668,54.977,-0.18845,0.062815,-1.8401,-0.25126,8.5634e-09,-0.92004,0,0,0.25,1.4803e-16,0,0.66667
0.61913,0.73643,2.4765,0.35464,4.5049,13.103,-2.3421,0.7807,-1.5519,-3.1228,-1.9345e-12,-0.77596,0,0,0.25,-0,-0,0.66667
0.22449,0.55256,0.89797,0.078845,1.5518,42.451,-0.1888,0.062934,-1.9772,-0.25174,-5.1278e-11,-0.98861,0,0,0.25,2.9606e-16,0,0.66667
0.76518,0.56241,3.0607,0.093611,0.774,5.6794,-0.76405,0.25468,-1.9707,-1.0187,6.03e-11,-0.98534,0,0,0.25,1.249e-15,0,0.66667
0.56815,0.94366,2.2726,0.66549,9.5317,16.518,-4.0331,1.3444,-0.42506,-5.3774,-3.304e-13,-0.21253,0,0,0.25,-0,-0,0.66667
0.66619,0.25035,2.6648,-0.37448,-4.2794,10.508,2.661,-0.88701,-1.5021,3.5481,-2.1485e-12,-0.75106,0,0,0.25,-2.3685e-15,0,0.66667
0.10781,0.23544,0.43126,-0.39683,-8.2007,52.81,0.45636,-0.15212,-1.4399,0.60848,1.3466e-09,-0.71996,0,0,0.25,-0,-0,0.66667
0.084283,0.89781,0.33713,0.59672,12.512,54.956,-0.53646,0.17882,-0.73337,-0.71528,3.0401e-08,-0.36669,0,0,0.25,-7.4015e-17,0,0.66667
0.62512,0.98917,2.5005,0.73376,9.5181,13.216,-4.8927,1.6309,-0.086116,-6.5235,-4.885e-15,-0.043058,0,0,0.25,-0,-0,0.66667
0.40973,0.45098,1.6389,-0.073524,-1.2627,27.231,0.32133,-0.10711,-1.9802,0.42844,-3.135e-13,-0.9901,0,0,0.25,-5.9212e-16,0,0.66667
0.087253,0.96616,0.34901,0.69923,14.75,54.71,-0.65077,0.21692,-0.26181,-0.8677,1.3137e-07,-0.1309,0,0,0.25,2.1087e-16,0,0.66667
0.37106,0.93628,1.4843,0.65442,11.948,30.525,-2.5902,0.8634,-0.47806,-3.4536,5.7621e-13,-0.23903,0,0,0.25,-7.7716e-16,2.7337e-16,0.66667
0.67214,0.63611,2.6886,0.20417,2.2775,10.078,-1.4638,0.48793,-1.8521,-1.9517,5.2215e-12,-0.92607,0,0,0.25,-0,-0,0.66667
0.18959,0.13587,0.75835,-0.54619,-11.084,45.597,1.1045,-0.36818,-0.93915,1.4727,2.7358e-10,-0.46957,0,0,0.25,-2.9606e-16,0,0.66667
0.89573,0.64069,3.5829,0.21103,0.77655,1.5573,-2.0163,0.67209,-1.8408,-2.6884,3.0119e-09,-0.92041,0,0,0.25,1.1842e-15,0,0.66667
0.94985,0.518,3.7994,0.026995,0.040593,0.4965,-0.27351,0.091169,-1.9969,-0.36468,-5.7778e-08,-0.99844,0,0,0.25,-0,-0,0.66667
0.96157,0.58244,3.8463,0.12366,0.12869,0.36829,-1.2684,0.4228,-1.9448,-1.6912,8.9722e-08,-0.97238,0,0,0.25,-0,-0,0.66667
0.73008,0.1254,2.9203,-0.5619,-5.454,7.597,4.3759,-1.4586,-0.87827,5.8345,-1.3701e-11,-0.43913,0,0,0.25,-0,-0,0.66667
0.40629,0.42644,1.6252,-0.11034,-1.9024,27.5,0.47819,-0.1594,-1.9571,0.63759,-8.8882e-13,-0.97857,0,0,0.25,5.9212e-16,0,0.66667
0.74375,0.13895,2.975,-0.54158,-5.0114,6.9647,4.2965,-1.4322,-0.95619,5.7287,-2.8598e-11,-0.47809,0,0,0.25,-1.1842e-15,0,0.66667
0.28799,0.83096,1.1519,0.49643,9.5495,37.154,-1.525,0.50832,-1.1228,-2.0333,-1.252e-11,-0.56141,0,0,0.25,-0,-0,0.66667
0.31442,0.091493,1.2577,-0.61276,-11.661,35.038,2.0551,-0.68502,-0.66596,2.7401,-4.6829e-13,-0.33298,0,0,0.25,-1.4803e-16,0,0.66667
0.6059,0.17256,2.4236,-0.49116,-6.4678,14.006,3.1743,-1.0581,-1.1417,4.2324,1.6194e-12,-0.57084,0,0,0.25,1.1842e-15,0,0.66667
0.59485,0.28744,2.3794,-0.31884,-4.2427,14.519,2.0231,-0.67435,-1.6391,2.6974,1.9731e-12,-0.81956,0,0,0.25,-0,-0,0.66667
0.87866,0.75332,3.5146,0.37999,1.6831,2.1187,-3.5614,1.1871,-1.487,-4.7485,1.2748e-09,-0.74352,0,0,0.25,2.3685e-15,0,0.66667
0.2546,0.31942,1.0184,-0.27088,-5.2667,39.89,0.73563,-0.24521,-1.7389,0.98084,6.9849e-11,-0.86943,0,0,0.25,-0,-0,0.66667
0.76619,0.078077,3.0648,-0.63289,-5.4692,6.1719,5.1724,-1.7241,-0.57596,6.8965,-2.1452e-11,-0.28798,0,0,0.25,-1.1842e-15,0,0.66667
0.94101,0.51154,3.7641,0.017305,0.032175,0.62583,-0.1737,0.057899,-1.9984,-0.2316,-6.8899e-07,-0.99922,0,0,0.25,-4.737e-15,0,0.66667
0.0010329,0.5002,0.0041317,0.00029469,0.0061144,62.462,-3.2936e-06,8.2936e-05,-2.0016,3.6528e-05,0.00012276,-1.0008,0,0,0.25,-0,-0,0.66667
0.47609,0.0022496,1.9044,-0.74663,-12.314,22.773,3.7916,-1.2639,-0.01821,5.0554,5.9508e-14,-0.009105,0,0,0.25,-2.3685e-15,0,0.66667
0.65704,0.39292,2.6282,-0.16062,-1.8579,10.863,1.1257,-0.37524,-1.9084,1.501,-2.1574e-12,-0.95418,0,0,0.25,-0,-0,0.66667
0.84332,0.68375,3.3733,0.27563,1.5591,2.9871,-2.4794,0.82647,-1.731,-3.3059,1.6492e-10,-0.86551,0,0,0.25,1.4803e-15,0,0.66667
0.18374,0.3694,0.73496,-0.19589,-3.9315,46.024,0.38393,-0.12798,-1.8636,0.5119,3.0145e-11,-0.9318,0,0,0.25,2.9606e-16,0,0.66667
0.85616,0.21676,3.4246,-0.42486,-2.2516,2.7708,3.88,-1.2933,-1.3589,5.1733,-1.2343e-09,-0.67947,0,0,0.25,2.9606e-16,0,0.66667
0.36437,0.2435,1.4575,-0.38475,-6.953,30.87,1.4954,-0.49846,-1.4734,1.9938,-1.5592e-12,-0.7367,0,0,0.25,-2.9606e-16,0,0.66667
0.89227,0.051908,3.5691,-0.67214,-2.8458,2.2818,6.3971,-2.1324,-0.3937,8.5295,1.7625e-08,-0.19685,0,0,0.25,-1.1842e-15,0,0.66667
0.027712,0.30475,0.11085,-0.29288,-6.0985,60.039,0.086572,-0.028858,-1.6948,0.11543,-4.7049e-09,-0.84742,0,0,0.25,-0,-0,0.66667
0.08539,0.79016,0.34156,0.43524,9.049,54.832,-0.39643,0.13214,-1.3258,-0.52857,-1.2784e-09,-0.66289,0,0,0.25,-0,-0,0.66667
0.98141,0.81811,3.9256,0.47717,0.20927,0.53191,-4.9952,1.6651,-1.1906,-6.6603,-1.0016e-08,-0.59532,0,0,0.25,2.3685e-15,0,0.66667
0.6095,0.99872,2.438,0.74808,10.028,14.138,-4.8635,1.6212,-0.011933,-6.4847,-3.0953e-13,-0.0059665,0,0,0.25,1.8504e-15,0,0.66667
0.41763,0.48497,1.6705,-0.022552,-0.38406,26.623,0.10046,-0.033488,-1.9975,0.13395,-2.1406e-14,-0.99873,0,0,0.25,-0,-0,0.66667
0.16921,0.92122,0.67686,0.63183,12.986,47.415,-1.1404,0.38014,-0.58015,-1.5206,-3.8598e-10,-0.29008,0,0,0.25,-0,-0,0.66667
0.6499,0.91786,2.5996,0.62678,7.6134,11.676,-4.345,1.4483,-0.60233,-5.7934,-9.7078e-13,-0.30116,0,0,0.25,-0,-0,0.66667
0.036975,0.71269,0.1479,0.31903,6.6442,59.199,-0.12583,0.041942,-1.6378,-0.16777,6.12e-10,-0.81892,0,0,0.25,-1.8504e-17,0,0.66667
0.31161,0.23791,1.2465,-0.39314,-7.4062,35.145,1.3067,-0.43558,-1.4506,1.7423,7.9668e-12,-0.72529,0,0,0.25,2.9606e-16,0,0.66667
0.32348,0.62892,1.2939,0.19338,3.5885,34.103,-0.66726,0.22242,-1.8672,-0.88968,-6.3658e-12,-0.9336,0,0,0.25,-0,-0,0.66667
0.60744,0.66326,2.4298,0.2449,3.1691,13.719,-1.5868,0.52892,-1.787,-2.1157,-1.7097e-12,-0.89351,0,0,0.25,-0,-0,0.66667
0.65083,0.04386,2.6033,-0.68421,-8.3467,11.713,4.7499,-1.5833,-0.33468,6.3332,3.2152e-13,-0.16734,0,0,0.25,-0,-0,0.66667
0.84605,0.47027,3.3842,-0.044588,-0.24441,2.7939,0.40239,-0.13413,-1.994,0.53652,-2.2018e-09,-0.99698,0,0,0.25,-0,-0,0.66667
0.92758,0.47058,3.7103,-0.044137,-0.10578,0.85031,0.4367,-0.14557,-1.9935,0.58227,2.0321e-07,-0.99675,0,0,0.25,-0,-0,0.66667
0.66046,0.88105,2.6418,0.57157,6.7349,11.032,-4.0267,1.3422,-0.83833,-5.3689,-1.0885e-12,-0.41916,0,0,0.25,-0,-0,0.66667
0.57817,0.20679,2.3127,-0.43982,-6.0779,15.638,2.7124,-0.90415,-1.3126,3.6166,1.4999e-12,-0.65629,0,0,0.25,-0,-0,0.66667
0.39872,0.31854,1.5949,-0.27219,-4.7457,28.128,1.1576,-0.38587,-1.7362,1.5435,-1.896e-12,-0.86811,0,0,0.25,-0,-0,0.66667
0.96661,0.9752,3.8664,0.7128,0.95823,1.1564,-7.3494,2.4498,-0.19375,-9.7992,-1.2046e-06,-0.096874,0,0,0.25,-0,-0,0.66667
0.15408,0.1192,0.61632,-0.5712,-11.756,48.728,0.93877,-0.31292,-0.84029,1.2517,2.1588e-09,-0.42014,0,0,0.25,7.4015e-17,-3.7535e-16,0.66667
0.89509,0.2356,3.5803,-0.39661,-1.5155,1.7512,3.7866,-1.2622,-1.44,5.0488,-1.8603e-09,-0.71999,0,0,0.25,1.1842e-15,0,0.66667
0.31101,0.59706,1.2441,0.1456,2.7239,35.121,-0.48301,0.161,-1.9255,-0.64402,-9.1021e-12,-0.96277,0,0,0.25,-0,-0,0.66667
0.54849,0.67908,2.194,0.26862,3.87,17.407,-1.5716,0.52387,-1.7436,-2.0955,-1.1254e-12,-0.87181,0,0,0.25,-5.9212e-16,0,0.66667
0.68207,0.7577,2.7283,0.38655,4.2444,9.6943,-2.8123,0.93743,-1.4683,-3.7497,6.3245e-12,-0.73414,0,0,0.25,-2.3685e-15,0,0.66667
0.23647,0.16106,0.94588,-0.5084,-10.079,41.522,1.2824,-0.42746,-1.0815,1.7098,7.5773e-11,-0.54075,0,0,0.25,-0,-0,0.66667
0.16774,0.67084,0.67095,0.25626,5.1811,47.445,-0.4585,0.15283,-1.7658,-0.61134,-2.4633e-10,-0.8829,0,0,0.25,-2.9606e-16,0,0.66667
0.50848,0.47845,2.0339,-0.032325,-0.49248,20.024,0.17532,-0.058441,-1.9955,0.23377,-1.1327e-13,-0.99777,0,0,0.25,-0,-0,0.66667
0.79186,0.48576,3.1675,-0.021359,-0.15749,4.6203,0.18041,-0.060137,-1.9976,0.24055,-4.0898e-12,-0.99878,0,0,0.25,-1.1842e-15,0,0.66667
0.69241,0.62988,2.7697,0.19482,2.0576,9.0352,-1.4389,0.47964,-1.865,-1.9185,1.1926e-11,-0.93252,0,0,0.25,-0,-0,0.66667
0.11897,0.57724,0.47589,0.11586,2.3708,51.78,-0.14704,0.049013,-1.9513,-0.19605,2.9935e-09,-0.97567,0,0,0.25,-0,-0,0.66667
0.90074,0.34296,3.603,-0.23556,-0.82422,1.4642,2.2632,-0.75441,-1.8034,3.0176,4.8052e-09,-0.90168,0,0,0.25,1.3323e-15,0,0.66667
0.47974,0.87081,1.919,0.55622,8.989,22.304,-2.8463,0.94876,-0.90012,-3.795,-1.6187e-13,-0.45006,0,0,0.25,1.1722e-15,0,0.66667
0.94668,0.024201,3.7867,-0.7137,-1.5411,1.3977,7.2068,-2.4023,-0.18847,9.6091,3.1011e-07,-0.094235,0,0,0.25,1.1842e-15,0,0.66667
0.55343,0.97461,2.2137,0.71192,10.495,17.513,-4.2027,1.4009,-0.19763,-5.6036,-1.5898e-13,-0.098814,0,0,0.25,-0,-0,0.66667
0.084802,0.096035,0.33921,-0.60595,-12.711,54.911,0.54811,-0.1827,-0.69477,0.73082,-4.7644e-08,-0.34738,0,0,0.25,-2.9606e-16,0,0.66667
0.20246,0.23104,0.80985,-0.40343,-8.0866,44.426,0.87126,-0.29042,-1.4215,1.1617,2.874e-10,-0.71073,0,0,0.25,2.9606e-16,0,0.66667
0.85424,0.84177,3.417,0.51266,2.7966,2.9501,-4.6713,1.5571,-1.066,-6.2284,6.9382e-10,-0.53299,0,0,0.25,-1.4803e-16,0,0.66667
0.70593,0.004859,2.8237,-0.74271,-7.9403,9.0148,5.5925,-1.8642,-0.039026,7.4567,8.2601e-13,-0.019513,0,0,0.25,-0,-0,0.66667
0.89494,0.46809,3.5798,-0.047868,-0.17549,1.5079,0.45695,-0.15232,-1.9927,0.60926,4.2223e-08,-0.99634,0,0,0.25,5.181e-16,0,0.66667
0.32915,0.75698,1.3166,0.38547,7.1671,33.704,-1.3534,0.45112,-1.4722,-1.8045,-3.0661e-12,-0.73609,0,0,0.25,-0,-0,0.66667
0.528,0.79567,2.112,0.44351,6.6556,18.879,-2.4979,0.83262,-1.3001,-3.3305,-7.7538e-13,-0.65003,0,0,0.25,-0,-0,0.66667
0.6504,0.75362,2.6016,0.38043,4.5179,11.363,-2.6393,0.87976,-1.4855,-3.519,-2.7622e-13,-0.74275,0,0,0.25,-0,-0,0.66667
0.59429,0.13512,2.3772,-0.54731,-7.403,14.762,3.4695,-1.1565,-0.93526,4.626,1.1304e-12,-0.46763,0,0,0.25,-0,-0,0.66667
0.23146,0.73631,0.92585,0.35447,6.9963,41.897,-0.87516,0.29172,-1.5528,-1.1669,-1.322e-10,-0.77639,0,0,0.25,2.9606e-16,0,0.66667
0.42682,0.53126,1.7073,0.046883,0.79073,25.928,-0.21345,0.07115,-1.9931,-0.2846,1.4982e-13,-0.99653,0,0,0.25,1.1842e-15,0,0.66667
0.24811,0.18445,0.99245,-0.47333,-9.31,40.511,1.2527,-0.41756,-1.2043,1.6702,6.526e-11,-0.60213,0,0,0.25,4.4353e-16,0,0.66667
0.84561,0.17353,3.3825,-0.4897,-2.8128,3.1646,4.4171,-1.4724,-1.1471,5.8894,-9.7487e-10,-0.57356,0,0,0.25,1.1842e-15,0,0.66667
0.98668,0.11002,3.9467,-0.58498,-0.19666,0.69081,6.1566,-2.0522,-0.78295,8.2088,-5.072e-08,-0.39147,0,0,0.25,-0,-0,0.66667
0.066571,0.30555,0.26628,-0.29168,-6.0505,56.516,0.20712,-0.069039,-1.6973,0.27616,1.3748e-09,-0.84866,0,0,0.25,-3.7007e-17,0,0.66667
0.71393,0.62743,2.8557,0.19115,1.8952,7.985,-1.4557,0.48522,-1.8705,-1.9409,2.4592e-11,-0.93524,0,0,0.25,2.3685e-15,0,0.66667
0.33012,0.37162,1.3205,-0.19257,-3.5556,33.56,0.6781,-0.22603,-1.8689,0.90413,4.5177e-12,-0.93446,0,0,0.25,-0,-0,0.66667
0.62544,0.072902,2.5017,-0.64065,-8.2199,13.056,4.274,-1.4247,-0.54105,5.6986,8.6731e-13,-0.27052,0,0,0.25,-1.1842e-15,0,0.66667
0.25813,0.57542,1.0325,0.11313,2.1882,39.561,-0.3115,0.10383,-1.9535,-0.41533,-3.5562e-11,-0.97677,0,0,0.25,-0,-0,0.66667
0.65101,0.80118,2.604,0.45176,5.3852,11.398,-3.1371,1.0457,-1.2736,-4.1828,-9.9032e-13,-0.6368,0,0,0.25,-0,-0,0.66667
0.37115,0.73905,1.4846,0.35858,6.4346,30.32,-1.4196,0.47319,-1.5423,-1.8928,1.5909e-12,-0.77116,0,0,0.25,-0,-0,0.66667
0.29482,0.13208,1.1793,-0.55189,-10.603,36.615,1.7355,-0.57851,-0.91727,2.3141,4.3036e-12,-0.45864,0,0,0.25,-0,-1.7716e-16,0.66667
0.91176,0.66366,3.6471,0.24549,0.75558,1.2425,-2.3875,0.79584,-1.7853,-3.1834,8.6203e-09,-0.89265,0,0,0.25,-0,-0,0.66667
0.9425,0.05954,3.77,-0.66069,-1.488,1.334,6.6421,-2.214,-0.44825,8.8562,-5.2638e-07,-0.22412,0,0,0.25,1.7593e-15,0,0.66667
0.61355,0.56185,2.4542,0.092771,1.1808,13.302,-0.60714,0.20238,-1.9702,-0.80952,-7.4246e-13,-0.98512,0,0,0.25,-2.2204e-16,0,0.66667
0.21447,0.81936,0.85787,0.47905,9.5841,43.407,-1.0959,0.3653,-1.1839,-1.4612,-1.9035e-10,-0.59193,0,0,0.25,-0,-0,0.66667
0.93942,0.099735,3.7577,-0.6004,-1.3791,1.2522,6.0163,-2.0054,-0.71869,8.0217,1.7454e-07,-0.35935,0,0,0.25,-2.3685e-15,0,0.66667
0.75045,0.25306,3.0018,-0.3704,-3.2884,6.4691,2.965,-0.98834,-1.5134,3.9534,-8.2038e-11,-0.75672,0,0,0.25,-2.3685e-15,0,0.66667
0.75109,0.39933,3.0044,-0.151,-1.3196,6.2892,1.2098,-0.40326,-1.9194,1.613,-5.9056e-11,-0.95971,0,0,0.25,5.9212e-16,0,0.66667
0.21172,0.16181,0.84689,-0.50729,-10.177,43.656,1.1456,-0.38188,-1.0847,1.5275,1.2989e-10,-0.54236,0,0,0.25,-5.9212e-16,0,0.66667
0.83016,0.75935,3.3206,0.38903,2.4139,3.508,-3.4448,1.1483,-1.4619,-4.5931,5.9035e-10,-0.73094,0,0,0.25,-0,-0,0.66667
0.2401,0.054716,0.96038,-0.66793,-13.347,41.291,1.7106,-0.57019,-0.4133,2.2808,8.6573e-12,-0.20665,0,0,0.25,2.9019e-16,0,0.66667
0.63162,0.51658,2.5265,0.024872,0.30442,12.246,-0.16757,0.055856,-1.9968,-0.22342,-1.6932e-13,-0.99842,0,0,0.25,-0,-0,0.66667
0.71074,0.039451,2.843,-0.69082,-7.2318,8.6937,5.2373,-1.7458,-0.30254,6.983,-3.5127e-13,-0.15127,0,0,0.25,-0,-0,0.66667
0.74238,0.0051089,2.9695,-0.74234,-7.0997,7.3641,5.8784,-1.9595,-0.040434,7.8378,4.6034e-12,-0.020217,0,0,0.25,-0,-0,0.66667
0.39026,0.51603,1.5611,0.024048,0.42088,28.733,-0.10011,0.03337,-1.9981,-0.13348,-2.2293e-13,-0.99906,0,0,0.25,1.1842e-15,0,0.66667
0.75983,0.1383,3.0393,-0.54255,-4.7412,6.2869,4.3973,-1.4658,-0.9525,5.863,-5.1924e-11,-0.47625,0,0,0.25,-1.1842e-15,0,0.66667
0.90294,0.30782,3.6117,-0.28827,-0.99258,1.4614,2.7764,-0.92547,-1.7048,3.7019,7.787e-11,-0.8524,0,0,0.25,-0,-0,0.66667
0.58742,0.1235,2.3497,-0.56475,-7.748,15.199,3.5386,-1.1795,-0.86643,4.7181,7.9692e-13,-0.43322,0,0,0.25,1.4063e-15,0,0.66667
0.09041,0.72567,0.36164,0.3385,7.0051,54.368,-0.32644,0.10881,-1.5925,-0.43525,-4.0104e-10,-0.79627,0,0,0.25,-0,-0,0.66667
0.12898,0.73047,0.5159,0.3457,7.0934,50.907,-0.47559,0.15853,-1.5745,-0.63412,-4.5036e-10,-0.78725,0,0,0.25,-0,-0,0.66667
0.10526,0.92111,0.42105,0.63166,13.219,53.085,-0.70923,0.23641,-0.58064,-0.94564,4.3694e-10,-0.29032,0,0,0.25,-1.4803e-16,0,0.66667
0.17273,0.0034784,0.69091,-0.74478,-15.409,47.154,1.3722,-0.4574,-0.028793,1.8296,-5.755e-10,-0.014396,0,0,0.25,-0,-0,0.66667
0.12643,0.37235,0.50572,-0.19148,-3.9152,51.116,0.25823,-0.086077,-1.8707,0.34431,-1.8496e-09,-0.93534,0,0,0.25,-1.8504e-16,0,0.66667
0.7783,0.32348,3.1132,-0.26478,-2.0917,5.2375,2.1981,-0.73272,-1.7504,2.9309,-1.5072e-10,-0.87519,0,0,0.25,-0,-0,0.66667
0.039412,0.10507,0.15765,-0.59239,-12.488,58.995,0.24904,-0.083012,-0.75137,0.33205,2.8634e-07,-0.37569,0,0,0.25,-7.4015e-17,0,0.66667
0.24156,0.083162,0.96623,-0.62526,-12.449,41.143,1.6111,-0.53702,-0.60915,2.1481,1.6683e-11,-0.30458,0,0,0.25,-2.9606e-16,0,0.66667
0.87907,0.67981,3.5163,0.26972,1.1706,1.9967,-2.5291,0.84303,-1.7411,-3.3721,-5.7183e-10,-0.87054,0,0,0.25,-5.9212e-16,0,0.66667
0.97352,0.082767,3.8941,-0.62585,-0.58689,0.88726,6.499,-2.1663,-0.60668,8.6653,1.2019e-07,-0.30334,0,0,0.25,1.1842e-15,0,0.66667
0.60542,0.22161,2.4217,-0.41759,-5.4752,13.962,2.6967,-0.8989,-1.3804,3.5956,2.0659e-12,-0.69022,0,0,0.25,-0,-0,0.66667
0.97624,0.70405,3.905,0.30608,0.15782,0.34504,-3.1873,1.0624,-1.6659,-4.2497,-4.3847e-09,-0.83295,0,0,0.25,-1.1561e-15,0,0.66667
0.043452,0.4648,0.17381,-0.052801,-1.0936,58.604,0.024472,-0.0081582,-1.9904,0.032629,-1.1221e-06,-0.99522,0,0,0.25,9.2519e-17,0,0.66667
0.94857,0.022026,3.7943,-0.71696,-1.4967,1.3801,7.2543,-2.4181,-0.17183,9.6724,-1.0192e-07,-0.085917,0,0,0.25,-0,3.9345e-16,0.66667
0.3113,0.94095,1.2452,0.66142,12.657,35.328,-2.1962,0.73208,-0.44548,-2.9283,2.8488e-13,-0.22274,0,0,0.25,-0,1.1627e-16,0.66667
0.79897,0.10573,3.1959,-0.5914,-4.4322,4.8533,5.0402,-1.6801,-0.7562,6.7202,-1.3977e-10,-0.3781,0,0,0.25,-1.1842e-15,0,0.66667
0.81063,0.70618,3.2425,0.30926,2.1125,4.0779,-2.6741,0.89137,-1.6597,-3.5655,3.4908e-10,-0.82987,0,0,0.25,-0,-0,0.66667
0.86,0.018908,3.44,-0.72164,-3.9776,3.184,6.6198,-2.2066,-0.14858,8.8264,1.5529e-09,-0.074289,0,0,0.25,-0,-0,0.66667
0.45855,0.92955,1.8342,0.64433,10.757,23.908,-3.1515,1.0505,-0.52342,-4.202,2.025e-13,-0.26171,0,0,0.25,2.9606e-16,0,0.66667
0.93064,0.47833,3.7226,-0.032503,-0.073927,0.79574,0.32265,-0.10755,-1.9955,0.43021,-2.7967e-08,-0.99776,0,0,0.25,-0,-0,0.66667
0.25789,0.0080365,1.0316,-0.73795,-14.682,39.825,2.03,-0.67666,-0.063175,2.7066,-4.6034e-12,-0.031587,0,0,0.25,-0,-0,0.66667
0.93445,0.98795,3.7378,0.73192,1.9597,1.6201,-7.2954,2.4318,-0.094822,-9.7272,-4.266e-09,-0.047411,0,0,0.25,-1.1842e-15,0,0.66667
0.61912,0.65454,2.4765,0.2318,2.9273,13.025,-1.5308,0.51027,-1.8094,-2.0411,-1.1287e-12,-0.90469,0,0,0.25,-1.3323e-15,0,0.66667
0.98544,0.82198,3.9418,0.48298,0.13285,0.50912,-5.0768,1.6923,-1.1708,-6.769,-9.0783e-09,-0.58542,0,0,0.25,-0,-0,0.66667
0.032644,0.10689,0.13058,-0.58967,-12.435,59.606,0.20532,-0.068441,-0.76361,0.27377,-4.6974e-08,-0.38181,0,0,0.25,7.4015e-17,0,0.66667
0.72517,0.34428,2.9007,-0.23358,-2.2396,7.4828,1.8068,-0.60226,-1.8066,2.4091,-3.9176e-11,-0.90332,0,0,0.25,-0,-0,0.66667
0.56555,0.20203,2.2622,-0.44696,-6.3172,16.436,2.6963,-0.89878,-1.2892,3.5951,1.0973e-12,-0.64459,0,0,0.25,1.1842e-15,0,0.66667
0.49242,0.65104,1.9697,0.22656,3.5413,21.186,-1.19,0.39668,-1.8172,-1.5867,-1.4644e-13,-0.90862,0,0,0.25,-0,-0,0.66667
0.25922,0.49867,1.0369,-0.0020014,-0.038658,39.462,0.0055339,-0.0018446,-2.0005,0.0073785,7.3079e-12,-1.0002,0,0,0.25,-1.4803e-16,0,0.66667
0.32683,0.52068,1.3073,0.031027,0.57314,33.808,-0.10817,0.036055,-1.9967,-0.14422,-1.3148e-12,-0.99833,0,0,0.25,-0,-0,0.66667
0.24946,0.52909,0.99785,0.04363,0.84748,40.297,-0.1161,0.038698,-1.9946,-0.15479,-2.2503e-11,-0.99731,0,0,0.25,4.4409e-16,0,0.66667
0.21927,0.23406,0.87707,-0.39891,-7.934,42.964,0.93298,-0.31099,-1.4344,1.244,1.8212e-10,-0.71718,0,0,0.25,-0,-0,0.66667
0.79966,0.25893,3.1986,-0.3616,-2.6194,4.5173,3.0844,-1.0281,-1.5349,4.1125,-2.7997e-10,-0.76747,0,0,0.25,-0,-0,0.66667
0.5024,0.67891,2.0096,0.26836,4.1435,20.509,-1.4381,0.47937,-1.7439,-1.9175,-1.7475e-13,-0.87195,0,0,0.25,5.9212e-16,0,0.66667
0.08319,0.23104,0.33276,-0.40344,-8.3799,55.026,0.358,-0.11933,-1.4205,0.47733,-3.1787e-09,-0.71026,0,0,0.25,-0,-0,0.66667
0.77698,0.10713,3.1079,-0.5893,-4.8506,5.6721,4.884,-1.628,-0.76456,6.512,-6.0339e-11,-0.38228,0,0,0.25,-0,-0,0.66667
0.53365,0.54138,2.1346,0.062073,0.91115,18.32,-0.35334,0.11778,-1.9861,-0.47111,-4.6882e-13,-0.99307,0,0,0.25,-0,-0,0.66667
0.73939,0.45409,2.9576,-0.068865,-0.62613,6.7753,0.54313,-0.18104,-1.9823,0.72417,-1.9913e-11,-0.99115,0,0,0.25,-0,-0,0.66667
0.51539,0.29858,2.0616,-0.30214,-4.5858,19.633,1.661,-0.55367,-1.6757,2.2147,2.2427e-13,-0.83784,0,0,0.25,-0,-0,0.66667
0.39995,0.87552,1.5998,0.56327,9.9511,28.206,-2.403,0.80099,-0.87255,-3.204,1.2192e-12,-0.43627,0,0,0.25,1.1842e-15,0,0.66667
0.98625,0.67703,3.945,0.26555,0.019272,0.21763,-2.7936,0.93118,-1.7492,-3.7247,1.9097e-08,-0.87461,0,0,0.25,-0,-0,0.66667
0.028243,0.26881,0.11297,-0.34679,-7.2332,59.992,0.10447,-0.034824,-1.572,0.1393,1.5846e-10,-0.78598,0,0,0.25,3.7007e-17,0,0.66667
0.93276,0.78051,3.7311,0.42076,0.99829,1.0517,-4.1864,1.3955,-1.3713,-5.5819,-8.4545e-10,-0.68563,0,0,0.25,-1.4803e-15,0,0.66667
0.93085,0.95752,3.7234,0.68628,1.8895,1.5698,-6.8141,2.2714,-0.32458,-9.0855,1.8523e-07,-0.16229,0,0,0.25,-0,-0,0.66667
0.39092,0.035116,1.5637,-0.69733,-12.548,29.019,2.9077,-0.96924,-0.27223,3.8769,-2.1405e-13,-0.13611,0,0,0.25,-0,-0,0.66667
0.21446,0.23879,0.85786,-0.39182,-7.8082,43.378,0.89633,-0.29878,-1.4535,1.1951,2.0234e-10,-0.72677,0,0,0.25,-2.9606e-16,0,0.66667
0.61921,0.54579,2.4769,0.068688,0.86376,12.966,-0.45368,0.15123,-1.9823,-0.60491,-2.5185e-13,-0.99116,0,0,0.25,-1.1842e-15,0,0.66667
0.17797,0.027285,0.71189,-0.70907,-14.604,46.679,1.3461,-0.44869,-0.21233,1.7948,8.3256e-12,-0.10617,0,0,0.25,4.4409e-16,0,0.66667
0.80321,0.82878,3.2128,0.49317,3.5701,4.5504,-4.2252,1.4084,-1.1343,-5.6336,3.0208e-10,-0.56714,0,0,0.25,-1.1842e-15,0,0.66667
0.25393,0.60618,1.0157,0.15928,3.0901,39.925,-0.43142,0.14381,-1.9092,-0.57523,-5.1234e-11,-0.95459,0,0,0.25,-0,-0,0.66667
0.29081,0.30107,1.1632,-0.2984,-5.681,36.838,0.92561,-0.30854,-1.6826,1.2341,2.3565e-11,-0.8413,0,0,0.25,-0,-0,0.66667
0.91592,0.45719,3.6637,-0.064211,-0.18349,1.0696,0.62732,-0.20911,-1.9845,0.83643,-3.2671e-08,-0.99226,0,0,0.25,-0,-0,0.66667
0.90292,0.17205,3.6117,-0.49192,-1.7752,1.7168,4.7377,-1.5792,-1.139,6.317,-6.8315e-09,-0.56952,0,0,0.25,-1.0693e-15,0,0.66667
0.53538,0.76354,2.1415,0.39531,5.8495,18.35,-2.2575,0.7525,-1.4437,-3.01,-8.8218e-13,-0.72185,0,0,0.25,-0,-0,0.66667
0.86284,0.96779,3.4514,0.70169,3.7738,3.0645,-6.458,2.1527,-0.25028,-8.6107,3.4128e-09,-0.12514,0,0,0.25,1.1842e-15,0,0.66667
0.35253,0.057412,1.4101,-0.66388,-12.319,31.998,2.4964,-0.83214,-0.43272,3.3286,-6.2528e-13,-0.21636,0,0,0.25,-2.9606e-16,0,0.66667
0.99788,0.27712,3.9915,-0.33433,0.12613,0.21066,3.5586,-1.1862,-1.6032,4.7448,4.0375e-09,-0.8016,0,0,0.25,5.9212e-16,-3.5885e-16,0.66667
0.43369,0.56475,1.7348,0.097129,1.6266,25.417,-0.44932,0.14977,-1.967,-0.5991,5.3729e-13,-0.98352,0,0,0.25,1.1842e-15,0,0.66667
0.29481,0.87567,1.1792,0.5635,10.833,36.623,-1.772,0.59067,-0.87227,-2.3627,-4.0004e-12,-0.43613,0,0,0.25,-0,-0,0.66667
0.041574,0.025527,0.1663,-0.71171,-15.116,58.812,0.31561,-0.1052,-0.19882,0.42082,2.2746e-06,-0.099411,0,0,0.25,3.7007e-17,0,0.66667
0.98971,0.39489,3.9588,-0.15766,0.019025,0.11107,1.6644,-0.5548,-1.9109,2.2192,3.2835e-08,-0.95544,0,0,0.25,-0,-0,0.66667
0.46489,0.39844,1.8596,-0.15234,-2.4624,23.128,0.75545,-0.25182,-1.9172,1.0073,-6.7235e-13,-0.95862,0,0,0.25,5.9212e-16,0,0.66667
0.73459,0.069634,2.9383,-0.64555,-6.2427,7.5277,5.0582,-1.6861,-0.51902,6.7443,-3.3418e-12,-0.25951,0,0,0.25,-0,-0,0.66667
0.64081,0.48597,2.5632,-0.021039,-0.25226,11.727,0.14381,-0.047936,-1.9987,0.19175,-1.1796e-13,-0.99934,0,0,0.25,-1.1842e-15,0,0.66667
0.72309,0.824,2.8924,0.486,4.7825,7.8119,-3.7486,1.2495,-1.1595,-4.9981,2.1044e-11,-0.57977,0,0,0.25,-0,-0,0.66667
0.051111,0.13883,0.20444,-0.54175,-11.376,57.935,0.29535,-0.098451,-0.95576,0.3938,3.7317e-08,-0.47788,0,0,0.25,-0,-0,0.66667
0.92005,0.70973,3.6802,0.3146,0.8791,1.1459,-3.0874,1.0291,-1.6482,-4.1166,-3.4852e-09,-0.82408,0,0,0.25,-0,-0,0.66667
0.92684,0.90289,3.7074,0.60434,1.6938,1.4619,-5.9747,1.9916,-0.70165,-7.9662,1.8142e-07,-0.35082,0,0,0.25,-2.9606e-16,0,0.66667
0.552,0.351,2.208,-0.2235,-3.1965,17.157,1.316,-0.43866,-1.822,1.7546,9.8854e-13,-0.91101,0,0,0.25,-0,-0,0.66667
0.96392,0.17268,3.8557,-0.49098,-0.5786,0.72734,5.0481,-1.6827,-1.1421,6.7308,-1.6236e-09,-0.57104,0,0,0.25,-0,-0,0.66667
0.28096,0.26945,1.1238,-0.34583,-6.6365,37.679,1.0364,-0.34547,-1.5751,1.3819,3.1768e-11,-0.78754,0,0,0.25,2.9606e-16,0,0.66667
0.60215,0.10684,2.4086,-0.58975,-7.8882,14.343,3.7879,-1.2626,-0.76242,5.0505,9.6056e-13,-0.38121,0,0,0.25,-0,-0,0.66667
0.39646,0.74668,1.5859,0.37002,6.4897,28.347,-1.5648,0.5216,-1.5133,-2.0864,2.0307e-12,-0.75666,0,0,0.25,-0,-0,0.66667
0.62802,0.93906,2.5121,0.6586,8.4206,12.935,-4.4119,1.4706,-0.45865,-5.8825,-6.5281e-13,-0.22932,0,0,0.25,2.3685e-15,0,0.66667
0.30063,0.61927,1.2025,0.1789,3.3732,35.988,-0.57368,0.19123,-1.8862,-0.76491,-1.4803e-11,-0.94312,0,0,0.25,-2.9606e-16,0,0.66667
0.81936,0.65098,3.2774,0.22647,1.4678,3.7152,-1.9793,0.65977,-1.8174,-2.6391,3.67e-10,-0.9087,0,0,0.25,-1.7764e-15,0,0.66667
0.069786,0.25627,0.27914,-0.36559,-7.5986,56.231,0.27214,-0.090712,-1.5244,0.36285,-5.4371e-09,-0.7622,0,0,0.25,-0,-0,0.66667
0.041878,0.59076,0.16751,0.13614,2.8225,58.748,-0.060814,0.020272,-1.9344,-0.081086,2.4071e-07,-0.96719,0,0,0.25,-1.8504e-17,0,0.66667
0.049396,0.098127,0.19759,-0.60281,-12.704,58.096,0.31762,-0.10587,-0.70847,0.42349,2.1229e-08,-0.35423,0,0,0.25,-1.4803e-16,0,0.66667
0.15046,0.30816,0.60182,-0.28776,-5.8567,48.983,0.46181,-0.15394,-1.7056,0.61575,1.7412e-11,-0.85278,0,0,0.25,7.4015e-17,0,0.66667
0.39535,0.42659,1.5814,-0.11012,-1.9192,28.345,0.46439,-0.1548,-1.9562,0.61918,-6.5023e-13,-0.97812,0,0,0.25,5.9212e-16,0,0.66667
0.95539,0.83906,3.8216,0.50859,0.7862,0.85941,-5.183,1.7277,-1.0808,-6.9106,2.9665e-08,-0.54039,0,0,0.25,-1.7764e-15,0,0.66667
0.1108,0.81344,0.44318,0.47016,9.7405,52.555,-0.55564,0.18521,-1.2154,-0.74086,-4.7262e-10,-0.60771,0,0,0.25,2.9606e-16,0,0.66667
0.64755,0.082432,2.5902,-0.62635,-7.6485,11.804,4.3264,-1.4421,-0.60424,5.7685,8.1757e-13,-0.30212,0,0,0.25,-0,-0,0.66667
0.52762,0.49316,2.1105,-0.010262,-0.15198,18.72,0.057752,-0.019251,-1.9995,0.077003,4.1622e-13,-0.99977,0,0,0.25,-1.1842e-15,0,0.66667
0.35324,0.91869,1.413,0.62803,11.617,31.912,-2.3664,0.78879,-0.59673,-3.1552,7.7161e-13,-0.29837,0,0,0.25,5.9212e-16,0,0.66667
0.1982,0.10858,0.7928,-0.58714,-11.901,44.862,1.2413,-0.41376,-0.77348,1.655,1.4428e-10,-0.38674,0,0,0.25,-0,-0,0.66667
0.22059,0.94728,0.88238,0.67092,13.538,42.963,-1.5787,0.52622,-0.39954,-2.1049,-1.8119e-11,-0.19977,0,0,0.25,-5.9212e-16,0,0.66667
0.043822,0.39758,0.17529,-0.15362,-3.1852,58.572,0.071808,-0.023936,-1.9159,0.095744,-1.7362e-07,-0.95795,0,0,0.25,7.4015e-17,0,0.66667
0.71316,0.25558,2.8527,-0.36662,-3.6806,8.1453,2.7889,-0.92965,-1.5219,3.7186,-2.509e-11,-0.76095,0,0,0.25,2.3685e-15,0,0.66667
0.65384,0.50928,2.6154,0.013915,0.16182,11.007,-0.097045,0.032348,-1.9992,-0.12939,-7.8743e-14,-0.99961,0,0,0.25,2.3685e-15,0,0.66667
0.44377,0.84921,1.7751,0.52382,8.8177,24.875,-2.4795,0.82651,-1.0242,-3.306,7.3652e-13,-0.51208,0,0,0.25,-0,-0,0.66667
0.71894,0.19793,2.8758,-0.4531,-4.5021,7.9644,3.4747,-1.1582,-1.2705,4.6329,-2.1943e-11,-0.63523,0,0,0.25,-1.1842e-15,0,0.66667
0.10998,0.9803,0.4399,0.72044,15.151,52.687,-0.84514,0.28171,-0.15475,-1.1268,-2.2302e-09,-0.077374,0,0,0.25,-0,-0,0.66667
0.93872,0.75618,3.7549,0.38426,0.80861,0.90758,-3.8476,1.2825,-1.4755,-5.1302,-4.3581e-09,-0.73777,0,0,0.25,-0,-0,0.66667
0.84763,0.72608,3.3905,0.33912,1.8793,2.9173,-3.0661,1.022,-1.5909,-4.0881,8.0826e-10,-0.79546,0,0,0.25,-0,-0,0.66667
0.65904,0.61266,2.6361,0.169,1.9458,10.759,-1.188,0.396,-1.8981,-1.584,2.1537e-12,-0.94903,0,0,0.25,1.1842e-15,0,0.66667
0.37883,0.84554,1.5153,0.51832,9.3126,29.809,-2.0944,0.69815,-1.0455,-2.7926,1.811e-12,-0.52274,0,0,0.25,1.1842e-15,0,0.66667
0.41657,0.50484,1.6663,0.0072589,0.12375,26.704,-0.032254,0.010751,-1.9998,-0.043006,5.4932e-13,-0.99988,0,0,0.25,-0,-0,0.66667
0.48215,0.83986,1.9286,0.50979,8.1872,22.091,-2.6218,0.87394,-1.0766,-3.4958,-1.3989e-14,-0.5383,0,0,0.25,-0,-0,0.66667
0.93528,0.52966,3.7411,0.044485,0.093002,0.7197,-0.44379,0.14793,-1.994,-0.59173,1.4866e-07,-0.997,0,0,0.25,-1.1842e-15,0,0.66667
0.86359,0.77173,3.4544,0.4076,2.0429,2.5436,-3.7547,1.2516,-1.4088,-5.0062,1.7712e-09,-0.70441,0,0,0.25,-1.1842e-15,0,0.66667
0.47792,0.60191,1.9117,0.15286,2.4307,22.189,-0.77927,0.25976,-1.9163,-1.039,2.1178e-13,-0.95817,0,0,0.25,-0,-0,0.66667
0.55452,0.99925,2.2181,0.74888,11.062,17.497,-4.4295,1.4765,-0.0065291,-5.906,4.3476e-13,-0.0032646,0,0,0.25,-5.9212e-16,0,0.66667
0.8754,0.50913,3.5016,0.0137,0.060299,1.976,-0.12792,0.042641,-1.9998,-0.17057,-1.0243e-08,-0.9999,0,0,0.25,-0,-0,0.66667
0.94926,0.84801,3.7971,0.52202,0.94437,0.96332,-5.2857,1.7619,-1.0313,-7.0476,-1.4605e-08,-0.51566,0,0,0.25,2.3685e-15,0,0.66667
0.63918,0.92265,2.5567,0.63397,7.8936,12.275,-4.3224,1.4408,-0.57081,-5.7632,-8.5798e-13,-0.28541,0,0,0.25,-0,-0,0.66667
0.74852,0.89278,2.9941,0.58917,5.3952,6.8312,-4.7041,1.568,-0.76566,-6.2721,2.0891e-11,-0.38283,0,0,0.25,-0,-0,0.66667
0.35162,0.34528,1.4065,-0.23209,-4.2166,31.828,0.87048,-0.29016,-1.8089,1.1606,6.8812e-13,-0.90443,0,0,0.25,-0,-0,0.66667
0.91803,0.11432,3.6721,-0.57852,-1.8037,1.5684,5.665,-1.8883,-0.80951,7.5534,3.8366e-09,-0.40476,0,0,0.25,-0,-0,0.66667
0.83675,0.5015,3.347,0.0022474,0.013063,3.0755,-0.020059,0.0066864,-2.0004,-0.026746,1.0949e-09,-1.0002,0,0,0.25,-0,-0,0.66667
0.55206,0.80849,2.2082,0.46273,6.6959,17.314,-2.7248,0.90828,-1.2388,-3.6331,-1.1917e-12,-0.61939,0,0,0.25,-0,-0,0.66667
0.86763,0.79823,3.4705,0.44734,2.1912,2.4881,-4.14,1.38,-1.2875,-5.52,8.5424e-10,-0.64375,0,0,0.25,-0,-0,0.66667
0.84987,0.34178,3.3995,-0.23733,-1.2815,2.7629,2.1515,-0.71716,-1.8001,2.8687,-1.1869e-09,-0.90004,0,0,0.25,-1.2287e-15,0,0.66667
0.80841,0.63881,3.2336,0.20822,1.4269,4.0802,-1.7955,0.59849,-1.8452,-2.394,2.3766e-10,-0.92258,0,0,0.25,-1.1842e-15,0,0.66667
0.13069,0.59766,0.52277,0.14649,2.9895,50.731,-0.20421,0.06807,-1.9238,-0.27228,1.9324e-09,-0.96188,0,0,0.25,-0,-0,0.66667
0.536,0.071404,2.144,-0.64289,-9.6753,18.553,3.6757,-1.2252,-0.52996,4.9009,-3.1752e-14,-0.26498,0,0,0.25,-0,-0,0.66667
0.90078,0.69106,3.6031,0.28659,1.0102,1.506,-2.7536,0.91788,-1.7081,-3.6715,1.3685e-09,-0.85405,0,0,0.25,-0,-0,0.66667
0.77083,0.62552,3.0833,0.18828,1.5271,5.4864,-1.5481,0.51603,-1.8747,-2.0641,1.2145e-10,-0.93735,0,0,0.25,-2.3685e-15,0,0.66667
0.42071,0.054666,1.6829,-0.668,-11.648,26.723,2.9977,-0.99924,-0.41379,3.997,-3.6637e-14,-0.20689,0,0,0.25,-2.9606e-16,0,0.66667
0.97788,0.3858,3.9115,-0.17131,-0.065174,0.21781,1.7869,-0.59562,-1.8949,2.3825,-1.204e-07,-0.94743,0,0,0.25,-0,-0,0.66667
0.25077,0.43402,1.0031,-0.098967,-1.9218,40.188,0.26473,-0.088243,-1.9663,0.35297,3.3838e-11,-0.98313,0,0,0.25,-0,-0,0.66667
0.33361,0.76528,1.3344,0.39792,7.3774,33.347,-1.416,0.472,-1.4361,-1.888,-1.9142e-12,-0.71806,0,0,0.25,5.9212e-16,0,0.66667
0.9542,0.5192,3.8168,0.028797,0.038213,0.43719,-0.2931,0.097699,-1.9971,-0.39079,2.9893e-07,-0.99855,0,0,0.25,-0,-0,0.66667
0.80872,0.7709,3.2349,0.40635,2.8318,4.2446,-3.5053,1.1684,-1.4124,-4.6738,3.8962e-10,-0.70622,0,0,0.25,-0,-0,0.66667
0.90034,0.82369,3.6014,0.48554,1.7972,1.7615,-4.663,1.5543,-1.161,-6.2173,5.53e-09,-0.58049,0,0,0.25,-0,-0,0.66667
0.01159,0.9442,0.046358,0.66631,14.131,61.51,-0.082369,0.027456,-0.42132,-0.10982,-4.4532e-08,-0.21066,0,0,0.25,-0,-0,0.66667
0.37976,0.85097,1.5191,0.52646,9.4556,29.742,-2.1326,0.71086,-1.0142,-2.8435,1.8701e-12,-0.50712,0,0,0.25,-0,-0,0.66667
0.23552,0.65821,0.94209,0.23732,4.6573,41.518,-0.59619,0.19873,-1.801,-0.79492,-1.0251e-10,-0.9005,0,0,0.25,-0,-0,0.66667
0.29594,0.39715,1.1837,-0.15428,-2.9169,36.375,0.487,-0.16233,-1.9157,0.64934,1.5313e-11,-0.95784,0,0,0.25,-2.9606e-16,0,0.66667
0.738,0.88047,2.952,0.57071,5.4039,7.2582,-4.4926,1.4975,-0.84202,-5.9901,1.5627e-11,-0.42101,0,0,0.25,-2.3685e-15,0,0.66667
0.72408,0.13761,2.8963,-0.54358,-5.3659,7.8427,4.1984,-1.3995,-0.94859,5.5979,-1.3595e-11,-0.4743,0,0,0.25,-0,-0,0.66667
0.4618,0.40829,1.8472,-0.13757,-2.2314,23.349,0.67765,-0.22588,-1.933,0.90353,-7.3974e-13,-0.96651,0,0,0.25,-0,-0,0.66667
0.36527,0.60157,1.4611,0.15235,2.7313,30.717,-0.5936,0.19787,-1.917,-0.79147,-8.421e-14,-0.95849,0,0,0.25,-0,-0,0.66667
0.58469,0.65981,2.3388,0.23972,3.2401,15.094,-1.4951,0.49835,-1.7957,-1.9934,-1.8371e-12,-0.89786,0,0,0.25,-0,-0,0.66667
0.53371,0.97983,2.1348,0.71974,10.948,18.804,-4.0974,1.3658,-0.15787,-5.4632,-7.1054e-15,-0.078936,0,0,0.25,-0,-0,0.66667
0.55058,0.79119,2.2023,0.43678,6.325,17.387,-2.5651,0.85505,-1.3213,-3.4202,-1.1429e-12,-0.66063,0,0,0.25,-0,-0,0.66667
0.61548,0.080558,2.4619,-0.62916,-8.2289,13.612,4.1305,-1.3768,-0.59165,5.5073,6.5814e-13,-0.29582,0,0,0.25,1.1842e-15,0,0.66667
0.39565,0.51625,1.5826,0.024378,0.42445,28.314,-0.10288,0.034294,-1.9971,-0.13718,2.1889e-13,-0.99853,0,0,0.25,-1.1842e-15,0,0.66667
0.77172,0.86542,3.0869,0.54813,4.5804,5.8143,-4.512,1.504,-0.93108,-6.016,6.4481e-11,-0.46554,0,0,0.25,5.9212e-16,0,0.66667
0.2512,0.54343,1.0048,0.065152,1.2645,40.149,-0.17457,0.058191,-1.9849,-0.23276,-2.5013e-11,-0.99246,0,0,0.25,5.9212e-16,0,0.66667
0.65576,0.19345,2.623,-0.45983,-5.4239,11.149,3.2164,-1.0721,-1.249,4.2885,6.5126e-13,-0.6245,0,0,0.25,-0,-0,0.66667
0.9604,0.34749,3.8416,-0.22877,-0.25788,0.44584,2.3436,-0.7812,-1.8139,3.1248,2.5157e-08,-0.90695,0,0,0.25,-0,-0,0.66667
0.0035548,0.57727,0.014219,0.1159,2.4066,62.232,-0.0043951,0.0014662,-1.9516,-0.0058595,1.7209e-06,-0.97581,0,0,0.25,-4.6259e-18,0,0.66667
0.72336,0.56502,2.8934,0.09753,0.93601,7.5081,-0.75253,0.25084,-1.9666,-1.0034,1.7648e-11,-0.9833,0,0,0.25,2.3685e-15,0,0.66667
0.109,0.47879,0.43598,-0.031812,-0.65207,52.674,0.036985,-0.012328,-1.9968,0.049313,-6.5127e-09,-0.9984,0,0,0.25,-0,-0,0.66667
0.54379,0.48529,2.1751,-0.022063,-0.31863,17.645,0.12797,-0.042658,-1.9977,0.17063,-9.5216e-14,-0.99887,0,0,0.25,-0,-0,0.66667
0.62692,0.93346,2.5077,0.65019,8.3249,12.986,-4.3479,1.4493,-0.4976,-5.7971,-6.235e-13,-0.2488,0,0,0.25,2.9606e-16,0,0.66667
0.24295,0.0050485,0.97179,-0.74243,-14.895,41.093,1.924,-0.64132,-0.039976,2.5653,1.2975e-11,-0.019988,0,0,0.25,1.1842e-15,0,0.66667
0.91384,0.8233,3.6554,0.48495,1.5413,1.4855,-4.7272,1.5757,-1.163,-6.3029,8.9986e-10,-0.58148,0,0,0.25,-0,-0,0.66667
0.62231,0.65042,2.4893,0.22563,2.8296,12.837,-1.4977,0.49924,-1.8192,-1.9969,-1.2336e-12,-0.90961,0,0,0.25,1.1842e-15,0,0.66667
0.23169,0.051629,0.92678,-0.67256,-13.501,42.011,1.6622,-0.55405,-0.39143,2.2162,5.9619e-12,-0.19571,0,0,0.25,-0,-0,0.66667
0.77013,0.68277,3.0805,0.27415,2.2412,5.5689,-2.2521,0.75069,-1.7328,-3.0028,1.3775e-10,-0.86641,0,0,0.25,-1.1842e-15,0,0.66667
0.10551,0.28883,0.42203,-0.31676,-6.5305,53.007,0.35648,-0.11883,-1.643,0.47531,-3.7835e-10,-0.82152,0,0,0.25,-0,-0,0.66667
0.55523,0.22381,2.2209,-0.41429,-5.9456,17.068,2.4536,-0.81786,-1.3895,3.2714,1.0187e-12,-0.69477,0,0,0.25,-0,-0,0.66667
0.094956,0.23585,0.37982,-0.39623,-8.21,53.965,0.40132,-0.13377,-1.4417,0.5351,9.7326e-10,-0.72087,0,0,0.25,-0,-0,0.66667
0.58098,0.9953,2.3239,0.74295,10.492,15.834,-4.6042,1.5347,-0.037795,-6.1389,2.3936e-13,-0.018897,0,0,0.25,-2.9606e-16,0,0.66667
0.25298,0.54846,1.0119,0.072683,1.4093,39.997,-0.19613,0.065378,-1.9807,-0.26151,-2.5623e-11,-0.99036,0,0,0.25,2.9606e-16,0,0.66667
0.64947,0.9985,2.5979,0.74775,9.2207,11.892,-5.1801,1.7267,-0.012416,-6.9068,1.5898e-13,-0.0062081,0,0,0.25,-3.7526e-15,0,0.66667
0.71583,0.086208,2.8633,-0.62069,-6.3423,8.3389,4.7393,-1.5798,-0.63018,6.319,-2.693e-12,-0.31509,0,0,0.25,-5.9212e-16,0,0.66667
0.52419,0.62285,2.0967,0.18428,2.7501,18.983,-1.0304,0.34346,-1.8795,-1.3738,-5.1881e-13,-0.93977,0,0,0.25,1.4803e-16,0,0.66667
0.65752,0.25229,2.6301,-0.37156,-4.3362,10.968,2.606,-0.86866,-1.5103,3.4746,-6.8656e-13,-0.75514,0,0,0.25,-2.3685e-15,0,0.66667
0.81329,0.72625,3.2532,0.33938,2.2937,4.0141,-2.9442,0.98139,-1.591,-3.9256,3.9169e-10,-0.79549,0,0,0.25,-0,-0,0.66667
0.80751,0.60856,3.23,0.16283,1.1181,4.0877,-1.4026,0.46752,-1.9049,-1.8701,1.3805e-10,-0.95245,0,0,0.25,-0,-0,0.66667
0.61968,0.4162,2.4787,-0.1257,-1.5806,12.951,0.83085,-0.27695,-1.9432,1.1078,4.9688e-13,-0.97159,0,0,0.25,-0,-0,0.66667
0.4511,0.030396,1.8044,-0.70441,-11.921,24.514,3.3894,-1.1298,-0.23702,4.5192,9.6145e-14,-0.11851,0,0,0.25,1.4803e-16,0,0.66667
0.40795,7.8936e-05,1.6318,-0.74988,-13.335,27.771,3.2631,-1.0877,-0.0021166,4.3508,-2.6201e-13,-0.0010583,0,0,0.25,-0,-0,0.66667
0.87475,0.32057,3.499,-0.26914,-1.2115,2.1052,2.5112,-0.83708,-1.7431,3.3483,6.1076e-10,-0.87153,0,0,0.25,-0,-0,0.66667
0.70293,0.94575,2.8117,0.66862,7.1359,9.027,-5.0133,1.6711,-0.41108,-6.6844,-1.8119e-13,-0.20554,0,0,0.25,2.3685e-15,0,0.66667
0.18494,0.10528,0.73974,-0.59208,-12.069,46.022,1.168,-0.38932,-0.75327,1.5573,1.4202e-10,-0.37664,0,0,0.25,-2.9606e-16,0,0.66667
0.56573,0.46482,2.2629,-0.052771,-0.73484,16.227,0.31845,-0.10615,-1.9905,0.4246,1.1824e-13,-0.99525,0,0,0.25,8.8818e-16,0,0.66667
0.90881,0.71955,3.6352,0.32933,1.0679,1.38,-3.1925,1.0642,-1.6155,-4.2567,7.0742e-10,-0.80774,0,0,0.25,-0,-0,0.66667
0.15069,0.92776,0.60276,0.64164,13.277,49.05,-1.0313,0.34378,-0.53553,-1.3751,-1.335e-09,-0.26777,0,0,0.25,1.4803e-16,0,0.66667
0.84552,0.59636,3.3821,0.14453,0.79789,2.8384,-1.3035,0.43451,-1.9267,-1.738,1.5893e-09,-0.96334,0,0,0.25,-0,-0,0.66667
0.8202,0.73389,3.2808,0.35084,2.2896,3.7916,-3.0694,1.0231,-1.5614,-4.0926,4.9202e-10,-0.78068,0,0,0.25,-1.1842e-15,0,0.66667
0.49934,0.42485,1.9974,-0.11272,-1.7409,20.668,0.6004,-0.20013,-1.955,0.80053,3.7748e-15,-0.97749,0,0,0.25,-5.9212e-16,0,0.66667
0.037584,0.2307,0.15034,-0.40395,-8.4382,59.148,0.16194,-0.053981,-1.419,0.21592,-2.4188e-09,-0.70948,0,0,0.25,7.4015e-17,0,0.66667
0.1475,0.010517,0.59001,-0.73422,-15.305,49.365,1.1552,-0.38507,-0.082452,1.5403,2.0983e-09,-0.041226,0,0,0.25,-0,-0,0.66667
0.92264,0.22123,3.6906,-0.41816,-1.1587,1.2227,4.1153,-1.3718,-1.3796,5.4871,-1.9082e-09,-0.68978,0,0,0.25,2.3685e-15,0,0.66667
0.044155,0.73004,0.17662,0.34506,7.1881,58.549,-0.16252,0.054172,-1.5763,-0.21669,5.2533e-09,-0.78817,0,0,0.25,7.4015e-17,0,0.66667
0.3725,0.76511,1.49,0.39767,7.1398,30.233,-1.5801,0.52669,-1.4373,-2.1068,1.7907e-12,-0.71866,0,0,0.25,5.9212e-16,0,0.66667
0.61904,0.72466,2.4762,0.33699,4.2773,13.096,-2.2252,0.74173,-1.596,-2.9669,-1.7775e-12,-0.79798,0,0,0.25,-2.3685e-15,0,0.66667
0.19695,0.47846,0.78779,-0.032305,-0.64363,44.851,0.067865,-0.022622,-1.9956,0.090487,1.2855e-11,-0.99779,0,0,0.25,-0,-0,0.66667
0.98108,0.74575,3.9243,0.36862,0.13168,0.37457,-3.8576,1.2859,-1.5172,-5.1434,5.8432e-09,-0.7586,0,0,0.25,5.8092e-16,0,0.66667
0.15598,0.58103,0.6239,0.12155,2.4609,48.474,-0.20222,0.067408,-1.9477,-0.26963,-5.0924e-10,-0.97387,0,0,0.25,-0,-0,0.66667
0.53968,0.01942,2.1587,-0.72087,-10.867,18.414,4.1497,-1.3832,-0.15145,5.533,-4.8406e-14,-0.075725,0,0,0.25,-0,-0,0.66667
0.61801,0.79139,2.472,0.43708,5.5947,13.241,-2.8813,0.96044,-1.32,-3.8417,-2.1094e-12,-0.65998,0,0,0.25,-0,-0,0.66667
0.23099,0.092722,0.92396,-0.61092,-12.218,42.039,1.5052,-0.50175,-0.6739,2.007,4.6614e-11,-0.33695,0,0,0.25,7.4015e-17,3.2067e-19,0.66667
0.46631,0.95131,1.8652,0.67696,11.228,23.386,-3.3672,1.1224,-0.37021,-4.4896,1.4988e-13,-0.1851,0,0,0.25,-0,-2.9205e-16,0.66667
0.49101,0.89664,1.964,0.59496,9.5037,21.55,-3.116,1.0387,-0.74071,-4.1547,-7.7716e-14,-0.37035,0,0,0.25,5.9212e-16,0,0.66667
0.76686,0.34878,3.0674,-0.22683,-1.8731,5.6689,1.8554,-0.61847,-1.8178,2.4739,-1.0113e-10,-0.90889,0,0,0.25,-0,-0,0.66667
0.63428,0.42487,2.5371,-0.1127,-1.3727,12.109,0.76247,-0.25416,-1.9539,1.0166,-1.0864e-13,-0.97697,0,0,0.25,-0,-0,0.66667
0.46755,0.81144,1.8702,0.46716,7.6207,23.097,-2.3298,0.77661,-1.2254,-3.1064,3.5394e-13,-0.61272,0,0,0.25,1.4803e-16,0,0.66667
0.66694,0.55931,2.6678,0.08897,1.0026,10.312,-0.63294,0.21098,-1.9721,-0.84391,2.3045e-12,-0.98606,0,0,0.25,4.9351e-16,0,0.66667
0.45338,0.79708,1.8135,0.44562,7.3843,24.109,-2.155,0.71834,-1.2942,-2.8734,7.0766e-13,-0.64708,0,0,0.25,-0,-0,0.66667
0.52571,0.23067,2.1028,-0.404,-6.0694,19.001,2.2655,-0.75515,-1.4189,3.0206,4.3632e-13,-0.70944,0,0,0.25,-0,-0,0.66667
0.65857,0.084514,2.6343,-0.62323,-7.4166,11.205,4.378,-1.4593,-0.6189,5.8374,9.1527e-13,-0.30945,0,0,0.25,-0,-0,0.66667
0.1812,0.9867,0.72478,0.73005,15.041,46.408,-1.411,0.47033,-0.10407,-1.8813,-3.5618e-10,-0.052037,0,0,0.25,-0,-0,0.66667
0.78805,0.58696,3.1522,0.13045,0.98085,4.7875,-1.0965,0.3655,-1.9391,-1.462,1.25e-10,-0.96953,0,0,0.25,-1.1842e-15,0,0.66667
0.60287,0.88024,2.4115,0.57037,7.6052,14.276,-3.6678,1.2226,-0.8431,-4.8904,-1.0902e-12,-0.42155,0,0,0.25,-2.3685e-15,0,0.66667
0.98033,0.026902,3.9213,-0.70965,-0.54628,1.0219,7.4207,-2.4736,-0.20961,9.8943,6.7015e-07,-0.1048,0,0,0.25,-0,-1.4185e-16,0.66667
0.22238,0.37855,0.88953,-0.18218,-3.5942,42.645,0.43214,-0.14405,-1.8824,0.57618,1.104e-10,-0.94119,0,0,0.25,5.9212e-16,0,0.66667
0.46627,0.28498,1.8651,-0.32254,-5.2315,23.095,1.6041,-0.53471,-1.6307,2.1388,-8.5243e-13,-0.81536,0,0,0.25,-0,-0,0.66667
0.89564,0.66299,3.5826,0.24449,0.90433,1.5835,-2.3357,0.77857,-1.7872,-3.1143,-6.0234e-09,-0.89359,0,0,0.25,-2.3685e-15,0,0.66667
0.60143,0.13909,2.4057,-0.54136,-7.2203,14.327,3.473,-1.1577,-0.95697,4.6307,1.2708e-12,-0.47849,0,0,0.25,-0,-0,0.66667
0.72596,0.54431,2.9038,0.066464,0.63217,7.3816,-0.51467,0.17156,-1.9833,-0.68622,1.4409e-11,-0.99167,0,0,0.25,-1.1842e-15,0,0.66667
0.41367,0.0111,1.6547,-0.73335,-12.949,27.321,3.2359,-1.0786,-0.086959,4.3145,-1.0836e-13,-0.04348,0,0,0.25,-0,-0,0.66667
0.68431,0.48235,2.7372,-0.026469,-0.28483,9.3992,0.19321,-0.064402,-1.997,0.25761,-1.4438e-12,-0.99849,0,0,0.25,-1.1842e-15,0,0.66667
0.94606,0.62019,3.7842,0.18029,0.30468,0.60422,-1.8193,0.60645,-1.8843,-2.4258,-3.0948e-08,-0.94213,0,0,0.25,-1.7764e-15,0,0.66667
0.20019,0.039015,0.80074,-0.69148,-14.1,44.737,1.4765,-0.49217,-0.29988,1.9687,4.9602e-11,-0.14994,0,0,0.25,-0,2.2114e-16,0.66667
0.80737,0.37334,3.2295,-0.18998,-1.3074,4.1066,1.6361,-0.54537,-1.8722,2.1815,-2.2691e-10,-0.93609,0,0,0.25,1.6283e-15,0,0.66667
0.96954,0.73929,3.8782,0.35894,0.29799,0.47306,-3.712,1.2373,-1.5421,-4.9494,-2.4864e-09,-0.77107,0,0,0.25,-0,-0,0.66667
0.014569,0.13907,0.058275,-0.5414,-11.396,61.237,0.084134,-0.028044,-0.95781,0.11218,6.4239e-08,-0.4789,0,0,0.25,-0,3.5311e-16,0.66667
0.21521,0.82021,0.86084,0.48031,9.6068,43.343,-1.1026,0.36753,-1.1796,-1.4701,-1.8368e-10,-0.58978,0,0,0.25,-0,-0,0.66667
0.11738,0.64385,0.46951,0.21577,4.4243,51.93,-0.27015,0.090051,-1.8335,-0.3602,8.9028e-10,-0.91676,0,0,0.25,9.0275e-18,0,0.66667
0.76742,0.097061,3.0697,-0.60441,-5.1767,6.0743,4.9476,-1.6492,-0.70195,6.5968,-4.382e-11,-0.35097,0,0,0.25,2.3685e-15,0,0.66667
0.081217,0.84402,0.32487,0.51603,10.778,55.219,-0.44705,0.14902,-1.0543,-0.59606,-5.6095e-09,-0.52715,0,0,0.25,2.9606e-16,0,0.66667
0.99841,0.88199,3.9937,0.57298,-0.10041,0.59194,-6.1021,2.034,-0.83304,-8.1361,3.0768e-07,-0.41652,0,0,0.25,-0,-0,0.66667
0.38961,0.052719,1.5584,-0.67092,-12.062,29.095,2.7883,-0.92942,-0.39974,3.7177,-3.8303e-13,-0.19987,0,0,0.25,-0,2.5464e-16,0.66667
0.9052,0.029718,3.6208,-0.70542,-2.6705,2.0806,6.8112,-2.2704,-0.23204,9.0816,6.3466e-08,-0.11602,0,0,0.25,-5.9212e-16,0,0.66667
0.18858,0.53137,0.75431,0.047056,0.94082,45.586,-0.094652,0.031551,-1.9938,-0.1262,-2.1645e-10,-0.99689,0,0,0.25,-5.9212e-16,0,0.66667
0.44087,0.55179,1.7635,0.077681,1.2903,24.878,-0.36531,0.12177,-1.9781,-0.48707,5.8278e-13,-0.98907,0,0,0.25,5.9212e-16,0,0.66667
0.84481,0.54198,3.3792,0.062974,0.34814,2.8342,-0.56748,0.18916,-1.986,-0.75664,6.3141e-10,-0.99302,0,0,0.25,-0,-0,0.66667
0.59527,0.9668,2.3811,0.70019,9.592,14.905,-4.4459,1.482,-0.25796,-5.9279,-1.4033e-13,-0.12898,0,0,0.25,1.6283e-15,0,0.66667
0.46216,0.1416,1.8486,-0.53761,-8.8668,23.544,2.6502,-0.88341,-0.97141,3.5336,-4.8428e-13,-0.4857,0,0,0.25,-5.9212e-16,0,0.66667
0.51265,0.72997,2.0506,0.34495,5.2663,19.845,-1.8863,0.62876,-1.5766,-2.515,-3.9735e-13,-0.78828,0,0,0.25,-0,-0,0.66667
0.57389,0.35246,2.2955,-0.2213,-3.0484,15.758,1.3547,-0.45157,-1.8255,1.8063,1.2141e-12,-0.91273,0,0,0.25,-0,-0,0.66667
0.44032,0.031125,1.7613,-0.70331,-12.046,25.302,3.3033,-1.1011,-0.24246,4.4044,-5.862e-14,-0.12123,0,0,0.25,-3.1456e-16,0,0.66667
0.19356,0.15228,0.77424,-0.52159,-10.553,45.242,1.0769,-0.35896,-1.0327,1.4358,3.0821e-10,-0.51636,0,0,0.25,4.0595e-17,0,0.66667
0.11397,0.72152,0.45586,0.33227,6.8406,52.249,-0.40392,0.13464,-1.6078,-0.53856,-6.6409e-10,-0.80391,0,0,0.25,-2.9606e-16,0,0.66667
0.15123,0.92531,0.60491,0.63796,13.196,49.002,-1.0291,0.34303,-0.55214,-1.3721,-9.4105e-10,-0.27607,0,0,0.25,-0,-0,0.66667
0.052491,0.52225,0.20996,0.033374,0.69059,57.783,-0.018686,0.0062287,-1.9954,-0.024915,7.6559e-08,-0.99772,0,0,0.25,7.4015e-17,0,0.66667
0.55868,0.15299,2.2347,-0.52052,-7.4812,16.945,3.1019,-1.034,-1.0371,4.1359,5.9885e-13,-0.51853,0,0,0.25,5.9212e-16,0,0.66667
0.84772,0.018594,3.3909,-0.72211,-4.3037,3.5271,6.5296,-2.1765,-0.14536,8.7061,-1.2906e-09,-0.072678,0,0,0.25,-0,-0,0.66667
0.35912,0.44182,1.4365,-0.08727,-1.5714,31.198,0.3343,-0.11143,-1.974,0.44573,1.6823e-13,-0.98701,0,0,0.25,-0,-0,0.66667
0.075311,0.74036,0.30124,0.36053,7.4861,55.732,-0.28962,0.096541,-1.5376,-0.38616,3.6966e-09,-0.76881,0,0,0.25,-7.4015e-17,0,0.66667
0.42572,0.52558,1.7029,0.038375,0.64797,26.01,-0.17426,0.058088,-1.9948,-0.23235,3.0759e-13,-0.99739,0,0,0.25,-5.9212e-16,0,0.66667
0.60201,0.12138,2.408,-0.56792,-7.5835,14.324,3.6469,-1.2156,-0.85321,4.8625,1.1351e-12,-0.4266,0,0,0.25,-0,-0,0.66667
0.4254,0.76747,1.7016,0.40121,6.8431,26.155,-1.8205,0.60685,-1.4271,-2.4274,1.5842e-12,-0.71354,0,0,0.25,-5.9212e-16,0,0.66667
0.81072,0.40872,3.2429,-0.13693,-0.92395,3.9639,1.1841,-0.3947,-1.9343,1.5788,-2.3516e-10,-0.96716,0,0,0.25,2.3685e-15,0,0.66667
0.94189,0.77915,3.7675,0.41873,0.83996,0.9055,-4.2069,1.4023,-1.3771,-5.6092,-1.6214e-08,-0.68856,0,0,0.25,-1.1842e-15,0,0.66667
0.86991,0.85735,3.4796,0.53603,2.6287,2.563,-4.9738,1.6579,-0.97758,-6.6318,1.0857e-09,-0.48879,0,0,0.25,-0,-0,0.66667
0.704,0.99253,2.816,0.73879,7.9368,9.0993,-5.5478,1.8493,-0.059816,-7.3971,-5.7021e-13,-0.029908,0,0,0.25,-0,-0,0.66667
0.4703,0.56065,1.8812,0.090975,1.4592,22.724,-0.45638,0.15213,-1.9717,-0.6085,2.9443e-13,-0.98587,0,0,0.25,-6.6613e-16,0,0.66667
0.6827,0.3637,2.7308,-0.20445,-2.2184,9.5315,1.4889,-0.49629,-1.8507,1.9851,-8.5142e-12,-0.92535,0,0,0.25,-0,-0,0.66667
0.013418,0.92086,0.053673,0.63129,13.358,61.344,-0.090357,0.030119,-0.58269,-0.12048,4.0297e-07,-0.29134,0,0,0.25,1.8504e-17,0,0.66667
0.98248,0.33626,3.9299,-0.24561,-0.054097,0.23071,2.574,-0.85799,-1.7857,3.432,-5.0987e-08,-0.89286,0,0,0.25,-1.1842e-15,0,0.66667
0.17208,0.80707,0.68831,0.46061,9.368,47.106,-0.84544,0.28181,-1.2466,-1.1273,-4.6057e-10,-0.62331,0,0,0.25,7.4015e-17,0,0.66667
0.90626,0.67173,3.625,0.25759,0.84943,1.3645,-2.4901,0.83003,-1.7644,-3.3201,-1.0774e-09,-0.88219,0,0,0.25,-0,-0,0.66667
0.80711,0.65161,3.2284,0.22742,1.5707,4.1381,-1.9579,0.65264,-1.8161,-2.6105,2.199e-10,-0.90804,0,0,0.25,-1.1842e-15,0,0.66667
0.80014,0.16455,3.2006,-0.50318,-3.7006,4.6742,4.2946,-1.4315,-1.0996,5.7261,-3.0552e-10,-0.54979,0,0,0.25,-0,-0,0.66667
0.26894,0.28425,1.0757,-0.32362,-6.2509,38.686,0.92835,-0.30945,-1.6282,1.2378,4.7725e-11,-0.81409,0,0,0.25,-0,-0,0.66667
0.21915,0.7287,0.87662,0.34305,6.8087,42.958,-0.80193,0.26731,-1.582,-1.0692,-1.8359e-10,-0.79098,0,0,0.25,-0,-0,0.66667
0.4288,0.18844,1.7152,-0.46735,-7.9701,25.944,2.1376,-0.71253,-1.2239,2.8501,-1.5195e-12,-0.61197,0,0,0.25,1.1842e-15,0,0.66667
0.84937,0.6116,3.3975,0.16739,0.902,2.7348,-1.5166,0.50552,-1.8995,-2.0221,2.4183e-10,-0.94975,0,0,0.25,-1.1842e-15,0,0.66667
0.45038,0.84148,1.8015,0.51222,8.5514,24.38,-2.4607,0.82025,-1.0679,-3.281,6.8057e-13,-0.53396,0,0,0.25,-1.4803e-16,0,0.66667
0.93542,0.86102,3.7417,0.54152,1.2927,1.2018,-5.4032,1.8011,-0.95706,-7.2043,-6.4251e-09,-0.47853,0,0,0.25,-0,-9.0375e-17,0.66667
0.35268,0.9976,1.4107,0.7464,13.939,32.059,-2.8079,0.93597,-0.019382,-3.7439,-9.7811e-13,-0.0096909,0,0,0.25,1.9244e-15,0,0.66667
0.61939,0.70947,2.4776,0.31421,3.9803,13.059,-2.0759,0.69197,-1.6484,-2.7679,-1.7319e-12,-0.82418,0,0,0.25,-5.9212e-16,0,0.66667
0.9807,0.23522,3.9228,-0.39716,-0.1572,0.41597,4.1546,-1.3849,-1.4385,5.5395,2.4132e-09,-0.71926,0,0,0.25,-1.1842e-15,0,0.66667
0.64346,0.24047,2.5739,-0.38929,-4.7004,11.752,2.6719,-0.89065,-1.4609,3.5626,1.0116e-12,-0.73047,0,0,0.25,-5.9212e-16,0,0.66667
0.045498,0.82771,0.18199,0.49156,10.301,58.437,-0.23856,0.079521,-1.1407,-0.31808,1.7028e-08,-0.57037,0,0,0.25,-7.4015e-17,0,0.66667
0.46356,0.81284,1.8542,0.46927,7.6932,23.387,-2.3203,0.77345,-1.2178,-3.0938,4.3032e-13,-0.6089,0,0,0.25,-0,-0,0.66667
0.33475,0.47733,1.339,-0.034,-0.62427,33.161,0.1214,-0.040468,-1.9953,0.16187,4.5135e-13,-0.99763,0,0,0.25,-0,-0,0.66667
0.53218,0.91172,2.1287,0.61758,9.3276,18.775,-3.5057,1.1686,-0.64464,-4.6743,-9.3703e-14,-0.32232,0,0,0.25,-1.1842e-15,0,0.66667
0.28475,0.85375,1.139,0.53062,10.247,37.443,-1.6116,0.53721,-0.99853,-2.1489,-1.035e-11,-0.49927,0,0,0.25,-0,-0,0.66667
0.12226,0.55383,0.48904,0.080749,1.6503,51.483,-0.10531,0.035102,-1.9767,-0.14041,5.836e-09,-0.98835,0,0,0.25,-0,-0,0.66667
0.66829,0.66226,2.6732,0.24339,2.7464,10.301,-1.735,0.57834,-1.7894,-2.3134,4.3563e-12,-0.8947,0,0,0.25,-0,-0,0.66667
0.68136,0.011367,2.7254,-0.73295,-8.3579,10.2,5.327,-1.7757,-0.089083,7.1026,-5.5955e-14,-0.044541,0,0,0.25,2.3685e-15,0,0.66667
0.86714,0.58087,3.4686,0.12131,0.57307,2.2152,-1.122,0.37401,-1.9467,-1.4961,2.7086e-10,-0.97336,0,0,0.25,-0,-0,0.66667
0.13238,0.30419,0.52953,-0.29372,-6.0111,50.595,0.41475,-0.13825,-1.6926,0.553,1.0813e-09,-0.84632,0,0,0.25,-0,-0,0.66667
0.79862,0.13824,3.1945,-0.54264,-4.0422,4.7875,4.6226,-1.5409,-0.95285,6.1634,-1.6956e-10,-0.47642,0,0,0.25,1.1842e-15,0,0.66667
0.82677,0.76499,3.3071,0.39749,2.5167,3.6268,-3.5054,1.1685,-1.4381,-4.6739,5.4206e-10,-0.71906,0,0,0.25,-1.1842e-15,0,0.66667
0.64655,0.9649,2.5862,0.69735,8.6028,11.966,-4.8093,1.6031,-0.27099,-6.4124,-2.3981e-13,-0.1355,0,0,0.25,-0,-0,0.66667
0.20492,0.44138,0.81969,-0.087934,-1.7466,44.155,0.19221,-0.06407,-1.9732,0.25628,1.1057e-10,-0.98662,0,0,0.25,-0,-0,0.66667
0.26142,0.82186,1.0457,0.48279,9.4307,39.383,-1.3463,0.44875,-1.1708,-1.795,-3.6802e-11,-0.5854,0,0,0.25,-0,-0,0.66667
0.4185,0.92308,1.674,0.63463,11.062,26.857,-2.8329,0.94432,-0.56743,-3.7773,5.4512e-13,-0.28371,0,0,0.25,-5.9212e-16,0,0.66667
0.5418,0.27956,2.1672,-0.33066,-4.8279,17.881,1.9109,-0.63697,-1.6118,2.5479,1.0306e-12,-0.80589,0,0,0.25,-1.2583e-15,0,0.66667
0.47744,0.035454,1.9098,-0.69682,-11.421,22.616,3.5487,-1.1829,-0.2735,4.7316,7.0832e-14,-0.13675,0,0,0.25,1.1842e-15,0,0.66667
0.46746,0.45925,1.8698,-0.06112,-0.98355,22.925,0.30476,-0.10159,-1.9869,0.40635,-3.7467e-13,-0.99344,0,0,0.25,-0,-0,0.66667
0.83984,0.81635,3.3594,0.47452,2.8169,3.3158,-4.2509,1.417,-1.1997,-5.6678,8.96e-10,-0.59985,0,0,0.25,-0,-0,0.66667
0.8701,0.53944,3.4804,0.059161,0.27229,2.119,-0.54908,0.18303,-1.9871,-0.73211,-1.4952e-09,-0.99356,0,0,0.25,-0,-0,0.66667
0.81675,0.19377,3.267,-0.45935,-3.0949,4.0352,4.0019,-1.334,-1.2496,5.3359,-5.9664e-10,-0.62482,0,0,0.25,-0,-0,0.66667
0.8778,0.82405,3.5112,0.48608,2.215,2.2835,-4.5512,1.5171,-1.1596,-6.0683,2.6013e-09,-0.57979,0,0,0.25,-0,-0,0.66667
0.57101,0.2837,2.284,-0.32445,-4.5109,15.996,1.9761,-0.65871,-1.6259,2.6348,1.2137e-12,-0.81297,0,0,0.25,2.3685e-15,0,0.66667
0.96404,0.96126,3.8561,0.69189,0.98248,1.1333,-7.1148,2.3716,-0.29756,-9.4864,1.1229e-06,-0.14878,0,0,0.25,-0,1.7118e-16,0.66667
0.60654,0.54728,2.4262,0.07092,0.91535,13.713,-0.45884,0.15295,-1.9816,-0.61179,-5.3241e-13,-0.99082,0,0,0.25,-1.1842e-15,0,0.66667
0.60395,0.028511,2.4158,-0.70723,-9.5387,14.399,4.5561,-1.5187,-0.22187,6.0748,4.8495e-13,-0.11093,0,0,0.25,-1.4803e-15,0,0.66667
0.3193,0.62087,1.2772,0.18131,3.374,34.444,-0.61752,0.20584,-1.8831,-0.82335,-7.6663e-12,-0.94153,0,0,0.25,2.9606e-16,0,0.66667
0.6812,0.86354,2.7248,0.5453,6.085,9.9175,-3.9623,1.3208,-0.9419,-5.283,8.058e-13,-0.47095,0,0,0.25,-5.9212e-16,0,0.66667
0.051966,0.71068,0.20786,0.31601,6.5718,57.84,-0.17517,0.058389,-1.6445,-0.23356,5.3227e-09,-0.82224,0,0,0.25,-3.7007e-17,0,0.66667
0.13455,0.95185,0.53819,0.67777,14.125,50.491,-0.97272,0.32424,-0.36573,-1.297,1.4263e-09,-0.18286,0,0,0.25,-0,-0,0.66667
0.13024,0.96413,0.52097,0.6962,14.544,50.879,-0.9672,0.3224,-0.27662,-1.2896,-6.0899e-10,-0.13831,0,0,0.25,-7.4015e-17,0,0.66667
0.6552,0.63891,2.6208,0.20836,2.4246,10.983,-1.4562,0.48539,-1.8456,-1.9416,1.7942e-12,-0.92282,0,0,0.25,-0,-0,0.66667
0.17533,0.66059,0.70133,0.24089,4.8549,46.772,-0.45051,0.15017,-1.794,-0.60068,-3.1042e-10,-0.89699,0,0,0.25,-0,-0,0.66667
0.34115,0.24595,1.3646,-0.38108,-7.0186,32.729,1.3867,-0.46223,-1.4842,1.8489,8.4188e-13,-0.74209,0,0,0.25,7.4015e-16,0,0.66667
0.044312,0.12878,0.17725,-0.55684,-11.71,58.55,0.26319,-0.087731,-0.89811,0.35092,-1.9644e-07,-0.44906,0,0,0.25,-0,-0,0.66667
0.23373,0.73166,0.93494,0.34749,6.8489,41.699,-0.86635,0.28878,-1.5708,-1.1551,-1.2722e-10,-0.78541,0,0,0.25,-0,-0,0.66667
0.96422,0.46068,3.8569,-0.058979,-0.05422,0.31661,0.6066,-0.2022,-1.9873,0.80881,2.5564e-07,-0.99363,0,0,0.25,-0,-0,0.66667
0.50914,0.06572,2.0366,-0.65142,-10.201,20.362,3.5377,-1.1792,-0.49132,4.717,3.153e-14,-0.24566,0,0,0.25,-1.1842e-15,0,0.66667
0.15107,0.61272,0.6043,0.16909,3.4312,48.914,-0.27247,0.090825,-1.8976,-0.3633,-9.2419e-11,-0.94879,0,0,0.25,1.4803e-16,0,0.66667
0.52301,0.87148,2.092,0.55723,8.4902,19.32,-3.1086,1.0362,-0.89602,-4.1448,-5.3801e-13,-0.44801,0,0,0.25,-0,-0,0.66667
0.94351,0.70272,3.774,0.30408,0.56399,0.74239,-3.0603,1.0201,-1.6703,-4.0804,-8.2878e-09,-0.83515,0,0,0.25,1.1842e-15,0,0.66667
0.86569,0.88042,3.4627,0.57063,2.9103,2.7327,-5.2692,1.7564,-0.84203,-7.0255,-1.325e-09,-0.42102,0,0,0.25,-0,-0,0.66667
0.39207,0.75642,1.5683,0.38463,6.7788,28.695,-1.6085,0.53618,-1.4744,-2.1447,1.8858e-12,-0.73722,0,0,0.25,-0,-0,0.66667
0.28387,0.50436,1.1355,0.0065333,0.12433,37.374,-0.019782,0.0065941,-2.0003,-0.026376,-1.1984e-12,-1.0002,0,0,0.25,-0,-0,0.66667
0.76173,0.81043,3.0469,0.46565,4.003,6.1036,-3.7834,1.2611,-1.2297,-5.0446,8.7283e-11,-0.61483,0,0,0.25,2.9606e-16,0,0.66667
0.24048,0.032041,0.96194,-0.70194,-14.058,41.278,1.8006,-0.6002,-0.24871,2.4008,-2.1178e-12,-0.12436,0,0,0.25,-5.9212e-16,0,0.66667
0.25423,0.79581,1.0169,0.44372,8.6859,39.977,-1.2033,0.40109,-1.2992,-1.6044,-5.6883e-11,-0.64962,0,0,0.25,-0,-0,0.66667
0.084086,0.81966,0.33635,0.4795,9.9916,54.955,-0.43007,0.14336,-1.1821,-0.57343,-2.6792e-09,-0.59104,0,0,0.25,-0,-0,0.66667
0.86414,0.49605,3.4566,-0.0059298,-0.028574,2.2736,0.054659,-0.01822,-2,0.072878,-9.6366e-09,-1,0,0,0.25,-2.9606e-16,0,0.66667
0.4479,0.29596,1.7916,-0.30606,-5.0705,24.427,1.4622,-0.4874,-1.6661,1.9496,-1.2693e-12,-0.83305,0,0,0.25,-0,-0,0.66667
0.56179,0.29995,2.2471,-0.30008,-4.2343,16.566,1.7982,-0.5994,-1.68,2.3976,1.2358e-12,-0.83998,0,0,0.25,-5.9212e-16,0,0.66667
0.73671,0.42966,2.9468,-0.10552,-0.96896,6.9028,0.82918,-0.27639,-1.9605,1.1056,-3.0356e-11,-0.98024,0,0,0.25,1.1842e-15,0,0.66667
0.79649,0.48507,3.186,-0.022395,-0.16162,4.4484,0.19026,-0.063421,-1.9984,0.25368,-5.109e-11,-0.9992,0,0,0.25,1.1842e-15,0,0.66667
0.44751,0.69123,1.79,0.28684,4.751,24.447,-1.3692,0.45641,-1.7075,-1.8256,1.1446e-12,-0.85377,0,0,0.25,-0,-0,0.66667
0.18413,0.0044013,0.73651,-0.7434,-15.314,46.158,1.4601,-0.48668,-0.035354,1.9467,5.8871e-10,-0.017677,0,0,0.25,-0,1.433e-16,0.66667
0.82873,0.32398,3.3149,-0.26403,-1.6292,3.4334,2.334,-0.77799,-1.7524,3.112,-4.1917e-10,-0.87618,0,0,0.25,-0,-0,0.66667
0.030998,0.3266,0.12399,-0.2601,-5.4101,59.739,0.086002,-0.028667,-1.7597,0.11467,-6.7715e-09,-0.87984,0,0,0.25,-0,-0,0.66667
0.94673,0.68627,3.7869,0.2794,0.47778,0.67113,-2.8215,0.9405,-1.7229,-3.762,-1.1657e-08,-0.86146,0,0,0.25,-1.6283e-15,0,0.66667
0.57698,0.042983,2.3079,-0.68553,-9.6902,15.996,4.219,-1.4063,-0.32914,5.6254,-2.065e-13,-0.16457,0,0,0.25,1.1842e-15,-2.7769e-16,0.66667
0.87539,0.58041,3.5016,0.12061,0.53276,1.9988,-1.1262,0.37539,-1.9485,-1.5016,1.7166e-09,-0.97424,0,0,0.25,-0,-0,0.66667
0.60857,0.13023,2.4343,-0.55466,-7.3038,13.92,3.6005,-1.2002,-0.90696,4.8006,1.3229e-12,-0.45348,0,0,0.25,-0,-0,0.66667
0.25166,0.26359,1.0066,-0.35462,-6.9254,40.164,0.95192,-0.31731,-1.5527,1.2692,7.6716e-11,-0.77636,0,0,0.25,-0,-0,0.66667
0.29613,0.71143,1.1845,0.31715,6.0206,36.399,-1.0018,0.33393,-1.6429,-1.3357,-2.0261e-11,-0.82146,0,0,0.25,-2.9606e-16,0,0.66667
0.53292,0.073298,2.1317,-0.64005,-9.6751,18.753,3.6384,-1.2128,-0.54337,4.8512,7.8826e-14,-0.27168,0,0,0.25,-0,-0,0.66667
0.96208,0.35193,3.8483,-0.22211,-0.23436,0.42043,2.2793,-0.75977,-1.824,3.0391,-7.7254e-09,-0.912,0,0,0.25,2.3685e-15,0,0.66667
0.1845,0.1729,0.73798,-0.49066,-9.9473,46.024,0.96559,-0.32186,-1.1435,1.2874,3.8669e-10,-0.57176,0,0,0.25,-2.9606e-16,0,0.66667
0.5099,0.76365,2.0396,0.39548,6.0768,20.068,-2.151,0.717,-1.443,-2.868,-5.1226e-13,-0.7215,0,0,0.25,-0,-0,0.66667
0.34379,0.25253,1.3752,-0.3712,-6.8196,32.511,1.3612,-0.45374,-1.5116,1.815,3.5927e-13,-0.75578,0,0,0.25,-0,-0,0.66667
0.76973,0.073439,3.0789,-0.63984,-5.4611,6.0427,5.2534,-1.7511,-0.54381,7.0045,-1.6937e-11,-0.2719,0,0,0.25,-0,-0,0.66667
0.80287,0.86783,3.2115,0.55175,4.0357,4.6499,-4.7251,1.575,-0.91715,-6.3002,1.1642e-10,-0.45858,0,0,0.25,1.0675e-15,0,0.66667
0.42456,0.58573,1.6982,0.12859,2.176,26.11,-0.58235,0.19412,-1.9412,-0.77647,7.1815e-13,-0.97058,0,0,0.25,-0,-0,0.66667
0.20412,0.39374,0.81649,-0.1594,-3.17,44.232,0.34705,-0.11568,-1.9097,0.46274,1.3503e-10,-0.95486,0,0,0.25,2.9606e-16,0,0.66667
0.067089,0.71998,0.26836,0.32998,6.8526,56.472,-0.23614,0.078713,-1.6135,-0.31485,5.0203e-09,-0.80676,0,0,0.25,-0,-0,0.66667
0.19865,0.22176,0.79459,-0.41736,-8.3843,44.763,0.88435,-0.29478,-1.381,1.1791,3.5633e-10,-0.6905,0,0,0.25,-0,-0,0.66667
0.2724,0.77203,1.0896,0.40805,7.8915,38.423,-1.1856,0.39521,-1.4073,-1.5808,-3.566e-11,-0.70365,0,0,0.25,-2.9606e-16,0,0.66667
0.59879,0.40738,2.3952,-0.13893,-1.8229,14.193,0.88735,-0.29578,-1.932,1.1831,8.239e-13,-0.966,0,0,0.25,-0,-0,0.66667
0.87308,0.074503,3.4923,-0.63825,-3.1342,2.6679,5.9439,-1.9813,-0.55145,7.9252,-1.4038e-09,-0.27572,0,0,0.25,-0,2.8015e-16,0.66667
0.12823,0.93562,0.51292,0.65343,13.619,51.044,-0.89376,0.29792,-0.48265,-1.1917,-3.0999e-09,-0.24133,0,0,0.25,-3.7007e-17,0,0.66667
0.95819,0.43692,3.8328,-0.09462,-0.11095,0.39927,0.96708,-0.32236,-1.9689,1.2894,-6.9326e-07,-0.98445,0,0,0.25,-1.7023e-15,0,0.66667
0.68317,0.010479,2.7327,-0.73428,-8.3359,10.111,5.3508,-1.7836,-0.082392,7.1344,5.5511e-14,-0.041196,0,0,0.25,-0,2.9723e-16,0.66667
0.74196,0.93562,2.9679,0.65344,6.174,7.2184,-5.1715,1.7238,-0.48217,-6.8953,2.6832e-12,-0.24109,0,0,0.25,-1.3323e-15,0,0.66667
0.98288,0.31946,3.9315,-0.27081,-0.058739,0.25002,2.8392,-0.94639,-1.7396,3.7856,-1.2008e-08,-0.86981,0,0,0.25,2.3685e-15,0,0.66667
0.4161,0.19303,1.6644,-0.46046,-7.955,26.896,2.0437,-0.68123,-1.2459,2.7249,-1.8012e-12,-0.62297,0,0,0.25,1.1842e-15,0,0.66667
0.53158,0.66128,2.1263,0.24192,3.5761,18.51,-1.3717,0.45724,-1.7929,-1.829,-8.793e-13,-0.89644,0,0,0.25,-0,-0,0.66667
0.67921,0.25117,2.7169,-0.37325,-4.1255,9.8282,2.7042,-0.90139,-1.5051,3.6056,-5.7023e-12,-0.75256,0,0,0.25,2.3685e-15,0,0.66667
0.51288,0.12661,2.0515,-0.56008,-8.661,20.007,3.064,-1.0213,-0.88557,4.0854,-1.6875e-14,-0.44278,0,0,0.25,-0,-0,0.66667
0.29911,0.79074,1.1964,0.43611,8.3029,36.199,-1.3914,0.4638,-1.3237,-1.8552,-1.1774e-11,-0.66185,0,0,0.25,-0,-0,0.66667
0.10538,0.15424,0.42154,-0.51865,-10.784,53.049,0.58301,-0.19434,-1.0442,0.77735,1.6317e-08,-0.52209,0,0,0.25,2.0354e-16,0,0.66667
0.28493,0.5065,1.1397,0.0097506,0.18543,37.285,-0.029635,0.0098782,-1.9996,-0.039513,-1.7356e-12,-0.9998,0,0,0.25,-1.1842e-15,0,0.66667
0.76885,0.78659,3.0754,0.42988,3.5813,5.7704,-3.5255,1.1752,-1.3431,-4.7007,1.2842e-10,-0.67156,0,0,0.25,-0,-0,0.66667
0.64078,0.23237,2.5631,-0.40144,-4.8806,11.912,2.7439,-0.91462,-1.4273,3.6585,1.35e-12,-0.71364,0,0,0.25,-1.1842e-15,0,0.66667
0.80133,0.75652,3.2053,0.38477,2.7722,4.4817,-3.2889,1.0963,-1.4734,-4.3852,3.0483e-10,-0.73671,0,0,0.25,-0,-0,0.66667
0.51712,0.86078,2.0685,0.54117,8.3064,19.7,-2.9851,0.99503,-0.95856,-3.9801,-4.321e-13,-0.47928,0,0,0.25,-5.9212e-16,0,0.66667
0.2321,0.45242,0.9284,-0.071375,-1.3994,41.792,0.17671,-0.058902,-1.9815,0.23561,3.933e-11,-0.99077,0,0,0.25,-0,-0,0.66667
0.62796,0.61361,2.5118,0.17041,2.1076,12.487,-1.1415,0.38049,-1.8964,-1.522,-6.8434e-13,-0.94818,0,0,0.25,-0,-0,0.66667
0.30401,0.75399,1.216,0.38098,7.2115,35.769,-1.2354,0.4118,-1.4839,-1.6472,-1.2518e-11,-0.74194,0,0,0.25,-0,-0,0.66667
0.029529,0.3851,0.11811,-0.17236,-3.5785,59.871,0.054287,-0.018096,-1.8944,0.072383,-1.9895e-08,-0.94719,0,0,0.25,-0,-0,0.66667
0.90333,0.76211,3.6133,0.39316,1.3769,1.5678,-3.7884,1.2628,-1.45,-5.0511,1.2917e-09,-0.72499,0,0,0.25,-0,-0,0.66667
0.42037,0.25116,1.6815,-0.37326,-6.3919,26.519,1.6737,-0.55789,-1.5059,2.2316,-2.2319e-12,-0.75297,0,0,0.25,-0,-0,0.66667
0.42613,0.98626,1.7045,0.72939,12.712,26.382,-3.3154,1.1051,-0.1077,-4.4205,1.3545e-14,-0.053852,0,0,0.25,-0,-0,0.66667
0.74125,0.92708,2.965,0.64063,6.0564,7.2274,-5.0652,1.6884,-0.54,-6.7536,5.7163e-12,-0.27,0,0,0.25,5.9212e-16,0,0.66667
0.94846,0.77605,3.7938,0.41408,0.71922,0.80398,-4.1892,1.3964,-1.3903,-5.5856,-1.4539e-08,-0.69516,0,0,0.25,-0,-0,0.66667
0.072516,0.58975,0.29006,0.13462,2.7809,55.97,-0.10413,0.034711,-1.9356,-0.13884,6.7258e-08,-0.9678,0,0,0.25,4.2938e-17,0,0.66667
0.1727,0.31226,0.6908,-0.2816,-5.6873,47.011,0.51876,-0.17292,-1.7197,0.69167,4.9941e-10,-0.85987,0,0,0.25,-3.2382e-17,0,0.66667
0.32236,0.69023,1.2894,0.28534,5.3123,34.22,-0.98114,0.32705,-1.7108,-1.3082,-6.7282e-12,-0.85538,0,0,0.25,-1.1842e-15,0,0.66667
0.24842,0.2848,0.9937,-0.3228,-6.308,40.431,0.85537,-0.28512,-1.6304,1.1405,8.6999e-11,-0.81518,0,0,0.25,-5.9212e-16,0,0.66667
0.49549,0.43646,1.982,-0.095311,-1.4794,20.934,0.50374,-0.16791,-1.9684,0.67166,-3.0664e-13,-0.98421,0,0,0.25,8.1416e-16,0,0.66667
0.82446,0.8192,3.2978,0.4788,3.1058,3.8064,-4.2106,1.4035,-1.1848,-5.6142,4.9592e-10,-0.59241,0,0,0.25,-0,-0,0.66667
0.85397,0.03393,3.4159,-0.6991,-3.9843,3.3006,6.3682,-2.1227,-0.26253,8.4909,-1.0359e-11,-0.13126,0,0,0.25,2.3685e-15,0,0.66667
0.59583,0.3374,2.3833,-0.2439,-3.2287,14.415,1.5501,-0.51669,-1.7888,2.0668,1.5964e-12,-0.8944,0,0,0.25,-0,-0,0.66667
0.24017,0.436,0.96069,-0.096,-1.8748,41.098,0.24594,-0.081979,-1.9677,0.32792,4.1162e-11,-0.98386,0,0,0.25,7.4015e-17,0,0.66667
0.18649,0.28082,0.74597,-0.32877,-6.615,45.805,0.65401,-0.218,-1.6173,0.87202,4.0191e-10,-0.80864,0,0,0.25,9.2519e-17,0,0.66667
0.74339,0.94737,2.9736,0.67106,6.3264,7.1877,-5.3212,1.7737,-0.39812,-7.0949,3.046e-12,-0.19906,0,0,0.25,-0,-0,0.66667
0.23721,0.38557,0.94886,-0.17164,-3.3608,41.361,0.43431,-0.14477,-1.895,0.57907,8.2442e-11,-0.94748,0,0,0.25,-5.9212e-16,0,0.66667
0.53949,0.81336,2.158,0.47003,6.9424,18.14,-2.7048,0.90161,-1.215,-3.6065,-1.1056e-12,-0.6075,0,0,0.25,2.3685e-15,0,0.66667
0.74928,0.94237,2.9971,0.66355,6.1243,6.923,-5.3033,1.7678,-0.43536,-7.0711,6.9811e-12,-0.21768,0,0,0.25,-0,-0,0.66667
0.22825,0.064902,0.913,-0.65265,-13.105,42.296,1.589,-0.52966,-0.4858,2.1186,3.4422e-12,-0.2429,0,0,0.25,-0,-0,0.66667
0.1745,0.1187,0.698,-0.57195,-11.69,46.929,1.0646,-0.35487,-0.83705,1.4195,2.2055e-10,-0.41853,0,0,0.25,-0,-0,0.66667
0.039736,0.94292,0.15894,0.66438,14.068,58.973,-0.2816,0.093865,-0.43032,-0.37546,1.8315e-07,-0.21516,0,0,0.25,-0,-0,0.66667
0.14757,0.19773,0.59028,-0.45341,-9.2943,49.272,0.7137,-0.2379,-1.2683,0.95159,1.6257e-09,-0.63413,0,0,0.25,-0,-0,0.66667
0.85144,0.42452,3.4058,-0.11322,-0.59978,2.6513,1.0282,-0.34274,-1.9535,1.371,5.5238e-10,-0.97674,0,0,0.25,-1.1842e-15,0,0.66667
0.10464,0.32075,0.41854,-0.26888,-5.5366,53.08,0.3001,-0.10003,-1.7425,0.40013,4.0507e-10,-0.87126,0,0,0.25,-2.9606e-16,0,0.66667
0.22365,0.90258,0.89458,0.60387,12.114,42.667,-1.4405,0.48018,-0.70363,-1.9207,-4.9372e-11,-0.35182,0,0,0.25,-0,-0,0.66667
0.032757,0.79283,0.13103,0.43924,9.1921,59.587,-0.15348,0.051159,-1.314,-0.20463,1.9654e-08,-0.65698,0,0,0.25,-0,-0,0.66667
0.67636,0.40079,2.7054,-0.14882,-1.639,9.8346,1.0736,-0.35787,-1.9212,1.4315,-5.4498e-12,-0.96061,0,0,0.25,-2.9606e-16,0,0.66667
0.2317,0.71796,0.92681,0.32695,6.4459,41.868,-0.80805,0.26935,-1.621,-1.0774,-1.3205e-10,-0.81052,0,0,0.25,-1.8504e-17,0,0.66667
0.41359,0.80115,1.6544,0.45172,7.8204,27.081,-1.9928,0.66428,-1.2736,-2.6571,1.4971e-12,-0.6368,0,0,0.25,-0,-0,0.66667
0.1393,0.71115,0.5572,0.31672,6.4739,49.981,-0.47061,0.15687,-1.6437,-0.62748,-4.275e-10,-0.82184,0,0,0.25,1.4803e-16,0,0.66667
0.37722,0.66142,1.5089,0.24214,4.304,29.795,-0.97428,0.32476,-1.792,-1.299,1.4205e-12,-0.89598,0,0,0.25,-0,-0,0.66667
0.42444,0.45268,1.6977,-0.070977,-1.2004,26.11,0.32134,-0.10711,-1.9817,0.42845,-4.5133e-13,-0.99084,0,0,0.25,-0,-0,0.66667
0.47296,0.58658,1.8919,0.12986,2.0772,22.539,-0.65516,0.21839,-1.9398,-0.87354,3.037e-13,-0.9699,0,0,0.25,-8.8818e-16,0,0.66667
0.42284,0.63929,1.6914,0.20893,3.5478,26.26,-0.94234,0.31411,-1.8448,-1.2565,1.4809e-12,-0.9224,0,0,0.25,-5.9212e-16,0,0.66667
0.10276,0.34249,0.41103,-0.23627,-4.863,53.246,0.25897,-0.086323,-1.802,0.34529,-7.9105e-09,-0.90099,0,0,0.25,1.8504e-17,0,0.66667
0.77258,0.81601,3.0903,0.47402,3.9105,5.6762,-3.9063,1.3021,-1.2011,-5.2084,1.0744e-10,-0.60056,0,0,0.25,-0,-0,0.66667
0.13721,0.82864,0.54882,0.49296,10.155,50.203,-0.72146,0.24049,-1.1354,-0.96195,-2.3106e-09,-0.56769,0,0,0.25,2.9606e-16,0,0.66667
0.42429,0.023122,1.6972,-0.71532,-12.475,26.504,3.2374,-1.0791,-0.18071,4.3165,-1.1346e-13,-0.090357,0,0,0.25,-5.9212e-16,0,0.66667
0.27196,0.75338,1.0878,0.38008,7.3438,38.45,-1.1026,0.36752,-1.4865,-1.4701,-4.0456e-11,-0.74323,0,0,0.25,-0,-0,0.66667
0.30101,0.57008,1.204,0.10512,1.9792,35.945,-0.33751,0.1125,-1.9605,-0.45001,-9.8577e-12,-0.98023,0,0,0.25,-0,-0,0.66667
0.67242,0.41213,2.6897,-0.1318,-1.4659,10.034,0.94534,-0.31511,-1.939,1.2605,-4.2966e-12,-0.96951,0,0,0.25,-0,-0,0.66667
0.51779,0.71978,2.0711,0.32968,4.9923,19.486,-1.8208,0.60694,-1.6147,-2.4278,-5.7709e-13,-0.80736,0,0,0.25,-0,-0,0.66667
0.19009,0.16025,0.76035,-0.50962,-10.319,45.541,1.0333,-0.34444,-1.0771,1.3777,2.8846e-10,-0.53855,0,0,0.25,-0,-0,0.66667
0.46913,0.18239,1.8765,-0.47641,-7.7609,22.991,2.384,-0.79468,-1.1939,3.1787,-6.9611e-13,-0.59697,0,0,0.25,5.9212e-16,0,0.66667
0.33954,0.93038,1.3582,0.64557,12.087,33.022,-2.3381,0.77936,-0.51798,-3.1175,5.9397e-13,-0.25899,0,0,0.25,-2.9606e-16,0,0.66667
0.7045,0.6643,2.818,0.24644,2.5198,8.4681,-1.8519,0.61731,-1.7843,-2.4692,2.0196e-11,-0.89217,0,0,0.25,-0,-0,0.66667
0.2261,0.091557,0.90438,-0.61266,-12.283,42.461,1.4776,-0.49252,-0.66566,1.9701,4.7103e-11,-0.33283,0,0,0.25,-7.4015e-17,0,0.66667
0.84499,0.34797,3.38,-0.22804,-1.2706,2.901,2.0554,-0.68513,-1.8159,2.7405,-8.8958e-10,-0.90796,0,0,0.25,-2.3685e-15,0,0.66667
0.52623,0.059024,2.1049,-0.66146,-10.118,19.223,3.7129,-1.2376,-0.44451,4.9505,-3.0864e-14,-0.22226,0,0,0.25,2.9606e-16,0,0.66667
0.50062,0.94457,2.0025,0.66685,10.579,20.964,-3.5609,1.187,-0.41951,-4.7479,-3.153e-14,-0.20975,0,0,0.25,-1.1842e-15,0,0.66667
0.25369,0.24199,1.0147,-0.38701,-7.5592,40.002,1.0472,-0.34908,-1.4672,1.3963,6.9684e-11,-0.73361,0,0,0.25,-0,-0,0.66667
0.18616,0.96162,0.74462,0.69243,14.2,45.958,-1.3749,0.45831,-0.29564,-1.8332,2.1204e-11,-0.14782,0,0,0.25,-1.4803e-16,0,0.66667
0.47182,0.81109,1.8873,0.46664,7.572,22.79,-2.3485,0.78282,-1.2267,-3.1313,3.233e-13,-0.61333,0,0,0.25,-7.4015e-16,0,0.66667
0.98182,0.50909,3.9273,0.01364,0.0025228,0.13134,-0.14285,0.047619,-1.9992,-0.19046,4.4473e-06,-0.99961,0,0,0.25,-4.737e-15,0,0.66667
0.13291,0.039477,0.53162,-0.69078,-14.415,50.641,0.9793,-0.32643,-0.30273,1.3057,1.0811e-09,-0.15136,0,0,0.25,-2.9606e-16,0,0.66667
0.28346,0.057857,1.1338,-0.66321,-12.927,37.63,2.0053,-0.66843,-0.43659,2.6737,8.0802e-13,-0.21829,0,0,0.25,1.4803e-16,0,0.66667
0.80064,0.10194,3.2026,-0.59708,-4.445,4.8032,5.0992,-1.6997,-0.73214,6.7989,-1.7868e-10,-0.36607,0,0,0.25,2.3685e-15,0,0.66667
0.66478,0.52854,2.6591,0.042809,0.48478,10.42,-0.30356,0.10119,-1.9937,-0.40475,9.7308e-13,-0.99683,0,0,0.25,-0,-0,0.66667
0.27876,0.71308,1.115,0.31962,6.1362,37.855,-0.95038,0.31679,-1.6371,-1.2672,-3.5578e-11,-0.81853,0,0,0.25,1.4803e-16,0,0.66667
0.31465,0.99113,1.2586,0.73669,14.145,35.112,-2.4725,0.82417,-0.07035,-3.2967,1.0991e-13,-0.035175,0,0,0.25,-0,-0,0.66667
0.41995,0.23498,1.6798,-0.39753,-6.8184,26.565,1.7807,-0.59358,-1.4378,2.3743,-1.7892e-12,-0.71892,0,0,0.25,-0,-0,0.66667
0.60279,0.77115,2.4111,0.40672,5.3565,14.109,-2.6151,0.8717,-1.4111,-3.4868,-1.9793e-12,-0.70554,0,0,0.25,-0,-0,0.66667
0.71934,0.47355,2.8774,-0.039673,-0.38533,7.6853,0.30441,-0.10147,-1.9953,0.40587,-7.8654e-12,-0.99767,0,0,0.25,-0,-0,0.66667
0.8573,0.41572,3.4292,-0.12642,-0.64313,2.488,1.156,-0.38534,-1.9431,1.5414,7.6317e-10,-0.97157,0,0,0.25,-0,-0,0.66667
0.68111,0.25069,2.7244,-0.37396,-4.1129,9.7315,2.7169,-0.90563,-1.5034,3.6225,-6.1584e-12,-0.75169,0,0,0.25,-0,-0,0.66667
0.23698,0.83918,0.94793,0.50878,10.084,41.478,-1.2861,0.4287,-1.0801,-1.7148,-7.3956e-11,-0.54003,0,0,0.25,2.9606e-16,0,0.66667
0.92572,0.51923,3.7029,0.028851,0.071239,0.88144,-0.28489,0.094963,-1.9965,-0.37985,5.4785e-08,-0.99823,0,0,0.25,-0,-0,0.66667
0.7812,0.11394,3.1248,-0.57909,-4.6783,5.493,4.8254,-1.6085,-0.80808,6.4339,-8.9253e-11,-0.40404,0,0,0.25,-0,-2.7079e-16,0.66667
0.30738,0.49613,1.2295,-0.0057996,-0.10865,35.41,0.019015,-0.0063384,-2,0.025354,-3.6592e-13,-1,0,0,0.25,1.1272e-15,0,0.66667
0.30497,0.48863,1.2199,-0.01706,-0.32015,35.611,0.055496,-0.018499,-1.9981,0.073994,1.2728e-12,-0.99904,0,0,0.25,-2.9606e-16,0,0.66667
0.88117,0.86905,3.5247,0.55357,2.4929,2.3107,-5.2031,1.7344,-0.91014,-6.9375,1.1633e-08,-0.45507,0,0,0.25,-0,-0,0.66667
0.12608,0.013482,0.50431,-0.72978,-15.298,51.259,0.98143,-0.32714,-0.1064,1.3086,3.4467e-09,-0.053199,0,0,0.25,-0,-0,0.66667
0.63346,0.53289,2.5338,0.049335,0.60149,12.144,-0.33335,0.11112,-1.9917,-0.44447,-4.0284e-13,-0.99586,0,0,0.25,2.3685e-15,0,0.66667
0.27771,0.88961,1.1109,0.58441,11.372,38.062,-1.7312,0.57706,-0.78503,-2.3083,-7.4768e-12,-0.39251,0,0,0.25,5.9212e-16,0,0.66667
0.8272,0.52638,3.3088,0.039564,0.24348,3.3828,-0.34909,0.11636,-1.9953,-0.46545,-2.6051e-10,-0.99763,0,0,0.25,-1.1842e-15,0,0.66667
0.36452,0.116,1.4581,-0.576,-10.517,30.977,2.2396,-0.74654,-0.81981,2.9862,-1.6349e-12,-0.4099,0,0,0.25,2.9606e-16,0,0.66667
0.73337,0.36189,2.9335,-0.20717,-1.931,7.0943,1.6206,-0.5402,-1.8474,2.1608,-4.5271e-11,-0.92371,0,0,0.25,1.1842e-15,0,0.66667
0.19242,0.32021,0.76967,-0.26968,-5.4032,45.273,0.5535,-0.1845,-1.741,0.738,2.6791e-10,-0.87052,0,0,0.25,-0,-0,0.66667
0.48145,0.39505,1.9258,-0.15742,-2.4921,21.939,0.80841,-0.26947,-1.9115,1.0779,-3.843e-13,-0.95577,0,0,0.25,5.9212e-16,0,0.66667
0.80359,0.072667,3.2144,-0.641,-4.7433,4.7762,5.4944,-1.8315,-0.53832,7.3259,-4.6809e-11,-0.26916,0,0,0.25,-0,-0,0.66667
0.39699,0.93731,1.588,0.65596,11.698,28.513,-2.7777,0.9259,-0.4708,-3.7036,7.6095e-13,-0.2354,0,0,0.25,-6.6669e-17,0,0.66667
0.16157,0.78485,0.6463,0.42728,8.709,48.025,-0.7364,0.24547,-1.351,-0.98187,-8.2393e-10,-0.6755,0,0,0.25,-0,-0,0.66667
0.64898,0.91393,2.5959,0.6209,7.553,11.718,-4.2982,1.4327,-0.62872,-5.7309,-1.1511e-12,-0.31436,0,0,0.25,1.1842e-15,0,0.66667
0.75333,0.81254,3.0133,0.46881,4.1589,6.4576,-3.7671,1.2557,-1.2197,-5.0228,7.1869e-11,-0.60985,0,0,0.25,2.3685e-15,0,0.66667
0.28019,0.73733,1.1208,0.35599,6.8374,37.747,-1.064,0.35465,-1.5494,-1.4186,-3.2142e-11,-0.77472,0,0,0.25,-3.3181e-16,0,0.66667
0.45136,0.10988,1.8054,-0.58519,-9.8071,24.372,2.8174,-0.93913,-0.7822,3.7565,-3.9013e-13,-0.3911,0,0,0.25,-5.9212e-16,-3.7459e-16,0.66667
0.90045,0.57259,3.6018,0.10888,0.37727,1.4007,-1.0458,0.34859,-1.9571,-1.3944,1.1438e-08,-0.97857,0,0,0.25,-0,-0,0.66667
0.87199,0.004456,3.4879,-0.74332,-3.7924,2.9207,6.9137,-2.3046,-0.03585,9.2183,9.8543e-11,-0.017925,0,0,0.25,-0,-0,0.66667
0.70719,0.87298,2.8288,0.55947,5.8215,8.6551,-4.2202,1.4067,-0.88769,-5.627,4.6358e-12,-0.44385,0,0,0.25,-1.6283e-15,0,0.66667
0.5909,0.40418,2.3636,-0.14373,-1.9149,14.674,0.90594,-0.30198,-1.9274,1.2079,1.0247e-12,-0.96368,0,0,0.25,-1.6283e-15,0,0.66667
0.81738,0.75078,3.2695,0.37617,2.4991,3.913,-3.2797,1.0932,-1.4976,-4.373,4.8155e-10,-0.7488,0,0,0.25,-0,-0,0.66667
0.90764,0.010909,3.6306,-0.73364,-2.7389,2.0973,7.1027,-2.3676,-0.086354,9.4703,-5.9884e-08,-0.043177,0,0,0.25,-0,-0,0.66667
0.0025076,0.92261,0.01003,0.63392,13.418,62.329,-0.016954,0.0056503,-0.5708,-0.022606,-1.6325e-06,-0.2854,0,0,0.25,-4.6259e-18,0,0.66667
0.39723,0.48711,1.5889,-0.019334,-0.3361,28.191,0.08192,-0.027307,-1.9978,0.10923,-6.7508e-14,-0.99888,0,0,0.25,-0,-0,0.66667
0.56141,0.24989,2.2456,-0.37516,-5.3168,16.641,2.2466,-0.74887,-1.5012,2.9955,1.3674e-12,-0.75061,0,0,0.25,-1.3415e-16,0,0.66667
0.73392,0.44019,2.9357,-0.089712,-0.83139,7.0238,0.70231,-0.2341,-1.9727,0.93641,-2.4751e-11,-0.98635,0,0,0.25,-0,-0,0.66667
0.087473,0.34063,0.34989,-0.23905,-4.9355,54.623,0.22305,-0.074349,-1.797,0.2974,1.1389e-08,-0.89848,0,0,0.25,-3.7007e-17,0,0.66667
0.39975,0.93919,1.599,0.65879,11.72,28.303,-2.8091,0.93637,-0.45728,-3.7455,5.691e-13,-0.22864,0,0,0.25,-0,-0,0.66667
0.27962,0.30149,1.1185,-0.29777,-5.7094,37.776,0.88813,-0.29604,-1.6847,1.1842,3.4506e-11,-0.84235,0,0,0.25,-2.9606e-16,0,0.66667
0.42351,0.045443,1.694,-0.68183,-11.868,26.527,3.0801,-1.0267,-0.34685,4.1069,-1.2301e-13,-0.17343,0,0,0.25,-0,-0,0.66667
0.49798,0.49162,1.9919,-0.012567,-0.19427,20.752,0.066751,-0.02225,-1.9995,0.089001,7.7147e-14,-0.99976,0,0,0.25,-1.7764e-15,0,0.66667
0.66002,0.99133,2.6401,0.73699,8.8587,11.31,-5.1886,1.7295,-0.06845,-6.9181,1.9096e-14,-0.034225,0,0,0.25,-5.9212e-16,0,0.66667
0.49624,0.47526,1.9849,-0.037117,-0.57525,20.875,0.19647,-0.065489,-1.995,0.26196,-2.422e-13,-0.99751,0,0,0.25,1.1842e-15,0,0.66667
0.62047,0.63776,2.4819,0.20664,2.5998,12.935,-1.3676,0.45587,-1.8475,-1.8235,-1.0469e-12,-0.92373,0,0,0.25,-1.1842e-15,0,0.66667
0.58244,0.67442,2.3298,0.26162,3.5539,15.245,-1.6254,0.54179,-1.7559,-2.1672,-1.7286e-12,-0.87797,0,0,0.25,-0,-0,0.66667
0.42833,0.77768,1.7133,0.41652,7.0875,25.945,-1.903,0.63435,-1.3832,-2.5374,1.351e-12,-0.6916,0,0,0.25,7.4015e-16,0,0.66667
0.0049764,0.32716,0.019905,-0.25926,-5.3976,62.103,0.013762,-0.0045873,-1.7602,0.018349,-1.9902e-09,-0.88009,0,0,0.25,-9.2519e-18,0,0.66667
0.19452,0.8919,0.77807,0.58785,11.934,45.183,-1.2197,0.40657,-0.77032,-1.6263,-1.7524e-10,-0.38516,0,0,0.25,-0,-0,0.66667
0.32021,0.038666,1.2808,-0.692,-13.189,34.623,2.3636,-0.78785,-0.29683,3.1514,-1.41e-13,-0.14842,0,0,0.25,-0,-0,0.66667
0.14698,0.086344,0.58791,-0.62048,-12.837,49.371,0.97277,-0.32426,-0.63062,1.297,9.3447e-11,-0.31531,0,0,0.25,-0,-0,0.66667
0.59866,0.59796,2.3947,0.14693,1.9287,14.203,-0.93829,0.31276,-1.9233,-1.251,-1.4064e-12,-0.96166,0,0,0.25,2.3685e-15,0,0.66667
0.6115,0.027467,2.446,-0.7088,-9.4226,13.959,4.6233,-1.5411,-0.21437,6.1643,1.9007e-13,-0.10719,0,0,0.25,5.9212e-16,0,0.66667
0.50009,0.58909,2.0004,0.13363,2.0624,20.62,-0.71285,0.23762,-1.9376,-0.95046,-2.186e-13,-0.96881,0,0,0.25,2.9606e-16,0,0.66667
0.32085,0.72846,1.2834,0.3427,6.4001,34.365,-1.1728,0.39095,-1.5817,-1.5638,-6.428e-12,-0.79084,0,0,0.25,-0,-0,0.66667
0.65326,0.81442,2.613,0.47163,5.6014,11.297,-3.2863,1.0954,-1.2099,-4.3818,-9.0128e-13,-0.60497,0,0,0.25,-0,-0,0.66667
0.19028,0.88368,0.76113,0.57551,11.695,45.548,-1.1681,0.38937,-0.82222,-1.5575,-2.6033e-10,-0.41111,0,0,0.25,5.9212e-16,0,0.66667
0.005881,0.86649,0.023524,0.54974,11.579,62.024,-0.034485,0.011495,-0.9249,-0.04598,1.2583e-08,-0.46245,0,0,0.25,-4.6259e-18,-3.1359e-16,0.66667
0.73494,0.94806,2.9398,0.67209,6.5163,7.5576,-5.2688,1.7563,-0.39421,-7.0251,1.6329e-12,-0.19711,0,0,0.25,1.1842e-15,0,0.66667
0.4435,0.12524,1.774,-0.56214,-9.4898,24.927,2.6593,-0.88644,-0.87716,3.5458,-7.7427e-13,-0.43858,0,0,0.25,-0,-0,0.66667
0.69784,0.71755,2.7914,0.32633,3.4171,8.8506,-2.4291,0.80969,-1.622,-3.2388,1.5461e-11,-0.81098,0,0,0.25,-1.4063e-15,0,0.66667
0.18504,0.80562,0.74017,0.45842,9.2773,45.966,-0.90483,0.30161,-1.2529,-1.2064,-5.4668e-10,-0.62647,0,0,0.25,-1.4803e-16,0,0.66667
0.06262,0.48742,0.25048,-0.018872,-0.39003,56.864,0.012606,-0.0042022,-1.9991,0.016808,-2.8278e-07,-0.99953,0,0,0.25,7.4015e-17,0,0.66667
0.37811,0.25503,1.5124,-0.36746,-6.5555,29.776,1.482,-0.49401,-1.5202,1.976,-2.4385e-12,-0.76008,0,0,0.25,1.1842e-15,0,0.66667
0.696,0.35236,2.784,-0.22147,-2.318,8.8706,1.6442,-0.54805,-1.825,2.1922,-1.4576e-11,-0.91248,0,0,0.25,-0,-0,0.66667
0.10282,0.38054,0.41127,-0.17919,-3.6838,53.236,0.19652,-0.065508,-1.8856,0.26203,6.6166e-09,-0.94279,0,0,0.25,-0,-0,0.66667
0.19583,0.081027,0.78334,-0.62846,-12.784,45.086,1.3128,-0.4376,-0.59476,1.7504,1.1777e-10,-0.29738,0,0,0.25,-2.9606e-16,0,0.66667
0.45395,0.55058,1.8158,0.07587,1.2412,23.911,-0.36738,0.12246,-1.9797,-0.48984,4.052e-13,-0.98983,0,0,0.25,5.9212e-16,0,0.66667
0.62115,0.86793,2.4846,0.5519,7.0836,13.184,-3.6567,1.2189,-0.91684,-4.8756,-1.5756e-12,-0.45842,0,0,0.25,-5.9212e-16,0,0.66667
0.75012,0.59935,3.0005,0.14902,1.3068,6.3298,-1.1924,0.39746,-1.922,-1.5899,5.7057e-11,-0.961,0,0,0.25,-2.3685e-15,0,0.66667
0.10974,0.20433,0.43894,-0.44351,-9.1793,52.646,0.51913,-0.17304,-1.3008,0.69217,2.5397e-09,-0.65041,0,0,0.25,1.4803e-16,0,0.66667
0.62462,0.058156,2.4985,-0.66277,-8.5379,13.134,4.4158,-1.4719,-0.43926,5.8877,6.4571e-13,-0.21963,0,0,0.25,-2.9606e-16,1.4173e-16,0.66667
0.38736,0.64797,1.5494,0.22195,3.9064,28.993,-0.91707,0.30569,-1.8247,-1.2228,1.293e-12,-0.91233,0,0,0.25,5.9212e-16,0,0.66667
0.67009,0.59954,2.6804,0.1493,1.6713,10.162,-1.0672,0.35572,-1.9212,-1.4229,4.0767e-12,-0.9606,0,0,0.25,-0,-0,0.66667
0.20356,0.092263,0.81424,-0.61161,-12.387,44.407,1.328,-0.44266,-0.67156,1.7706,1.461e-10,-0.33578,0,0,0.25,-7.4015e-17,0,0.66667
0.52792,0.88719,2.1117,0.58078,8.8013,19.017,-3.2705,1.0902,-0.8002,-4.3606,-4.0168e-13,-0.4001,0,0,0.25,-0,-0,0.66667
0.17216,0.54261,0.68865,0.063922,1.2862,47.035,-0.11739,0.039129,-1.9858,-0.15652,3.4019e-11,-0.9929,0,0,0.25,-2.9606e-16,0,0.66667
0.018681,0.21477,0.074724,-0.42784,-8.9558,60.862,0.085254,-0.028418,-1.3496,0.11367,4.3132e-09,-0.67479,0,0,0.25,1.8504e-17,0,0.66667
0.48695,0.3608,1.9478,-0.2088,-3.2859,21.565,1.0846,-0.36152,-1.8446,1.4461,-3.1919e-13,-0.92229,0,0,0.25,5.9212e-16,0,0.66667
0.18418,0.015697,0.73671,-0.72646,-14.946,46.146,1.4272,-0.47572,-0.12303,1.9029,2.8289e-10,-0.061514,0,0,0.25,5.9212e-16,-2.9605e-16,0.66667
0.63834,0.33396,2.5534,-0.24906,-3.019,11.935,1.6959,-0.56528,-1.7793,2.2611,1.8807e-13,-0.88967,0,0,0.25,-0,-0,0.66667
0.53657,0.61863,2.1463,0.17794,2.6052,18.152,-1.0184,0.33948,-1.8871,-1.3579,-8.6198e-13,-0.94357,0,0,0.25,-0,-0,0.66667
0.77495,0.14834,3.0998,-0.52749,-4.3397,5.6565,4.3603,-1.4534,-1.0101,5.8137,-9.7754e-11,-0.50507,0,0,0.25,-5.9212e-16,0,0.66667
0.39296,0.65092,1.5718,0.22637,3.9636,28.558,-0.94886,0.31629,-1.8182,-1.2651,1.5198e-12,-0.90909,0,0,0.25,5.9212e-16,0,0.66667
0.98945,0.018834,3.9578,-0.72175,-0.29198,0.98554,7.6175,-2.5392,-0.14707,10.157,-5.474e-08,-0.073534,0,0,0.25,-0,-0,0.66667
0.51521,0.15826,2.0609,-0.5126,-7.8734,19.802,2.8171,-0.93902,-1.0672,3.7561,-6.1506e-14,-0.5336,0,0,0.25,-0,-2.5912e-16,0.66667
0.47882,0.23182,1.9153,-0.40227,-6.4471,22.243,2.0546,-0.68486,-1.4238,2.7394,-5.2025e-13,-0.71189,0,0,0.25,-0,-0,0.66667
0.74944,0.96057,2.9978,0.69086,6.3993,6.9655,-5.5228,1.8409,-0.30348,-7.3637,-1.7319e-14,-0.15174,0,0,0.25,-5.9212e-16,0,0.66667
0.57269,0.078966,2.2908,-0.63155,-8.9471,16.19,3.8579,-1.286,-0.58097,5.1439,2.2293e-13,-0.29048,0,0,0.25,1.1842e-15,0,0.66667
0.36247,0.14557,1.4499,-0.53165,-9.6974,31.108,2.0555,-0.68517,-0.99466,2.7407,-1.7726e-12,-0.49733,0,0,0.25,-0,-0,0.66667
0.48924,0.76299,1.957,0.39448,6.2348,21.501,-2.0586,0.68621,-1.4459,-2.7449,4.0412e-14,-0.72297,0,0,0.25,1.1842e-15,0,0.66667
0.18914,0.049393,0.75655,-0.67591,-13.83,45.69,1.3636,-0.45454,-0.37548,1.8182,7.0076e-11,-0.18774,0,0,0.25,-0,-0,0.66667
0.39358,0.03785,1.5743,-0.69323,-12.439,28.81,2.9103,-0.9701,-0.29141,3.8804,-3.606e-13,-0.1457,0,0,0.25,-0,-0,0.66667
0.029962,0.78925,0.11985,0.43387,9.0792,59.84,-0.13866,0.046221,-1.331,-0.18488,1.4796e-08,-0.6655,0,0,0.25,-0,-0,0.66667
0.46253,0.54319,1.8501,0.064779,1.0488,23.283,-0.3196,0.10653,-1.9842,-0.42613,4.4467e-13,-0.99211,0,0,0.25,-0,-0,0.66667
0.27447,0.1732,1.0979,-0.49019,-9.5059,38.284,1.4352,-0.47838,-1.1447,1.9135,2.1687e-11,-0.57233,0,0,0.25,5.9212e-16,0,0.66667
0.52672,0.24332,2.1069,-0.38502,-5.7696,18.92,2.1632,-0.72106,-1.4727,2.8842,4.1367e-13,-0.73635,0,0,0.25,-0,-0,0.66667
0.029272,0.34476,0.11709,-0.23287,-4.8408,59.895,0.072709,-0.024236,-1.8084,0.096945,3.6403e-08,-0.90421,0,0,0.25,-7.4015e-17,0,0.66667
0.55509,0.75952,2.2203,0.38928,5.5799,17.057,-2.3049,0.7683,-1.4605,-3.0732,-1.3451e-12,-0.73023,0,0,0.25,-0,-0,0.66667
0.293,0.15396,1.172,-0.51905,-9.9648,36.749,1.6222,-0.54073,-1.0426,2.1629,7.913e-12,-0.52132,0,0,0.25,-7.4015e-17,0,0.66667
0.57749,0.82766,2.31,0.49149,6.8248,15.73,-3.0276,1.0092,-1.1412,-4.0367,-1.4242e-12,-0.5706,0,0,0.25,1.1842e-15,0,0.66667
0.73277,0.38579,2.9311,-0.17131,-1.5976,7.1035,1.339,-0.44633,-1.8956,1.7853,-3.9673e-11,-0.94782,0,0,0.25,-0,-0,0.66667
0.44034,0.74866,1.7614,0.37299,6.2505,25.022,-1.7519,0.58397,-1.5063,-2.3359,1.1349e-12,-0.75315,0,0,0.25,7.4015e-16,0,0.66667
0.66316,0.62919,2.6526,0.19379,2.2106,10.548,-1.3708,0.45694,-1.8664,-1.8278,2.9755e-12,-0.9332,0,0,0.25,-0,-0,0.66667
0.23891,0.21644,0.95564,-0.42534,-8.3878,41.279,1.0839,-0.36131,-1.3572,1.4452,9.8451e-11,-0.6786,0,0,0.25,-3.7007e-16,0,0.66667
0.9986,0.98727,3.9944,0.7309,0.022217,0.95649,-7.7853,2.5951,-0.10049,-10.38,4.3343e-05,-0.050246,0,0,0.25,-0,-0,0.66667
0.24288,0.21943,0.97151,-0.42085,-8.2804,40.938,1.0903,-0.36344,-1.3708,1.4537,8.4784e-11,-0.68541,0,0,0.25,-5.9212e-16,0,0.66667
0.94083,0.90488,3.7633,0.60732,1.3659,1.2451,-6.0947,2.0316,-0.68943,-8.1263,-2.9566e-07,-0.34472,0,0,0.25,1.4803e-16,0,0.66667
0.21722,0.6298,0.86888,0.1947,3.8516,43.095,-0.45112,0.15037,-1.8659,-0.60149,-1.0782e-10,-0.93294,0,0,0.25,-0,-0,0.66667
0.49756,0.75145,1.9903,0.37717,5.89,20.907,-2.0018,0.66727,-1.4952,-2.6691,-2.9576e-13,-0.7476,0,0,0.25,1.1842e-15,0,0.66667
0.82118,0.56522,3.2847,0.097829,0.62358,3.5934,-0.85691,0.28564,-1.9661,-1.1425,-1.1225e-10,-0.98307,0,0,0.25,-0,-0,0.66667
0.71659,0.62571,2.8664,0.18856,1.854,7.858,-1.4413,0.48042,-1.8748,-1.9217,2.6561e-11,-0.93741,0,0,0.25,-2.3685e-15,0,0.66667
0.70558,0.075836,2.8223,-0.63625,-6.7119,8.8472,4.7885,-1.5962,-0.56032,6.3847,-1.0028e-12,-0.28016,0,0,0.25,1.1842e-15,0,0.66667
0.44044,0.58317,1.7618,0.12475,2.0743,24.918,-0.58608,0.19536,-1.9443,-0.78144,8.6292e-13,-0.97217,0,0,0.25,-5.9212e-16,0,0.66667
0.75418,0.18171,3.0167,-0.47743,-4.2264,6.4327,3.8407,-1.2802,-1.1895,5.1209,-6.8579e-11,-0.59475,0,0,0.25,5.9212e-16,0,0.66667
0.91995,0.63514,3.6798,0.20271,0.55498,1.053,-1.9891,0.66304,-1.8539,-2.6522,-1.1365e-09,-0.92693,0,0,0.25,-0,-0,0.66667
0.44135,0.94394,1.7654,0.66591,11.357,25.186,-3.1349,1.045,-0.42325,-4.1799,2.9443e-13,-0.21162,0,0,0.25,-1.1842e-15,0,0.66667
0.52797,0.39689,2.1119,-0.15466,-2.2933,18.719,0.871,-0.29033,-1.9147,1.1613,2.5896e-13,-0.95733,0,0,0.25,-0,-0,0.66667
0.066036,0.1883,0.26414,-0.46756,-9.7643,56.58,0.32934,-0.10978,-1.2236,0.43912,-8.9675e-09,-0.61182,0,0,0.25,-2.9606e-16,0,0.66667
0.39077,0.48207,1.5631,-0.026899,-0.47055,28.693,0.11212,-0.037374,-1.9977,0.14949,-1.0583e-13,-0.99886,0,0,0.25,-5.9212e-16,0,0.66667
0.46724,0.66215,1.869,0.24322,3.929,22.987,-1.2122,0.40406,-1.7902,-1.6162,7.9736e-13,-0.89509,0,0,0.25,-0,-0,0.66667
0.89514,0.65452,3.5806,0.23177,0.86033,1.5852,-2.213,0.73767,-1.8096,-2.9507,-7.4584e-09,-0.90479,0,0,0.25,-1.3323e-15,0,0.66667
0.11056,0.3013,0.44223,-0.29806,-6.1344,52.551,0.35149,-0.11716,-1.6842,0.46866,-6.0509e-11,-0.8421,0,0,0.25,-1.4803e-16,0,0.66667
0.73114,0.51735,2.9246,0.026019,0.24319,7.1401,-0.20291,0.067638,-1.9971,-0.27055,6.4314e-12,-0.99853,0,0,0.25,-0,-0,0.66667
0.54547,0.94781,2.1819,0.67172,9.9887,17.972,-3.9083,1.3028,-0.39579,-5.2111,-3.4861e-14,-0.1979,0,0,0.25,-0,-0,0.66667
0.60654,0.59221,2.4261,0.13832,1.7873,13.728,-0.89489,0.2983,-1.9329,-1.1932,-1.0015e-12,-0.96644,0,0,0.25,5.181e-16,0,0.66667
0.029783,0.4091,0.11913,-0.13635,-2.8293,59.847,0.043316,-0.014438,-1.9349,0.057754,3.2112e-07,-0.96745,0,0,0.25,-7.4015e-17,0,0.66667
0.14675,0.22104,0.58699,-0.41844,-8.5665,49.337,0.65499,-0.21833,-1.3777,0.87333,7.4655e-10,-0.68887,0,0,0.25,5.9212e-16,0,0.66667
0.28398,0.21564,1.1359,-0.42655,-8.1974,37.456,1.2921,-0.43069,-1.3537,1.7228,2.2177e-11,-0.67687,0,0,0.25,-4.4409e-16,0,0.66667
0.004872,0.14516,0.019488,-0.53225,-11.2,62.115,0.02766,-0.0092201,-0.99206,0.03688,1.0378e-08,-0.49603,0,0,0.25,-0,5.4215e-16,0.66667
0.66916,0.64221,2.6766,0.21332,2.3987,10.239,-1.5226,0.50753,-1.8378,-2.0301,4.4639e-12,-0.91889,0,0,0.25,3.918e-16,0,0.66667
0.87026,0.40426,3.481,-0.14361,-0.6627,2.1414,1.3331,-0.44436,-1.9272,1.7774,1.1222e-09,-0.96359,0,0,0.25,-1.6283e-15,0,0.66667
0.54697,0.56226,2.1879,0.093392,1.3427,17.445,-0.54488,0.18163,-1.9709,-0.7265,-6.1723e-13,-0.98546,0,0,0.25,-4.0708e-16,0,0.66667
0.54316,0.57776,2.1727,0.11664,1.6879,17.699,-0.6758,0.22527,-1.951,-0.90107,-5.1492e-13,-0.97549,0,0,0.25,-0,-0,0.66667
0.61573,0.47887,2.4629,-0.031693,-0.40134,13.165,0.20815,-0.069385,-1.9957,0.27754,-4.069e-14,-0.99784,0,0,0.25,-0,-0,0.66667
0.30218,0.58409,1.2087,0.12614,2.3738,35.85,-0.40658,0.13553,-1.9428,-0.54211,-1.0713e-11,-0.9714,0,0,0.25,-0,-0,0.66667
0.36673,0.30941,1.4669,-0.28588,-5.1361,30.639,1.1183,-0.37277,-1.7095,1.4911,-8.8218e-13,-0.85475,0,0,0.25,-4.8354e-16,0,0.66667
0.57494,0.057366,2.2998,-0.66395,-9.3984,16.092,4.0718,-1.3573,-0.43282,5.4291,9.3259e-15,-0.21641,0,0,0.25,5.9212e-16,0,0.66667
0.80922,0.8387,3.2369,0.50805,3.5807,4.3609,-4.3853,1.4618,-1.0825,-5.8471,3.1e-10,-0.54123,0,0,0.25,-1.1842e-15,0,0.66667
0.2016,0.013761,0.80639,-0.72936,-14.904,44.634,1.5684,-0.5228,-0.10844,2.0912,-9.6936e-11,-0.054218,0,0,0.25,-5.9212e-16,2.9185e-16,0.66667
0.32752,0.86471,1.3101,0.54707,10.269,33.924,-1.9112,0.63707,-0.93619,-2.5483,1.6442e-13,-0.4681,0,0,0.25,-0,2.9363e-16,0.66667
0.74292,0.040584,2.9717,-0.68912,-6.5246,7.2403,5.461,-1.8203,-0.31078,7.2813,-3.2565e-12,-0.15539,0,0,0.25,-0,-0,0.66667
0.34092,0.65421,1.3637,0.23131,4.2391,32.691,-0.84117,0.28039,-1.8106,-1.1216,-2.1091e-12,-0.90529,0,0,0.25,-1.4803e-16,0,0.66667
0.047611,0.94025,0.19044,0.66037,13.969,58.263,-0.33537,0.11179,-0.45067,-0.44716,4.3436e-07,-0.22533,0,0,0.25,-0,-0,0.66667
0.15636,0.26646,0.62543,-0.35032,-7.131,48.47,0.58426,-0.19475,-1.5639,0.77902,6.4419e-10,-0.78196,0,0,0.25,-2.9606e-16,0,0.66667
0.19386,0.58058,0.77546,0.12086,2.4128,45.126,-0.24993,0.083311,-1.9471,-0.33324,-1.2362e-10,-0.97357,0,0,0.25,-2.9606e-16,0,0.66667
0.49511,0.78932,1.9804,0.43398,6.8204,21.118,-2.292,0.76398,-1.3299,-3.0559,2.8866e-14,-0.66496,0,0,0.25,-0,-0,0.66667
0.63512,0.63286,2.5405,0.19929,2.4284,12.091,-1.3501,0.45003,-1.8583,-1.8001,-3.4328e-13,-0.92916,0,0,0.25,-1.1842e-15,0,0.66667
0.88022,0.0020914,3.5209,-0.74686,-3.5847,2.727,7.0123,-2.3374,-0.017118,9.3497,-2.8947e-08,-0.008559,0,0,0.25,-0,-0,0.66667
0.90254,0.40366,3.6101,-0.14451,-0.49048,1.3701,1.3912,-0.46373,-1.9263,1.8549,1.708e-09,-0.96315,0,0,0.25,-2.9606e-16,0,0.66667
0.30716,0.062185,1.2286,-0.65672,-12.599,35.664,2.1517,-0.71722,-0.46731,2.8689,-9.5257e-14,-0.23366,0,0,0.25,5.5511e-17,0,0.66667
0.75338,0.33584,3.0135,-0.24625,-2.1434,6.2421,1.9788,-0.65961,-1.7842,2.6385,-8.655e-11,-0.89212,0,0,0.25,-5.9212e-16,0,0.66667
0.28243,0.7144,1.1297,0.3216,6.1603,37.547,-0.96883,0.32294,-1.6331,-1.2918,-3.1998e-11,-0.81655,0,0,0.25,-0,-0,0.66667
0.36858,0.63641,1.4743,0.20461,3.6616,30.467,-0.80442,0.26814,-1.8503,-1.0726,4.2327e-13,-0.92515,0,0,0.25,-5.9212e-16,0,0.66667
0.29273,0.73827,1.1709,0.3574,6.8101,36.697,-1.116,0.37199,-1.5452,-1.488,-2.0408e-11,-0.77261,0,0,0.25,-0,-0,0.66667
0.41369,0.29463,1.6548,-0.30806,-5.2978,26.993,1.3594,-0.45312,-1.6616,1.8125,-2.0491e-12,-0.83081,0,0,0.25,-0,-0,0.66667
0.21472,0.87385,0.85886,0.56078,11.267,43.418,-1.2844,0.42812,-0.88264,-1.7125,-1.5142e-10,-0.44132,0,0,0.25,-4.0708e-16,0,0.66667
0.31899,0.42615,1.2759,-0.11077,-2.0594,34.458,0.37689,-0.12563,-1.9555,0.50252,5.0039e-12,-0.97777,0,0,0.25,-0,-0,0.66667
0.12192,0.71705,0.48768,0.32558,6.6883,51.535,-0.42341,0.14114,-1.6239,-0.56454,-1.038e-09,-0.81197,0,0,0.25,1.8504e-17,0,0.66667
0.96302,0.1153,3.8521,-0.57705,-0.75634,0.89492,5.9276,-1.9759,-0.81538,7.9034,-2.8459e-08,-0.40769,0,0,0.25,-1.1842e-15,0,0.66667
0.50398,0.67603,2.0159,0.26404,4.0672,20.397,-1.4194,0.47315,-1.7515,-1.8926,-2.0295e-13,-0.87577,0,0,0.25,-0,-0,0.66667
0.9231,0.88493,3.6924,0.5774,1.6844,1.4746,-5.6853,1.8951,-0.81475,-7.5804,-9.2885e-09,-0.40738,0,0,0.25,-0,-0,0.66667
0.74616,0.9877,2.9846,0.73155,6.8967,7.1815,-5.8224,1.9408,-0.096609,-7.7632,-7.7272e-14,-0.048305,0,0,0.25,-0,-0,0.66667
0.45771,0.88457,1.8308,0.57686,9.5908,23.903,-2.8164,0.93878,-0.81629,-3.7551,3.9524e-13,-0.40815,0,0,0.25,-0,-0,0.66667
0.75462,0.99464,3.0185,0.74197,6.8057,6.8467,-5.9723,1.9908,-0.042566,-7.9631,1.4333e-11,-0.021283,0,0,0.25,2.2232e-15,0,0.66667
0.62802,0.44552,2.5121,-0.081714,-1.0086,12.459,0.54739,-0.18246,-1.9761,0.72986,-3.4861e-14,-0.98807,0,0,0.25,-0,-0,0.66667
0.30376,0.47262,1.215,-0.041073,-0.77148,35.712,0.13308,-0.04436,-1.994,0.17744,3.7065e-12,-0.99699,0,0,0.25,-0,-0,0.66667
0.52166,0.73312,2.0866,0.34968,5.2701,19.236,-1.9457,0.64858,-1.5643,-2.5943,-5.9364e-13,-0.78216,0,0,0.25,-0,-0,0.66667
0.71231,0.97797,2.8492,0.71696,7.4985,8.6664,-5.4475,1.8158,-0.17165,-7.2633,5.0626e-14,-0.085823,0,0,0.25,-0,-0,0.66667
0.30531,0.19038,1.2213,-0.46442,-8.8171,35.699,1.5125,-0.50416,-1.2332,2.0166,6.8821e-12,-0.61662,0,0,0.25,-0,-0,0.66667
0.012523,0.6668,0.050091,0.2502,5.2071,61.417,-0.033422,0.01114,-1.7771,-0.044562,-3.9471e-08,-0.88853,0,0,0.25,-0,-0,0.66667
0.26826,0.88778,1.0731,0.58167,11.381,38.854,-1.6644,0.55481,-0.79665,-2.2192,-1.1496e-11,-0.39833,0,0,0.25,-0,-0,0.66667
0.79675,0.20249,3.187,-0.44626,-3.3086,4.7203,3.7926,-1.2642,-1.2922,5.0568,-2.642e-10,-0.64609,0,0,0.25,-1.1842e-15,0,0.66667
0.92999,0.8512,3.72,0.52679,1.3627,1.264,-5.2258,1.7419,-1.0128,-6.9677,1.0106e-08,-0.50638,0,0,0.25,-0,-0,0.66667
0.62533,0.44,2.5013,-0.089998,-1.1174,12.615,0.6003,-0.2001,-1.9726,0.8004,3.3595e-13,-0.9863,0,0,0.25,-2.3685e-15,0,0.66667
0.13281,0.95638,0.53123,0.68456,14.28,50.647,-0.96976,0.32325,-0.33284,-1.293,-1.7871e-10,-0.16642,0,0,0.25,-0,-0,0.66667
0.75757,0.0092579,3.0303,-0.73611,-6.6754,6.7135,5.9483,-1.9828,-0.072659,7.9311,-9.9929e-12,-0.036329,0,0,0.25,-0,-0,0.66667
0.52691,0.42966,2.1076,-0.10552,-1.5657,18.779,0.59303,-0.19768,-1.9601,0.79071,1.8574e-13,-0.98005,0,0,0.25,-0,-0,0.66667
0.75387,0.1487,3.0155,-0.52696,-4.6972,6.5123,4.2374,-1.4125,-1.0125,5.6499,-4.2947e-11,-0.50624,0,0,0.25,-0,-0,0.66667
0.85861,0.76819,3.4344,0.40229,2.0881,2.6737,-3.6843,1.2281,-1.4247,-4.9125,1.0615e-09,-0.71235,0,0,0.25,-0,-0,0.66667
0.94754,0.89185,3.7902,0.58778,1.1488,1.11,-5.9408,1.9803,-0.77072,-7.921,-1.0183e-07,-0.38536,0,0,0.25,-0,-0,0.66667
0.65454,0.021498,2.6182,-0.71775,-8.7168,11.568,5.0112,-1.6704,-0.16832,6.6815,1.239e-13,-0.084161,0,0,0.25,-0,-0,0.66667
0.85426,0.1742,3.417,-0.4887,-2.6534,2.9131,4.4531,-1.4844,-1.15,5.9374,-9.598e-10,-0.57502,0,0,0.25,1.1842e-15,0,0.66667
0.74259,0.27224,2.9704,-0.34164,-3.1113,6.7819,2.7061,-0.90203,-1.5843,3.6081,-6.5732e-11,-0.79216,0,0,0.25,1.1842e-15,0,0.66667
0.7271,0.47237,2.9084,-0.041443,-0.39261,7.3256,0.32142,-0.10714,-1.9939,0.42856,-9.9843e-12,-0.99695,0,0,0.25,-0,-0,0.66667
0.85879,0.72938,3.4352,0.34407,1.7681,2.6024,-3.1518,1.0506,-1.5794,-4.2024,7.5081e-10,-0.78969,0,0,0.25,-0,-0,0.66667
0.923,0.33756,3.692,-0.24366,-0.6425,1.0266,2.3989,-0.79963,-1.7895,3.1985,1.2857e-08,-0.89474,0,0,0.25,-0,-0,0.66667
0.90208,0.11229,3.6083,-0.58156,-2.1756,1.8889,5.5959,-1.8653,-0.7968,7.4612,-1.3459e-08,-0.3984,0,0,0.25,-1.1842e-15,0,0.66667
0.39575,0.53705,1.583,0.055571,0.96759,28.307,-0.23458,0.078194,-1.9888,-0.31278,3.3638e-13,-0.99442,0,0,0.25,-0,-0,0.66667
0.084021,0.70793,0.33609,0.3119,6.4565,54.941,-0.27953,0.093178,-1.6533,-0.37271,3.0824e-09,-0.82667,0,0,0.25,-7.4015e-17,0,0.66667
0.82957,0.33773,3.3183,-0.24341,-1.4921,3.3908,2.1539,-0.71796,-1.7898,2.8719,-9.6653e-11,-0.89492,0,0,0.25,1.7764e-15,0,0.66667
0.53893,0.70795,2.1557,0.31193,4.5713,18.058,-1.7932,0.59772,-1.6532,-2.3909,-1.0306e-12,-0.8266,0,0,0.25,5.9212e-16,0,0.66667
0.54208,0.18818,2.1683,-0.46772,-6.8794,17.968,2.7045,-0.90148,-1.2229,3.6059,9.408e-13,-0.61146,0,0,0.25,-0,-0,0.66667
0.82518,0.04348,3.3007,-0.68478,-4.595,4.1347,6.0273,-2.0091,-0.3323,8.0365,-5.5806e-11,-0.16615,0,0,0.25,-0,-0,0.66667
0.031984,0.64623,0.12794,0.21934,4.5574,59.649,-0.074831,0.024944,-1.8292,-0.099774,-2.8967e-08,-0.91461,0,0,0.25,-0,-0,0.66667
0.87796,0.85818,3.5118,0.53727,2.4743,2.3613,-5.0315,1.6772,-0.97316,-6.7087,3.6567e-09,-0.48658,0,0,0.25,1.1842e-15,0,0.66667
0.034634,0.10827,0.13854,-0.5876,-12.388,59.426,0.21708,-0.072359,-0.77177,0.28944,8.0675e-08,-0.38589,0,0,0.25,7.4015e-17,0,0.66667
0.69319,0.75452,2.7728,0.38179,4.0661,9.1291,-2.823,0.94099,-1.4817,-3.7639,1.0794e-11,-0.74085,0,0,0.25,-0,-0,0.66667
0.58748,0.6131,2.3499,0.16966,2.2763,14.892,-1.0632,0.35438,-1.8968,-1.4175,-1.47e-12,-0.9484,0,0,0.25,5.9212e-16,0,0.66667
0.64175,0.98961,2.567,0.73441,9.1973,12.29,-5.0273,1.6758,-0.082419,-6.703,-1.954e-13,-0.04121,0,0,0.25,1.1842e-15,0,0.66667
0.37408,0.89815,1.4963,0.59722,10.83,30.24,-2.383,0.79435,-0.73222,-3.1774,1.287e-12,-0.36611,0,0,0.25,-2.9606e-16,2.2739e-16,0.66667
0.27546,0.88701,1.1018,0.58051,11.309,38.248,-1.7057,0.56856,-0.80098,-2.2743,-9.0379e-12,-0.40049,0,0,0.25,5.9212e-16,0,0.66667
0.50941,0.79628,2.0376,0.44442,6.8525,20.138,-2.4148,0.80495,-1.2968,-3.2198,-4.6474e-13,-0.6484,0,0,0.25,-0,-0,0.66667
0.88582,0.53092,3.5433,0.046373,0.18606,1.7205,-0.43817,0.14606,-1.9932,-0.58422,2.907e-09,-0.99659,0,0,0.25,-2.2204e-16,0,0.66667
0.56529,0.80762,2.2612,0.46144,6.531,16.466,-2.7824,0.92745,-1.2433,-3.7098,-1.4249e-12,-0.62164,0,0,0.25,8.8818e-16,0,0.66667
0.66315,0.6661,2.6526,0.24915,2.8484,10.577,-1.7624,0.58745,-1.7785,-2.3498,3.1416e-12,-0.88927,0,0,0.25,-0,-0,0.66667
0.44138,0.72586,1.7655,0.33878,5.6621,24.926,-1.595,0.53167,-1.5917,-2.1267,1.1949e-12,-0.79587,0,0,0.25,-0,-0,0.66667
0.97214,0.95255,3.8886,0.67883,0.72411,1.0199,-7.0391,2.3464,-0.361,-9.3854,-2.4712e-06,-0.1805,0,0,0.25,-0,-0,0.66667
0.74252,0.69855,2.9701,0.29783,2.7043,6.7477,-2.3589,0.78628,-1.6838,-3.1451,6.7672e-11,-0.84188,0,0,0.25,-1.1842e-15,0,0.66667
0.3549,0.034236,1.4196,-0.69865,-12.973,31.839,2.6448,-0.8816,-0.26487,3.5264,-4.5342e-13,-0.13243,0,0,0.25,-0,-2.4218e-16,0.66667
0.65353,0.85951,2.6141,0.53926,6.4388,11.362,-3.7592,1.2531,-0.96559,-5.0122,-1.2643e-12,-0.4828,0,0,0.25,4.103e-16,0,0.66667
0.54262,0.68063,2.1705,0.27094,3.9409,17.793,-1.5682,0.52273,-1.7388,-2.0909,-1.0781e-12,-0.86939,0,0,0.25,-0,-0,0.66667
0.88406,0.56841,3.5362,0.10262,0.41947,1.7764,-0.96768,0.32256,-1.9622,-1.2902,-6.9199e-09,-0.98112,0,0,0.25,-0,-0,0.66667
0.27505,0.7112,1.1002,0.3168,6.0954,38.167,-0.92947,0.30982,-1.6427,-1.2393,-3.9687e-11,-0.82133,0,0,0.25,-2.9606e-16,0,0.66667
0.10807,0.49788,0.43227,-0.0031736,-0.065059,52.757,0.0036583,-0.0012194,-2.0011,0.0048777,5.9226e-08,-1.0006,0,0,0.25,-7.4015e-17,0,0.66667
0.19127,0.27824,0.76509,-0.33264,-6.6808,45.386,0.67866,-0.22622,-1.607,0.90488,3.3422e-10,-0.80352,0,0,0.25,4.4409e-16,0,0.66667
0.38705,0.027195,1.5482,-0.70921,-12.819,29.33,2.928,-0.97599,-0.21196,3.9039,-1.8696e-13,-0.10598,0,0,0.25,5.9212e-16,0,0.66667
0.85406,0.008419,3.4162,-0.73737,-4.2421,3.3816,6.7174,-2.2391,-0.066278,8.9566,-1.5773e-09,-0.033139,0,0,0.25,-4.737e-15,0,0.66667
0.27084,0.34259,1.0834,-0.23611,-4.5434,38.501,0.68212,-0.22737,-1.8024,0.9095,4.2821e-11,-0.9012,0,0,0.25,7.7716e-16,0,0.66667
0.62636,0.29184,2.5054,-0.31224,-3.8972,12.655,2.0861,-0.69537,-1.6534,2.7815,1.4078e-12,-0.82671,0,0,0.25,-0,-0,0.66667
0.62355,0.55158,2.4942,0.077368,0.96413,12.715,-0.51459,0.17153,-1.9787,-0.68613,-4.2771e-13,-0.98937,0,0,0.25,-0,-0,0.66667
0.40805,0.34272,1.6322,-0.23591,-4.0708,27.396,1.0268,-0.34227,-1.8034,1.3691,-1.685e-12,-0.90169,0,0,0.25,7.7716e-16,0,0.66667
0.050335,0.80148,0.20134,0.45223,9.4552,57.997,-0.2428,0.080935,-1.2724,-0.32374,3.7935e-09,-0.6362,0,0,0.25,-0,-0,0.66667
0.74483,0.34505,2.9793,-0.23243,-2.085,6.6009,1.8466,-0.61554,-1.8085,2.4621,-6.4964e-11,-0.90425,0,0,0.25,-2.3685e-15,0,0.66667
0.29573,0.0011921,1.1829,-0.74821,-14.564,36.674,2.3602,-0.78672,-0.010927,3.1469,-1.1611e-12,-0.0054636,0,0,0.25,-0,-0,0.66667
0.39846,0.50377,1.5938,0.0056558,0.098197,28.095,-0.024038,0.0080128,-1.9999,-0.032051,-1.1715e-13,-0.99993,0,0,0.25,-0,-0,0.66667
0.37724,0.090199,1.509,-0.6147,-11.13,30.007,2.4735,-0.8245,-0.65719,3.298,-7.8426e-13,-0.32859,0,0,0.25,-8.8818e-16,0,0.66667
0.6636,0.65591,2.6544,0.23387,2.669,10.545,-1.6554,0.55181,-1.8062,-2.2073,3.3225e-12,-0.90308,0,0,0.25,4.0708e-16,0,0.66667
0.086333,0.94906,0.34533,0.67359,14.187,54.787,-0.6203,0.20677,-0.38586,-0.82707,-1.5215e-08,-0.19293,0,0,0.25,1.4803e-16,0,0.66667
0.54989,0.84911,2.1996,0.52366,7.6369,17.513,-3.0715,1.0238,-1.0252,-4.0954,-7.9226e-13,-0.51261,0,0,0.25,-0,-0,0.66667
0.015422,0.066782,0.061687,-0.64983,-13.765,61.164,0.1069,-0.035633,-0.49971,0.14253,-1.5575e-06,-0.24986,0,0,0.25,3.7007e-17,0,0.66667
0.98304,0.22499,3.9322,-0.41252,-0.12816,0.41792,4.3255,-1.4418,-1.3955,5.7674,-1.5166e-11,-0.69773,0,0,0.25,2.3685e-15,0,0.66667
0.59843,0.68225,2.3937,0.27337,3.6051,14.274,-1.745,0.58166,-1.7343,-2.3266,-1.9296e-12,-0.86713,0,0,0.25,-0,-0,0.66667
0.38411,0.18432,1.5365,-0.47351,-8.4451,29.366,1.9401,-0.6467,-1.2029,2.5868,-1.7846e-12,-0.60145,0,0,0.25,-5.9212e-16,0,0.66667
0.14675,0.18052,0.58699,-0.47922,-9.8377,49.351,0.75013,-0.25004,-1.183,1.0002,1.3147e-09,-0.59152,0,0,0.25,-1.4803e-16,0,0.66667
0.69688,0.70564,2.7875,0.30847,3.2353,8.884,-2.2929,0.76432,-1.6608,-3.0573,1.5104e-11,-0.83039,0,0,0.25,-0,-0,0.66667
0.90581,0.105,3.6232,-0.5925,-2.1391,1.8324,5.7247,-1.9082,-0.75209,7.633,2.8853e-09,-0.37604,0,0,0.25,-0,-0,0.66667
0.31811,0.035867,1.2724,-0.6962,-13.293,34.797,2.3623,-0.78744,-0.27659,3.1498,-2.9177e-13,-0.1383,0,0,0.25,-0,-0,0.66667
0.76649,0.77633,3.066,0.41449,3.4795,5.848,-3.3889,1.1296,-1.39,-4.5185,1.2387e-10,-0.69498,0,0,0.25,-2.9606e-16,0,0.66667
0.2875,0.49678,1.15,-0.0048277,-0.091659,37.069,0.014805,-0.004935,-2,0.01974,1.4934e-12,-1,0,0,0.25,7.4015e-17,0,0.66667
0.95723,0.087171,3.8289,-0.61924,-0.991,1.0488,6.3227,-2.1076,-0.63644,8.4303,-2.8103e-07,-0.31822,0,0,0.25,-5.9212e-16,0,0.66667
0.70232,0.87702,2.8093,0.56552,5.9714,8.8977,-4.2366,1.4122,-0.86421,-5.6487,3.1832e-12,-0.4321,0,0,0.25,-0,7.1489e-17,0.66667
0.62502,0.99442,2.5001,0.74162,9.6312,13.235,-4.9443,1.6481,-0.045429,-6.5924,1.4833e-13,-0.022715,0,0,0.25,-0,-0,0.66667
0.93073,0.56922,3.7229,0.10383,0.2368,0.81029,-1.0308,0.34359,-1.9612,-1.3743,8.9608e-08,-0.98062,0,0,0.25,-0,-0,0.66667
0.26904,0.060942,1.0762,-0.65859,-12.945,38.834,1.89,-0.63,-0.45862,2.52,2.0128e-12,-0.22931,0,0,0.25,2.5905e-16,0,0.66667
0.92362,0.47562,3.6945,-0.036571,-0.093358,0.92024,0.3603,-0.1201,-1.9956,0.48039,8.4302e-08,-0.99778,0,0,0.25,2.3685e-15,0,0.66667
0.67808,0.036546,2.7123,-0.69518,-7.9544,10.301,5.0282,-1.6761,-0.28148,6.7042,3.2863e-13,-0.14074,0,0,0.25,-2.3685e-15,0,0.66667
0.77136,0.4331,3.0855,-0.10035,-0.80953,5.4303,0.82567,-0.27522,-1.9642,1.1009,-7.4642e-11,-0.98208,0,0,0.25,-2.9606e-16,0,0.66667
0.57164,0.27649,2.2865,-0.33526,-4.6586,15.964,2.0442,-0.68141,-1.6002,2.7256,1.4444e-12,-0.80011,0,0,0.25,2.9606e-16,0,0.66667
0.8339,0.78749,3.3356,0.43123,2.6338,3.4407,-3.8358,1.2786,-1.3385,-5.1144,8.066e-10,-0.66926,0,0,0.25,-0,-0,0.66667
0.69828,0.39135,2.7931,-0.16297,-1.6909,8.7297,1.2139,-0.40462,-1.9048,1.6185,-1.3604e-11,-0.95238,0,0,0.25,1.1842e-15,0,0.66667
0.14661,0.36408,0.58643,-0.20388,-4.1457,49.315,0.31883,-0.10628,-1.8514,0.4251,-2.9735e-10,-0.92572,0,0,0.25,-1.4803e-16,0,0.66667
0.61246,0.20542,2.4498,-0.44187,-5.7223,13.569,2.8867,-0.96224,-1.3053,3.849,1.9793e-12,-0.65264,0,0,0.25,-0,-0,0.66667
0.27932,0.22966,1.1173,-0.40551,-7.8086,37.839,1.2082,-0.40273,-1.4152,1.6109,2.8189e-11,-0.70761,0,0,0.25,-0,-0,0.66667
0.91588,0.58691,3.6635,0.13036,0.37447,1.0913,-1.2736,0.42452,-1.9392,-1.6981,5.2787e-09,-0.96959,0,0,0.25,-1.234e-15,0,0.66667
0.19823,0.49436,0.79293,-0.008458,-0.16841,44.738,0.017884,-0.0059614,-1.9996,0.023846,2.1589e-10,-0.99981,0,0,0.25,-0,-0,0.66667
0.28572,0.16717,1.1429,-0.49924,-9.6188,37.345,1.5215,-0.50717,-1.1132,2.0287,1.295e-11,-0.5566,0,0,0.25,-0,-0,0.66667
0.047655,0.83148,0.19062,0.49722,10.421,58.243,-0.25275,0.084248,-1.1211,-0.33699,2.2986e-08,-0.56055,0,0,0.25,7.4015e-17,0,0.66667
0.44758,0.19944,1.7903,-0.45084,-7.5233,24.538,2.1524,-0.71747,-1.2765,2.8699,-1.0967e-12,-0.63825,0,0,0.25,-0,-0,0.66667
0.55759,0.7771,2.2304,0.41565,5.9423,16.917,-2.4721,0.82403,-1.3858,-3.2961,-1.3856e-12,-0.69292,0,0,0.25,1.2183e-15,0,0.66667
0.57356,0.51667,2.2942,0.024998,0.34329,15.729,-0.15294,0.05098,-1.997,-0.20392,-2.5077e-13,-0.9985,0,0,0.25,-0,-0,0.66667
0.90538,0.20224,3.6215,-0.44664,-1.5497,1.5972,4.3134,-1.4378,-1.2907,5.7512,-1.3677e-09,-0.64537,0,0,0.25,-0,-0,0.66667
0.34741,0.90464,1.3897,0.60696,11.263,32.361,-2.2492,0.74975,-0.69087,-2.999,7.6428e-13,-0.34544,0,0,0.25,-1.4803e-16,0,0.66667
0.44753,0.45731,1.7901,-0.06404,-1.0555,24.383,0.3057,-0.1019,-1.9846,0.4076,-5.7981e-13,-0.99232,0,0,0.25,-0,-0,0.66667
0.85124,0.61128,3.405,0.16691,0.88809,2.6799,-1.5155,0.50518,-1.9,-2.0207,3.6277e-10,-0.94998,0,0,0.25,-0,-0,0.66667
0.57683,0.091069,2.3073,-0.6134,-8.6132,15.909,3.7741,-1.258,-0.66328,5.0322,5.8464e-13,-0.33164,0,0,0.25,-4.4409e-16,0,0.66667
0.65399,0.08345,2.616,-0.62483,-7.5169,11.453,4.3587,-1.4529,-0.61174,5.8116,9.317e-13,-0.30587,0,0,0.25,-5.9212e-16,-2.6168e-16,0.66667
0.27836,0.55505,1.1134,0.082573,1.5775,37.842,-0.24517,0.081725,-1.9757,-0.3269,-1.4815e-11,-0.98787,0,0,0.25,2.9606e-16,0,0.66667
0.48747,0.0074161,1.9499,-0.73888,-12.004,21.964,3.8419,-1.2806,-0.058831,5.1226,-3.1486e-13,-0.029416,0,0,0.25,2.3685e-15,0,0.66667
0.62095,0.24362,2.4838,-0.38457,-4.8754,13.023,2.5472,-0.84906,-1.4741,3.3962,1.9487e-12,-0.73703,0,0,0.25,-0,-0,0.66667
0.13339,0.17423,0.53358,-0.48866,-10.075,50.541,0.6953,-0.23177,-1.15,0.92707,2.3185e-09,-0.57501,0,0,0.25,-0,-0,0.66667
0.032909,0.9427,0.13163,0.66404,14.067,59.588,-0.2331,0.077699,-0.43273,-0.3108,-5.0045e-07,-0.21637,0,0,0.25,7.4015e-17,0,0.66667
0.11341,0.72853,0.45364,0.3428,7.0607,52.3,-0.41469,0.13823,-1.5817,-0.55292,-9.0992e-10,-0.79086,0,0,0.25,-0,-0,0.66667
0.47746,0.4321,1.9098,-0.10185,-1.6191,22.211,0.51871,-0.1729,-1.9629,0.69161,-5.4012e-13,-0.98143,0,0,0.25,-0,-0,0.66667
0.024027,0.41009,0.096107,-0.13487,-2.7993,60.37,0.034564,-0.011521,-1.9353,0.046085,2.3281e-07,-0.96765,0,0,0.25,7.4015e-17,0,0.66667
0.62621,0.93658,2.5048,0.65487,8.4014,13.033,-4.3742,1.4581,-0.47664,-5.8323,-5.2536e-13,-0.23832,0,0,0.25,2.2204e-16,0,0.66667
0.097583,0.47113,0.39033,-0.043299,-0.88975,53.702,0.045069,-0.015023,-1.9939,0.060092,5.8172e-09,-0.99695,0,0,0.25,-0,-0,0.66667
0.25096,0.46193,1.0038,-0.057099,-1.1083,40.169,0.15285,-0.050949,-1.9889,0.2038,2.3173e-11,-0.99447,0,0,0.25,1.4803e-16,0,0.66667
0.42649,0.58072,1.706,0.12108,2.0445,25.962,-0.55084,0.18361,-1.9471,-0.73446,7.2525e-13,-0.97357,0,0,0.25,-5.9212e-16,0,0.66667
0.11583,0.15506,0.46331,-0.51741,-10.732,52.115,0.63925,-0.21308,-1.0486,0.85233,-9.6674e-10,-0.52432,0,0,0.25,-1.8504e-16,0,0.66667
0.27055,0.64958,1.0822,0.22436,4.3169,38.523,-0.64749,0.21583,-1.8208,-0.86332,-4.2437e-11,-0.91038,0,0,0.25,6.0429e-16,0,0.66667
0.02108,0.41103,0.084319,-0.13346,-2.7705,60.638,0.030008,-0.010003,-1.9366,0.040011,6.824e-08,-0.9683,0,0,0.25,-0,-0,0.66667
0.98505,0.91164,3.9402,0.61746,0.27496,0.77137,-6.4877,2.1626,-0.64526,-8.6503,4.137e-07,-0.32263,0,0,0.25,-2.3685e-15,0,0.66667
0.61157,0.91266,2.4463,0.61899,8.1509,13.825,-4.0379,1.346,-0.63797,-5.3839,-8.5176e-13,-0.31899,0,0,0.25,-0,-0,0.66667
0.37835,0.31733,1.5134,-0.27401,-4.8703,29.716,1.1059,-0.36862,-1.7333,1.4745,-1.5316e-12,-0.86664,0,0,0.25,-0,-0,0.66667
0.026528,0.47707,0.10611,-0.034398,-0.71329,60.142,0.0097333,-0.0032445,-1.9954,0.012978,-1.639e-07,-0.99768,0,0,0.25,-0,-0,0.66667
0.38984,0.1005,1.5594,-0.59925,-10.715,29.014,2.4919,-0.83062,-0.72379,3.3225,-1.2361e-12,-0.36189,0,0,0.25,-0,-2.0051e-16,0.66667
0.45256,0.60277,1.8102,0.15416,2.529,24.028,-0.74417,0.24806,-1.9159,-0.99223,7.4057e-13,-0.95796,0,0,0.25,-0,-0,0.66667
0.931,0.20014,3.724,-0.44978,-1.1104,1.1227,4.4667,-1.4889,-1.2798,5.9556,1.1121e-08,-0.63989,0,0,0.25,-0,-0,0.66667
0.2785,0.23484,1.114,-0.39774,-7.6601,37.904,1.1816,-0.39385,-1.4371,1.5754,2.9923e-11,-0.71854,0,0,0.25,-0,-0,0.66667
0.61478,0.45624,2.4591,-0.065639,-0.83305,13.224,0.43044,-0.14348,-1.9839,0.57392,2.1116e-13,-0.99193,0,0,0.25,-0,-0,0.66667
0.66517,0.4662,2.6607,-0.050705,-0.57366,10.4,0.35976,-0.11992,-1.9911,0.47968,-1.5204e-12,-0.99554,0,0,0.25,1.3323e-15,0,0.66667
0.18596,0.22814,0.74384,-0.40778,-8.231,45.871,0.80887,-0.26962,-1.4089,1.0785,3.8061e-10,-0.70443,0,0,0.25,-0,-0,0.66667
0.50576,0.12311,2.0231,-0.56534,-8.8331,20.498,3.0499,-1.0166,-0.86403,4.0665,-3.0909e-13,-0.43201,0,0,0.25,-7.4015e-17,0,0.66667
0.7865,0.58694,3.146,0.13041,0.9874,4.8464,-1.0941,0.3647,-1.9392,-1.4588,1.2652e-10,-0.9696,0,0,0.25,-5.9212e-16,0,0.66667
0.096579,0.3125,0.38632,-0.28125,-5.803,53.806,0.28974,-0.096579,-1.72,0.38632,-1.1058e-09,-0.85999,0,0,0.25,2.9606e-16,0,0.66667
0.60604,0.021674,2.4241,-0.71749,-9.6492,14.292,4.6381,-1.546,-0.16932,6.1842,1.3722e-13,-0.084658,0,0,0.25,1.1842e-15,2.5168e-16,0.66667
0.02606,0.10322,0.10424,-0.59518,-12.56,60.201,0.16544,-0.055148,-0.7399,0.22059,-7.4275e-07,-0.36995,0,0,0.25,-0,-0,0.66667
0.0070467,0.81731,0.028187,0.47597,9.9877,61.917,-0.035776,0.011925,-1.1943,-0.047702,-4.1491e-08,-0.59717,0,0,0.25,-0,-0,0.66667
0.059529,0.029081,0.23811,-0.70638,-14.969,57.197,0.44853,-0.14951,-0.22665,0.59804,-1.1975e-06,-0.11332,0,0,0.25,-0,-0,0.66667
0.4814,0.75066,1.9256,0.376,5.9981,22.042,-1.9307,0.64357,-1.4984,-2.5743,2.8322e-13,-0.7492,0,0,0.25,-1.1842e-15,0,0.66667
0.9257,0.30437,3.7028,-0.29345,-0.75069,1.0221,2.8976,-0.96586,-1.6935,3.8635,-3.5603e-09,-0.84677,0,0,0.25,-0,-0,0.66667
0.40556,0.40507,1.6222,-0.1424,-2.4581,27.562,0.61601,-0.20534,-1.9294,0.82134,-9.2787e-13,-0.96472,0,0,0.25,3.7007e-17,0,0.66667
0.075033,0.5209,0.30013,0.031349,0.64676,55.74,-0.02509,0.0083633,-1.9962,-0.033453,-4.1302e-09,-0.99809,0,0,0.25,-0,-0,0.66667
0.86135,0.6872,3.4454,0.2808,1.4051,2.471,-2.5799,0.85998,-1.721,-3.4399,1.3429e-09,-0.86051,0,0,0.25,-2.5905e-16,0,0.66667
0.5193,0.30955,2.0772,-0.28568,-4.3086,19.358,1.5824,-0.52748,-1.7103,2.1099,2.5813e-13,-0.85515,0,0,0.25,7.4015e-16,0,0.66667
0.31894,0.62751,1.2757,0.19127,3.561,34.476,-0.65069,0.2169,-1.8702,-0.86759,-8.0414e-12,-0.93508,0,0,0.25,1.1842e-15,0,0.66667
0.96303,0.80991,3.8521,0.46486,0.55267,0.69463,-4.7752,1.5917,-1.2319,-6.3669,-4.2668e-08,-0.61597,0,0,0.25,-2.9606e-16,0,0.66667
0.93826,0.4091,3.753,-0.13635,-0.27118,0.69942,1.3646,-0.45487,-1.9351,1.8195,-1.2088e-07,-0.96755,0,0,0.25,-0,-0,0.66667
0.26002,0.97233,1.0401,0.7085,14.048,39.626,-1.965,0.65502,-0.21533,-2.6201,-2.3066e-12,-0.10767,0,0,0.25,-0,-0,0.66667
0.20139,0.64727,0.80557,0.22091,4.4039,44.479,-0.47455,0.15818,-1.8266,-0.63273,-1.6552e-10,-0.91329,0,0,0.25,-1.4803e-16,0,0.66667
0.58891,0.78847,2.3556,0.4327,5.8612,14.97,-2.7181,0.90604,-1.334,-3.6242,-1.8987e-12,-0.66698,0,0,0.25,-0,-0,0.66667
0.84252,0.0061131,3.3701,-0.74083,-4.5753,3.7197,6.6577,-2.2192,-0.049159,8.877,-9.8165e-10,-0.02458,0,0,0.25,4.737e-15,0,0.66667
0.33672,0.21691,1.3469,-0.42464,-7.8635,33.108,1.5252,-0.50839,-1.3592,2.0336,3.9568e-13,-0.67961,0,0,0.25,-7.4015e-16,0,0.66667
0.58643,0.57577,2.3457,0.11366,1.5261,14.94,-0.71097,0.23699,-1.9531,-0.94796,-9.1099e-13,-0.97655,0,0,0.25,-0,-0,0.66667
0.16224,0.9534,0.64898,0.6801,14.056,48.046,-1.177,0.39233,-0.35449,-1.5693,-3.6133e-11,-0.17725,0,0,0.25,-0,-0,0.66667
0.19459,0.060445,0.77837,-0.65933,-13.446,45.208,1.3686,-0.45618,-0.45463,1.8247,-8.838e-12,-0.22731,0,0,0.25,7.4015e-17,0,0.66667
0.76134,0.9671,3.0453,0.70065,6.2313,6.4908,-5.6899,1.8966,-0.25519,-7.5865,1.7213e-12,-0.12759,0,0,0.25,1.4803e-15,0,0.66667
0.1501,0.4822,0.60039,-0.026707,-0.54135,48.993,0.042759,-0.014253,-1.9966,0.057012,-5.1481e-10,-0.99828,0,0,0.25,2.9606e-16,0,0.66667
0.26591,0.28937,1.0636,-0.31595,-6.1121,38.94,0.89614,-0.29871,-1.6457,1.1948,5.2294e-11,-0.82284,0,0,0.25,-0,-0,0.66667
0.68949,0.45338,2.758,-0.06993,-0.74218,9.1413,0.51431,-0.17144,-1.9823,0.68575,-4.8493e-12,-0.99117,0,0,0.25,-1.1842e-15,0,0.66667
0.015089,0.70277,0.060357,0.30415,6.3389,61.185,-0.048954,0.016318,-1.6712,-0.065272,1.0298e-08,-0.8356,0,0,0.25,-0,-0,0.66667
0.032194,0.21036,0.12878,-0.43446,-9.0905,59.638,0.1492,-0.049733,-1.3292,0.19893,-1.7245e-08,-0.66461,0,0,0.25,-3.7007e-17,0,0.66667
0.28753,0.13666,1.1501,-0.54502,-10.516,37.219,1.6715,-0.55718,-0.943,2.2287,7.6225e-12,-0.4715,0,0,0.25,-0,-0,0.66667
0.33662,0.26819,1.3465,-0.34771,-6.418,33.08,1.2485,-0.41617,-1.5692,1.6647,2.0915e-12,-0.78459,0,0,0.25,-0,-0,0.66667
0.36222,0.8167,1.4489,0.47505,8.6388,31.091,-1.8354,0.6118,-1.1981,-2.4472,1.7347e-12,-0.59903,0,0,0.25,-0,-0,0.66667
0.80719,0.88738,3.2288,0.58106,4.1838,4.5455,-5.003,1.6677,-0.79872,-6.6706,1.8839e-10,-0.39936,0,0,0.25,-0,-0,0.66667
0.035981,0.10633,0.14392,-0.59051,-12.45,59.305,0.22664,-0.075546,-0.75942,0.30218,1.5644e-07,-0.37971,0,0,0.25,-0,-0,0.66667
0.3584,0.41538,1.4336,-0.12693,-2.2882,31.261,0.48525,-0.16175,-1.943,0.647,3.0609e-13,-0.9715,0,0,0.25,-0,-0,0.66667
0.63828,0.69615,2.5531,0.29422,3.5744,11.967,-2.0032,0.66772,-1.6922,-2.6709,-7.8915e-13,-0.84609,0,0,0.25,1.1842e-15,0,0.66667
0.143,0.43995,0.57202,-0.09007,-1.8304,49.627,0.13739,-0.045797,-1.972,0.18319,1.2945e-09,-0.986,0,0,0.25,-0,-0,0.66667
0.85774,0.92906,3.431,0.64359,3.5297,3.0829,-5.8884,1.9628,-0.52741,-7.8512,-5.6896e-11,-0.26371,0,0,0.25,-0,-2.3341e-16,0.66667
0.64556,0.89482,2.5823,0.59223,7.2388,11.864,-4.0781,1.3594,-0.75223,-5.4375,-1.2297e-12,-0.37612,0,0,0.25,-5.9212e-16,0,0.66667
0.11529,0.65348,0.46117,0.23022,4.7244,52.118,-0.28312,0.094373,-1.8118,-0.37749,-1.3481e-09,-0.90589,0,0,0.25,3.7007e-17,0,0.66667
0.2081,0.95595,0.83239,0.68393,13.891,44.048,-1.5181,0.50604,-0.33607,-2.0242,-1.7657e-11,-0.16804,0,0,0.25,-0,-0,0.66667
0.7455,0.23223,2.982,-0.40166,-3.6394,6.7142,3.194,-1.0647,-1.4256,4.2587,-6.6249e-11,-0.71282,0,0,0.25,-0,-0,0.66667
0.40341,0.77653,1.6136,0.41479,7.2409,27.836,-1.7849,0.59495,-1.3886,-2.3798,2.1382e-12,-0.6943,0,0,0.25,-6.4931e-16,0,0.66667
0.48447,0.70486,1.9379,0.30728,4.8676,21.785,-1.5879,0.52931,-1.6646,-2.1173,2.7101e-13,-0.83228,0,0,0.25,5.9212e-16,0,0.66667
0.88746,0.48642,3.5498,-0.020371,-0.08044,1.6787,0.19284,-0.064279,-1.998,0.25712,-6.7205e-11,-0.999,0,0,0.25,1.1842e-15,0,0.66667
0.13744,0.35178,0.54977,-0.22233,-4.5352,50.134,0.32595,-0.10865,-1.8241,0.4346,-5.903e-10,-0.91205,0,0,0.25,-0,-0,0.66667
0.96437,0.15595,3.8575,-0.51608,-0.61201,0.76554,5.3087,-1.7696,-1.0539,7.0783,-8.9779e-09,-0.52695,0,0,0.25,-3.7007e-16,0,0.66667
0.04263,0.63231,0.17052,0.19847,4.1186,58.681,-0.090247,0.030082,-1.8597,-0.12033,-8.2993e-08,-0.92985,0,0,0.25,-0,-0,0.66667
0.09944,0.69079,0.39776,0.28618,5.9022,53.549,-0.30355,0.10118,-1.709,-0.40473,-1.5023e-09,-0.85448,0,0,0.25,-0,-0,0.66667
0.22324,0.15437,0.89295,-0.51845,-10.351,42.664,1.2345,-0.41151,-1.0449,1.646,1.0633e-10,-0.52243,0,0,0.25,4.4409e-16,0,0.66667
0.80659,0.14196,3.2263,-0.53706,-3.8507,4.4961,4.6206,-1.5402,-0.97356,6.1608,-2.3199e-10,-0.48678,0,0,0.25,-0,-0,0.66667
0.45587,0.70461,1.8235,0.30691,5.0378,23.842,-1.4924,0.49747,-1.6646,-1.9899,8.1013e-13,-0.83232,0,0,0.25,-0,-0,0.66667
0.65325,0.76015,2.613,0.39022,4.6063,11.216,-2.7191,0.90636,-1.4583,-3.6254,-2.9976e-14,-0.72914,0,0,0.25,-0,-0,0.66667
0.17432,0.64782,0.69728,0.22173,4.4684,46.858,-0.41228,0.13743,-1.8252,-0.54971,-1.922e-10,-0.91259,0,0,0.25,-1.4803e-16,0,0.66667
0.16672,0.18163,0.66689,-0.47756,-9.7392,47.583,0.84928,-0.28309,-1.1889,1.1324,4.5055e-10,-0.59446,0,0,0.25,2.4675e-16,0,0.66667
0.52085,0.11611,2.0834,-0.57583,-8.8139,19.484,3.1991,-1.0664,-0.82051,4.2655,4.4409e-15,-0.41026,0,0,0.25,-0,-0,0.66667
0.74029,0.50936,2.9612,0.014033,0.12711,6.7292,-0.11081,0.036936,-1.9986,-0.14774,8.5928e-12,-0.99932,0,0,0.25,-0,-0,0.66667
0.46247,0.45731,1.8499,-0.064035,-1.0368,23.287,0.31589,-0.1053,-1.9846,0.42118,-4.6813e-13,-0.99229,0,0,0.25,-5.9212e-16,0,0.66667
0.86961,0.95095,3.4785,0.67642,3.4441,2.8339,-6.2744,2.0915,-0.37231,-8.3659,2.9948e-10,-0.18616,0,0,0.25,1.1842e-15,0,0.66667
0.66041,0.42284,2.6416,-0.11573,-1.3262,10.667,0.81527,-0.27176,-1.9517,1.087,-2.1927e-12,-0.97583,0,0,0.25,-0,-0,0.66667
0.24909,0.48536,0.99636,-0.021962,-0.42666,40.328,0.058353,-0.019451,-1.9983,0.077804,4.5343e-12,-0.99915,0,0,0.25,-2.9606e-16,0,0.66667
0.2349,0.11236,0.93961,-0.58147,-11.585,41.689,1.4569,-0.48565,-0.79804,1.9426,3.8004e-11,-0.39902,0,0,0.25,-2.9606e-16,0,0.66667
0.37405,0.95986,1.4962,0.6898,12.595,30.322,-2.7522,0.91739,-0.30852,-3.6696,5.1714e-13,-0.15426,0,0,0.25,-2.9606e-16,0,0.66667
0.75662,0.29089,3.0265,-0.31367,-2.7099,6.1562,2.5315,-0.84383,-1.6495,3.3753,-9.7514e-11,-0.82473,0,0,0.25,-0,-0,0.66667
0.93794,0.59003,3.7518,0.13505,0.27028,0.70397,-1.3511,0.45036,-1.9363,-1.8014,1.0956e-07,-0.96815,0,0,0.25,-1.4803e-15,0,0.66667
0.86191,0.86889,3.4476,0.55334,2.8881,2.8041,-5.0872,1.6957,-0.91158,-6.7829,-1.7962e-09,-0.45579,0,0,0.25,-1.7764e-15,0,0.66667
0.26161,0.10899,1.0464,-0.58651,-11.523,39.418,1.6367,-0.54556,-0.77621,2.1822,1.3833e-11,-0.38811,0,0,0.25,-5.9212e-16,0,0.66667
0.41228,0.82737,1.6491,0.49105,8.5315,27.208,-2.1595,0.71982,-1.1417,-2.8793,1.6449e-12,-0.57086,0,0,0.25,-5.9212e-16,0,0.66667
0.61154,0.33883,2.4462,-0.24176,-3.1023,13.474,1.577,-0.52568,-1.7927,2.1027,1.4724e-12,-0.89633,0,0,0.25,-5.9212e-16,0,0.66667
0.54683,0.62379,2.1873,0.18569,2.6752,17.478,-1.0831,0.36104,-1.8791,-1.4442,-1.2924e-12,-0.93957,0,0,0.25,1.7023e-15,0,0.66667
0.38927,0.98299,1.5571,0.72448,13.085,29.173,-3.0082,1.0027,-0.13368,-4.011,9.3259e-15,-0.066838,0,0,0.25,5.9212e-16,0,0.66667
0.10142,0.62979,0.40568,0.19469,4.0048,53.363,-0.21062,0.070207,-1.865,-0.28083,-9.617e-09,-0.93252,0,0,0.25,2.9606e-16,0,0.66667
0.71224,0.91716,2.849,0.62575,6.4663,8.5145,-4.754,1.5847,-0.60698,-6.3386,2.1485e-12,-0.30349,0,0,0.25,-0,-0,0.66667
0.088135,0.25882,0.35254,-0.36176,-7.4958,54.575,0.3401,-0.11337,-1.5341,0.45346,2.6286e-10,-0.76705,0,0,0.25,-0,-0,0.66667
0.86608,0.13337,3.4643,-0.54994,-2.7837,2.6867,5.0805,-1.6935,-0.92406,6.7739,1.3571e-09,-0.46203,0,0,0.25,2.3685e-15,0,0.66667
0.86345,0.45144,3.4538,-0.072843,-0.35333,2.3007,0.67089,-0.22363,-1.9804,0.89452,-2.8962e-10,-0.99022,0,0,0.25,1.1842e-15,0,0.66667
0.70845,0.56295,2.8338,0.094423,0.94913,8.2118,-0.71353,0.23784,-1.969,-0.95138,1.2253e-11,-0.98452,0,0,0.25,2.3685e-15,0,0.66667
0.48642,0.019851,1.9457,-0.72022,-11.697,22.013,3.7369,-1.2456,-0.15548,4.9825,1.7963e-13,-0.077741,0,0,0.25,-1.1842e-15,0,0.66667
0.69915,0.99142,2.7966,0.73713,8.0241,9.3294,-5.4972,1.8324,-0.067705,-7.3296,-1.3989e-13,-0.033852,0,0,0.25,1.7764e-15,0,0.66667
0.39499,0.35642,1.5799,-0.21538,-3.7626,28.397,0.90742,-0.30247,-1.8344,1.2099,-1.3247e-12,-0.91719,0,0,0.25,-5.9212e-16,0,0.66667
0.7975,0.047867,3.19,-0.6782,-5.1943,5.0628,5.7692,-1.9231,-0.36471,7.6922,-1.8528e-11,-0.18236,0,0,0.25,1.1842e-15,0,0.66667
0.78642,0.17392,3.1457,-0.48912,-3.8173,5.1603,4.1029,-1.3676,-1.1486,5.4706,-1.6676e-10,-0.57428,0,0,0.25,-1.1842e-15,0,0.66667
0.15553,0.89369,0.62211,0.59053,12.162,48.606,-0.97967,0.32656,-0.76023,-1.3062,-3.7906e-10,-0.38011,0,0,0.25,-4.8024e-16,2.847e-16,0.66667
0.31782,0.39291,1.2713,-0.16064,-2.9913,34.562,0.54456,-0.18152,-1.9074,0.72608,7.3397e-12,-0.95371,0,0,0.25,-0,-0,0.66667
0.34398,0.73087,1.3759,0.3463,6.3547,32.484,-1.2706,0.42354,-1.5739,-1.6942,-7.3952e-13,-0.78696,0,0,0.25,-5.9212e-16,0,0.66667
0.36417,0.16084,1.4567,-0.50873,-9.2535,30.957,1.9762,-0.65872,-1.0798,2.6349,-1.6828e-12,-0.53991,0,0,0.25,-0,-0,0.66667
0.56665,0.61345,2.2666,0.17017,2.3705,16.195,-1.0285,0.34284,-1.8964,-1.3714,-1.1148e-12,-0.94822,0,0,0.25,-0,-0,0.66667
0.041687,0.76339,0.16675,0.39508,8.2473,58.776,-0.17568,0.05856,-1.4442,-0.23424,5.8438e-09,-0.72209,0,0,0.25,-0,-0,0.66667
0.65997,0.70672,2.6399,0.31009,3.5839,10.788,-2.1829,0.72764,-1.6576,-2.9105,1.9527e-12,-0.82878,0,0,0.25,-0,-0,0.66667
0.20163,0.8168,0.80653,0.4752,9.5596,44.521,-1.022,0.34068,-1.1978,-1.3627,-1.9664e-10,-0.59892,0,0,0.25,-0,-0,0.66667
0.41646,0.2235,1.6659,-0.41476,-7.1455,26.839,1.8425,-0.61415,-1.3883,2.4566,-1.897e-12,-0.69416,0,0,0.25,-0,-0,0.66667
0.45089,0.16681,1.8036,-0.49979,-8.3324,24.332,2.4037,-0.80125,-1.1117,3.205,-9.9121e-13,-0.55585,0,0,0.25,-0,-0,0.66667
0.34873,0.88002,1.3949,0.57003,10.541,32.229,-2.1204,0.70679,-0.84463,-2.8272,1.136e-12,-0.42232,0,0,0.25,-0,-0,0.66667
0.38328,0.36035,1.5331,-0.20947,-3.6996,29.309,0.85639,-0.28546,-1.843,1.1419,-1.4097e-12,-0.9215,0,0,0.25,5.9212e-16,0,0.66667
0.18031,0.54288,0.72122,0.064326,1.2904,46.316,-0.12372,0.041238,-1.9844,-0.16495,-1.9059e-10,-0.9922,0,0,0.25,2.9606e-16,0,0.66667
0.06813,0.81761,0.27252,0.47642,9.9507,56.392,-0.34622,0.11541,-1.1928,-0.46163,4.4029e-09,-0.59642,0,0,0.25,-0,-0,0.66667
0.55126,0.16418,2.205,-0.50373,-7.3194,17.405,2.962,-0.98733,-1.0975,3.9493,8.1712e-13,-0.54873,0,0,0.25,-1.1842e-15,0,0.66667
0.59587,0.4447,2.3835,-0.082947,-1.0935,14.357,0.5272,-0.17573,-1.9757,0.70294,4.6019e-13,-0.98786,0,0,0.25,-0,-0,0.66667
0.1455,0.37933,0.582,-0.181,-3.6803,49.411,0.28092,-0.09364,-1.8836,0.37456,5.2562e-11,-0.94179,0,0,0.25,-5.9212e-16,0,0.66667
0.23094,0.15872,0.92377,-0.51192,-10.179,41.998,1.2611,-0.42035,-1.0688,1.6814,1.0154e-10,-0.53442,0,0,0.25,-5.9212e-16,0,0.66667
0.28638,0.74191,1.1455,0.36287,6.9442,37.23,-1.1084,0.36948,-1.5314,-1.4779,-2.5287e-11,-0.76569,0,0,0.25,2.9606e-16,0,0.66667
0.83075,0.99515,3.323,0.74273,4.9012,4.0803,-6.5816,2.1939,-0.038974,-8.7754,-1.347e-09,-0.019487,0,0,0.25,5.9212e-16,0,0.66667
0.15342,0.031936,0.61368,-0.7021,-14.575,48.831,1.149,-0.38299,-0.24841,1.532,-8.2823e-10,-0.12421,0,0,0.25,-0,-0,0.66667
0.55214,0.032638,2.2086,-0.70104,-10.345,17.581,4.1288,-1.3763,-0.25313,5.505,2.9399e-13,-0.12657,0,0,0.25,-2.3685e-15,0,0.66667
0.56814,0.19799,2.2726,-0.45302,-6.3771,16.278,2.7454,-0.91512,-1.2696,3.6605,1.2927e-12,-0.63479,0,0,0.25,-0,-0,0.66667
0.34342,0.76378,1.3737,0.39568,7.279,32.552,-1.4494,0.48314,-1.4436,-1.9326,-3.6382e-13,-0.72178,0,0,0.25,-0,-0,0.66667
0.35062,0.99772,1.4025,0.74658,13.965,32.223,-2.7921,0.93071,-0.018469,-3.7229,-1.1544e-12,-0.0092347,0,0,0.25,1.8504e-15,0,0.66667
0.95911,0.57855,3.8364,0.11782,0.13431,0.39608,-1.2053,0.40178,-1.9497,-1.6071,1.846e-07,-0.97486,0,0,0.25,-0,-0,0.66667
0.55334,0.21879,2.2134,-0.42181,-6.0751,17.196,2.4897,-0.82988,-1.3681,3.3195,7.7538e-13,-0.68406,0,0,0.25,-0,-0,0.66667
0.65273,0.84955,2.6109,0.52433,6.2635,11.386,-3.6506,1.2169,-1.0226,-4.8675,-1.3611e-12,-0.51129,0,0,0.25,-0,-0,0.66667
0.49074,0.44587,1.963,-0.081192,-1.2682,21.266,0.42501,-0.14167,-1.976,0.56668,-2.6146e-13,-0.98799,0,0,0.25,1.1842e-15,0,0.66667
0.64665,0.085672,2.5866,-0.62149,-7.6008,11.846,4.2868,-1.4289,-0.62612,5.7157,9.1749e-13,-0.31306,0,0,0.25,-0,-0,0.66667
0.60525,0.7387,2.421,0.35805,4.679,13.922,-2.3116,0.77052,-1.5436,-3.0821,-2.2016e-12,-0.7718,0,0,0.25,5.9212e-16,0,0.66667
0.14517,0.082599,0.58069,-0.6261,-12.965,49.533,0.96953,-0.32318,-0.60558,1.2927,9.4645e-10,-0.30279,0,0,0.25,-1.4803e-16,0,0.66667
0.33468,0.095343,1.3387,-0.60699,-11.376,33.385,2.1669,-0.7223,-0.69043,2.8892,-1.1262e-12,-0.34521,0,0,0.25,-0,-0,0.66667
0.46043,0.92953,1.8417,0.64429,10.732,23.772,-3.1643,1.0548,-0.52347,-4.2191,2.6268e-13,-0.26174,0,0,0.25,-0,-0,0.66667
0.12782,0.81493,0.51129,0.47239,9.7467,51.034,-0.64407,0.21469,-1.2073,-0.85876,-2.4878e-09,-0.60366,0,0,0.25,2.9606e-16,0,0.66667
0.36307,0.98364,1.4523,0.72547,13.409,31.217,-2.8096,0.93652,-0.12807,-3.7461,4.1989e-13,-0.064033,0,0,0.25,-0,-0,0.66667
0.22814,0.20279,0.91257,-0.44581,-8.8474,42.213,1.0849,-0.36163,-1.2924,1.4465,1.2209e-10,-0.6462,0,0,0.25,-2.9606e-16,0,0.66667
0.8475,0.71505,3.39,0.32258,1.7855,2.9045,-2.9161,0.97205,-1.6304,-3.8882,7.0737e-10,-0.81518,0,0,0.25,-2.9606e-16,0,0.66667
0.34147,0.44094,1.3659,-0.08859,-1.6186,32.619,0.32268,-0.10756,-1.9728,0.43024,1.2462e-12,-0.98639,0,0,0.25,-0,-0,0.66667
0.22679,0.76364,0.90716,0.39547,7.8361,42.313,-0.95666,0.31889,-1.443,-1.2756,-1.5068e-10,-0.72148,0,0,0.25,-0,-0,0.66667
0.40818,0.28952,1.6327,-0.31572,-5.4617,27.418,1.3746,-0.45821,-1.6457,1.8328,-2.059e-12,-0.82285,0,0,0.25,-0,-0,0.66667
0.68306,0.37592,2.7323,-0.18612,-2.0161,9.5041,1.3561,-0.45202,-1.8776,1.8081,-8.5186e-12,-0.93879,0,0,0.25,2.3685e-15,0,0.66667
0.065622,0.75153,0.26249,0.3773,7.85,56.609,-0.2641,0.088032,-1.4947,-0.35213,4.3829e-09,-0.74735,0,0,0.25,-0,-0,0.66667
0.18073,0.67955,0.72292,0.26933,5.4211,46.3,-0.5192,0.17307,-1.7415,-0.69227,-3.0459e-10,-0.87076,0,0,0.25,2.9606e-16,0,0.66667
0.69431,0.14693,2.7772,-0.5296,-5.6969,9.2402,3.9222,-1.3074,-1.002,5.2296,-3.4943e-12,-0.50101,0,0,0.25,-0,-0,0.66667
0.75226,0.021328,3.009,-0.71801,-6.6145,6.8983,5.7613,-1.9204,-0.16687,7.6818,-8.2867e-13,-0.083435,0,0,0.25,1.1842e-15,0,0.66667
0.61775,0.20667,2.471,-0.43999,-5.6361,13.258,2.8993,-0.96643,-1.3108,3.8657,2.0051e-12,-0.65538,0,0,0.25,-0,-0,0.66667
0.8792,0.47542,3.5168,-0.036873,-0.15712,1.8818,0.3458,-0.11527,-1.995,0.46107,-7.0947e-09,-0.9975,0,0,0.25,2.3685e-15,0,0.66667
0.1688,0.90146,0.6752,0.6022,12.356,47.44,-1.0843,0.36143,-0.71091,-1.4457,-1.0347e-09,-0.35545,0,0,0.25,1.7396e-16,-2.1233e-16,0.66667
0.70355,0.018279,2.8142,-0.72258,-7.7547,9.0913,5.4226,-1.8075,-0.14377,7.2302,3.5039e-13,-0.071883,0,0,0.25,-2.3685e-15,0,0.66667
0.91726,0.070885,3.669,-0.64367,-2.0794,1.7125,6.2978,-2.0993,-0.52646,8.397,-3.9637e-08,-0.26323,0,0,0.25,-0,-0,0.66667
0.15074,0.52781,0.60296,0.041709,0.84533,48.936,-0.067064,0.022355,-1.994,-0.089418,-1.872e-09,-0.99698,0,0,0.25,-2.9606e-16,0,0.66667
0.24376,0.012721,0.97506,-0.73092,-14.645,41.017,1.9005,-0.6335,-0.099583,2.534,8.4587e-12,-0.049791,0,0,0.25,-0,-0,0.66667
0.54668,0.99856,2.1867,0.74785,11.183,17.998,-4.3609,1.4536,-0.013119,-5.8146,-2.4913e-13,-0.0065597,0,0,0.25,2.2945e-15,0,0.66667
0.34412,0.48962,1.3765,-0.01557,-0.28374,32.4,0.057151,-0.01905,-1.9995,0.076201,-2.1133e-13,-0.99975,0,0,0.25,-2.9606e-16,0,0.66667
0.69064,0.82371,2.7626,0.48556,5.2533,9.3671,-3.5771,1.1924,-1.1613,-4.7694,4.6489e-12,-0.58065,0,0,0.25,-0,-0,0.66667
0.057568,0.96696,0.23027,0.70045,14.841,57.373,-0.43011,0.14337,-0.25607,-0.57348,1.3443e-06,-0.12803,0,0,0.25,-8.3267e-17,0,0.66667
0.16076,0.2414,0.64306,-0.3879,-7.8955,48.087,0.66517,-0.22172,-1.4646,0.88689,7.7733e-10,-0.7323,0,0,0.25,1.4803e-16,0,0.66667
0.71624,0.22011,2.865,-0.41983,-4.1937,8.0536,3.2075,-1.0692,-1.3743,4.2766,-2.3276e-11,-0.68716,0,0,0.25,-0,-0,0.66667
0.97062,0.96997,3.8825,0.70495,0.82283,1.097,-7.2986,2.4329,-0.23424,-9.7314,-6.0678e-06,-0.11712,0,0,0.25,-2.3685e-15,0,0.66667
0.92955,0.34051,3.7182,-0.23924,-0.56843,0.90737,2.3721,-0.79071,-1.7966,3.1628,2.1732e-08,-0.89828,0,0,0.25,-0,-0,0.66667
0.90107,0.20697,3.6043,-0.43954,-1.5952,1.6778,4.2246,-1.4082,-1.3123,5.6328,-4.6394e-10,-0.65617,0,0,0.25,-0,-0,0.66667
0.12774,0.17241,0.51097,-0.49138,-10.148,51.045,0.66956,-0.22319,-1.141,0.89274,2.7248e-09,-0.57051,0,0,0.25,-0,-0,0.66667
0.14593,0.30722,0.58372,-0.28918,-5.8941,49.386,0.45013,-0.15004,-1.7026,0.60017,2.1748e-10,-0.85128,0,0,0.25,-2.2204e-16,0,0.66667
0.072265,0.42631,0.28906,-0.11053,-2.2826,55.992,0.085198,-0.028399,-1.9558,0.1136,7.7096e-08,-0.97789,0,0,0.25,-7.4015e-17,0,0.66667
0.54254,0.11519,2.1702,-0.57721,-8.5519,18.048,3.3404,-1.1135,-0.81489,4.4538,2.3093e-13,-0.40745,0,0,0.25,-5.9212e-16,0,0.66667
0.88249,0.37526,3.5299,-0.18711,-0.7807,1.8531,1.7613,-0.58711,-1.8762,2.3485,6.2084e-09,-0.93808,0,0,0.25,-0,-0,0.66667
0.53179,0.78252,2.1272,0.42378,6.3156,18.61,-2.4039,0.80129,-1.363,-3.2051,-8.1779e-13,-0.68152,0,0,0.25,-0,-0,0.66667
0.78172,0.38596,3.1269,-0.17106,-1.3247,5.0477,1.4264,-0.47546,-1.8963,1.9018,-1.0451e-10,-0.94813,0,0,0.25,2.3685e-15,0,0.66667
0.18845,0.301,0.75382,-0.2985,-5.9953,45.626,0.60003,-0.20001,-1.6833,0.80005,3.2481e-10,-0.84166,0,0,0.25,-2.9606e-16,0,0.66667
0.86311,0.71527,3.4524,0.32291,1.6034,2.4617,-2.9729,0.99096,-1.6296,-3.9638,3.6674e-10,-0.81482,0,0,0.25,-1.4803e-15,0,0.66667
0.18742,0.90243,0.7497,0.60365,12.302,45.809,-1.2068,0.40227,-0.70562,-1.6091,-2.2455e-11,-0.35281,0,0,0.25,7.4015e-17,1.2693e-16,0.66667
0.054764,0.79497,0.21906,0.44246,9.2426,57.596,-0.25846,0.086155,-1.3029,-0.34462,2.8227e-09,-0.65147,0,0,0.25,-0,-0,0.66667
0.42149,0.62865,1.686,0.19298,3.2803,26.358,-0.8676,0.2892,-1.8688,-1.1568,1.368e-12,-0.93438,0,0,0.25,1.1842e-15,0,0.66667
0.5551,0.16386,2.2204,-0.50421,-7.2808,17.157,2.9855,-0.99516,-1.0955,3.9806,7.3586e-13,-0.54777,0,0,0.25,-0,-0,0.66667
0.97074,0.74895,3.883,0.37342,0.29551,0.47877,-3.8666,1.2889,-1.5054,-5.1555,4.0863e-11,-0.7527,0,0,0.25,-1.3323e-15,0,0.66667
0.091754,0.59239,0.36702,0.13858,2.8534,54.231,-0.13563,0.045209,-1.9329,-0.18084,-4.1498e-08,-0.96643,0,0,0.25,-1.8504e-17,0,0.66667
0.27392,0.28359,1.0957,-0.32461,-6.2516,38.265,0.94846,-0.31615,-1.6256,1.2646,4.0632e-11,-0.81279,0,0,0.25,1.1842e-15,0,0.66667
0.10511,0.48108,0.42043,-0.028376,-0.58214,53.024,0.031814,-0.010605,-1.9965,0.042418,6.1162e-09,-0.99824,0,0,0.25,-0,-0,0.66667
0.39044,0.77681,1.5618,0.41522,7.3396,28.838,-1.7292,0.57641,-1.3881,-2.3057,2.2795e-12,-0.69406,0,0,0.25,-0,-0,0.66667
0.28901,0.22681,1.156,-0.40979,-7.8443,37.028,1.2633,-0.4211,-1.4023,1.6844,1.9996e-11,-0.70116,0,0,0.25,-5.9212e-16,0,0.66667
0.5133,0.075364,2.0532,-0.63695,-9.9046,20.062,3.4875,-1.1625,-0.55717,4.6499,-9.1038e-14,-0.27858,0,0,0.25,-0,3.3699e-16,0.66667
0.34826,0.67315,1.393,0.25972,4.7353,32.107,-0.96478,0.32159,-1.7594,-1.2864,-1.1369e-12,-0.8797,0,0,0.25,-5.9212e-16,0,0.66667
0.92823,0.41132,3.7129,-0.13302,-0.31758,0.86496,1.3171,-0.43903,-1.9369,1.7561,5.331e-08,-0.96845,0,0,0.25,-0,-0,0.66667
0.78995,0.43275,3.1598,-0.10088,-0.75134,4.706,0.85,-0.28333,-1.9637,1.1333,-5.1564e-11,-0.98183,0,0,0.25,1.7764e-15,0,0.66667
0.86101,0.8875,3.444,0.58124,3.0719,2.8768,-5.3382,1.7794,-0.79865,-7.1176,4.2177e-10,-0.39933,0,0,0.25,-0,-0,0.66667
0.1295,0.053844,0.518,-0.66923,-13.958,50.936,0.92444,-0.30815,-0.40713,1.2326,9.939e-10,-0.20357,0,0,0.25,1.4803e-16,0,0.66667
0.57507,0.27064,2.3003,-0.34403,-4.7537,15.755,2.1103,-0.70344,-1.5788,2.8138,1.6442e-12,-0.78941,0,0,0.25,-0,-0,0.66667
0.21478,0.17028,0.85913,-0.49458,-9.9013,43.386,1.1331,-0.3777,-1.1296,1.5108,1.4714e-10,-0.5648,0,0,0.25,-0,-0,0.66667
0.86824,0.10273,3.473,-0.59591,-3.0012,2.7112,5.5188,-1.8396,-0.73673,7.3584,-4.4704e-09,-0.36837,0,0,0.25,-0,-0,0.66667
0.015019,0.60019,0.060078,0.15028,3.1212,61.189,-0.024076,0.0080255,-1.9204,-0.032102,1.6199e-08,-0.9602,0,0,0.25,-0,-0,0.66667
0.10574,0.29871,0.42298,-0.30193,-6.2216,52.984,0.34056,-0.11352,-1.6753,0.45408,1.0299e-09,-0.83763,0,0,0.25,2.2803e-17,0,0.66667
0.37606,0.61931,1.5042,0.17896,3.1795,29.868,-0.71786,0.23929,-1.8868,-0.95715,6.4876e-13,-0.94339,0,0,0.25,2.9606e-16,0,0.66667
0.40209,0.93865,1.6084,0.65798,11.679,28.124,-2.8221,0.94069,-0.46143,-3.7628,5.1958e-13,-0.23071,0,0,0.25,-0,-4.02e-19,0.66667
0.27722,0.74272,1.1089,0.36408,7.0078,38,-1.0766,0.35886,-1.5285,-1.4354,-3.514e-11,-0.76425,0,0,0.25,2.9606e-16,0,0.66667
0.096063,0.90372,0.38425,0.60558,12.677,53.902,-0.62053,0.20684,-0.69691,-0.82737,7.4368e-09,-0.34845,0,0,0.25,1.8504e-17,0,0.66667
0.11873,0.047085,0.47492,-0.67937,-14.218,51.896,0.8604,-0.2868,-0.35799,1.1472,3.3726e-09,-0.179,0,0,0.25,1.4803e-16,0,0.66667
0.31794,0.85232,1.2718,0.52849,9.9794,34.695,-1.7923,0.59744,-1.0064,-2.3898,-1.1754e-12,-0.5032,0,0,0.25,-0,-0,0.66667
0.95079,0.10084,3.8032,-0.59873,-1.0994,1.088,6.0722,-2.0241,-0.72555,8.0963,-5.7899e-09,-0.36277,0,0,0.25,-0,-0,0.66667
0.20741,0.15554,0.82963,-0.51669,-10.39,44.034,1.1431,-0.38103,-1.0516,1.5241,1.7763e-10,-0.52581,0,0,0.25,-3.7007e-16,0,0.66667
0.74728,0.73713,2.9891,0.3557,3.19,6.5911,-2.8353,0.9451,-1.5497,-3.7804,7.4445e-11,-0.77487,0,0,0.25,-0,-0,0.66667
0.25819,0.083307,1.0328,-0.62504,-12.334,39.729,1.7214,-0.57379,-0.61012,2.2952,9.0847e-12,-0.30506,0,0,0.25,2.9606e-16,0,0.66667
0.03724,0.51511,0.14896,0.022668,0.4697,59.168,-0.0090049,0.0030011,-1.9972,-0.012007,-8.3473e-07,-0.99862,0,0,0.25,-0,-0,0.66667
0.016052,0.10748,0.064209,-0.58878,-12.426,61.105,0.10081,-0.033604,-0.76761,0.13442,-2.2538e-07,-0.38381,0,0,0.25,-0,-0,0.66667
0.15271,0.48613,0.61082,-0.020811,-0.42149,48.761,0.033898,-0.011299,-1.9979,0.045198,-1.3233e-09,-0.99893,0,0,0.25,-0,-0,0.66667
0.46208,0.31167,1.8483,-0.2825,-4.5985,23.378,1.3924,-0.46414,-1.7168,1.8566,-6.7124e-13,-0.8584,0,0,0.25,-7.7716e-16,0,0.66667
0.7559,0.25769,3.0236,-0.36347,-3.1613,6.2316,2.9307,-0.97688,-1.5298,3.9075,-9.6584e-11,-0.76489,0,0,0.25,-0,-0,0.66667
0.72881,0.74553,2.9153,0.36829,3.5205,7.4207,-2.8631,0.95437,-1.5177,-3.8175,4.2458e-11,-0.75885,0,0,0.25,-1.4803e-15,0,0.66667
0.35239,0.71762,1.4096,0.32643,5.9448,31.8,-1.227,0.409,-1.6216,-1.636,3.5261e-13,-0.8108,0,0,0.25,-1.6988e-16,0,0.66667
0.47914,0.78415,1.9166,0.42622,6.837,22.237,-2.1783,0.72612,-1.3543,-2.9045,2.2937e-13,-0.67717,0,0,0.25,1.1842e-15,0,0.66667
0.81407,0.49966,3.2563,-0.00050605,-0.0033455,3.8206,0.0043943,-0.0014648,-2.0015,0.005859,5.9138e-10,-1.0007,0,0,0.25,1.2212e-15,0,0.66667
0.8384,0.92464,3.3536,0.63697,3.9334,3.6288,-5.6964,1.8988,-0.5566,-7.5951,1.8717e-10,-0.2783,0,0,0.25,-0,-0,0.66667
0.31992,0.86752,1.2797,0.55128,10.409,34.547,-1.8812,0.62708,-0.91888,-2.5083,-5.0837e-13,-0.45944,0,0,0.25,-0,-0,0.66667
0.004265,0.70859,0.01706,0.31288,6.5239,62.168,-0.014234,0.0047447,-1.6514,-0.018979,-1.0785e-08,-0.8257,0,0,0.25,-0,-0,0.66667
0.046931,0.6721,0.18772,0.25816,5.3625,58.293,-0.12923,0.043077,-1.7633,-0.17231,-2.261e-09,-0.88166,0,0,0.25,7.4015e-17,0,0.66667
0.73781,0.43735,2.9512,-0.093982,-0.85957,6.8509,0.73963,-0.24654,-1.9697,0.98618,-3.0118e-11,-0.98484,0,0,0.25,1.3785e-15,0,0.66667
0.27263,0.27182,1.0905,-0.34226,-6.6008,38.379,0.99533,-0.33178,-1.5828,1.3271,4.1856e-11,-0.79138,0,0,0.25,-2.9606e-16,0,0.66667
0.48149,0.45736,1.9259,-0.063954,-1.011,21.919,0.32846,-0.10949,-1.9851,0.43794,-1.6762e-13,-0.99255,0,0,0.25,-0,-0,0.66667
0.19203,0.87317,0.76813,0.55976,11.357,45.389,-1.1466,0.38219,-0.88649,-1.5288,-2.0799e-10,-0.44325,0,0,0.25,3.7007e-17,0,0.66667
0.84711,0.65464,3.3885,0.23197,1.2751,2.8404,-2.096,0.69867,-1.8095,-2.7947,1.1619e-09,-0.90474,0,0,0.25,1.6283e-15,0,0.66667
0.50338,0.3426,2.0135,-0.2361,-3.6365,20.426,1.2677,-0.42257,-1.8027,1.6903,3.4694e-13,-0.90134,0,0,0.25,-8.8818e-16,0,0.66667
0.52716,0.59032,2.1086,0.13548,2.0107,18.768,-0.76184,0.25395,-1.9351,-1.0158,-5.8936e-13,-0.96753,0,0,0.25,5.9212e-16,0,0.66667
0.28808,0.59184,1.1523,0.13776,2.6174,37.03,-0.42333,0.14111,-1.9329,-0.56443,-1.8322e-11,-0.96643,0,0,0.25,4.2644e-17,0,0.66667
0.512,0.0050055,2.048,-0.74249,-11.679,20.283,4.055,-1.3517,-0.040004,5.4067,-3.2507e-13,-0.020002,0,0,0.25,2.3685e-15,0,0.66667
0.0019636,0.26462,0.0078546,-0.35307,-7.3719,62.377,0.0073953,-0.0024651,-1.5565,0.0098604,-3.8485e-09,-0.77825,0,0,0.25,-0,-0,0.66667
0.2773,0.82272,1.1092,0.48407,9.3681,38.044,-1.4318,0.47727,-1.1664,-1.9091,-2.1181e-11,-0.58318,0,0,0.25,-0,-0,0.66667
0.34876,0.43918,1.3951,-0.091233,-1.6571,32.03,0.3394,-0.11313,-1.9709,0.45253,9.5762e-13,-0.98547,0,0,0.25,-0,-0,0.66667
0.28395,0.056621,1.1358,-0.66507,-12.961,37.591,2.0144,-0.67145,-0.42754,2.6858,7.474e-13,-0.21377,0,0,0.25,-0,-0,0.66667
0.085952,0.497,0.34381,-0.0044972,-0.092605,54.752,0.0041232,-0.0013745,-2,0.0054975,-1.434e-07,-1,0,0,0.25,-2.2204e-16,0,0.66667
0.52178,0.62559,2.0871,0.18839,2.8218,19.147,-1.0485,0.3495,-1.8744,-1.398,-1.753e-13,-0.93722,0,0,0.25,-2.3685e-15,0,0.66667
0.78848,0.46064,3.1539,-0.059035,-0.44221,4.7522,0.49651,-0.1655,-1.987,0.66201,-7.5653e-11,-0.9935,0,0,0.25,-0,-0,0.66667
0.9426,0.42139,3.7704,-0.11791,-0.21341,0.62435,1.1855,-0.39517,-1.9497,1.5807,7.5675e-08,-0.97486,0,0,0.25,-1.1842e-15,0,0.66667
0.49729,0.57243,1.9892,0.10864,1.6825,20.811,-0.57628,0.19209,-1.9578,-0.76838,-1.5182e-13,-0.97891,0,0,0.25,-0,-0,0.66667
0.59375,0.57209,2.375,0.10814,1.4318,14.49,-0.68486,0.22829,-1.959,-0.91315,-9.2915e-13,-0.97949,0,0,0.25,-0,-0,0.66667
0.29086,0.61677,1.1634,0.17516,3.324,36.803,-0.54344,0.18115,-1.8904,-0.72458,-1.9785e-11,-0.94518,0,0,0.25,-0,-0,0.66667
0.14916,0.66568,0.59664,0.24852,5.0548,49.093,-0.39541,0.1318,-1.7797,-0.52721,-8.7142e-10,-0.88984,0,0,0.25,-0,-0,0.66667
0.13187,0.73447,0.52749,0.35171,7.2125,50.649,-0.49472,0.16491,-1.5592,-0.65963,-4.381e-10,-0.7796,0,0,0.25,-0,-0,0.66667
0.73236,0.34327,2.9294,-0.2351,-2.2017,7.1558,1.8366,-0.61219,-1.8048,2.4487,-4.6824e-11,-0.9024,0,0,0.25,-2.9606e-16,0,0.66667
0.73447,0.44013,2.9379,-0.089805,-0.83072,6.9992,0.70356,-0.23452,-1.9728,0.93809,-2.542e-11,-0.98639,0,0,0.25,-0,-0,0.66667
0.17935,0.52526,0.7174,0.03789,0.76028,46.399,-0.072486,0.024162,-1.9945,-0.096648,-1.671e-10,-0.99727,0,0,0.25,-0,-0,0.66667
0.41356,0.24938,1.6542,-0.37593,-6.4841,27.037,1.6584,-0.55279,-1.4981,2.2112,-2.1275e-12,-0.74904,0,0,0.25,-1.8504e-16,0,0.66667
0.59414,0.30618,2.3766,-0.29072,-3.8686,14.544,1.8425,-0.61416,-1.7003,2.4566,1.8231e-12,-0.85013,0,0,0.25,-0,-0,0.66667
0.12528,0.028402,0.50113,-0.7074,-14.809,51.322,0.94532,-0.31511,-0.22211,1.2604,-4.7719e-09,-0.11106,0,0,0.25,-7.4015e-17,0,0.66667
0.78537,0.53462,3.1415,0.051929,0.39436,4.8698,-0.43503,0.14501,-1.9908,-0.58004,8.9316e-11,-0.99538,0,0,0.25,-0,-0,0.66667
0.61999,0.97729,2.48,0.71594,9.3654,13.48,-4.7347,1.5782,-0.17703,-6.3129,-2.216e-13,-0.088517,0,0,0.25,-0,-0,0.66667
0.61522,0.1438,2.4609,-0.53431,-6.9307,13.506,3.5063,-1.1688,-0.9841,4.6751,1.5776e-12,-0.49205,0,0,0.25,-5.9212e-16,0,0.66667
0.70121,0.72359,2.8048,0.33538,3.4803,8.6929,-2.5085,0.83617,-1.6006,-3.3447,1.7313e-11,-0.80031,0,0,0.25,-0,-0,0.66667
0.98718,0.23065,3.9487,-0.40402,-0.052241,0.37306,4.2543,-1.4181,-1.4192,5.6724,-7.3973e-09,-0.70962,0,0,0.25,-0,-0,0.66667
0.56239,0.94628,2.2496,0.66942,9.6847,16.885,-4.0158,1.3386,-0.40724,-5.3544,-2.6423e-13,-0.20362,0,0,0.25,-0,-2.3929e-16,0.66667
0.86442,0.18481,3.4577,-0.47279,-2.3834,2.6096,4.3593,-1.4531,-1.2056,5.8124,-4.7112e-11,-0.60279,0,0,0.25,-0,-0,0.66667
0.41871,0.46732,1.6748,-0.049024,-0.83401,26.543,0.21895,-0.072983,-1.9923,0.29193,7.8382e-14,-0.99616,0,0,0.25,-7.4015e-16,0,0.66667
0.65447,0.36218,2.6179,-0.20673,-2.4098,11.022,1.4432,-0.48106,-1.8479,1.9242,-1.7989e-12,-0.92394,0,0,0.25,-1.1842e-15,0,0.66667
0.92526,0.89516,3.701,0.59274,1.6897,1.4662,-5.85,1.95,-0.75034,-7.8001,9.4776e-08,-0.37517,0,0,0.25,-0,-0,0.66667
0.66415,0.023376,2.6566,-0.71494,-8.4863,11.054,5.0648,-1.6883,-0.18205,6.7531,7.2831e-14,-0.091027,0,0,0.25,1.1842e-15,0,0.66667
0.30308,0.34674,1.2123,-0.2299,-4.3324,35.796,0.74322,-0.24774,-1.8123,0.99096,1.5382e-11,-0.90613,0,0,0.25,-0,-0,0.66667
0.61995,0.97933,2.4798,0.71899,9.4094,13.488,-4.7545,1.5848,-0.16131,-6.3393,-1.5321e-13,-0.080656,0,0,0.25,-0,-0,0.66667
0.35132,0.026396,1.4053,-0.71041,-13.242,32.134,2.6622,-0.88739,-0.20541,3.5496,-3.8924e-13,-0.1027,0,0,0.25,2.9606e-16,0,0.66667
0.32237,0.86407,1.2895,0.5461,10.29,34.344,-1.8778,0.62594,-0.93888,-2.5038,-1.6898e-13,-0.46944,0,0,0.25,-2.9606e-16,0,0.66667
0.61021,0.77502,2.4408,0.41253,5.3559,13.674,-2.6851,0.89504,-1.3956,-3.5801,-2.0777e-12,-0.69778,0,0,0.25,-0,-0,0.66667
0.16032,0.98614,0.64129,0.72922,15.134,48.235,-1.247,0.41568,-0.10863,-1.6627,1.047e-10,-0.054314,0,0,0.25,-2.9606e-16,0,0.66667
0.48674,0.56437,1.947,0.096555,1.5164,21.55,-0.5013,0.1671,-1.9678,-0.6684,-1.2573e-13,-0.9839,0,0,0.25,1.1842e-15,0,0.66667
0.94563,0.87144,3.7825,0.55716,1.1116,1.0776,-5.6199,1.8733,-0.89629,-7.4932,1.2063e-07,-0.44815,0,0,0.25,-1.4803e-15,0,0.66667
0.38391,0.026221,1.5357,-0.71067,-12.884,29.574,2.9102,-0.97008,-0.20408,3.8803,-6.195e-14,-0.10204,0,0,0.25,5.9212e-16,0,0.66667
0.18896,0.3976,0.75585,-0.1536,-3.074,45.56,0.3096,-0.1032,-1.9163,0.4128,1.9023e-10,-0.95815,0,0,0.25,-1.4803e-16,0,0.66667
0.46884,0.25317,1.8754,-0.37025,-5.9991,22.937,1.8516,-0.61719,-1.514,2.4688,-8.632e-13,-0.75698,0,0,0.25,-0,-0,0.66667
0.84091,0.14734,3.3636,-0.52898,-3.15,3.3651,4.7448,-1.5816,-1.0049,6.3264,-5.5985e-10,-0.50245,0,0,0.25,-0,-0,0.66667
0.84267,0.0057302,3.3707,-0.7414,-4.5756,3.7165,6.6641,-2.2214,-0.046227,8.8854,-1.0735e-09,-0.023113,0,0,0.25,-0,1.7733e-16,0.66667
0.8278,0.069263,3.3112,-0.64611,-4.2411,3.9752,5.7051,-1.9017,-0.51647,7.6067,6.7999e-12,-0.25823,0,0,0.25,-0,-2.0082e-16,0.66667
0.011476,0.066649,0.045902,-0.65003,-13.771,61.52,0.079566,-0.026524,-0.49786,0.10609,-2.1761e-06,-0.24893,0,0,0.25,-0,-0,0.66667
0.26704,0.75264,1.0682,0.37896,7.3434,38.865,-1.0794,0.35982,-1.4904,-1.4393,-4.6964e-11,-0.74521,0,0,0.25,-0,-0,0.66667
0.99988,0.8338,3.9995,0.50071,-0.15924,0.44635,-5.3402,1.7801,-1.1091,-7.1203,1.6249e-07,-0.55454,0,0,0.25,-0,-1.8232e-17,0.66667
0.11968,0.26451,0.47873,-0.35324,-7.2674,51.74,0.45095,-0.15032,-1.5555,0.60126,1.25e-09,-0.77775,0,0,0.25,-0,-0,0.66667
0.49009,0.72365,1.9604,0.33547,5.2812,21.404,-1.7537,0.58457,-1.5998,-2.3383,2.1683e-13,-0.79988,0,0,0.25,-1.1842e-15,0,0.66667
0.79003,0.21443,3.1601,-0.42836,-3.2663,4.9465,3.6098,-1.2033,-1.3475,4.813,-2.1619e-10,-0.67375,0,0,0.25,-1.4803e-15,0,0.66667
0.12221,0.62741,0.48886,0.19111,3.9118,51.494,-0.24913,0.083044,-1.8709,-0.33217,5.9392e-09,-0.93545,0,0,0.25,2.9606e-16,0,0.66667
0.66241,0.7714,2.6496,0.4071,4.7065,10.739,-2.8765,0.95882,-1.41,-3.8353,8.6375e-13,-0.70501,0,0,0.25,-0,-0,0.66667
0.48808,0.77185,1.9523,0.40777,6.4593,21.592,-2.1229,0.70765,-1.4084,-2.8306,1.3589e-13,-0.70421,0,0,0.25,-0,-0,0.66667
0.19429,0.75179,0.77716,0.37768,7.5886,45.133,-0.78272,0.26091,-1.4932,-1.0436,-3.3551e-10,-0.74659,0,0,0.25,-0,-0,0.66667
0.87863,0.66892,3.5145,0.25339,1.1016,1.9942,-2.3748,0.79158,-1.7711,-3.1663,1.4921e-09,-0.88557,0,0,0.25,-0,-0,0.66667
0.18149,0.54719,0.72595,0.070791,1.4195,46.212,-0.13704,0.045681,-1.9812,-0.18272,-9.7846e-11,-0.99062,0,0,0.25,-2.9606e-16,0,0.66667
0.63905,0.6496,2.5562,0.22439,2.7129,11.882,-1.5296,0.50987,-1.8214,-2.0395,-2.2893e-13,-0.91068,0,0,0.25,5.9212e-16,0,0.66667
0.74083,0.71345,2.9633,0.32018,2.929,6.8404,-2.5301,0.84338,-1.6353,-3.3735,6.3812e-11,-0.81764,0,0,0.25,-0,-0,0.66667
0.56267,0.3174,2.2507,-0.2739,-3.8548,16.495,1.6439,-0.54797,-1.7343,2.1919,1.1723e-12,-0.86715,0,0,0.25,-1.1842e-15,0,0.66667
0.62884,0.67071,2.5154,0.25606,3.1705,12.478,-1.7175,0.57252,-1.7662,-2.2901,-1.1138e-12,-0.88311,0,0,0.25,-0,-0,0.66667
0.11897,0.69832,0.47586,0.29748,6.1101,51.796,-0.37749,0.12583,-1.6846,-0.50331,9.5248e-10,-0.84229,0,0,0.25,-0,-0,0.66667
0.30804,0.30569,1.2321,-0.29147,-5.4836,35.402,0.95769,-0.31923,-1.6977,1.2769,1.2568e-11,-0.84886,0,0,0.25,-0,-0,0.66667
0.58696,0.82402,2.3478,0.48602,6.6318,15.141,-3.043,1.0143,-1.1592,-4.0573,-1.6145e-12,-0.57962,0,0,0.25,1.1842e-15,0,0.66667
0.39546,0.068938,1.5819,-0.64659,-11.54,28.621,2.7275,-0.90917,-0.51326,3.6367,-2.7356e-13,-0.25663,0,0,0.25,-1.1842e-15,0,0.66667
0.66395,0.084435,2.6558,-0.62335,-7.3235,10.92,4.4146,-1.4715,-0.61772,5.8861,7.7227e-13,-0.30886,0,0,0.25,-0,-0,0.66667
0.85195,0.33421,3.4078,-0.24869,-1.3255,2.7106,2.26,-0.75333,-1.7794,3.0133,-8.291e-10,-0.88968,0,0,0.25,-0,-0,0.66667
0.19022,0.95525,0.76089,0.68287,13.973,45.599,-1.3856,0.46186,-0.34158,-1.8474,-3.8402e-11,-0.17079,0,0,0.25,2.9606e-16,0,0.66667
0.90327,0.37994,3.6131,-0.18009,-0.60831,1.3729,1.7352,-0.57839,-1.885,2.3136,4.5228e-09,-0.94249,0,0,0.25,-0,-0,0.66667
0.38318,0.17095,1.5327,-0.49357,-8.8204,29.453,2.0173,-0.67245,-1.1328,2.6898,-1.9189e-12,-0.56641,0,0,0.25,5.9212e-16,0,0.66667
0.94312,0.51738,3.7725,0.026069,0.046275,0.59424,-0.26225,0.087417,-1.9967,-0.34967,-3.323e-07,-0.99835,0,0,0.25,-0,-0,0.66667
0.61738,0.82548,2.4695,0.48822,6.2813,13.329,-3.2151,1.0717,-1.1515,-4.2868,-1.9151e-12,-0.57577,0,0,0.25,-0,-0,0.66667
0.7901,0.40025,3.1604,-0.14963,-1.1156,4.7176,1.261,-0.42033,-1.9201,1.6813,-1.4351e-10,-0.96003,0,0,0.25,-5.9212e-16,0,0.66667
0.51478,0.39592,2.0591,-0.15612,-2.3609,19.613,0.85727,-0.28576,-1.9136,1.143,2.0156e-13,-0.95678,0,0,0.25,-5.9212e-16,0,0.66667
0.53114,0.32311,2.1246,-0.26534,-3.9282,18.55,1.5033,-0.50109,-1.7501,2.0044,6.1984e-13,-0.87506,0,0,0.25,-0,-0,0.66667
0.32759,0.9063,1.3104,0.60945,11.485,33.961,-2.1296,0.70987,-0.6812,-2.8395,4.5186e-13,-0.3406,0,0,0.25,-0,-0,0.66667
0.12936,0.2785,0.51746,-0.33225,-6.8135,50.87,0.45847,-0.15282,-1.6079,0.61129,4.5127e-10,-0.80396,0,0,0.25,-7.4015e-17,0,0.66667
0.38382,0.86047,1.5353,0.54071,9.6843,29.436,-2.2137,0.73791,-0.9595,-2.9516,1.6427e-12,-0.47975,0,0,0.25,-5.9212e-16,0,0.66667
0.21498,0.73514,0.85991,0.35271,7.0164,43.323,-0.80878,0.26959,-1.557,-1.0784,-2.1046e-10,-0.77852,0,0,0.25,-2.9606e-16,0,0.66667
0.032865,0.56739,0.13146,0.10109,2.0963,59.566,-0.035437,0.011813,-1.9643,-0.04725,2.7727e-07,-0.98214,0,0,0.25,-0,-0,0.66667
0.27489,0.69785,1.0995,0.29677,5.7068,38.175,-0.87018,0.29006,-1.6861,-1.1602,-4.0116e-11,-0.84304,0,0,0.25,5.9212e-16,0,0.66667
0.18058,0.11326,0.7223,-0.5801,-11.836,46.399,1.1174,-0.37246,-0.8026,1.4898,3.4759e-10,-0.4013,0,0,0.25,-0,-0,0.66667
0.87553,0.49453,3.5021,-0.008206,-0.036076,1.9726,0.076636,-0.025545,-2.0006,0.10218,1.5085e-08,-1.0003,0,0,0.25,5.9212e-16,0,0.66667
0.081237,0.69773,0.32495,0.2966,6.1398,55.191,-0.25701,0.085671,-1.6869,-0.34268,3.5458e-09,-0.84344,0,0,0.25,-0,-0,0.66667
0.1839,0.31932,0.73558,-0.27102,-5.4487,46.022,0.53161,-0.1772,-1.7388,0.70882,2.6281e-10,-0.86938,0,0,0.25,-0,-0,0.66667
0.70403,0.1336,2.8161,-0.5496,-5.7648,8.7928,4.1273,-1.3758,-0.92638,5.503,-4.6825e-12,-0.46319,0,0,0.25,-0,-0,0.66667
0.91923,0.11438,3.6769,-0.57844,-1.7763,1.5463,5.6716,-1.8905,-0.8101,7.5621,6.3585e-09,-0.40505,0,0,0.25,1.1842e-15,3.4215e-17,0.66667
0.25146,0.13385,1.0058,-0.54922,-10.827,40.26,1.4731,-0.49104,-0.92767,1.9642,3.1953e-11,-0.46383,0,0,0.25,-0,-0,0.66667
0.021301,0.55831,0.085205,0.087459,1.8146,60.618,-0.019873,0.0066244,-1.9728,-0.026497,2.6137e-07,-0.98641,0,0,0.25,-1.8504e-17,0,0.66667
0.9605,0.04349,3.842,-0.68476,-1.0647,1.1558,7.0157,-2.3386,-0.33187,9.3542,-1.8089e-06,-0.16594,0,0,0.25,-0,-0,0.66667
0.68222,0.17197,2.7289,-0.49205,-5.448,9.7989,3.5807,-1.1936,-1.1383,4.7742,-2.3526e-12,-0.56914,0,0,0.25,-1.1842e-15,0,0.66667
0.31066,0.6582,1.2427,0.23731,4.4494,35.169,-0.78637,0.26212,-1.8008,-1.0485,-1.1762e-11,-0.90042,0,0,0.25,1.1842e-15,0,0.66667
0.47237,0.20238,1.8895,-0.44643,-7.2305,22.735,2.2494,-0.74979,-1.2908,2.9992,-5.4912e-13,-0.64538,0,0,0.25,-0,-0,0.66667
0.59926,0.48702,2.397,-0.019466,-0.25479,14.145,0.12443,-0.041475,-1.9978,0.1659,5.5615e-14,-0.99891,0,0,0.25,-0,-0,0.66667
0.37387,0.86508,1.4955,0.54762,9.9005,30.219,-2.1839,0.72796,-0.9339,-2.9118,1.6369e-12,-0.46695,0,0,0.25,2.9606e-16,2.864e-16,0.66667
0.87449,0.032853,3.498,-0.70072,-3.465,2.7626,6.5362,-2.1787,-0.2557,8.715,5.4859e-09,-0.12785,0,0,0.25,2.3685e-15,0,0.66667
0.72617,0.93322,2.9047,0.64983,6.4582,7.9112,-5.0335,1.6778,-0.49845,-6.7113,3.3262e-12,-0.24922,0,0,0.25,-0,-0,0.66667
0.95434,0.26746,3.8174,-0.34881,-0.50455,0.64035,3.5507,-1.1836,-1.5674,4.7343,4.1992e-09,-0.78368,0,0,0.25,-0,-0,0.66667
0.35107,0.12445,1.4043,-0.56333,-10.393,32.037,2.1095,-0.70316,-0.87228,2.8127,-1.4155e-12,-0.43614,0,0,0.25,-8.1416e-16,0,0.66667
0.93717,0.3407,3.7487,-0.23895,-0.49517,0.78091,2.3887,-0.79623,-1.7983,3.1849,-1.1292e-08,-0.89914,0,0,0.25,5.9212e-16,0,0.66667
0.4791,0.76559,1.9164,0.39838,6.3811,22.221,-2.0359,0.67862,-1.4348,-2.7145,1.4722e-13,-0.71742,0,0,0.25,5.9212e-16,0,0.66667
0.64232,0.090553,2.5693,-0.61417,-7.5786,12.073,4.208,-1.4027,-0.6597,5.6106,7.9714e-13,-0.32985,0,0,0.25,1.7764e-15,0,0.66667
0.73665,0.31012,2.9466,-0.28482,-2.6367,6.9973,2.238,-0.746,-1.7124,2.984,-5.8023e-11,-0.85622,0,0,0.25,1.3323e-15,0,0.66667
0.80934,0.89091,3.2374,0.58637,4.1824,4.48,-5.0621,1.6874,-0.77695,-6.7495,2.1026e-10,-0.38848,0,0,0.25,1.1842e-15,0,0.66667
0.39626,0.89415,1.585,0.59122,10.502,28.512,-2.4989,0.83298,-0.75638,-3.3319,1.0436e-12,-0.37819,0,0,0.25,-5.9212e-16,0,0.66667
0.44795,0.27074,1.7918,-0.34389,-5.7059,24.443,1.6432,-0.54772,-1.5788,2.1909,-1.3487e-12,-0.78942,0,0,0.25,-5.9212e-16,0,0.66667
0.81728,0.33538,3.2691,-0.24692,-1.6208,3.7996,2.1526,-0.71753,-1.7828,2.8701,-4.06e-10,-0.89139,0,0,0.25,5.9212e-16,0,0.66667
0.71756,0.077759,2.8702,-0.63336,-6.4487,8.2787,4.8477,-1.6159,-0.57364,6.4636,-2.4922e-12,-0.28682,0,0,0.25,-0,-0,0.66667
0.94085,0.1697,3.7634,-0.49544,-1.0505,1.0384,4.9721,-1.6574,-1.1267,6.6295,2.669e-08,-0.56335,0,0,0.25,2.3685e-15,0,0.66667
0.9796,0.28008,3.9184,-0.32988,-0.12902,0.34041,3.4469,-1.149,-1.6137,4.5959,-8.1164e-09,-0.80687,0,0,0.25,5.9212e-16,0,0.66667
0.17891,0.3144,0.71565,-0.27841,-5.6092,46.462,0.53131,-0.1771,-1.7247,0.70842,2.8621e-10,-0.86237,0,0,0.25,-0,-0,0.66667
0.22792,0.78968,0.91168,0.43452,8.6198,42.228,-1.0564,0.35212,-1.3281,-1.4085,-1.3404e-10,-0.66404,0,0,0.25,-0,-0,0.66667
0.71599,0.98282,2.8639,0.72423,7.5014,8.5087,-5.5311,1.8437,-0.13461,-7.3748,5.1514e-14,-0.067307,0,0,0.25,-0,2.9314e-16,0.66667
0.74738,0.39468,2.9895,-0.15798,-1.3996,6.4517,1.2594,-0.4198,-1.911,1.6792,-5.2805e-11,-0.95548,0,0,0.25,-0,-0,0.66667
0.60318,0.78779,2.4127,0.43169,5.6903,14.108,-2.7774,0.92581,-1.337,-3.7032,-1.9991e-12,-0.66852,0,0,0.25,-0,-0,0.66667
0.8773,0.2043,3.5092,-0.44355,-2.0114,2.2343,4.1507,-1.3836,-1.3001,5.5343,-2.2144e-09,-0.65007,0,0,0.25,-0,-0,0.66667
0.25199,0.84827,1.008,0.5224,10.28,40.202,-1.4042,0.46805,-1.0303,-1.8722,-3.8276e-11,-0.51513,0,0,0.25,5.9212e-16,0,0.66667
0.33949,0.70518,1.3579,0.30777,5.6598,32.832,-1.1145,0.3715,-1.6625,-1.486,-2.1593e-12,-0.83125,0,0,0.25,-0,-0,0.66667
0.49465,0.91912,1.9786,0.62868,10.021,21.333,-3.3171,1.1057,-0.59387,-4.4228,-1.7319e-14,-0.29694,0,0,0.25,-0,-0,0.66667
0.31503,0.16911,1.2601,-0.49633,-9.3749,34.915,1.6678,-0.55594,-1.1237,2.2238,2.6623e-12,-0.56187,0,0,0.25,5.9212e-16,0,0.66667
0.54544,0.92985,2.1818,0.64477,9.5648,17.939,-3.7513,1.2504,-0.52215,-5.0017,-1.9851e-13,-0.26108,0,0,0.25,5.9212e-16,0,0.66667
0.68248,0.15082,2.7299,-0.52377,-5.8127,9.8249,3.8129,-1.271,-1.0245,5.0839,-1.4402e-12,-0.51225,0,0,0.25,-0,-0,0.66667
0.22037,0.13559,0.88147,-0.54661,-10.945,42.924,1.2849,-0.42828,-0.93765,1.7131,9.7123e-11,-0.46883,0,0,0.25,-0,-0,0.66667
0.48534,0.99547,1.9413,0.74321,12.113,22.118,-3.8475,1.2825,-0.036931,-5.13,4.5741e-14,-0.018466,0,0,0.25,-8.8818e-16,0,0.66667
0.99298,0.84286,3.9719,0.51429,-0.0054701,0.51087,-5.4472,1.8157,-1.0601,-7.2629,9.961e-08,-0.53006,0,0,0.25,1.5543e-15,0,0.66667
0.32416,0.68034,1.2966,0.27052,5.0273,34.068,-0.93537,0.31179,-1.7396,-1.2472,-6.2139e-12,-0.86981,0,0,0.25,-0,-0,0.66667
0.035362,0.8435,0.14145,0.51524,10.819,59.356,-0.19435,0.064782,-1.057,-0.25913,-7.9199e-09,-0.52851,0,0,0.25,-8.0954e-18,0,0.66667
0.81735,0.041681,3.2694,-0.68748,-4.8042,4.3952,5.9937,-1.9979,-0.31892,7.9916,-3.9654e-11,-0.15946,0,0,0.25,-0,-0,0.66667
0.50331,0.40403,2.0132,-0.14396,-2.2123,20.4,0.77287,-0.25762,-1.927,1.0305,-8.1712e-14,-0.9635,0,0,0.25,-0,-0,0.66667
0.052784,0.58146,0.21114,0.12218,2.53,57.758,-0.068793,0.022931,-1.9461,-0.091724,6.0737e-08,-0.97303,0,0,0.25,7.4015e-17,0,0.66667
0.89031,0.67001,3.5612,0.25501,0.99652,1.7138,-2.4218,0.80725,-1.769,-3.229,-4.5148e-10,-0.8845,0,0,0.25,-0,-0,0.66667
0.40451,0.62195,1.6181,0.18293,3.1636,27.652,-0.78931,0.2631,-1.8819,-1.0524,1.4158e-12,-0.94096,0,0,0.25,1.4803e-16,0,0.66667
0.92927,0.8715,3.7171,0.55725,1.4765,1.3306,-5.5236,1.8412,-0.89594,-7.3648,-6.2931e-08,-0.44797,0,0,0.25,2.9606e-16,0,0.66667
0.40208,0.55247,1.6083,0.078702,1.3621,27.82,-0.33754,0.11251,-1.9775,-0.45005,5.1401e-13,-0.98874,0,0,0.25,-0,-0,0.66667
0.076832,0.83446,0.30733,0.50168,10.478,55.611,-0.41115,0.13705,-1.1053,-0.5482,-1.8378e-08,-0.55265,0,0,0.25,-0,-0,0.66667
0.2453,0.38432,0.9812,-0.17351,-3.3831,40.666,0.454,-0.15133,-1.8924,0.60534,6.4852e-11,-0.94622,0,0,0.25,-0,-0,0.66667
0.35026,0.89047,1.401,0.58571,10.829,32.118,-2.1883,0.72942,-0.77929,-2.9177,1.2255e-12,-0.38965,0,0,0.25,-5.9212e-16,0,0.66667
0.75073,0.17119,3.0029,-0.49321,-4.4285,6.5989,3.9495,-1.3165,-1.1352,5.266,-5.3338e-11,-0.56758,0,0,0.25,1.1842e-15,0,0.66667
0.18475,0.30903,0.73899,-0.28645,-5.7596,45.95,0.56449,-0.18816,-1.7088,0.75265,2.4207e-10,-0.85442,0,0,0.25,4.2477e-16,0,0.66667
0.43097,0.14895,1.7239,-0.52657,-8.9912,25.826,2.4207,-0.80689,-1.0137,3.2276,-9.7344e-13,-0.50683,0,0,0.25,-2.9606e-16,0,0.66667
0.87325,0.71206,3.493,0.31809,1.4591,2.1885,-2.9629,0.98763,-1.6406,-3.9505,7.7832e-10,-0.82029,0,0,0.25,-0,-0,0.66667
0.53376,0.92753,2.135,0.64129,9.6826,18.699,-3.6512,1.2171,-0.53758,-4.8682,-1.259e-13,-0.26879,0,0,0.25,-5.9212e-16,0,0.66667
0.10315,0.2647,0.41262,-0.35295,-7.2891,53.223,0.38835,-0.12945,-1.5561,0.5178,-8.3702e-10,-0.77807,0,0,0.25,-1.4803e-16,0,0.66667
0.024522,0.50121,0.09809,0.0018121,0.037577,60.324,-0.00047387,0.00016317,-2.0005,-0.00062922,7.8273e-06,-1.0002,0,0,0.25,-0,-0,0.66667
0.70581,0.36035,2.8232,-0.20947,-2.1299,8.3833,1.577,-0.52568,-1.8436,2.1027,-2.0076e-11,-0.92178,0,0,0.25,1.1842e-15,0,0.66667
0.97913,0.22948,3.9165,-0.40577,-0.19018,0.4418,4.2379,-1.4126,-1.4139,5.6506,5.2733e-09,-0.70694,0,0,0.25,-0,-0,0.66667
0.78517,0.72889,3.1407,0.34334,2.6508,5.0384,-2.8755,0.9585,-1.5804,-3.834,2.1074e-10,-0.7902,0,0,0.25,-0,-0,0.66667
0.76473,0.23788,3.0589,-0.39318,-3.3163,5.8965,3.2072,-1.0691,-1.4504,4.2763,-1.1584e-10,-0.72522,0,0,0.25,-0,-0,0.66667
0.67545,0.56173,2.7018,0.092591,1.0209,9.8655,-0.66709,0.22236,-1.9704,-0.88946,3.6834e-12,-0.98522,0,0,0.25,-2.9606e-16,0,0.66667
0.7955,0.18289,3.182,-0.47567,-3.5601,4.8041,4.0362,-1.3454,-1.1962,5.3816,-2.0453e-10,-0.59812,0,0,0.25,-1.7764e-15,0,0.66667
0.040018,0.3316,0.16007,-0.2526,-5.2496,58.92,0.10783,-0.035942,-1.7722,0.14377,-2.4542e-08,-0.88611,0,0,0.25,-3.7007e-17,0,0.66667
0.26468,0.2003,1.0587,-0.44954,-8.7504,39.092,1.2692,-0.42306,-1.2815,1.6922,3.9005e-11,-0.64076,0,0,0.25,-0,-0,0.66667
0.6954,0.34,2.7816,-0.24,-2.5184,8.9108,1.7802,-0.5934,-1.7952,2.3736,-1.4817e-11,-0.89759,0,0,0.25,1.3901e-15,0,0.66667
0.86699,0.29003,3.468,-0.31495,-1.5172,2.3494,2.9126,-0.97087,-1.6466,3.8835,-6.6223e-10,-0.82332,0,0,0.25,-0,-0,0.66667
0.67461,0.86005,2.6984,0.54008,6.1265,10.249,-3.8863,1.2954,-0.96245,-5.1817,8.2601e-14,-0.48122,0,0,0.25,-0,-0,0.66667
0.17628,0.12409,0.7051,-0.56386,-11.512,46.77,1.0602,-0.35341,-0.8703,1.4136,3.9554e-10,-0.43515,0,0,0.25,-3.7007e-17,0,0.66667
0.93631,0.74351,3.7452,0.36527,0.79848,0.92182,-3.6481,1.216,-1.5261,-4.8641,-5.3586e-09,-0.76306,0,0,0.25,-0,-0,0.66667
0.90338,0.39915,3.6135,-0.15127,-0.50882,1.3553,1.4576,-0.48588,-1.9187,1.9435,2.4365e-10,-0.95933,0,0,0.25,-1.1842e-15,0,0.66667
0.086679,0.98346,0.34672,0.7252,15.327,54.767,-0.6705,0.2235,-0.12912,-0.894,-2.7135e-08,-0.064559,0,0,0.25,3.5333e-16,0,0.66667
0.193,0.95178,0.772,0.67766,13.846,45.355,-1.3951,0.46503,-0.36631,-1.8601,-3.0548e-11,-0.18316,0,0,0.25,-0,-0,0.66667
0.27519,0.24525,1.1008,-0.38212,-7.3696,38.177,1.1217,-0.37389,-1.4807,1.4956,3.5776e-11,-0.74036,0,0,0.25,-2.9606e-16,0,0.66667
0.73841,0.54548,2.9536,0.068225,0.6224,6.8185,-0.53737,0.17912,-1.9828,-0.71649,1.9281e-11,-0.99138,0,0,0.25,-1.1842e-15,0,0.66667
0.85937,0.43075,3.4375,-0.10387,-0.51998,2.4218,0.95215,-0.31738,-1.9625,1.2695,-1.7901e-09,-0.98124,0,0,0.25,-5.9212e-16,0,0.66667
0.57832,0.13276,2.3133,-0.55085,-7.6732,15.742,3.3981,-1.1327,-0.92177,4.5308,7.7338e-13,-0.46089,0,0,0.25,-0,-0,0.66667
0.19965,0.90285,0.79858,0.60427,12.254,44.744,-1.2868,0.42894,-0.70215,-1.7158,-2.0651e-10,-0.35107,0,0,0.25,1.4803e-16,0,0.66667
0.41509,0.24887,1.6604,-0.37669,-6.4872,26.921,1.6679,-0.55595,-1.496,2.2238,-1.9409e-12,-0.74798,0,0,0.25,-6.6613e-16,0,0.66667
0.13786,0.83499,0.55144,0.50248,10.354,50.147,-0.7389,0.2463,-1.1021,-0.9852,-3.3446e-09,-0.55107,0,0,0.25,-0,-0,0.66667
0.9174,0.070891,3.6696,-0.64366,-2.0759,1.71,6.2986,-2.0995,-0.52652,8.3981,-3.7246e-08,-0.26326,0,0,0.25,-0,-0,0.66667
0.76453,0.35302,3.0581,-0.22047,-1.8367,5.7604,1.7979,-0.59932,-1.8274,2.3973,-9.7803e-11,-0.91371,0,0,0.25,-0,-0,0.66667
0.51021,0.8731,2.0409,0.55965,8.6866,20.188,-3.0458,1.0153,-0.8868,-4.061,-3.153e-13,-0.4434,0,0,0.25,2.9606e-16,0,0.66667
0.45358,0.35125,1.8143,-0.22313,-3.6622,23.975,1.0795,-0.35985,-1.8236,1.4394,-8.975e-13,-0.9118,0,0,0.25,-0,-0,0.66667
0.097842,0.98906,0.39137,0.7336,15.482,53.772,-0.76562,0.25521,-0.085974,-1.0208,1.22e-08,-0.042987,0,0,0.25,-0,-0,0.66667
0.31868,0.31583,1.2747,-0.27626,-5.1557,34.52,0.93905,-0.31302,-1.7288,1.2521,8.1331e-12,-0.86438,0,0,0.25,-0,-0,0.66667
0.12063,0.30679,0.48253,-0.28982,-5.949,51.646,0.37292,-0.12431,-1.7013,0.49723,-1.3642e-09,-0.85064,0,0,0.25,1.4803e-16,0,0.66667
0.78234,0.87581,3.1294,0.56372,4.5224,5.4249,-4.7042,1.5681,-0.87162,-6.2723,1.2949e-10,-0.43581,0,0,0.25,2.3685e-15,0,0.66667
0.54488,0.57959,2.1795,0.11939,1.7229,17.587,-0.69391,0.2313,-1.9491,-0.92522,-5.6666e-13,-0.97453,0,0,0.25,-0,-0,0.66667
0.22728,0.29595,0.90911,-0.30608,-6.0435,42.245,0.74202,-0.24734,-1.6659,0.98936,1.4912e-10,-0.83296,0,0,0.25,-2.9606e-16,0,0.66667
0.2242,0.18597,0.89681,-0.47104,-9.3773,42.562,1.1265,-0.3755,-1.2116,1.502,1.2646e-10,-0.6058,0,0,0.25,4.0708e-16,0,0.66667
0.2604,0.82258,1.0416,0.48387,9.4579,39.47,-1.344,0.448,-1.1669,-1.792,-3.7886e-11,-0.58344,0,0,0.25,-0,-0,0.66667
0.30887,0.85683,1.2355,0.53525,10.176,35.444,-1.7635,0.58782,-0.98077,-2.3513,-2.8677e-12,-0.49039,0,0,0.25,-0,-0,0.66667
0.38771,0.72858,1.5508,0.34287,6.0569,29.013,-1.418,0.47265,-1.5817,-1.8906,1.9129e-12,-0.79087,0,0,0.25,-0,-0,0.66667
0.29755,0.321,1.1902,-0.2685,-5.0843,36.266,0.85218,-0.28406,-1.7441,1.1362,1.8865e-11,-0.87206,0,0,0.25,5.9212e-16,0,0.66667
0.67956,0.63185,2.7182,0.19777,2.1634,9.6895,-1.4336,0.47786,-1.8605,-1.9114,7.23e-12,-0.93023,0,0,0.25,-0,-0,0.66667
0.035074,0.57293,0.14029,0.1094,2.2685,59.366,-0.040928,0.013643,-1.957,-0.054571,-1.2868e-07,-0.97849,0,0,0.25,-7.4015e-17,0,0.66667
0.32811,0.48092,1.3124,-0.028619,-0.52815,33.703,0.10016,-0.033388,-1.9975,0.13355,7.274e-13,-0.99873,0,0,0.25,5.9212e-16,0,0.66667
0.74529,0.026481,2.9812,-0.71028,-6.6932,7.1779,5.6466,-1.8822,-0.20626,7.5287,-6.9811e-13,-0.10313,0,0,0.25,-5.9212e-16,3.6574e-16,0.66667
0.94281,0.52096,3.7712,0.031446,0.056233,0.59954,-0.31624,0.10541,-1.9958,-0.42165,-8.6678e-08,-0.99791,0,0,0.25,-0,-0,0.66667
0.80273,0.23002,3.2109,-0.40498,-2.905,4.4542,3.4676,-1.1559,-1.4161,4.6235,-3.5002e-10,-0.70804,0,0,0.25,-0,-0,0.66667
0.24083,0.46578,0.9633,-0.051333,-1.0018,41.039,0.13186,-0.043955,-1.9908,0.17582,2.8652e-11,-0.99539,0,0,0.25,2.9606e-16,0,0.66667
0.23292,0.0442,0.93166,-0.6837,-13.727,41.913,1.6986,-0.5662,-0.33788,2.2648,1.0395e-11,-0.16894,0,0,0.25,-5.9212e-16,0,0.66667
0.19034,0.43366,0.76135,-0.099508,-1.9889,45.434,0.20203,-0.067343,-1.9653,0.26937,6.5482e-11,-0.98264,0,0,0.25,-0,-0,0.66667
0.8825,0.96486,3.53,0.69729,3.2353,2.5607,-6.5638,2.1879,-0.27122,-8.7517,-7.2326e-09,-0.13561,0,0,0.25,1.1842e-15,0,0.66667
0.23786,0.66532,0.95142,0.24799,4.8622,41.319,-0.62917,0.20972,-1.781,-0.8389,-1.0463e-10,-0.89052,0,0,0.25,-0,-0,0.66667
0.75818,0.80429,3.0327,0.45643,3.9723,6.2389,-3.6913,1.2304,-1.2586,-4.9217,8.39e-11,-0.62932,0,0,0.25,5.9212e-16,0,0.66667
0.26105,0.29049,1.0442,-0.31427,-6.0964,39.352,0.87509,-0.2917,-1.6483,1.1668,6.032e-11,-0.82417,0,0,0.25,5.9212e-16,0,0.66667
0.033082,0.166,0.13233,-0.50099,-10.514,59.561,0.17679,-0.058929,-1.1076,0.23572,-1.3716e-08,-0.55379,0,0,0.25,-0,-0,0.66667
0.73345,0.31348,2.9338,-0.27978,-2.6173,7.1368,2.1888,-0.72961,-1.7232,2.9184,-5.2574e-11,-0.8616,0,0,0.25,-0,-0,0.66667
0.7262,0.072275,2.9048,-0.64159,-6.3686,7.8962,4.9698,-1.6566,-0.53565,6.6264,-3.7139e-12,-0.26782,0,0,0.25,-1.1842e-15,0,0.66667
0.088959,0.9787,0.35584,0.71805,15.162,54.562,-0.68135,0.22712,-0.1662,-0.90847,3.8753e-08,-0.083101,0,0,0.25,-0,-0,0.66667
0.3267,0.20181,1.3068,-0.44728,-8.3554,33.934,1.5587,-0.51956,-1.2886,2.0783,1.7072e-12,-0.64428,0,0,0.25,-0,-0,0.66667
0.94837,0.52731,3.7935,0.040972,0.064109,0.51902,-0.41446,0.13815,-1.9942,-0.55262,1.9999e-08,-0.99709,0,0,0.25,5.9212e-16,0,0.66667
0.16295,0.60649,0.6518,0.15974,3.2283,47.858,-0.27764,0.092547,-1.9084,-0.37019,5.212e-11,-0.95418,0,0,0.25,-0,-0,0.66667
0.086672,0.311,0.34669,-0.2835,-5.8607,54.699,0.26209,-0.087365,-1.7146,0.34946,-7.2923e-09,-0.85732,0,0,0.25,2.0354e-16,0,0.66667
0.5946,0.10846,2.3784,-0.58732,-7.9671,14.791,3.725,-1.2417,-0.77358,4.9667,9.4569e-13,-0.38679,0,0,0.25,-1.1842e-15,0,0.66667
0.93099,0.41975,3.724,-0.12038,-0.2738,0.81208,1.1954,-0.39847,-1.9475,1.5939,-3.0508e-08,-0.97377,0,0,0.25,-0,-0,0.66667
0.13378,0.9244,0.53511,0.63659,13.234,50.546,-0.9084,0.3028,-0.55817,-1.2112,5.5807e-10,-0.27908,0,0,0.25,-1.4803e-16,0,0.66667
0.51301,0.60154,2.052,0.15231,2.309,19.733,-0.83347,0.27782,-1.9175,-1.1113,-5.998e-13,-0.95876,0,0,0.25,1.1842e-15,0,0.66667
0.684,0.41984,2.736,-0.12025,-1.2968,9.4318,0.87732,-0.29244,-1.948,1.1698,-6.4651e-12,-0.97401,0,0,0.25,-0,-0,0.66667
0.17183,0.15753,0.68732,-0.5137,-10.476,47.144,0.94153,-0.31384,-1.0635,1.2554,9.7957e-10,-0.53173,0,0,0.25,-5.9212e-16,-2.7221e-16,0.66667
0.01126,0.78351,0.04504,0.42526,8.9028,61.535,-0.051076,0.017025,-1.3575,-0.068102,-1.5415e-08,-0.67875,0,0,0.25,-3.7007e-17,0,0.66667
0.88768,0.07628,3.5507,-0.63558,-2.7703,2.3101,6.0181,-2.006,-0.56322,8.0241,-4.6877e-09,-0.28161,0,0,0.25,-0,-0,0.66667
0.035231,0.98496,0.14093,0.72744,15.474,59.384,-0.27337,0.091123,-0.11784,-0.36449,-9.1194e-08,-0.058922,0,0,0.25,-7.4015e-17,0,0.66667
0.25746,0.23209,1.0298,-0.40187,-7.8378,39.686,1.1036,-0.36787,-1.4248,1.4715,5.9886e-11,-0.71241,0,0,0.25,-0,-0,0.66667
0.65168,0.14148,2.6067,-0.53778,-6.4478,11.46,3.7382,-1.2461,-0.97095,4.9843,1.1355e-12,-0.48547,0,0,0.25,1.1842e-15,0,0.66667
0.28578,0.30973,1.1431,-0.2854,-5.4489,37.255,0.87,-0.29,-1.7108,1.16,2.8179e-11,-0.85539,0,0,0.25,-1.4803e-16,0,0.66667
0.0097076,0.94142,0.03883,0.66212,14.039,61.68,-0.068561,0.022854,-0.44125,-0.091415,6.0808e-07,-0.22063,0,0,0.25,-0,-0,0.66667
0.57545,0.82088,2.3018,0.48132,6.7028,15.847,-2.9544,0.98481,-1.1762,-3.9393,-1.34e-12,-0.5881,0,0,0.25,-0,-0,0.66667
0.30779,0.67716,1.2312,0.26574,4.9965,35.415,-0.87246,0.29082,-1.7483,-1.1633,-1.2828e-11,-0.87415,0,0,0.25,-2.9606e-16,0,0.66667
0.15151,0.8789,0.60606,0.56835,11.705,48.954,-0.91854,0.30618,-0.85164,-1.2247,-2.6117e-09,-0.42582,0,0,0.25,-0,-0,0.66667
0.97128,0.84119,3.8851,0.51178,0.45852,0.68468,-5.3022,1.7674,-1.0695,-7.0696,-1.1213e-07,-0.53476,0,0,0.25,-2.9606e-16,0,0.66667
0.16497,0.62094,0.65989,0.18141,3.665,47.68,-0.31922,0.10641,-1.8829,-0.42563,-6.1094e-10,-0.94147,0,0,0.25,2.2204e-16,0,0.66667
0.72724,0.38019,2.9089,-0.17972,-1.7075,7.359,1.3941,-0.4647,-1.8849,1.8588,-3.4496e-11,-0.94246,0,0,0.25,-0,-0,0.66667
0.89072,0.65823,3.5629,0.23735,0.92157,1.6903,-2.2551,0.75169,-1.8013,-3.0067,-4.5353e-09,-0.90063,0,0,0.25,2.3685e-15,0,0.66667
0.85872,0.75999,3.4349,0.38998,2.0188,2.6559,-3.5721,1.1907,-1.4596,-4.7627,8.6799e-10,-0.72979,0,0,0.25,-0,-0,0.66667
0.18426,0.61874,0.73703,0.17811,3.5726,45.976,-0.35005,0.11668,-1.8873,-0.46673,-3.8318e-11,-0.94363,0,0,0.25,-1.4803e-16,0,0.66667
0.23681,0.011331,0.94723,-0.733,-14.741,41.61,1.8515,-0.61718,-0.089366,2.4687,-2.4103e-12,-0.044683,0,0,0.25,-0,-0,0.66667
0.018363,0.034815,0.073451,-0.69778,-14.826,60.901,0.13667,-0.045557,-0.26938,0.18223,3.2037e-07,-0.13469,0,0,0.25,-0,-0,0.66667
0.93141,0.11443,3.7256,-0.57836,-1.4979,1.3349,5.746,-1.9153,-0.80992,7.6613,-3.6566e-08,-0.40496,0,0,0.25,-0,-0,0.66667
0.88712,0.7494,3.5485,0.3741,1.5361,1.9067,-3.54,1.18,-1.5034,-4.7199,8.7913e-10,-0.75169,0,0,0.25,-1.4803e-15,0,0.66667
0.59547,0.73087,2.3819,0.34631,4.6094,14.501,-2.1996,0.73321,-1.5735,-2.9329,-2.0237e-12,-0.78673,0,0,0.25,-0,-0,0.66667
0.10937,0.85699,0.43747,0.53548,11.134,52.696,-0.62469,0.20823,-0.9808,-0.83292,-6.1069e-09,-0.4904,0,0,0.25,-0,-0,0.66667
0.17354,0.94325,0.69417,0.66487,13.674,47.048,-1.2308,0.41025,-0.42873,-1.641,7.2122e-11,-0.21436,0,0,0.25,-0,-0,0.66667
0.57696,0.38179,2.3078,-0.17731,-2.4258,15.547,1.0912,-0.36373,-1.8887,1.4549,1.1324e-12,-0.94435,0,0,0.25,-1.1842e-15,0,0.66667
0.25166,0.617,1.0066,0.1755,3.4101,40.122,-0.4711,0.15703,-1.8907,-0.62814,-5.7621e-11,-0.94535,0,0,0.25,-0,-0,0.66667
0.30017,0.32765,1.2007,-0.25853,-4.8854,36.045,0.82777,-0.27592,-1.7618,1.1037,1.704e-11,-0.8809,0,0,0.25,5.9212e-16,0,0.66667
0.17099,0.40007,0.68395,-0.14989,-3.0202,47.145,0.27338,-0.091127,-1.9208,0.36451,-1.825e-10,-0.96038,0,0,0.25,-1.4803e-16,0,0.66667
0.18959,0.45801,0.75837,-0.062984,-1.2589,45.498,0.12737,-0.042458,-1.9858,0.16983,7.7002e-11,-0.99288,0,0,0.25,-0,-0,0.66667
0.46342,0.76701,1.8537,0.40052,6.5424,23.347,-1.9798,0.65994,-1.4288,-2.6398,6.0674e-13,-0.71439,0,0,0.25,-0,-0,0.66667
0.50987,0.59604,2.0395,0.14405,2.1933,19.946,-0.78346,0.26115,-1.9265,-1.0446,-2.6024e-13,-0.96327,0,0,0.25,-0,-0,0.66667
0.51158,0.87649,2.0463,0.56473,8.7519,20.1,-3.0816,1.0272,-0.86676,-4.1089,-3.8392e-13,-0.43338,0,0,0.25,1.1842e-15,0,0.66667
0.99714,0.3853,3.9886,-0.17205,0.074103,0.069388,1.8299,-0.60998,-1.8945,2.4399,-1.5623e-07,-0.94724,0,0,0.25,-0,-0,0.66667
0.1296,0.097212,0.51838,-0.60418,-12.549,50.908,0.8352,-0.2784,-0.70234,1.1136,2.8916e-09,-0.35117,0,0,0.25,-2.9606e-16,0,0.66667
0.75617,0.18122,3.0247,-0.47817,-4.2025,6.3501,3.8568,-1.2856,-1.1867,5.1424,-7.1802e-11,-0.59336,0,0,0.25,-0,-0,0.66667
0.79376,0.88384,3.175,0.57575,4.4061,5.0167,-4.8748,1.6249,-0.82115,-6.4997,1.0632e-10,-0.41058,0,0,0.25,-0,-0,0.66667
0.58488,0.072043,2.3395,-0.64194,-8.9097,15.451,4.0049,-1.335,-0.5341,5.3398,4.9427e-13,-0.26705,0,0,0.25,-0,-0,0.66667
0.46274,0.84465,1.851,0.51697,8.5089,23.485,-2.5517,0.85057,-1.0503,-3.4023,5.2269e-13,-0.52516,0,0,0.25,-0,-0,0.66667
0.89343,0.92174,3.5737,0.63261,2.6168,2.1743,-6.0287,2.0096,-0.57663,-8.0382,-4.6177e-10,-0.28831,0,0,0.25,-0,-0,0.66667
0.82818,0.56253,3.3127,0.093788,0.57463,3.3615,-0.82851,0.27617,-1.9707,-1.1047,6.8141e-10,-0.98535,0,0,0.25,2.3685e-15,0,0.66667
0.050291,0.91,0.20116,0.615,12.969,58.016,-0.32991,0.10997,-0.65559,-0.43988,-6.3635e-08,-0.32779,0,0,0.25,-0,-0,0.66667
0.96298,0.69259,3.8519,0.28889,0.30429,0.46811,-2.9674,0.98913,-1.7031,-3.9565,1.1183e-08,-0.85157,0,0,0.25,-0,-0,0.66667
0.0073399,0.77878,0.02936,0.41818,8.7525,61.89,-0.03274,0.010913,-1.3784,-0.043653,-2.2382e-08,-0.68922,0,0,0.25,-0,-0,0.66667
0.57313,0.69458,2.2925,0.29187,4.0367,15.842,-1.7843,0.59477,-1.6968,-2.3791,-1.7257e-12,-0.8484,0,0,0.25,-0,-0,0.66667
0.57243,0.39127,2.2897,-0.16309,-2.2486,15.827,0.99584,-0.33195,-1.9045,1.3278,1.0236e-12,-0.95226,0,0,0.25,-1.1842e-15,0,0.66667
0.83438,0.63342,3.3375,0.20012,1.1886,3.2094,-1.7811,0.59371,-1.857,-2.3748,6.1632e-10,-0.92851,0,0,0.25,-0,-0,0.66667
0.38472,0.93039,1.5389,0.64559,11.637,29.451,-2.6493,0.88309,-0.51768,-3.5323,5.9175e-13,-0.25884,0,0,0.25,2.9606e-16,0,0.66667
0.091041,0.51944,0.36416,0.02916,0.59994,54.292,-0.028317,0.009439,-1.9966,-0.037756,8.7353e-09,-0.99832,0,0,0.25,-0,-0,0.66667
0.58169,0.17715,2.3267,-0.48428,-6.6709,15.463,3.0048,-1.0016,-1.1657,4.0064,1.2448e-12,-0.58285,0,0,0.25,-0,-0,0.66667
0.024846,0.30672,0.099383,-0.28992,-6.0373,60.299,0.076835,-0.025612,-1.7009,0.10245,-1.0058e-08,-0.85043,0,0,0.25,-0,-0,0.66667
0.3618,0.81508,1.4472,0.47262,8.5965,31.123,-1.8239,0.60797,-1.2066,-2.4319,1.7678e-12,-0.60331,0,0,0.25,-1.1842e-15,0,0.66667
0.98532,0.54813,3.9413,0.072202,0.0031747,0.11064,-0.75885,0.25295,-1.9815,-1.0118,-1.1925e-06,-0.99074,0,0,0.25,-0,-0,0.66667
0.86878,0.45417,3.4751,-0.068743,-0.31986,2.156,0.63704,-0.21235,-1.9823,0.84938,1.2417e-09,-0.99113,0,0,0.25,-0,-0,0.66667
0.1525,0.53753,0.60999,0.056292,1.1403,48.78,-0.091567,0.030522,-1.9887,-0.12209,-1.7126e-09,-0.99435,0,0,0.25,2.9606e-16,0,0.66667
0.79883,0.36958,3.1953,-0.19563,-1.4039,4.4163,1.6669,-0.55564,-1.8644,2.2225,-2.4133e-10,-0.93219,0,0,0.25,-5.9212e-16,0,0.66667
0.811,0.21045,3.244,-0.43432,-3.003,4.1992,3.7572,-1.2524,-1.3295,5.0095,-3.582e-10,-0.66476,0,0,0.25,-0,-0,0.66667
0.92821,0.0032513,3.7128,-0.74512,-2.1949,1.7523,7.3774,-2.4591,-0.02604,9.8365,4.4519e-07,-0.01302,0,0,0.25,4.737e-15,0,0.66667
0.22438,0.044699,0.89754,-0.68295,-13.768,42.644,1.6346,-0.54487,-0.34074,2.1795,1.1025e-11,-0.17037,0,0,0.25,-0,-0,0.66667
0.49897,0.2008,1.9959,-0.4488,-7.0226,20.862,2.3887,-0.79622,-1.2839,3.1849,-2.3515e-13,-0.64193,0,0,0.25,-0,-0,0.66667
0.82744,0.030681,3.3098,-0.70398,-4.6869,4.1015,6.2134,-2.0711,-0.23959,8.2845,-1.8323e-10,-0.11979,0,0,0.25,9.6219e-16,0,0.66667
0.66733,0.471,2.6693,-0.043495,-0.48938,10.284,0.3096,-0.1032,-1.9937,0.41281,-1.4028e-12,-0.99687,0,0,0.25,-0,-0,0.66667
0.59394,0.9495,2.3757,0.67425,9.2345,14.947,-4.2716,1.4239,-0.38392,-5.6955,-3.1353e-13,-0.19196,0,0,0.25,-0,-0,0.66667
0.65198,0.6444,2.6079,0.21661,2.5409,11.163,-1.5064,0.50212,-1.8325,-2.0085,1.3154e-12,-0.91627,0,0,0.25,-0,-0,0.66667
0.23852,0.028947,0.95406,-0.70658,-14.17,41.448,1.7977,-0.59922,-0.2254,2.3969,1.6441e-12,-0.1127,0,0,0.25,-1.4803e-16,0,0.66667
0.02554,0.77605,0.10216,0.41407,8.6598,60.24,-0.1128,0.037601,-1.3902,-0.15041,1.0053e-08,-0.69512,0,0,0.25,-0,-0,0.66667
0.73626,0.50273,2.945,0.004102,0.037676,6.9085,-0.032214,0.010738,-2.0008,-0.042952,7.034e-12,-1.0004,0,0,0.25,-0,-0,0.66667
0.32679,0.79698,1.3072,0.44547,8.3202,33.925,-1.5528,0.5176,-1.2943,-2.0704,-2.0732e-12,-0.64716,0,0,0.25,-3.87e-16,0,0.66667
0.37676,0.50623,1.507,0.0093459,0.16562,29.792,-0.037559,0.01252,-2.0001,-0.050078,-5.6309e-14,-1,0,0,0.25,-0,-0,0.66667
0.61262,0.62438,2.4505,0.18657,2.3843,13.385,-1.2191,0.40638,-1.8773,-1.6255,-1.2119e-12,-0.93863,0,0,0.25,3.7007e-17,0,0.66667
0.65717,0.2622,2.6287,-0.35671,-4.1623,10.975,2.5004,-0.83348,-1.5477,3.3339,-8.7996e-13,-0.77384,0,0,0.25,-1.1842e-15,0,0.66667
0.2029,0.44737,0.8116,-0.078939,-1.5692,44.332,0.17084,-0.056948,-1.9783,0.22779,1.0795e-10,-0.98915,0,0,0.25,5.9212e-16,0,0.66667
0.82603,0.012646,3.3041,-0.73103,-4.9329,4.2035,6.4411,-2.147,-0.099644,8.5882,1.7164e-10,-0.049822,0,0,0.25,2.3685e-15,0,0.66667
0.38021,0.38165,1.5208,-0.17752,-3.1419,29.541,0.71993,-0.23998,-1.8877,0.95991,-6.2317e-13,-0.94383,0,0,0.25,-1.1842e-15,0,0.66667
0.63174,0.62914,2.527,0.19371,2.3778,12.281,-1.3053,0.43511,-1.8665,-1.7405,-5.4112e-13,-0.93326,0,0,0.25,-0,-0,0.66667
0.96641,0.9337,3.8656,0.65055,0.82268,1.0126,-6.7061,2.2354,-0.49586,-8.9415,1.0919e-07,-0.24793,0,0,0.25,-1.4803e-15,0,0.66667
0.56479,0.17086,2.2591,-0.49371,-7.0096,16.529,2.9743,-0.99144,-1.133,3.9658,9.1926e-13,-0.56649,0,0,0.25,-0,-0,0.66667
0.35891,0.26251,1.4356,-0.35624,-6.4598,31.291,1.3638,-0.4546,-1.549,1.8184,-9.6989e-13,-0.7745,0,0,0.25,-0,-0,0.66667
0.61897,0.67482,2.4759,0.26223,3.3167,13.05,-1.7313,0.57711,-1.7546,-2.3084,-1.4289e-12,-0.87732,0,0,0.25,-1.1842e-15,0,0.66667
0.50179,0.47176,2.0072,-0.042359,-0.6515,20.488,0.22673,-0.075575,-1.9945,0.3023,-1.3906e-14,-0.99725,0,0,0.25,-0,-0,0.66667
0.45238,0.67688,1.8095,0.26532,4.3664,24.079,-1.2802,0.42675,-1.75,-1.707,8.6342e-13,-0.87498,0,0,0.25,-0,-0,0.66667
0.73227,0.793,2.9291,0.4395,4.18,7.3393,-3.4329,1.1443,-1.313,-4.5771,3.7934e-11,-0.65651,0,0,0.25,1.1842e-15,0,0.66667
0.92451,0.63185,3.698,0.19778,0.50563,0.96611,-1.9504,0.65013,-1.861,-2.6005,2.966e-08,-0.93051,0,0,0.25,-2.3685e-15,0,0.66667
0.47927,0.71357,1.9171,0.32035,5.1116,22.161,-1.6377,0.5459,-1.635,-2.1836,6.6402e-13,-0.81751,0,0,0.25,-8.8818e-16,0,0.66667
0.08823,0.94708,0.35292,0.67062,14.117,54.617,-0.63114,0.21038,-0.40031,-0.84152,-4.51e-08,-0.20015,0,0,0.25,-0,-0,0.66667
0.56965,0.58594,2.2786,0.12891,1.7847,15.992,-0.78331,0.2611,-1.9403,-1.0444,-1.0846e-12,-0.97017,0,0,0.25,-0,-0,0.66667
0.24495,0.44031,0.9798,-0.089532,-1.7439,40.687,0.23393,-0.077977,-1.9718,0.31191,3.0436e-11,-0.9859,0,0,0.25,-0,-0,0.66667
0.039578,0.20941,0.15831,-0.43588,-9.1159,58.969,0.18401,-0.061338,-1.3237,0.24535,-1.6303e-08,-0.66187,0,0,0.25,-0,-0,0.66667
0.78814,0.89843,3.1526,0.59764,4.7028,5.2607,-5.0243,1.6748,-0.72948,-6.699,5.8174e-11,-0.36474,0,0,0.25,-0,-0,0.66667
0.27277,0.71393,1.0911,0.3209,6.1835,38.361,-0.93366,0.31122,-1.6337,-1.2449,-4.241e-11,-0.81685,0,0,0.25,-1.4803e-16,0,0.66667
0.77707,0.58001,3.1083,0.12002,0.94609,5.2089,-0.99478,0.33159,-1.9481,-1.3264,7.9798e-11,-0.97404,0,0,0.25,1.1842e-15,0,0.66667
0.48821,0.89328,1.9528,0.58992,9.4541,21.74,-3.072,1.024,-0.76205,-4.096,-8.9706e-14,-0.38103,0,0,0.25,5.9212e-16,0,0.66667
0.31794,0.42023,1.2717,-0.11966,-2.2267,34.546,0.40581,-0.13527,-1.9482,0.54108,5.6178e-12,-0.97411,0,0,0.25,-5.9212e-16,0,0.66667
0.31403,0.9157,1.2561,0.62356,11.878,35.077,-2.0887,0.69622,-0.61763,-2.7849,2.0561e-13,-0.30881,0,0,0.25,-0,-0,0.66667
0.042025,0.50116,0.1681,0.0017365,0.035966,58.733,-0.00077843,0.00025698,-2.0006,-0.0010392,-3.7502e-06,-1.0003,0,0,0.25,-2.9606e-16,0,0.66667
0.5344,0.014319,2.1376,-0.72852,-11.079,18.77,4.1528,-1.3843,-0.11238,5.537,1.3323e-13,-0.056191,0,0,0.25,-0,-0,0.66667
0.82355,0.94548,3.2942,0.66823,4.5065,4.1541,-5.8701,1.9567,-0.41198,-7.8268,1.1048e-10,-0.20599,0,0,0.25,-0,-0,0.66667
0.083895,0.67282,0.33558,0.25923,5.3582,54.948,-0.23198,0.077327,-1.7602,-0.30931,-2.5005e-09,-0.88008,0,0,0.25,-1.4803e-16,0,0.66667
0.10856,0.37041,0.43423,-0.19438,-3.9921,52.72,0.22508,-0.075028,-1.8666,0.30011,7.285e-09,-0.93328,0,0,0.25,7.4015e-17,0,0.66667
0.52926,0.083308,2.117,-0.62504,-9.4877,18.978,3.5286,-1.1762,-0.61085,4.7048,9.6367e-14,-0.30543,0,0,0.25,-0,-2.6348e-16,0.66667
0.66014,0.12242,2.6406,-0.56637,-6.6752,11.042,3.9881,-1.3294,-0.85997,5.3175,1.0216e-12,-0.42998,0,0,0.25,1.4803e-16,0,0.66667
0.69475,0.84787,2.779,0.5218,5.6017,9.2084,-3.8669,1.289,-1.0318,-5.1558,3.6458e-12,-0.51592,0,0,0.25,2.3685e-15,0,0.66667
0.31322,0.72766,1.2529,0.34148,6.4123,34.991,-1.1409,0.3803,-1.5858,-1.5212,-9.6356e-12,-0.79288,0,0,0.25,-0,-0,0.66667
0.037778,0.51168,0.15111,0.017517,0.36294,59.119,-0.0070591,0.0023522,-1.9981,-0.0094125,-1.265e-06,-0.99903,0,0,0.25,-0,-0,0.66667
0.41456,0.82318,1.6583,0.48476,8.3996,27.03,-2.1436,0.71454,-1.1636,-2.8582,1.4417e-12,-0.58182,0,0,0.25,-0,-0,0.66667
0.22604,0.66723,0.90418,0.25085,4.948,42.339,-0.60483,0.20161,-1.7754,-0.80644,-1.2977e-10,-0.88771,0,0,0.25,-0,-0,0.66667
0.0011148,0.8879,0.0044593,0.58185,12.278,62.455,-0.0069197,0.0023064,-0.79627,-0.0092263,-2.0578e-07,-0.39813,0,0,0.25,-0,-0,0.66667
0.68572,0.62398,2.7429,0.18597,2.0001,9.3688,-1.3603,0.45342,-1.8783,-1.8137,9.2348e-12,-0.93915,0,0,0.25,-4.4409e-16,0,0.66667
0.95206,0.33799,3.8083,-0.24301,-0.35824,0.56456,2.4678,-0.82261,-1.7907,3.2904,4.8606e-09,-0.89534,0,0,0.25,-0,-0,0.66667
0.39115,0.18595,1.5646,-0.47108,-8.3457,28.817,1.9655,-0.65516,-1.2125,2.6206,-1.8544e-12,-0.60624,0,0,0.25,-6.6613e-16,0,0.66667
0.3003,0.96131,1.2012,0.69196,13.371,36.254,-2.2165,0.73882,-0.29745,-2.9553,-6.0396e-14,-0.14872,0,0,0.25,2.9606e-16,0,0.66667
0.55375,0.33471,2.215,-0.24793,-3.5385,17.055,1.4645,-0.48815,-1.7808,1.9526,9.5035e-13,-0.89038,0,0,0.25,5.9212e-16,0,0.66667
0.85198,0.46698,3.4079,-0.049526,-0.26087,2.62,0.45008,-0.15003,-1.9916,0.6001,-1.8248e-09,-0.99581,0,0,0.25,-2.9606e-16,0,0.66667
0.79497,0.82856,3.1799,0.49283,3.706,4.8472,-4.1791,1.393,-1.1361,-5.5721,2.0749e-10,-0.56807,0,0,0.25,-0,-0,0.66667
0.68476,0.92505,2.739,0.63758,7.1209,9.8704,-4.6569,1.5523,-0.55425,-6.2092,-2.256e-13,-0.27712,0,0,0.25,-0,-0,0.66667
0.43211,0.81786,1.7284,0.47679,8.1066,25.703,-2.1976,0.73253,-1.1916,-2.9301,1.207e-12,-0.59579,0,0,0.25,-0,-0,0.66667
0.69043,0.48274,2.7617,-0.025893,-0.27397,9.0888,0.19069,-0.063563,-1.9971,0.25425,-1.9575e-12,-0.99857,0,0,0.25,1.1842e-15,0,0.66667
0.21603,0.31413,0.8641,-0.2788,-5.5301,43.214,0.64244,-0.21415,-1.7245,0.85659,1.6216e-10,-0.86227,0,0,0.25,-0,-0,0.66667
0.28394,0.64158,1.1358,0.21237,4.0514,37.391,-0.64323,0.21441,-1.8392,-0.85764,-2.7785e-11,-0.9196,0,0,0.25,-5.9212e-16,0,0.66667
0.77782,0.85455,3.1113,0.53182,4.3272,5.5505,-4.4124,1.4708,-0.99395,-5.8832,9.6474e-11,-0.49697,0,0,0.25,-0,-0,0.66667
0.92998,0.58147,3.7199,0.1222,0.28291,0.83007,-1.2122,0.40408,-1.946,-1.6163,1.9013e-08,-0.97299,0,0,0.25,-1.1842e-15,0,0.66667
0.19005,0.68764,0.7602,0.28146,5.6465,45.483,-0.57057,0.19019,-1.7196,-0.76076,-2.8045e-10,-0.8598,0,0,0.25,5.9212e-16,0,0.66667
0.29606,0.87598,1.1843,0.56398,10.834,36.519,-1.781,0.59368,-0.87063,-2.3747,-3.8566e-12,-0.43532,0,0,0.25,-0,3.6117e-17,0.66667
0.0062103,0.86618,0.024841,0.54928,11.569,61.994,-0.036386,0.012129,-0.92665,-0.048514,1.6809e-08,-0.46332,0,0,0.25,4.6259e-18,0,0.66667
0.43156,0.11637,1.7262,-0.57544,-9.8517,25.824,2.649,-0.88298,-0.82205,3.5319,-6.8123e-13,-0.41102,0,0,0.25,-2.9606e-16,0,0.66667
0.2103,0.57264,0.84118,0.10896,2.1595,43.688,-0.24442,0.081474,-1.957,-0.32589,-6.7131e-11,-0.9785,0,0,0.25,-0,-0,0.66667
0.64142,0.3382,2.5657,-0.2427,-2.9206,11.76,1.6605,-0.5535,-1.7913,2.214,-9.992e-14,-0.89566,0,0,0.25,-5.9212e-16,0,0.66667
0.70959,0.78758,2.8384,0.43136,4.4005,8.3806,-3.265,1.0883,-1.338,-4.3533,1.7163e-11,-0.66902,0,0,0.25,-0,-0,0.66667
0.11878,0.49182,0.47511,-0.012266,-0.25082,51.794,0.01554,-0.0051801,-1.9989,0.02072,-1.7913e-08,-0.99945,0,0,0.25,-7.4015e-17,0,0.66667
0.082144,0.80883,0.32858,0.46325,9.6488,55.128,-0.4059,0.1353,-1.2373,-0.5412,-5.1673e-09,-0.61864,0,0,0.25,2.2204e-16,0,0.66667
0.90634,0.57723,3.6253,0.11584,0.3753,1.2777,-1.1199,0.3733,-1.9526,-1.4932,2.4723e-10,-0.97628,0,0,0.25,1.1842e-15,0,0.66667
0.38924,0.23035,1.557,-0.40447,-7.1541,28.925,1.6793,-0.55977,-1.4183,2.2391,-2.2239e-12,-0.70915,0,0,0.25,5.9212e-16,0,0.66667
0.5334,0.67716,2.1336,0.26574,3.9206,18.4,-1.5119,0.50398,-1.7488,-2.0159,-8.3544e-13,-0.8744,0,0,0.25,-5.9212e-16,0,0.66667
0.96324,0.52363,3.853,0.035451,0.03395,0.32434,-0.36424,0.12141,-1.9951,-0.48566,1.5519e-07,-0.99755,0,0,0.25,-0,-0,0.66667
0.75905,0.78484,3.0362,0.42725,3.6948,6.1678,-3.4593,1.1531,-1.351,-4.6124,9.1082e-11,-0.67549,0,0,0.25,-2.3685e-15,0,0.66667
0.32554,0.55126,1.3022,0.076891,1.4221,33.916,-0.267,0.088999,-1.9787,-0.356,-3.2171e-12,-0.98935,0,0,0.25,-0,-0,0.66667
0.085849,0.29063,0.3434,-0.31406,-6.4995,54.776,0.28759,-0.095865,-1.6486,0.38346,-2.357e-09,-0.82428,0,0,0.25,-1.4803e-16,0,0.66667
0.53602,0.83952,2.1441,0.50929,7.583,18.405,-2.9119,0.97063,-1.0779,-3.8825,-6.7124e-13,-0.53894,0,0,0.25,-2.7473e-16,0,0.66667
0.33613,0.32556,1.3445,-0.26167,-4.8175,33.089,0.93816,-0.31272,-1.7556,1.2509,3.1506e-12,-0.8778,0,0,0.25,-0,-0,0.66667
0.021685,0.34446,0.086742,-0.23331,-4.852,60.585,0.053967,-0.017989,-1.8071,0.071956,5.4313e-08,-0.90354,0,0,0.25,-0,-0,0.66667
0.77115,0.89637,3.0846,0.59456,5.0122,5.9095,-4.8906,1.6302,-0.74245,-6.5208,4.9626e-11,-0.37123,0,0,0.25,-5.9212e-16,0,0.66667
0.38491,0.65606,1.5396,0.23409,4.1308,29.188,-0.96111,0.32037,-1.8059,-1.2815,1.4591e-12,-0.90296,0,0,0.25,9.2519e-18,0,0.66667
0.57132,0.93655,2.2853,0.65483,9.3191,16.305,-3.9906,1.3302,-0.47589,-5.3208,-4.8161e-13,-0.23794,0,0,0.25,1.3323e-15,0,0.66667
0.75574,0.61748,3.023,0.17622,1.5151,6.1024,-1.4205,0.47351,-1.8891,-1.894,6.7001e-11,-0.94457,0,0,0.25,-1.1842e-15,0,0.66667
0.94085,0.75185,3.7634,0.37778,0.76079,0.86659,-3.7912,1.2637,-1.4933,-5.055,-4.371e-09,-0.74666,0,0,0.25,-2.3685e-15,0,0.66667
0.61232,0.25147,2.4493,-0.37279,-4.8073,13.516,2.4349,-0.81162,-1.5068,3.2465,1.9527e-12,-0.75339,0,0,0.25,-0,-0,0.66667
0.3154,0.22927,1.2616,-0.4061,-7.6341,34.839,1.3662,-0.4554,-1.4133,1.8216,6.1643e-12,-0.70667,0,0,0.25,-0,-0,0.66667
0.11008,0.74138,0.44031,0.36206,7.4684,52.602,-0.42512,0.14171,-1.5343,-0.56682,-6.7692e-10,-0.76716,0,0,0.25,7.4015e-17,0,0.66667
0.073919,0.94857,0.29568,0.67286,14.199,55.9,-0.53053,0.17684,-0.38967,-0.70737,1.357e-08,-0.19483,0,0,0.25,-0,-0,0.66667
0.31969,0.41931,1.2788,-0.12103,-2.2494,34.401,0.41272,-0.13757,-1.947,0.55029,5.3774e-12,-0.97348,0,0,0.25,-0,-0,0.66667
0.66084,0.3612,2.6434,-0.2082,-2.3898,10.679,1.4676,-0.48919,-1.8451,1.9568,-2.7548e-12,-0.92256,0,0,0.25,-1.1842e-15,0,0.66667
0.69515,0.36788,2.7806,-0.19818,-2.0773,8.9004,1.4695,-0.48983,-1.8599,1.9593,-1.3408e-11,-0.92993,0,0,0.25,-5.9212e-16,0,0.66667
0.20772,0.73831,0.83087,0.35747,7.1358,43.955,-0.79203,0.26401,-1.545,-1.056,-2.5266e-10,-0.77249,0,0,0.25,-0,-0,0.66667
0.082796,0.67823,0.33118,0.26735,5.5282,55.048,-0.23611,0.078703,-1.7454,-0.31481,-2.6059e-10,-0.87268,0,0,0.25,-7.4015e-17,0,0.66667
0.30551,0.52817,1.222,0.042256,0.79276,35.566,-0.1377,0.045901,-1.9938,-0.1836,-3.965e-12,-0.99688,0,0,0.25,5.9212e-16,0,0.66667
0.54757,0.35916,2.1903,-0.21126,-3.0421,17.44,1.2339,-0.41131,-1.8414,1.6452,6.6314e-13,-0.92069,0,0,0.25,1.1842e-15,0,0.66667
0.75467,0.17376,3.0187,-0.48936,-4.3301,6.4274,3.9393,-1.3131,-1.1478,5.2524,-6.1779e-11,-0.57388,0,0,0.25,-0,-0,0.66667
0.52966,0.44107,2.1186,-0.088389,-1.3058,18.591,0.49937,-0.16646,-1.9731,0.66582,1.3553e-13,-0.98653,0,0,0.25,-0,-0,0.66667
0.28698,0.80929,1.1479,0.46394,8.9151,37.222,-1.4202,0.4734,-1.2349,-1.8936,-1.6124e-11,-0.61744,0,0,0.25,-1.3708e-16,0,0.66667
0.62418,0.90794,2.4967,0.61191,7.8488,13.088,-4.074,1.358,-0.6701,-5.432,-8.4643e-13,-0.33505,0,0,0.25,-2.3685e-15,6.0477e-17,0.66667
0.26484,0.15852,1.0593,-0.51222,-10.002,39.107,1.447,-0.48233,-1.0684,1.9293,2.8269e-11,-0.53421,0,0,0.25,-5.9212e-16,0,0.66667
0.65269,0.3553,2.6108,-0.21704,-2.5417,11.124,1.5111,-0.50369,-1.832,2.0148,-1.6542e-12,-0.916,0,0,0.25,-0,-0,0.66667
0.8419,0.89203,3.3676,0.58805,3.5211,3.4341,-5.2809,1.7603,-0.77024,-7.0411,7.1273e-10,-0.38512,0,0,0.25,1.1842e-15,3.5491e-16,0.66667
0.63895,0.18698,2.5558,-0.46953,-5.7607,12.082,3.2,-1.0667,-1.2176,4.2667,1.6414e-12,-0.60878,0,0,0.25,-2.9606e-16,0,0.66667
0.56563,0.34366,2.2625,-0.23452,-3.2789,16.286,1.4149,-0.47165,-1.8056,1.8866,1.1475e-12,-0.9028,0,0,0.25,3.7007e-17,0,0.66667
0.30714,0.19339,1.2286,-0.45992,-8.7187,35.545,1.5068,-0.50226,-1.2477,2.0091,6.4628e-12,-0.62384,0,0,0.25,-0,-0,0.66667
0.87678,0.66786,3.5071,0.25179,1.1119,2.0395,-2.3548,0.78493,-1.7745,-3.1397,1.247e-09,-0.88724,0,0,0.25,-0,-0,0.66667
0.98882,0.96964,3.9553,0.70446,0.2857,0.94633,-7.4302,2.4767,-0.23628,-9.9069,1.1044e-05,-0.11814,0,0,0.25,-0,-0,0.66667
0.77748,0.33041,3.1099,-0.25439,-2.0152,5.2623,2.1097,-0.70322,-1.7693,2.8129,-1.446e-10,-0.88464,0,0,0.25,-0,-0,0.66667
0.57364,0.040194,2.2946,-0.68971,-9.8099,16.208,4.2202,-1.4067,-0.30817,5.627,1.199e-14,-0.15409,0,0,0.25,-0,1.5084e-16,0.66667
0.14128,0.53468,0.56512,0.052027,1.0575,49.78,-0.078403,0.026134,-1.9915,-0.10454,2.4062e-09,-0.99575,0,0,0.25,5.9212e-16,0,0.66667
0.31493,0.96343,1.2597,0.69515,13.302,35.056,-2.3352,0.77839,-0.28221,-3.1136,2.0339e-13,-0.14111,0,0,0.25,-1.4803e-16,0,0.66667
0.36686,0.80289,1.4674,0.45433,8.2202,30.71,-1.7779,0.59263,-1.2653,-2.3705,1.9135e-12,-0.63266,0,0,0.25,-2.9606e-16,0,0.66667
0.2919,0.9046,1.1676,0.60691,11.722,36.892,-1.8896,0.62988,-0.6909,-2.5195,-2.4714e-12,-0.34545,0,0,0.25,8.8818e-16,0,0.66667
0.44595,0.45973,1.7838,-0.06041,-0.99744,24.499,0.28736,-0.095787,-1.9863,0.38315,-4.1461e-13,-0.99317,0,0,0.25,-0,-0,0.66667
0.61063,0.26,2.4425,-0.36,-4.6547,13.605,2.3448,-0.78161,-1.5393,3.1264,1.9029e-12,-0.76967,0,0,0.25,-0,-0,0.66667
0.21291,0.26616,0.85166,-0.35077,-6.984,43.501,0.79662,-0.26554,-1.5616,1.0622,2.2239e-10,-0.78081,0,0,0.25,-2.9606e-16,0,0.66667
0.24976,0.47458,0.99904,-0.038133,-0.74058,40.271,0.10159,-0.033864,-1.9957,0.13546,1.7632e-11,-0.99786,0,0,0.25,-5.9212e-16,0,0.66667
0.11215,0.21552,0.4486,-0.42672,-8.8205,52.426,0.51047,-0.17016,-1.3532,0.68063,2.1581e-09,-0.67659,0,0,0.25,1.8504e-16,0,0.66667
0.30759,0.83241,1.2304,0.49862,9.4685,35.529,-1.6359,0.54532,-1.1153,-2.1813,-4.7296e-12,-0.55766,0,0,0.25,-0,-0,0.66667
0.49745,0.16486,1.9898,-0.50271,-7.9091,21.013,2.6674,-0.88914,-1.1014,3.5566,-1.7297e-13,-0.55069,0,0,0.25,-0,-0,0.66667
0.48981,0.36145,1.9592,-0.20782,-3.258,21.363,1.0858,-0.36193,-1.8456,1.4477,-2.5546e-13,-0.92279,0,0,0.25,-5.9212e-16,0,0.66667
0.99558,0.89597,3.9823,0.59395,-0.017341,0.65112,-6.3075,2.1025,-0.74512,-8.41,2.8651e-07,-0.37256,0,0,0.25,-0,-0,0.66667
0.98111,0.77957,3.9244,0.41935,0.16667,0.44404,-4.3885,1.4628,-1.3755,-5.8514,-3.5417e-09,-0.68777,0,0,0.25,1.6283e-15,0,0.66667
0.43656,0.84552,1.7463,0.51828,8.7915,25.403,-2.4135,0.80449,-1.0463,-3.218,8.4688e-13,-0.52313,0,0,0.25,-0,-3.2679e-16,0.66667
0.97202,0.93598,3.8881,0.65397,0.67834,0.96376,-6.7805,2.2602,-0.48021,-9.0406,1.6773e-06,-0.2401,0,0,0.25,-0,-0,0.66667
0.2144,0.87543,0.85759,0.56315,11.318,43.447,-1.2879,0.42929,-0.87326,-1.7172,-1.5289e-10,-0.43663,0,0,0.25,-5.9212e-16,0,0.66667
0.54112,0.71619,2.1645,0.32429,4.7386,17.922,-1.8718,0.62392,-1.6264,-2.4957,-1.0446e-12,-0.81319,0,0,0.25,-8.8818e-16,0,0.66667
0.45344,0.45992,1.8137,-0.060118,-0.98398,23.948,0.29077,-0.096923,-1.9877,0.38769,-4.5206e-13,-0.99384,0,0,0.25,-5.9212e-16,0,0.66667
0.96761,0.011828,3.8704,-0.73226,-0.97564,1.1945,7.5578,-2.5193,-0.093554,10.077,-1.6743e-06,-0.046777,0,0,0.25,-0,2.7858e-16,0.66667
0.83618,0.93103,3.3447,0.64654,4.0522,3.7149,-5.7667,1.9222,-0.51329,-7.6889,-1.3413e-10,-0.25665,0,0,0.25,-0,-0,0.66667
0.21415,0.084764,0.85659,-0.62285,-12.565,43.495,1.4227,-0.47425,-0.62016,1.897,3.0345e-11,-0.31008,0,0,0.25,-0,-0,0.66667
0.43954,0.93456,1.7582,0.65184,11.126,25.305,-3.0561,1.0187,-0.49011,-4.0748,2.9909e-13,-0.24506,0,0,0.25,1.4803e-16,0,0.66667
0.16848,0.84561,0.67391,0.51841,10.588,47.441,-0.93163,0.31054,-1.0452,-1.2422,-1.2554e-09,-0.5226,0,0,0.25,5.9212e-16,0,0.66667
0.52909,0.96164,2.1163,0.69245,10.577,19.073,-3.9079,1.3026,-0.29533,-5.2106,-1.5743e-13,-0.14766,0,0,0.25,5.9212e-16,0,0.66667
0.79348,0.27304,3.1739,-0.34044,-2.5323,4.7226,2.8814,-0.96046,-1.5877,3.8419,-2.5378e-10,-0.79386,0,0,0.25,-5.9212e-16,0,0.66667
0.035879,0.48529,0.14352,-0.022063,-0.45721,59.292,0.0084445,-0.0028145,-1.9975,0.011259,4.6921e-07,-0.99874,0,0,0.25,7.4015e-17,0,0.66667
0.19136,0.026703,0.76544,-0.70995,-14.548,45.513,1.4491,-0.48304,-0.20811,1.9322,5.5435e-12,-0.10405,0,0,0.25,-1.4803e-16,0,0.66667
0.97746,0.28172,3.9098,-0.32742,-0.1568,0.35709,3.4138,-1.1379,-1.6195,4.5517,-6.2353e-09,-0.80973,0,0,0.25,-2.3685e-15,0,0.66667
0.9608,0.01254,3.8432,-0.73119,-1.1779,1.2648,7.4936,-2.4979,-0.098131,9.9915,6.6373e-07,-0.049065,0,0,0.25,-0,-0,0.66667
0.55659,0.81711,2.2264,0.47566,6.8379,17.034,-2.824,0.94132,-1.1955,-3.7653,-1.2459e-12,-0.59774,0,0,0.25,-0,-0,0.66667
0.64609,0.68533,2.5844,0.278,3.3151,11.522,-1.9159,0.63862,-1.7256,-2.5545,1.682e-13,-0.8628,0,0,0.25,-5.9212e-16,0,0.66667
0.27209,0.8454,1.0884,0.5181,10.076,38.498,-1.5037,0.50123,-1.046,-2.0049,-1.9061e-11,-0.523,0,0,0.25,-0,-0,0.66667
0.95209,0.037442,3.8084,-0.69384,-1.326,1.2791,7.0464,-2.3488,-0.28892,9.3951,-9.7985e-07,-0.14446,0,0,0.25,-0,1.8816e-16,0.66667
0.66977,0.21161,2.6791,-0.43258,-4.9202,10.375,3.0905,-1.0302,-1.3348,4.1207,-1.799e-12,-0.66742,0,0,0.25,1.1842e-15,0,0.66667
0.66681,0.019403,2.6672,-0.7209,-8.509,10.925,5.1275,-1.7092,-0.15147,6.8366,9.2371e-14,-0.075734,0,0,0.25,-0,-0,0.66667
0.011103,0.17334,0.044413,-0.49,-10.288,61.55,0.058033,-0.019344,-1.1456,0.077377,3.0864e-08,-0.57278,0,0,0.25,1.8504e-17,0,0.66667
0.85297,0.59001,3.4119,0.13502,0.70853,2.6151,-1.2284,0.40947,-1.9352,-1.6379,8.5856e-10,-0.96761,0,0,0.25,-1.7764e-15,0,0.66667
0.77833,0.0073443,3.1133,-0.73898,-6.2021,5.8952,6.1351,-2.045,-0.058309,8.1802,-7.9026e-12,-0.029155,0,0,0.25,4.737e-15,-2.1291e-16,0.66667
0.68492,0.67393,2.7397,0.26089,2.8209,9.4499,-1.906,0.63534,-1.7576,-2.5414,9.7244e-12,-0.8788,0,0,0.25,-0,-0,0.66667
0.74078,0.83099,2.9631,0.49649,4.6167,7.032,-3.9231,1.3077,-1.1227,-5.2308,3.7681e-11,-0.56133,0,0,0.25,-1.1842e-15,0,0.66667
0.15657,0.33546,0.62629,-0.24681,-5.0079,48.434,0.4122,-0.1374,-1.784,0.5496,5.364e-10,-0.89199,0,0,0.25,1.4803e-16,0,0.66667
0.71878,0.57047,2.8751,0.1057,1.0295,7.724,-0.81042,0.27014,-1.961,-1.0806,1.7579e-11,-0.98049,0,0,0.25,-0,-0,0.66667
0.096818,0.70117,0.38727,0.30175,6.2295,53.787,-0.31163,0.10388,-1.6758,-0.4155,-2.7718e-10,-0.83788,0,0,0.25,-0,-0,0.66667
0.70695,0.89364,2.8278,0.59046,6.17,8.7112,-4.4525,1.4842,-0.7598,-5.9367,3.2374e-12,-0.3799,0,0,0.25,-1.1842e-15,0,0.66667
0.0026318,0.10243,0.010527,-0.59636,-12.594,62.318,0.016741,-0.0055804,-0.7354,0.022322,1.2806e-08,-0.3677,0,0,0.25,-0,-1.6616e-16,0.66667
0.77621,0.89618,3.1048,0.59427,4.9105,5.7105,-4.9203,1.6401,-0.7437,-6.5604,5.5995e-11,-0.37185,0,0,0.25,-0,-0,0.66667
0.49156,0.16976,1.9662,-0.49536,-7.8513,21.417,2.5973,-0.86577,-1.1266,3.4631,-2.3004e-13,-0.56328,0,0,0.25,-0,-0,0.66667
0.20439,0.90836,0.81755,0.61254,12.403,44.336,-1.3354,0.44514,-0.66712,-1.7806,-1.2688e-10,-0.33356,0,0,0.25,-0,-0,0.66667
0.72925,0.41868,2.917,-0.12197,-1.149,7.2446,0.94879,-0.31626,-1.9463,1.2651,-2.6973e-11,-0.97316,0,0,0.25,1.1842e-15,0,0.66667
0.31565,0.54415,1.2626,0.066219,1.2336,34.728,-0.22296,0.074319,-1.9839,-0.29728,-3.9874e-12,-0.99196,0,0,0.25,-5.9212e-16,0,0.66667
0.88382,0.91013,3.5353,0.61519,2.755,2.3603,-5.7997,1.9332,-0.65434,-7.7329,-4.8135e-09,-0.32717,0,0,0.25,-0,-0,0.66667
0.18023,0.3165,0.72093,-0.27525,-5.5424,46.345,0.52917,-0.17639,-1.7306,0.70556,2.7863e-10,-0.86528,0,0,0.25,5.9212e-16,0,0.66667
0.93855,0.72397,3.7542,0.33595,0.6971,0.85215,-3.3633,1.1211,-1.5994,-4.4844,-2.5309e-09,-0.79971,0,0,0.25,-0,-0,0.66667
0.97075,0.41629,3.883,-0.12557,-0.083226,0.26525,1.3002,-0.43341,-1.9439,1.7336,-1.8645e-08,-0.97194,0,0,0.25,-0,-0,0.66667
0.30449,0.12282,1.2179,-0.56577,-10.809,35.824,1.8375,-0.61251,-0.86215,2.45,2.1516e-12,-0.43107,0,0,0.25,-7.4015e-16,0,0.66667
0.86249,0.39431,3.4499,-0.15854,-0.77786,2.3575,1.4585,-0.48617,-1.9102,1.9447,1.3272e-09,-0.9551,0,0,0.25,-0,-0,0.66667
0.84218,0.12743,3.3687,-0.55885,-3.3212,3.3755,5.0203,-1.6734,-0.8906,6.6937,-1.3826e-09,-0.4453,0,0,0.25,-2.3685e-15,2.5175e-16,0.66667
0.42461,0.24593,1.6985,-0.3811,-6.4994,26.203,1.7261,-0.57536,-1.4841,2.3014,-1.8398e-12,-0.74204,0,0,0.25,5.9212e-16,0,0.66667
0.36368,0.45678,1.4547,-0.064837,-1.1627,30.831,0.25152,-0.083841,-1.9844,0.33536,-8.6625e-14,-0.9922,0,0,0.25,5.9212e-16,0,0.66667
0.28244,0.41166,1.1297,-0.13251,-2.5265,37.503,0.39921,-0.13307,-1.9382,0.53228,2.1125e-11,-0.96912,0,0,0.25,-0,-0,0.66667
0.99324,0.54349,3.9729,0.065233,-0.019007,0.049734,-0.69112,0.23037,-1.984,-0.92149,1.8866e-06,-0.99198,0,0,0.25,-0,-0,0.66667
0.25575,0.16402,1.023,-0.50397,-9.8869,39.874,1.3748,-0.45828,-1.0965,1.8331,4.0196e-11,-0.54823,0,0,0.25,-0,-0,0.66667
0.92068,0.42194,3.6827,-0.1171,-0.31396,0.9947,1.15,-0.38332,-1.9512,1.5333,8.9784e-09,-0.97559,0,0,0.25,-1.1842e-15,0,0.66667
0.42834,0.66732,1.7133,0.25098,4.2419,25.86,-1.1467,0.38224,-1.7752,-1.529,1.4868e-12,-0.8876,0,0,0.25,-0,-0,0.66667
0.93543,0.38454,3.7417,-0.17318,-0.3661,0.76395,1.728,-0.576,-1.8933,2.304,2.3121e-08,-0.94666,0,0,0.25,-0,-0,0.66667
0.83884,0.035132,3.3554,-0.6973,-4.3531,3.7355,6.2392,-2.0797,-0.27132,8.319,-8.0461e-11,-0.13566,0,0,0.25,-0,-0,0.66667
0.15578,0.83278,0.62311,0.49918,10.228,48.556,-0.82944,0.27648,-1.1143,-1.1059,-6.4604e-10,-0.55717,0,0,0.25,-0,-0,0.66667
0.57428,0.88002,2.2971,0.57003,8.0097,16.015,-3.4919,1.164,-0.84478,-4.6558,-8.3733e-13,-0.42239,0,0,0.25,-0,-0,0.66667
0.6735,0.33368,2.694,-0.24948,-2.7786,10.031,1.7923,-0.59742,-1.7787,2.3897,-5.9021e-12,-0.88937,0,0,0.25,5.9212e-16,0,0.66667
0.40582,0.83678,1.6233,0.50516,8.841,27.711,-2.1867,0.72891,-1.0933,-2.9156,1.749e-12,-0.54667,0,0,0.25,2.9606e-16,0,0.66667
0.004877,0.40127,0.019508,-0.14809,-3.0761,62.112,0.0077039,-0.0025676,-1.922,0.010272,4.631e-07,-0.961,0,0,0.25,2.313e-18,0,0.66667
0.32533,0.62406,1.3013,0.1861,3.448,33.95,-0.64579,0.21526,-1.8779,-0.86106,-6.1446e-12,-0.93895,0,0,0.25,-7.4015e-17,0,0.66667
0.83894,0.15074,3.3558,-0.52389,-3.1536,3.4166,4.6882,-1.5627,-1.024,6.2509,-7.827e-10,-0.51202,0,0,0.25,-0,-0,0.66667
0.062824,0.53924,0.2513,0.058864,1.2167,56.846,-0.039446,0.013149,-1.9883,-0.052595,-1.4728e-07,-0.99414,0,0,0.25,-0,-0,0.66667
0.10542,0.076539,0.42168,-0.63519,-13.295,53.071,0.71426,-0.23809,-0.56478,0.95235,-7.8521e-09,-0.28239,0,0,0.25,1.4803e-16,0,0.66667
0.70179,0.9331,2.8071,0.64965,6.9388,9.0508,-4.8631,1.621,-0.50017,-6.4841,1.6698e-13,-0.25009,0,0,0.25,-2.9606e-16,-1.4328e-16,0.66667
0.51416,0.58594,2.0566,0.12891,1.9501,19.649,-0.70699,0.23566,-1.9412,-0.94265,-4.7107e-13,-0.9706,0,0,0.25,5.9212e-16,0,0.66667
0.49817,0.097724,1.9927,-0.60341,-9.554,21.061,3.2064,-1.0688,-0.7061,4.2752,-1.1324e-13,-0.35305,0,0,0.25,-0,1.3624e-16,0.66667
0.37361,0.13991,1.4944,-0.54014,-9.7628,30.234,2.1525,-0.71751,-0.96255,2.8701,-1.7502e-12,-0.48128,0,0,0.25,-0,-0,0.66667
0.60351,0.94096,2.4141,0.66144,8.8854,14.358,-4.258,1.4193,-0.44455,-5.6773,-4.9516e-13,-0.22228,0,0,0.25,-0,-0,0.66667
0.85147,0.35039,3.4059,-0.22442,-1.1974,2.7073,2.0383,-0.67942,-1.8205,2.7177,-5.7331e-10,-0.91024,0,0,0.25,-0,-0,0.66667
0.27692,0.80696,1.1077,0.46044,8.9022,38.064,-1.3601,0.45336,-1.2462,-1.8134,-2.4968e-11,-0.62308,0,0,0.25,-1.4803e-16,0,0.66667
0.84476,0.9507,3.379,0.67605,4.0564,3.5161,-6.0918,2.0306,-0.37496,-8.1224,9.3248e-10,-0.18748,0,0,0.25,1.1842e-15,0,0.66667
0.41662,0.63669,1.6665,0.20504,3.5043,26.731,-0.91118,0.30373,-1.8498,-1.2149,1.2064e-12,-0.92488,0,0,0.25,-0,-0,0.66667
0.50098,0.51115,2.0039,0.016729,0.25756,20.543,-0.089398,0.029799,-1.9991,-0.1192,-3.781e-14,-0.99957,0,0,0.25,-0,-0,0.66667
0.72962,0.98144,2.9185,0.72216,7.174,7.8845,-5.6203,1.8734,-0.14497,-7.4938,5.6533e-13,-0.072485,0,0,0.25,-1.1842e-15,0,0.66667
0.25872,0.98466,1.0349,0.72699,14.445,39.748,-2.0063,0.66876,-0.11983,-2.675,2.075e-12,-0.059915,0,0,0.25,-0,-0,0.66667
0.92164,0.60261,3.6865,0.15392,0.40845,0.9932,-1.5131,0.50438,-1.9163,-2.0175,-2.0652e-08,-0.95815,0,0,0.25,-0,-0,0.66667
0.70207,0.13128,2.8083,-0.55309,-5.8362,8.8923,4.1419,-1.3806,-0.91292,5.5226,-4.0816e-12,-0.45646,0,0,0.25,2.3685e-15,0,0.66667
0.61893,0.33593,2.4757,-0.2461,-3.1108,13.044,1.6247,-0.54158,-1.7841,2.1663,1.1862e-12,-0.89207,0,0,0.25,-0,-0,0.66667
0.27301,0.9016,1.092,0.60241,11.769,38.467,-1.7543,0.58475,-0.70956,-2.339,-6.1624e-12,-0.35478,0,0,0.25,2.9606e-16,0,0.66667
0.69585,0.70998,2.7834,0.31498,3.3145,8.94,-2.3379,0.77929,-1.6466,-3.1172,1.4399e-11,-0.82329,0,0,0.25,-0,-0,0.66667
0.25721,0.075316,1.0289,-0.63703,-12.587,39.819,1.7478,-0.58259,-0.55621,2.3303,6.8563e-12,-0.2781,0,0,0.25,-0,-0,0.66667
0.81645,0.36453,3.2658,-0.2032,-1.3355,3.799,1.7697,-0.58989,-1.8527,2.3595,-1.1614e-10,-0.92634,0,0,0.25,1.1842e-15,0,0.66667
0.011472,0.17335,0.04589,-0.48998,-10.288,61.516,0.05996,-0.019987,-1.1457,0.079947,2.6285e-08,-0.57284,0,0,0.25,1.8504e-17,0,0.66667
0.16654,0.077767,0.66615,-0.63335,-13.031,47.651,1.1251,-0.37503,-0.57288,1.5001,3.0865e-10,-0.28644,0,0,0.25,2.9606e-16,0,0.66667
0.55783,0.50684,2.2313,0.010264,0.14484,16.731,-0.061072,0.020357,-1.9994,-0.081429,-1.7505e-13,-0.99969,0,0,0.25,-0,-0,0.66667
0.71228,0.77762,2.8491,0.41642,4.2086,8.2366,-3.1638,1.0546,-1.3835,-4.2185,2.043e-11,-0.69174,0,0,0.25,-0,-0,0.66667
0.49248,0.13862,1.9699,-0.54208,-8.6085,21.395,2.8476,-0.9492,-0.95424,3.7968,-3.1619e-13,-0.47712,0,0,0.25,-0,-0,0.66667
0.87781,0.14713,3.5112,-0.52931,-2.4359,2.3518,4.9561,-1.652,-1.0037,6.6081,-4.8926e-10,-0.50184,0,0,0.25,-0,-0,0.66667
0.97587,0.9162,3.9035,0.6243,0.52315,0.8622,-6.4985,2.1662,-0.61344,-8.6647,-1.0393e-07,-0.30672,0,0,0.25,-0,-0,0.66667
0.46428,0.87242,1.8571,0.55863,9.2034,23.411,-2.7665,0.92216,-0.89087,-3.6886,3.1575e-13,-0.44543,0,0,0.25,2.9606e-16,0,0.66667
0.76799,0.93882,3.0719,0.65824,5.6719,6.1445,-5.3922,1.7974,-0.46053,-7.1896,-4.996e-13,-0.23027,0,0,0.25,-0,-0,0.66667
0.49477,0.59227,1.9791,0.13841,2.1519,20.993,-0.73044,0.24348,-1.9324,-0.97392,-7.9547e-14,-0.96621,0,0,0.25,2.2204e-16,0,0.66667
0.6651,0.07643,2.6604,-0.63535,-7.4538,10.878,4.5075,-1.5025,-0.56375,6.0099,6.8967e-13,-0.28187,0,0,0.25,-0,-0,0.66667
0.22487,0.96408,0.8995,0.69613,14.043,42.609,-1.6698,0.55659,-0.27691,-2.2264,-1.1802e-11,-0.13845,0,0,0.25,-1.4803e-16,0,0.66667
0.10954,0.38954,0.43817,-0.16569,-3.4003,52.63,0.1936,-0.064532,-1.9026,0.25813,1.289e-09,-0.95132,0,0,0.25,-0,-0,0.66667
0.97901,0.4721,3.916,-0.041852,-0.012756,0.15934,0.43705,-0.14568,-1.9939,0.58274,-2.9382e-07,-0.99697,0,0,0.25,-0,-0,0.66667
0.81499,0.78087,3.26,0.4213,2.8497,4.0461,-3.6625,1.2208,-1.3701,-4.8833,3.3033e-10,-0.68507,0,0,0.25,1.5543e-15,0,0.66667
0.28538,0.52687,1.1415,0.040305,0.76638,37.248,-0.12269,0.040898,-1.9944,-0.16359,-6.4696e-12,-0.9972,0,0,0.25,-0,-0,0.66667
0.58583,0.1774,2.3433,-0.48391,-6.6157,15.208,3.0239,-1.008,-1.1666,4.0318,1.3858e-12,-0.58331,0,0,0.25,-5.9212e-16,0,0.66667
0.38007,0.46947,1.5203,-0.045794,-0.80921,29.532,0.18565,-0.061885,-1.9933,0.24754,2.9546e-14,-0.99663,0,0,0.25,-0,-0,0.66667
0.17634,0.25812,0.70535,-0.36282,-7.3375,46.706,0.68245,-0.22748,-1.5316,0.90993,5.2615e-10,-0.76579,0,0,0.25,-5.9212e-16,0,0.66667
0.41884,0.34825,1.6753,-0.22763,-3.8837,26.57,1.0169,-0.33898,-1.8161,1.3559,-1.627e-12,-0.90806,0,0,0.25,-0,-0,0.66667
0.29719,0.94853,1.1888,0.6728,13.009,36.497,-2.1328,0.71093,-0.39088,-2.8437,3.1752e-14,-0.19544,0,0,0.25,-0,-0,0.66667
0.016624,0.2961,0.066496,-0.30586,-6.3744,61.046,0.054236,-0.018079,-1.6674,0.072314,-9.2262e-09,-0.83369,0,0,0.25,-3.7007e-17,0,0.66667
0.38737,0.78577,1.5495,0.42866,7.6041,29.085,-1.7712,0.5904,-1.347,-2.3616,1.9972e-12,-0.67349,0,0,0.25,1.1842e-15,0,0.66667
0.92091,0.56351,3.6837,0.09527,0.25409,0.98269,-0.93584,0.31195,-1.9692,-1.2478,6.9036e-08,-0.98461,0,0,0.25,-0,-0,0.66667
0.8282,0.44734,3.3128,-0.078991,-0.48371,3.3571,0.69781,-0.2326,-1.9783,0.93042,-3.5399e-10,-0.98916,0,0,0.25,-0,-0,0.66667
0.57407,0.62939,2.2963,0.19409,2.6704,15.735,-1.1885,0.39617,-1.8662,-1.5847,-1.2877e-12,-0.93312,0,0,0.25,-0,-0,0.66667
0.31865,0.24546,1.2746,-0.38181,-7.1532,34.562,1.2977,-0.43258,-1.4816,1.7303,5.5734e-12,-0.7408,0,0,0.25,4.4409e-16,0,0.66667
0.23126,0.69081,0.92506,0.28621,5.6367,41.896,-0.70604,0.23535,-1.7093,-0.94138,-1.3756e-10,-0.85463,0,0,0.25,5.9212e-16,0,0.66667
0.95602,0.77061,3.8241,0.40591,0.57752,0.69189,-4.1393,1.3798,-1.4139,-5.5191,-6.0426e-09,-0.70693,0,0,0.25,-0,-0,0.66667
0.56461,0.36265,2.2584,-0.20602,-2.8829,16.338,1.2408,-0.41359,-1.8488,1.6544,1.0348e-12,-0.92442,0,0,0.25,-5.9212e-16,0,0.66667
0.21761,0.47162,0.87042,-0.042574,-0.84049,43.047,0.09882,-0.03294,-1.9946,0.13176,6.701e-11,-0.99732,0,0,0.25,5.9212e-16,0,0.66667
0.24948,0.63019,0.99793,0.19528,3.8005,40.311,-0.51966,0.17322,-1.8653,-0.69289,-6.4364e-11,-0.93265,0,0,0.25,-5.9212e-16,0,0.66667
0.9596,0.90128,3.8384,0.60192,0.89172,0.98445,-6.161,2.0537,-0.71164,-8.2147,4.6674e-07,-0.35582,0,0,0.25,1.7764e-15,0,0.66667
0.23881,0.26484,0.95526,-0.35274,-6.9358,41.264,0.89856,-0.29952,-1.5568,1.1981,1.1192e-10,-0.77841,0,0,0.25,-0,-0,0.66667
0.10671,0.92568,0.42686,0.63852,13.364,52.956,-0.72682,0.24227,-0.55002,-0.96909,1.2392e-08,-0.27501,0,0,0.25,-1.2637e-16,3.2082e-16,0.66667
0.18396,0.70113,0.73585,0.3017,6.0709,46.022,-0.59201,0.19734,-1.6758,-0.78934,-3.1567e-10,-0.83789,0,0,0.25,-2.9606e-16,0,0.66667
0.76622,0.043036,3.0649,-0.68545,-5.9719,6.2649,5.6022,-1.8674,-0.32968,7.4696,-1.0338e-11,-0.16484,0,0,0.25,-0,-0,0.66667
0.70876,0.83208,2.8351,0.49812,5.126,8.4982,-3.7659,1.2553,-1.117,-5.0212,1.0569e-11,-0.55849,0,0,0.25,1.1842e-15,0,0.66667
0.43794,0.41619,1.7518,-0.12571,-2.0962,25.104,0.58724,-0.19575,-1.9442,0.78299,-7.8759e-13,-0.9721,0,0,0.25,-1.1842e-15,0,0.66667
0.7938,0.15426,3.1752,-0.5186,-3.9342,4.9267,4.3911,-1.4637,-1.0445,5.8549,-2.0196e-10,-0.52226,0,0,0.25,-1.3323e-15,0,0.66667
0.51751,0.33621,2.0701,-0.24569,-3.7097,19.46,1.3563,-0.45208,-1.7856,1.8083,3.1741e-13,-0.89279,0,0,0.25,-0,-0,0.66667
0.4136,0.82155,1.6544,0.48233,8.3645,27.102,-2.1279,0.7093,-1.1721,-2.8372,1.364e-12,-0.58607,0,0,0.25,1.1842e-15,0,0.66667
0.11744,0.69551,0.46977,0.29327,6.0252,51.932,-0.36738,0.12246,-1.6936,-0.48984,1.2187e-09,-0.8468,0,0,0.25,-0,-0,0.66667
0.88391,0.27061,3.5356,-0.34409,-1.4469,1.9494,3.2442,-1.0814,-1.5782,4.3256,-1.1736e-09,-0.78912,0,0,0.25,1.1842e-15,0,0.66667
0.27559,0.84032,1.1024,0.51048,9.9033,38.2,-1.5006,0.50021,-1.0736,-2.0009,-1.779e-11,-0.5368,0,0,0.25,3.7007e-16,0,0.66667
0.61626,0.071645,2.465,-0.64253,-8.4019,13.585,4.2237,-1.4079,-0.53141,5.6315,6.4926e-13,-0.2657,0,0,0.25,-0,-0,0.66667
0.98458,0.4275,3.9383,-0.10875,-0.0088905,0.12827,1.1422,-0.38072,-1.9584,1.5229,-4.6498e-07,-0.9792,0,0,0.25,-0,-0,0.66667
0.18942,0.54934,0.75767,0.074005,1.4794,45.514,-0.14952,0.049841,-1.9803,-0.19936,-3.7806e-11,-0.99015,0,0,0.25,-2.9606e-16,0,0.66667
0.96519,0.74377,3.8608,0.36566,0.37107,0.52891,-3.7646,1.2549,-1.5246,-5.0194,-5.5276e-09,-0.7623,0,0,0.25,-5.9212e-16,0,0.66667
0.65272,0.27386,2.6109,-0.33921,-3.9961,11.202,2.3617,-0.78723,-1.5907,3.1489,-6.2661e-13,-0.79537,0,0,0.25,5.9212e-16,0,0.66667
0.12873,0.62091,0.51493,0.18136,3.7054,50.909,-0.24904,0.083013,-1.8833,-0.33205,3.7616e-10,-0.94166,0,0,0.25,-7.4015e-17,0,0.66667
0.77193,0.10576,3.0877,-0.59136,-4.9679,5.8737,4.8692,-1.6231,-0.75574,6.4922,-5.0577e-11,-0.37787,0,0,0.25,1.1842e-15,0,0.66667
0.95178,0.8465,3.8071,0.51975,0.88605,0.92562,-5.2766,1.7589,-1.0405,-7.0355,6.2254e-09,-0.52027,0,0,0.25,-0,-0,0.66667
0.56278,0.8287,2.2511,0.49305,7.0236,16.656,-2.9597,0.98658,-1.1359,-3.9463,-1.1431e-12,-0.56794,0,0,0.25,-0,-0,0.66667
0.68856,0.084959,2.7542,-0.62256,-6.8716,9.6571,4.5725,-1.5242,-0.62222,6.0966,2.9754e-14,-0.31111,0,0,0.25,-0,-0,0.66667
0.026348,0.2432,0.10539,-0.3852,-8.0465,60.165,0.10826,-0.036086,-1.4721,0.14435,-5.1096e-10,-0.73607,0,0,0.25,-1.8504e-17,0,0.66667
0.98908,0.41068,3.9563,-0.13399,0.013549,0.10361,1.4136,-0.47119,-1.9363,1.8848,6.6603e-08,-0.96813,0,0,0.25,-0,-0,0.66667
0.31846,0.66236,1.2738,0.24353,4.5414,34.528,-0.82725,0.27575,-1.7888,-1.103,-8.4066e-12,-0.89441,0,0,0.25,-0,-0,0.66667
0.023904,0.55138,0.095615,0.077066,1.5987,60.381,-0.019651,0.0065499,-1.978,-0.026201,-4.3862e-07,-0.98901,0,0,0.25,-3.7007e-17,0,0.66667
0.80856,0.51856,3.2343,0.027847,0.18946,4.0136,-0.24018,0.080058,-1.9966,-0.32023,4.1899e-11,-0.99831,0,0,0.25,-0,-0,0.66667
0.97325,0.66548,3.893,0.24822,0.15054,0.31867,-2.5768,0.85894,-1.7805,-3.4358,2.8657e-08,-0.89023,0,0,0.25,-0,-0,0.66667
0.73759,0.58605,2.9504,0.12907,1.1825,6.8709,-1.0155,0.3385,-1.9407,-1.354,3.368e-11,-0.97033,0,0,0.25,-1.1842e-15,0,0.66667
0.0027358,0.94114,0.010943,0.66171,14.031,62.309,-0.019313,0.0064357,-0.4437,-0.025752,-3.0685e-06,-0.22185,0,0,0.25,9.2519e-18,1.412e-15,0.66667
0.063361,0.84953,0.25344,0.5243,10.984,56.828,-0.35434,0.11811,-1.0233,-0.47246,2.4726e-08,-0.51166,0,0,0.25,-0,-0,0.66667
0.58427,0.26975,2.3371,-0.34538,-4.6941,15.184,2.1525,-0.71749,-1.575,2.87,1.7384e-12,-0.78752,0,0,0.25,5.9212e-16,0,0.66667
0.33572,0.56652,1.3429,0.099784,1.8316,33.088,-0.35732,0.11911,-1.9645,-0.47643,-2.658e-12,-0.98227,0,0,0.25,-0,-0,0.66667
0.88183,0.85003,3.5273,0.52504,2.3346,2.2464,-4.9387,1.6462,-1.0195,-6.5849,1.8639e-10,-0.50974,0,0,0.25,-0,-0,0.66667
0.87367,0.84528,3.4947,0.51792,2.4573,2.437,-4.8266,1.6089,-1.0475,-6.4354,-2.024e-10,-0.52377,0,0,0.25,-0,-0,0.66667
0.98752,0.56755,3.9501,0.10132,-0.004411,0.10198,-1.0673,0.35576,-1.9637,-1.423,1.387e-06,-0.98187,0,0,0.25,-2.3685e-15,0,0.66667
0.71583,0.72078,2.8633,0.33118,3.2893,7.9879,-2.5287,0.84291,-1.6108,-3.3716,2.9314e-11,-0.80542,0,0,0.25,2.3685e-15,0,0.66667
0.87688,0.53042,3.5075,0.045626,0.1984,1.9413,-0.42676,0.14225,-1.9939,-0.56901,1.4285e-08,-0.99694,0,0,0.25,-8.8818e-16,0,0.66667
0.31965,0.95201,1.2786,0.67802,12.914,34.658,-2.3118,0.77059,-0.36451,-3.0823,2.3359e-13,-0.18225,0,0,0.25,-0,-0,0.66667
0.11118,0.94499,0.44471,0.66749,13.983,52.566,-0.79157,0.26386,-0.41607,-1.0554,1.1089e-08,-0.20803,0,0,0.25,-0,-0,0.66667
0.86536,0.52211,3.4615,0.033162,0.15837,2.242,-0.30611,0.10204,-1.9955,-0.40814,-1.0515e-09,-0.99773,0,0,0.25,-0,-0,0.66667
0.30347,0.93564,1.2139,0.65346,12.565,35.965,-2.1153,0.70509,-0.4821,-2.8204,2.0939e-13,-0.24105,0,0,0.25,6.6613e-16,0,0.66667
0.41933,0.99204,1.6773,0.73806,12.963,26.9,-3.3013,1.1004,-0.063174,-4.4017,-1.5388e-13,-0.031587,0,0,0.25,2.9606e-16,2.2481e-16,0.66667
0.64603,0.073512,2.5841,-0.63973,-7.85,11.906,4.4084,-1.4695,-0.54413,5.8778,8.038e-13,-0.27207,0,0,0.25,-1.1842e-15,0,0.66667
0.6051,0.14723,2.4204,-0.52916,-7.0004,14.095,3.4154,-1.1385,-1.004,4.5539,1.4984e-12,-0.50199,0,0,0.25,-5.9212e-16,0,0.66667
0.42092,0.13332,1.6837,-0.55001,-9.5064,26.599,2.4695,-0.82316,-0.92476,3.2926,-1.0707e-12,-0.46238,0,0,0.25,-0,-0,0.66667
0.38615,0.62572,1.5446,0.18858,3.3202,29.078,-0.77677,0.25892,-1.8743,-1.0357,9.539e-13,-0.93717,0,0,0.25,-0,-0,0.66667
0.12268,0.35356,0.49072,-0.21966,-4.4984,51.455,0.28745,-0.095816,-1.8283,0.38327,1.0582e-09,-0.91416,0,0,0.25,2.9606e-16,0,0.66667
0.53386,0.87758,2.1354,0.56637,8.4969,18.607,-3.2252,1.0751,-0.86025,-4.3002,-5.0604e-13,-0.43012,0,0,0.25,-0,-0,0.66667
0.23285,0.67426,0.93142,0.26138,5.1399,41.753,-0.64922,0.21641,-1.757,-0.86563,-1.2103e-10,-0.87848,0,0,0.25,-0,-0,0.66667
0.75481,0.99197,3.0192,0.73796,6.76,6.8311,-5.9415,1.9805,-0.063284,-7.922,1.2431e-11,-0.031642,0,0,0.25,-0,-0,0.66667
0.67487,0.33042,2.6995,-0.25437,-2.8237,9.9629,1.8311,-0.61037,-1.7695,2.4415,-6.1553e-12,-0.88474,0,0,0.25,-1.1842e-15,0,0.66667
0.071927,0.85321,0.28771,0.52982,11.09,56.057,-0.40649,0.1355,-1.0012,-0.54199,-7.4187e-09,-0.50062,0,0,0.25,-0,-0,0.66667
0.98926,0.6389,3.9571,0.20835,-0.01724,0.14697,-2.1985,0.73285,-1.8449,-2.9314,-3.5181e-08,-0.92243,0,0,0.25,-0,-0,0.66667
0.78046,0.28548,3.1218,-0.32179,-2.5302,5.1997,2.6788,-0.89294,-1.6328,3.5718,-1.8485e-10,-0.8164,0,0,0.25,-2.3685e-15,0,0.66667
0.22783,0.58834,0.9113,0.13252,2.6054,42.167,-0.32204,0.10735,-1.9373,-0.42938,-6.5489e-11,-0.96866,0,0,0.25,2.9606e-16,0,0.66667
0.030743,0.30867,0.12297,-0.287,-5.9739,59.763,0.094113,-0.031371,-1.7082,0.12548,-1.7477e-09,-0.85412,0,0,0.25,-5.5511e-17,0,0.66667
0.47837,0.3079,1.9135,-0.28816,-4.5973,22.208,1.4704,-0.49012,-1.7047,1.9605,-6.1995e-13,-0.85234,0,0,0.25,8.8818e-16,0,0.66667
0.35274,0.37965,1.411,-0.18053,-3.2728,31.725,0.67925,-0.22642,-1.884,0.90567,9.851e-13,-0.942,0,0,0.25,-0,-0,0.66667
0.54651,0.75877,2.186,0.38815,5.6416,17.612,-2.2627,0.75423,-1.4648,-3.0169,-1.148e-12,-0.73241,0,0,0.25,-0,-0,0.66667
0.65966,0.95569,2.6387,0.68353,8.169,11.239,-4.8096,1.6032,-0.33825,-6.4128,-4.0812e-13,-0.16912,0,0,0.25,-0,-0,0.66667
0.79722,0.53956,3.1889,0.059346,0.42699,4.4258,-0.50466,0.16822,-1.988,-0.67288,7.214e-12,-0.99402,0,0,0.25,-0,-0,0.66667
0.013544,0.95853,0.054177,0.68779,14.606,61.334,-0.099365,0.033118,-0.31793,-0.13249,-5.9504e-06,-0.15896,0,0,0.25,-0,-0,0.66667
0.7143,0.74003,2.8572,0.36004,3.6003,8.0858,-2.7432,0.9144,-1.5386,-3.6576,2.6228e-11,-0.76928,0,0,0.25,-0,-0,0.66667
0.29531,0.23865,1.1813,-0.39202,-7.4676,36.495,1.2349,-0.41162,-1.4535,1.6465,1.6496e-11,-0.72677,0,0,0.25,-0,-0,0.66667
0.9864,0.49396,3.9456,-0.009055,6.8898e-05,0.092896,0.095275,-0.031771,-2.0001,0.12703,-1.9438e-05,-1,0,0,0.25,-1.7764e-15,0,0.66667
0.84624,0.47034,3.385,-0.044487,-0.24356,2.7883,0.40157,-0.13386,-1.9939,0.53542,-2.2225e-09,-0.99697,0,0,0.25,-0,-0,0.66667
0.5604,0.53674,2.2416,0.055103,0.77438,16.568,-0.32938,0.10979,-1.9896,-0.43918,-5.1892e-13,-0.99481,0,0,0.25,-0,-0,0.66667
0.59777,0.074711,2.3911,-0.63793,-8.6434,14.667,4.0676,-1.3559,-0.55242,5.4234,6.2972e-13,-0.27621,0,0,0.25,-1.1842e-15,0,0.66667
0.19208,0.76766,0.7683,0.4015,8.0822,45.333,-0.82259,0.2742,-1.4261,-1.0968,-3.8546e-10,-0.71305,0,0,0.25,-2.9606e-16,0,0.66667
0.22625,0.24048,0.90501,-0.38927,-7.7135,42.357,0.93946,-0.31315,-1.4605,1.2526,1.5224e-10,-0.73024,0,0,0.25,-0,-0,0.66667
0.15401,0.19809,0.61605,-0.45286,-9.264,48.7,0.74396,-0.24799,-1.2707,0.99195,1.3434e-09,-0.63533,0,0,0.25,-0,-0,0.66667
0.37781,0.86326,1.5113,0.54489,9.815,29.908,-2.1959,0.73197,-0.94397,-2.9279,1.4837e-12,-0.47198,0,0,0.25,5.9212e-16,0,0.66667
0.11196,0.70221,0.44782,0.30331,6.2415,52.426,-0.36221,0.12074,-1.6725,-0.48295,4.5847e-10,-0.83624,0,0,0.25,-0,-0,0.66667
0.51127,0.8317,2.0451,0.49755,7.6773,20.056,-2.7134,0.90447,-1.1191,-3.6179,-4.5342e-13,-0.55957,0,0,0.25,5.9212e-16,0,0.66667
0.63848,0.68781,2.5539,0.28172,3.4188,11.948,-1.9186,0.63954,-1.7191,-2.5582,-6.1262e-13,-0.85957,0,0,0.25,-0,-0,0.66667
0.12221,0.059733,0.48885,-0.6604,-13.792,51.581,0.8609,-0.28697,-0.45001,1.1479,1.8024e-08,-0.225,0,0,0.25,7.4015e-17,0,0.66667
0.3442,0.67316,1.3768,0.25974,4.7514,32.435,-0.95363,0.31788,-1.7603,-1.2715,-1.8119e-12,-0.88014,0,0,0.25,-5.9212e-16,0,0.66667
0.070348,0.47901,0.28139,-0.031482,-0.64997,56.164,0.023624,-0.0078746,-1.9957,0.031498,3.5325e-08,-0.99784,0,0,0.25,-0,-0,0.66667
0.52576,0.68992,2.103,0.28488,4.2553,18.921,-1.5976,0.53255,-1.7118,-2.1302,-6.7013e-13,-0.85589,0,0,0.25,-0,-0,0.66667
0.65029,0.34471,2.6012,-0.23294,-2.7452,11.264,1.6158,-0.53859,-1.8076,2.1544,-1.2645e-12,-0.90382,0,0,0.25,-0,-0,0.66667
0.61547,0.05929,2.4619,-0.66107,-8.6745,13.657,4.3399,-1.4466,-0.44633,5.7866,4.2366e-13,-0.22317,0,0,0.25,5.9212e-16,0,0.66667
0.81387,0.55144,3.2555,0.077167,0.51126,3.8363,-0.6699,0.2233,-1.9789,-0.8932,-1.7242e-11,-0.98943,0,0,0.25,-1.1842e-15,0,0.66667
0.23557,0.0050586,0.94226,-0.74241,-14.951,41.722,1.8655,-0.62182,-0.040977,2.4873,-1.2811e-11,-0.020489,0,0,0.25,-0,-0,0.66667
0.61818,0.93901,2.4727,0.65851,8.5917,13.497,-4.3422,1.4474,-0.45861,-5.7895,-5.2003e-13,-0.2293,0,0,0.25,-0,-0,0.66667
0.30283,0.13792,1.2113,-0.54312,-10.373,35.947,1.7544,-0.58479,-0.95031,2.3392,3.5887e-12,-0.47516,0,0,0.25,-5.9212e-16,0,0.66667
0.088768,0.53462,0.35507,0.051934,1.069,54.498,-0.049174,0.016391,-1.9906,-0.065565,-8.8712e-08,-0.99531,0,0,0.25,-0,-0,0.66667
0.30526,0.22629,1.221,-0.41057,-7.7749,35.677,1.3369,-0.44562,-1.4001,1.7825,9.6989e-12,-0.70006,0,0,0.25,-0,-0,0.66667
0.071356,0.71687,0.28543,0.3253,6.7503,56.086,-0.2476,0.082532,-1.6241,-0.33013,5.1365e-09,-0.81205,0,0,0.25,8.4578e-17,0,0.66667
0.95857,0.85906,3.8343,0.53859,0.78007,0.87348,-5.5069,1.8356,-0.96774,-7.3426,-9.941e-08,-0.48387,0,0,0.25,-0,-0,0.66667
0.72717,0.20937,2.9087,-0.43594,-4.2141,7.5661,3.3813,-1.1271,-1.3236,4.5085,-3.2039e-11,-0.66178,0,0,0.25,-0,-0,0.66667
0.10146,0.13603,0.40584,-0.54595,-11.377,53.406,0.59085,-0.19695,-0.93938,0.7878,-6.4572e-09,-0.46969,0,0,0.25,-0,-0,0.66667
0.78627,0.78415,3.1451,0.42623,3.3032,5.0855,-3.5747,1.1916,-1.3543,-4.7663,1.8395e-10,-0.67717,0,0,0.25,2.3685e-15,0,0.66667
0.35216,0.82593,1.4086,0.4889,8.9724,31.901,-1.8365,0.61215,-1.1492,-2.4486,1.3872e-12,-0.57459,0,0,0.25,-0,-0,0.66667
0.91144,0.56666,3.6457,0.09999,0.30381,1.1676,-0.9721,0.32403,-1.9645,-1.2961,-6.1396e-08,-0.98226,0,0,0.25,-2.3685e-15,0,0.66667
0.4955,0.889,1.982,0.58349,9.2573,21.226,-3.0839,1.028,-0.78871,-4.1119,-8.6819e-14,-0.39435,0,0,0.25,-0,-0,0.66667
0.87269,0.78984,3.4908,0.43476,2.0428,2.339,-4.0471,1.349,-1.3279,-5.3961,1.1566e-09,-0.66397,0,0,0.25,-0,-0,0.66667
0.22053,0.91023,0.88212,0.61535,12.372,42.941,-1.4475,0.4825,-0.6544,-1.93,-3.3734e-11,-0.3272,0,0,0.25,5.9212e-16,0,0.66667
0.36719,0.030129,1.4688,-0.70481,-12.961,30.874,2.7605,-0.92018,-0.23424,3.6807,-3.4417e-14,-0.11712,0,0,0.25,-0,-0,0.66667
0.36684,0.64267,1.4673,0.214,3.8364,30.607,-0.83738,0.27913,-1.8362,-1.1165,4.5575e-13,-0.9181,0,0,0.25,-0,-0,0.66667
0.097133,0.2981,0.38853,-0.30285,-6.2519,53.758,0.31378,-0.10459,-1.6733,0.41837,3.8842e-10,-0.83666,0,0,0.25,1.4803e-16,0,0.66667
0.33101,0.16031,1.3241,-0.50953,-9.519,33.618,1.7991,-0.59969,-1.0773,2.3988,-2.9143e-13,-0.53867,0,0,0.25,-0,-0,0.66667
0.65971,0.87449,2.6388,0.56174,6.6244,11.059,-3.9529,1.3176,-0.87903,-5.2706,-1.1029e-12,-0.43952,0,0,0.25,-3.3307e-16,0,0.66667
0.46654,0.36704,1.8662,-0.19944,-3.2206,23.022,0.99252,-0.33084,-1.8586,1.3234,-6.2433e-13,-0.92932,0,0,0.25,-2.9606e-16,0,0.66667
0.87923,0.12808,3.5169,-0.55787,-2.5557,2.3653,5.232,-1.744,-0.8938,6.976,-1.3317e-08,-0.4469,0,0,0.25,-0,-0,0.66667
0.26967,0.82695,1.0787,0.49043,9.5379,38.689,-1.4107,0.47024,-1.1441,-1.8809,-2.6535e-11,-0.57206,0,0,0.25,-0,-0,0.66667
0.35482,0.63572,1.4193,0.20358,3.6863,31.564,-0.7705,0.25683,-1.852,-1.0273,-5.8553e-13,-0.92601,0,0,0.25,-0,-0,0.66667
0.32035,0.41546,1.2814,-0.12681,-2.3558,34.348,0.43332,-0.14444,-1.9421,0.57776,5.6182e-12,-0.97105,0,0,0.25,-5.9212e-16,0,0.66667
0.55174,0.82339,2.207,0.48509,7.0337,17.356,-2.8548,0.95161,-1.1627,-3.8064,-1.0631e-12,-0.58134,0,0,0.25,-0,-0,0.66667
0.18822,0.16183,0.75288,-0.50726,-10.278,45.703,1.0184,-0.33947,-1.0859,1.3579,2.6141e-10,-0.54295,0,0,0.25,-0,-0,0.66667
0.17324,0.74696,0.69298,0.37045,7.5023,46.98,-0.68456,0.22819,-1.5131,-0.91275,-5.2956e-10,-0.75653,0,0,0.25,7.4015e-17,0,0.66667
0.93948,0.53816,3.7579,0.057246,0.11014,0.65463,-0.57368,0.19123,-1.9886,-0.7649,3.297e-07,-0.9943,0,0,0.25,-0,-0,0.66667
0.37665,0.70871,1.5066,0.31306,5.5804,29.866,-1.2578,0.41925,-1.6516,-1.677,1.6784e-12,-0.82578,0,0,0.25,-0,-0,0.66667
0.5871,0.90861,2.3484,0.61292,8.4498,15.278,-3.8383,1.2794,-0.66456,-5.1177,-9.4791e-13,-0.33228,0,0,0.25,2.3685e-15,0,0.66667
0.055152,0.95702,0.22061,0.68553,14.514,57.588,-0.40329,0.13443,-0.32815,-0.53772,6.1532e-07,-0.16407,0,0,0.25,7.4015e-17,0,0.66667
0.14086,0.28325,0.56343,-0.32512,-6.6443,49.843,0.48849,-0.16283,-1.6257,0.65132,4.0206e-10,-0.81284,0,0,0.25,-0,-0,0.66667
0.096359,0.44133,0.38543,-0.088012,-1.8095,53.814,0.090461,-0.030154,-1.973,0.12061,-1.4006e-08,-0.9865,0,0,0.25,2.9606e-16,0,0.66667
0.81212,0.68719,3.2485,0.28078,1.8986,4.0022,-2.4323,0.81077,-1.7215,-3.2431,2.4867e-10,-0.86075,0,0,0.25,4.4409e-16,0,0.66667
0.10315,0.74702,0.41259,0.37053,7.6571,53.226,-0.40766,0.13589,-1.512,-0.54355,3.88e-10,-0.75601,0,0,0.25,2.2204e-16,0,0.66667
0.51632,0.57336,2.0653,0.11004,1.6589,19.497,-0.60602,0.20201,-1.9572,-0.80802,-2.4608e-13,-0.97859,0,0,0.25,-1.1842e-15,0,0.66667
0.15558,0.22373,0.62231,-0.41441,-8.4588,48.553,0.68771,-0.22924,-1.3903,0.91695,6.4107e-10,-0.69513,0,0,0.25,5.9212e-16,0,0.66667
0.27882,0.89741,1.1153,0.59612,11.601,37.976,-1.7729,0.59096,-0.73645,-2.3638,-5.4153e-12,-0.36822,0,0,0.25,-0,-0,0.66667
0.8826,0.3607,3.5304,-0.20895,-0.87278,1.8638,1.9672,-0.65573,-1.8438,2.6229,2.337e-09,-0.92188,0,0,0.25,-0,-0,0.66667
0.63159,0.41182,2.5264,-0.13227,-1.6213,12.267,0.89108,-0.29703,-1.9375,1.1881,4.1023e-14,-0.96877,0,0,0.25,-0,-0,0.66667
0.96366,0.48145,3.8547,-0.02782,-0.026145,0.31855,0.28596,-0.095322,-1.9965,0.38129,-4.529e-07,-0.99823,0,0,0.25,-0,-0,0.66667
0.59971,0.20392,2.3989,-0.44412,-5.8988,14.327,2.841,-0.94701,-1.2978,3.788,1.92e-12,-0.64888,0,0,0.25,-0,-0,0.66667
0.0095197,0.90442,0.038079,0.60663,12.818,61.696,-0.061599,0.020533,-0.69195,-0.082133,-6.9319e-07,-0.34597,0,0,0.25,-3.2167e-18,0,0.66667
0.41564,0.27589,1.6626,-0.33617,-5.776,26.858,1.4904,-0.49681,-1.598,1.9872,-1.8566e-12,-0.79898,0,0,0.25,8.8818e-16,0,0.66667
0.022442,0.69757,0.089767,0.29636,6.1732,60.517,-0.070942,0.023647,-1.687,-0.094589,1.0031e-08,-0.84348,0,0,0.25,-0,-0,0.66667
0.31398,0.27115,1.2559,-0.34327,-6.4428,34.929,1.1497,-0.38322,-1.5811,1.5329,8.6596e-12,-0.79055,0,0,0.25,-0,-0,0.66667
0.48162,0.09111,1.9265,-0.61333,-9.9308,22.228,3.1509,-1.0503,-0.6632,4.2012,-2.6334e-13,-0.3316,0,0,0.25,2.9606e-16,3.3974e-16,0.66667
0.57546,0.42752,2.3018,-0.10873,-1.4893,15.621,0.66739,-0.22246,-1.9578,0.88985,5.0737e-13,-0.97888,0,0,0.25,5.9212e-16,0,0.66667
0.23865,0.34422,0.9546,-0.23366,-4.5779,41.248,0.59482,-0.19827,-1.8067,0.79309,9.8317e-11,-0.90337,0,0,0.25,-0,-0,0.66667
0.55829,0.65889,2.2331,0.23833,3.3747,16.757,-1.4193,0.47309,-1.7985,-1.8924,-1.4926e-12,-0.89924,0,0,0.25,2.3685e-15,0,0.66667
0.39492,0.11675,1.5797,-0.57488,-10.213,28.602,2.4217,-0.80723,-0.82457,3.2289,-1.1975e-12,-0.41228,0,0,0.25,-0,-0,0.66667
0.50658,0.6597,2.0263,0.23955,3.6734,20.206,-1.2944,0.43147,-1.796,-1.7259,-3.253e-14,-0.89802,0,0,0.25,-0,-0,0.66667
0.19597,0.40206,0.78387,-0.14691,-2.9312,44.944,0.30708,-0.10236,-1.9232,0.40944,4.7256e-11,-0.96159,0,0,0.25,5.6012e-16,0,0.66667
0.15675,0.35344,0.62701,-0.21984,-4.4574,48.414,0.36757,-0.12252,-1.8285,0.4901,5.6486e-10,-0.91427,0,0,0.25,-2.9606e-16,0,0.66667
0.75452,0.037676,3.0181,-0.69349,-6.3133,6.7577,5.5813,-1.8604,-0.28987,7.4417,2.1871e-12,-0.14494,0,0,0.25,2.3685e-15,0,0.66667
0.32997,0.30211,1.3199,-0.29684,-5.4971,33.602,1.0448,-0.34827,-1.6866,1.3931,4.4047e-12,-0.84332,0,0,0.25,-0,-0,0.66667
0.6442,0.52222,2.5768,0.03333,0.39657,11.539,-0.22903,0.076342,-1.9957,-0.30537,1.6442e-13,-0.99787,0,0,0.25,-0,-0,0.66667
0.56546,0.57795,2.2618,0.11692,1.6303,16.256,-0.70523,0.23508,-1.9509,-0.9403,-9.0383e-13,-0.97545,0,0,0.25,-0,-0,0.66667
0.89953,0.93405,3.5981,0.65108,2.5572,2.0797,-6.2471,2.0824,-0.49284,-8.3295,-2.4957e-08,-0.24642,0,0,0.25,-1.214e-15,0,0.66667
0.88068,0.73,3.5227,0.34499,1.4929,2.029,-3.2409,1.0803,-1.576,-4.3211,1.2258e-09,-0.78802,0,0,0.25,-0,-0,0.66667
0.44311,0.61645,1.7724,0.17468,2.8984,24.731,-0.82561,0.2752,-1.891,-1.1008,1.0683e-12,-0.94548,0,0,0.25,-5.9212e-16,0,0.66667
0.20474,0.85457,0.81894,0.53186,10.716,44.272,-1.1615,0.38717,-0.9942,-1.5487,-2.0205e-10,-0.4971,0,0,0.25,-0,-0,0.66667
0.63219,0.11451,2.5288,-0.57823,-7.2686,12.589,3.8992,-1.2997,-0.81039,5.199,1.3882e-12,-0.4052,0,0,0.25,-5.9212e-16,0,0.66667
0.63684,0.6087,2.5473,0.16304,1.977,11.98,-1.1075,0.36918,-1.9048,-1.4767,-1.571e-13,-0.95241,0,0,0.25,-0,-0,0.66667
0.69242,0.17986,2.7697,-0.4802,-5.1675,9.2722,3.5467,-1.1822,-1.1797,4.7289,-5.5125e-12,-0.58987,0,0,0.25,-5.9212e-16,0,0.66667
0.90747,0.84591,3.6299,0.51887,1.7958,1.6667,-5.0225,1.6742,-1.044,-6.6966,-1.2405e-08,-0.52198,0,0,0.25,2.3685e-15,0,0.66667
0.78258,0.79663,3.1303,0.44494,3.5106,5.2489,-3.7142,1.2381,-1.296,-4.9522,1.7545e-10,-0.648,0,0,0.25,1.1842e-15,0,0.66667
0.62529,0.025064,2.5012,-0.7124,-9.2151,13.172,4.7516,-1.5839,-0.19631,6.3354,2.0828e-13,-0.098157,0,0,0.25,-1.1842e-15,0,0.66667
0.60097,0.25755,2.4039,-0.36368,-4.7942,14.183,2.3313,-0.7771,-1.5292,3.1084,1.8485e-12,-0.7646,0,0,0.25,-0,-0,0.66667
0.21276,0.05614,0.85104,-0.66579,-13.478,43.636,1.511,-0.50365,-0.42357,2.0146,4.5812e-11,-0.21179,0,0,0.25,2.7401e-16,0,0.66667
0.65137,0.27906,2.6055,-0.33141,-3.9149,11.269,2.3026,-0.76754,-1.6099,3.0702,-5.1381e-13,-0.80496,0,0,0.25,-2.9606e-16,0,0.66667
0.8145,0.42002,3.258,-0.11997,-0.79323,3.8268,1.0423,-0.34742,-1.9486,1.3897,-1.6605e-10,-0.97429,0,0,0.25,-1.1842e-15,0,0.66667
0.92232,0.14444,3.6893,-0.53334,-1.5452,1.4081,5.247,-1.749,-0.98888,6.996,-1.5696e-08,-0.49444,0,0,0.25,1.1842e-15,0,0.66667
0.91665,0.8757,3.6666,0.56355,1.7775,1.5662,-5.5102,1.8367,-0.8715,-7.3469,3.0158e-08,-0.43575,0,0,0.25,-0,-0,0.66667
0.5611,0.10312,2.2444,-0.59532,-8.5733,16.874,3.563,-1.1877,-0.74004,4.7507,4.4076e-13,-0.37002,0,0,0.25,-0,2.7524e-16,0.66667
0.25983,0.23635,1.0393,-0.39548,-7.7007,39.482,1.0961,-0.36536,-1.443,1.4614,5.6164e-11,-0.72151,0,0,0.25,2.9606e-16,0,0.66667
0.3338,0.068058,1.3352,-0.64791,-12.186,33.487,2.3069,-0.76897,-0.50721,3.0759,-8.8884e-13,-0.25361,0,0,0.25,-0,-0,0.66667
0.99776,0.75501,3.991,0.38251,-0.12862,0.27264,-4.071,1.357,-1.4802,-5.428,1.6302e-08,-0.74011,0,0,0.25,-0,-0,0.66667
0.5256,0.8604,2.1024,0.5406,8.1953,19.129,-3.0308,1.0103,-0.96,-4.0411,-5.6577e-13,-0.48,0,0,0.25,-0,-0,0.66667
0.81591,0.42173,3.2636,-0.11741,-0.77049,3.7777,1.0218,-0.34059,-1.9504,1.3624,-1.1658e-10,-0.9752,0,0,0.25,-0,-0,0.66667
0.59702,0.8014,2.3881,0.4521,6.0392,14.497,-2.879,0.95967,-1.2729,-3.8387,-1.9726e-12,-0.63643,0,0,0.25,5.9212e-16,0,0.66667
0.50693,0.080306,2.0277,-0.62954,-9.8704,20.488,3.4041,-1.1347,-0.5899,4.5388,-5.6621e-14,-0.29495,0,0,0.25,5.9212e-16,0,0.66667
0.34854,0.985,1.3942,0.7275,13.61,32.371,-2.7047,0.90156,-0.11737,-3.6062,-3.042e-14,-0.058685,0,0,0.25,-5.9212e-16,0,0.66667
0.53777,0.72092,2.1511,0.33139,4.8695,18.147,-1.9009,0.63364,-1.6098,-2.5345,-8.421e-13,-0.80492,0,0,0.25,-0,-0,0.66667
0.0067347,0.70592,0.026939,0.30887,6.4394,61.944,-0.022188,0.0073962,-1.6599,-0.029585,-6.0523e-09,-0.82993,0,0,0.25,-0,-0,0.66667
0.87669,0.31612,3.5067,-0.27582,-1.2226,2.0616,2.5792,-0.85975,-1.7303,3.439,1.1868e-09,-0.86516,0,0,0.25,-0,-0,0.66667
0.56149,0.035161,2.2459,-0.69726,-10.13,16.981,4.176,-1.392,-0.27234,5.568,5.6399e-14,-0.13617,0,0,0.25,-0,-1.2965e-16,0.66667
0.024281,0.35853,0.097126,-0.2122,-4.4104,60.348,0.05496,-0.01832,-1.8389,0.07328,-5.8996e-08,-0.91946,0,0,0.25,-3.7007e-17,0,0.66667
0.81817,0.11886,3.2727,-0.57171,-3.8923,4.1559,4.9894,-1.6631,-0.83758,6.6526,-5.097e-10,-0.41879,0,0,0.25,5.9212e-16,0,0.66667
0.13535,0.077722,0.54142,-0.63342,-13.159,50.405,0.91452,-0.30484,-0.57258,1.2194,5.0379e-10,-0.28629,0,0,0.25,2.9606e-16,0,0.66667
0.030639,0.14839,0.12255,-0.52741,-11.085,59.783,0.17236,-0.057455,-1.0115,0.22982,-1.0085e-07,-0.50575,0,0,0.25,1.8504e-17,0,0.66667
0.46234,0.58827,1.8493,0.13241,2.1461,23.308,-0.653,0.21767,-1.9374,-0.87067,6.4215e-13,-0.96871,0,0,0.25,-8.8818e-16,0,0.66667
0.96066,0.28815,3.8426,-0.31778,-0.37085,0.52576,3.2563,-1.0854,-1.6405,4.3417,1.4364e-09,-0.82024,0,0,0.25,-2.3685e-15,0,0.66667
0.093614,0.20254,0.37446,-0.44619,-9.2671,54.093,0.44554,-0.14851,-1.2924,0.59406,1.8636e-09,-0.6462,0,0,0.25,1.4803e-16,0,0.66667
0.065599,0.53313,0.26239,0.049695,1.0267,56.594,-0.034772,0.011591,-1.992,-0.046363,-6.0126e-08,-0.99601,0,0,0.25,-1.4803e-16,0,0.66667
0.87994,0.49529,3.5197,-0.0070684,-0.029908,1.8613,0.066344,-0.022115,-1.9998,0.088459,2.3962e-08,-0.99991,0,0,0.25,-1.1842e-15,0,0.66667
0.82137,0.55112,3.2855,0.076686,0.48799,3.5815,-0.67187,0.22396,-1.9782,-0.89582,5.8488e-11,-0.98912,0,0,0.25,-0,-0,0.66667
0.81997,0.68595,3.2799,0.27893,1.8095,3.7333,-2.4396,0.8132,-1.7238,-3.2528,2.6287e-10,-0.86188,0,0,0.25,-1.3589e-15,0,0.66667
0.46782,0.12852,1.8713,-0.55723,-9.1403,23.155,2.7806,-0.92687,-0.89702,3.7075,-3.0465e-13,-0.44851,0,0,0.25,-1.1842e-15,0,0.66667
0.42749,0.71754,1.71,0.32631,5.5348,25.957,-1.4879,0.49598,-1.622,-1.9839,1.4849e-12,-0.81098,0,0,0.25,2.2204e-16,0,0.66667
0.40107,0.85402,1.6043,0.53103,9.3518,28.094,-2.2718,0.75725,-0.99672,-3.029,1.7375e-12,-0.49836,0,0,0.25,-0,-0,0.66667
0.58222,0.013568,2.3289,-0.72965,-10.267,15.739,4.5313,-1.5104,-0.10639,6.0418,2.5313e-14,-0.053195,0,0,0.25,-2.3685e-15,0,0.66667
0.72897,0.23493,2.9159,-0.39761,-3.8081,7.4427,3.0917,-1.0306,-1.437,4.1222,-3.8817e-11,-0.71851,0,0,0.25,-8.6327e-16,0,0.66667
0.78429,0.54908,3.1372,0.073622,0.56197,4.915,-0.61591,0.2053,-1.9802,-0.82121,4.7695e-11,-0.99012,0,0,0.25,1.1842e-15,0,0.66667
0.6548,0.36977,2.6192,-0.19535,-2.2743,10.999,1.3644,-0.4548,-1.8649,1.8192,-2.0357e-12,-0.93247,0,0,0.25,1.1842e-15,0,0.66667
0.56247,0.5296,2.2499,0.044395,0.62166,16.435,-0.26635,0.088785,-1.9946,-0.35514,-4.4986e-13,-0.99732,0,0,0.25,-8.8818e-16,0,0.66667
0.41239,0.46755,1.6496,-0.048671,-0.83346,27.024,0.2141,-0.071366,-1.9921,0.28546,1.6766e-13,-0.99605,0,0,0.25,-7.4015e-17,0,0.66667
0.31992,0.81286,1.2797,0.4693,8.8204,34.5,-1.6014,0.53381,-1.2176,-2.1353,-3.076e-12,-0.60878,0,0,0.25,1.1842e-15,0,0.66667
0.28625,0.61132,1.145,0.16698,3.1778,37.188,-0.50985,0.16995,-1.9001,-0.67979,-2.2004e-11,-0.95003,0,0,0.25,-0,-0,0.66667
0.29618,0.59724,1.1847,0.14587,2.757,36.354,-0.46083,0.15361,-1.9255,-0.61444,-1.479e-11,-0.96273,0,0,0.25,-0,-0,0.66667
0.68275,0.51705,2.731,0.025582,0.27645,9.4787,-0.18631,0.062102,-1.9969,-0.24841,1.2128e-12,-0.99844,0,0,0.25,-0,-0,0.66667
0.76244,0.018706,3.0498,-0.72194,-6.4174,6.487,5.8713,-1.9571,-0.14637,7.8284,-1.6582e-12,-0.073184,0,0,0.25,-0,-0,0.66667
0.59762,0.58582,2.3905,0.12873,1.6926,14.261,-0.82061,0.27354,-1.9408,-1.0942,-1.1337e-12,-0.97041,0,0,0.25,5.9212e-16,0,0.66667
0.22286,0.38373,0.89146,-0.1744,-3.4395,42.602,0.41459,-0.1382,-1.8915,0.55278,1.0567e-10,-0.94574,0,0,0.25,-0,-0,0.66667
0.1944,0.80605,0.77758,0.45908,9.2561,45.147,-0.95192,0.31731,-1.2503,-1.2692,-2.7501e-10,-0.62513,0,0,0.25,1.4803e-16,0,0.66667
0.76569,0.602,3.0627,0.153,1.2649,5.6788,-1.2496,0.41654,-1.9174,-1.6662,7.2944e-11,-0.95871,0,0,0.25,-0,-0,0.66667
0.97869,0.68049,3.9148,0.27073,0.10615,0.28673,-2.8263,0.94209,-1.739,-3.7684,7.3598e-09,-0.8695,0,0,0.25,-1.1842e-15,0,0.66667
0.01591,0.40263,0.06364,-0.14605,-3.033,61.108,0.024785,-0.0082617,-1.9254,0.033047,-1.1052e-08,-0.96269,0,0,0.25,1.8504e-17,0,0.66667
0.2489,0.9486,0.99559,0.6729,13.389,40.545,-1.7865,0.5955,-0.39016,-2.382,-5.6869e-12,-0.19508,0,0,0.25,-0,-0,0.66667
0.79231,0.16239,3.1693,-0.50642,-3.8608,4.9641,4.2799,-1.4266,-1.088,5.7066,-1.7676e-10,-0.54399,0,0,0.25,2.3685e-15,0,0.66667
0.71917,0.3993,2.8767,-0.15105,-1.4712,7.7206,1.1587,-0.38624,-1.9196,1.545,-2.4974e-11,-0.95978,0,0,0.25,5.9212e-16,0,0.66667
0.24598,0.85955,0.98392,0.53933,10.658,40.722,-1.4151,0.47169,-0.96509,-1.8868,-4.2582e-11,-0.48255,0,0,0.25,-0,-0,0.66667
0.55489,0.017995,2.2196,-0.72301,-10.645,17.436,4.2794,-1.4265,-0.14041,5.7058,1.4522e-13,-0.070205,0,0,0.25,-1.1842e-15,0,0.66667
0.58559,0.028822,2.3423,-0.70677,-9.8612,15.499,4.4146,-1.4715,-0.22415,5.8862,-3.2863e-13,-0.11207,0,0,0.25,1.1842e-15,0,0.66667
0.72138,0.0046581,2.8855,-0.74301,-7.5942,8.2958,5.7173,-1.9058,-0.037501,7.6231,-2.2236e-12,-0.018751,0,0,0.25,4.737e-15,0,0.66667
0.46367,0.96224,1.8547,0.69336,11.553,23.593,-3.4293,1.1431,-0.29041,-4.5724,3.9968e-14,-0.1452,0,0,0.25,5.9212e-16,0,0.66667
0.40485,0.39068,1.6194,-0.16398,-2.8338,27.621,0.70813,-0.23604,-1.9043,0.94418,-1.2106e-12,-0.95213,0,0,0.25,5.9212e-16,0,0.66667
0.30801,0.84948,1.232,0.52422,9.9659,35.508,-1.7223,0.57409,-1.0228,-2.2964,-3.5333e-12,-0.51142,0,0,0.25,-0,-0,0.66667
0.23831,0.48299,0.95324,-0.025513,-0.4985,41.255,0.064853,-0.021618,-1.997,0.08647,1.1372e-11,-0.99851,0,0,0.25,5.9212e-16,0,0.66667
0.092503,0.70356,0.37001,0.30534,6.3096,54.176,-0.30128,0.10043,-1.6684,-0.40171,1.463e-09,-0.83421,0,0,0.25,-0,-0,0.66667
0.64588,0.27362,2.5835,-0.33957,-4.0646,11.577,2.3394,-0.7798,-1.5896,3.1192,2.7645e-13,-0.7948,0,0,0.25,-0,-0,0.66667
0.66957,0.9191,2.6783,0.62865,7.2895,10.634,-4.4899,1.4966,-0.59455,-5.9865,-6.7368e-13,-0.29727,0,0,0.25,-0,-3.8937e-16,0.66667
0.68734,0.37769,2.7494,-0.18346,-1.9642,9.2852,1.3451,-0.44836,-1.8817,1.7934,-9.9996e-12,-0.94087,0,0,0.25,2.3685e-15,0,0.66667
0.0031457,0.66448,0.012583,0.24672,5.1349,62.27,-0.0082785,0.0027595,-1.7834,-0.011038,9.1089e-09,-0.89171,0,0,0.25,-0,-0,0.66667
0.43825,0.44637,1.753,-0.080445,-1.3402,25.074,0.37606,-0.12535,-1.9774,0.50141,-8.3056e-13,-0.98868,0,0,0.25,1.1842e-15,0,0.66667
0.12255,0.69273,0.49021,0.28909,5.9311,51.474,-0.37791,0.12597,-1.7032,-0.50388,1.1266e-09,-0.85161,0,0,0.25,-2.9606e-16,0,0.66667
0.52661,0.36666,2.1064,-0.20001,-2.9752,18.826,1.1235,-0.3745,-1.8573,1.498,4.9127e-13,-0.92867,0,0,0.25,-0,-0,0.66667
0.97974,0.81182,3.919,0.46773,0.23351,0.53066,-4.8881,1.6294,-1.2229,-6.5175,2.6159e-08,-0.61145,0,0,0.25,-7.4015e-17,0,0.66667
0.49928,0.56382,1.9971,0.095735,1.4783,20.67,-0.50985,0.16995,-1.9689,-0.6798,-2.0345e-13,-0.98446,0,0,0.25,1.1842e-15,0,0.66667
0.37465,0.44306,1.4986,-0.085413,-1.5172,29.963,0.34133,-0.11378,-1.975,0.45511,-2.9932e-13,-0.98748,0,0,0.25,-0,-0,0.66667
0.81384,0.48757,3.2554,-0.018645,-0.12344,3.8292,0.16186,-0.053953,-1.9987,0.21581,1.846e-10,-0.99936,0,0,0.25,-0,-0,0.66667
0.9682,0.31474,3.8728,-0.27789,-0.23118,0.39848,2.8699,-0.95662,-1.7268,3.8265,4.4015e-09,-0.86341,0,0,0.25,2.3685e-15,0,0.66667
0.28712,0.88204,1.1485,0.57307,11.078,37.268,-1.7551,0.58503,-0.83193,-2.3401,-5.5087e-12,-0.41597,0,0,0.25,-0,-0,0.66667
0.803,0.64524,3.212,0.21786,1.5345,4.2783,-1.866,0.62201,-1.8304,-2.4881,1.9872e-10,-0.91522,0,0,0.25,-1.1842e-15,0,0.66667
0.99614,0.49506,3.9846,-0.0074053,0.0031075,0.023235,0.078684,-0.026195,-1.9999,0.10493,4.8885e-05,-0.99996,0,0,0.25,-0,-0,0.66667
0.11182,0.90163,0.4473,0.60245,12.567,52.491,-0.7186,0.23953,-0.70998,-0.95813,-8.0695e-09,-0.35499,0,0,0.25,-0,-0,0.66667
0.53105,0.46964,2.1242,-0.045537,-0.67103,18.492,0.25794,-0.085982,-1.9944,0.34393,2.2904e-13,-0.99719,0,0,0.25,-0,-0,0.66667
0.81353,0.69091,3.2541,0.28636,1.9232,3.9581,-2.4849,0.82831,-1.7095,-3.3132,2.5615e-10,-0.85473,0,0,0.25,-0,-0,0.66667
0.37629,0.50666,1.5052,0.0099884,0.17708,29.828,-0.040091,0.013364,-2.0001,-0.053455,1.374e-13,-1.0001,0,0,0.25,-0,-0,0.66667
0.44577,0.54931,1.7831,0.07397,1.2217,24.514,-0.35172,0.11724,-1.9796,-0.46896,5.0787e-13,-0.98979,0,0,0.25,-0,-0,0.66667
0.7509,0.28924,3.0036,-0.31614,-2.7899,6.4002,2.5322,-0.84406,-1.6451,3.3762,-8.5568e-11,-0.82253,0,0,0.25,-0,-0,0.66667
0.098346,0.82575,0.39339,0.48862,10.159,53.675,-0.51257,0.17086,-1.1504,-0.68343,-6.6472e-09,-0.57519,0,0,0.25,-1.4803e-16,0,0.66667
0.36053,0.12265,1.4421,-0.56603,-10.364,31.286,2.1767,-0.72557,-0.86202,2.9023,-1.5088e-12,-0.43101,0,0,0.25,-2.2204e-16,0,0.66667
0.56371,0.36723,2.2548,-0.19915,-2.7905,16.393,1.1975,-0.39916,-1.8593,1.5966,1.0052e-12,-0.92967,0,0,0.25,-0,-0,0.66667
0.23859,0.27512,0.95434,-0.33732,-6.6295,41.279,0.85844,-0.28615,-1.5953,1.1446,1.1299e-10,-0.79767,0,0,0.25,-2.9606e-16,0,0.66667
0.83995,0.80416,3.3598,0.45624,2.6985,3.2869,-4.0877,1.3626,-1.2596,-5.4502,7.495e-10,-0.6298,0,0,0.25,5.9212e-16,0,0.66667
0.76585,0.22319,3.0634,-0.41521,-3.4945,5.8749,3.3919,-1.1306,-1.3881,4.5225,-1.2096e-10,-0.69406,0,0,0.25,-0,-0,0.66667
0.96554,0.61717,3.8622,0.17575,0.15705,0.34844,-1.8101,0.60337,-1.89,-2.4135,-4.4746e-08,-0.94502,0,0,0.25,5.9212e-16,0,0.66667
0.52299,0.88229,2.092,0.57344,8.7483,19.338,-3.1989,1.0663,-0.83032,-4.2653,-6.1195e-13,-0.41516,0,0,0.25,1.1842e-15,0,0.66667
0.10652,0.22447,0.4261,-0.41329,-8.5489,52.929,0.4696,-0.15653,-1.3929,0.62614,3.3697e-09,-0.69645,0,0,0.25,-2.9606e-16,0,0.66667
0.93662,0.71312,3.7465,0.31967,0.68451,0.8649,-3.1937,1.0646,-1.6374,-4.2583,-1.2663e-09,-0.81869,0,0,0.25,-1.1842e-15,0,0.66667
0.83424,0.32772,3.3369,-0.25842,-1.5434,3.2536,2.2995,-0.76652,-1.7616,3.0661,-2.6329e-10,-0.88081,0,0,0.25,-0,-0,0.66667
0.54442,0.65691,2.1777,0.23536,3.409,17.657,-1.3668,0.45559,-1.8042,-1.8223,-9.3869e-13,-0.90211,0,0,0.25,-0,-0,0.66667
0.8363,0.67029,3.3452,0.25544,1.5063,3.1865,-2.2786,0.75955,-1.767,-3.0382,2.1312e-10,-0.88351,0,0,0.25,1.1842e-15,0,0.66667
0.88169,0.6626,3.5268,0.24389,1.0311,1.911,-2.2937,0.76458,-1.7881,-3.0583,2.8662e-09,-0.89406,0,0,0.25,-0,-0,0.66667
0.77608,0.26882,3.1043,-0.34678,-2.7831,5.394,2.8707,-0.95689,-1.5716,3.8276,-1.5935e-10,-0.78582,0,0,0.25,-0,-0,0.66667
0.57125,0.88668,2.285,0.58002,8.1999,16.216,-3.5343,1.1781,-0.80294,-4.7124,-8.1246e-13,-0.40147,0,0,0.25,-0,-0,0.66667
0.6153,0.65155,2.4612,0.22733,2.8932,13.246,-1.492,0.49733,-1.8162,-1.9893,-1.3074e-12,-0.90808,0,0,0.25,-8.1991e-16,0,0.66667
0.84439,0.16263,3.3776,-0.50605,-2.9376,3.2253,4.5579,-1.5193,-1.0902,6.0772,-2.8393e-10,-0.54508,0,0,0.25,-0,-0,0.66667
0.62222,0.23257,2.4889,-0.40114,-5.0775,12.964,2.6624,-0.88746,-1.4274,3.5498,1.9145e-12,-0.71371,0,0,0.25,-0,-0,0.66667
0.20648,0.93416,0.82592,0.65125,13.207,44.172,-1.4343,0.47811,-0.49248,-1.9125,-3.6086e-11,-0.24624,0,0,0.25,3.7007e-16,0,0.66667
0.69149,0.20646,2.766,-0.44031,-4.7335,9.2733,3.2477,-1.0826,-1.3101,4.3302,-7.325e-12,-0.65503,0,0,0.25,1.1842e-15,0,0.66667
0.53201,0.87383,2.1281,0.56075,8.4325,18.723,-3.1821,1.0607,-0.88352,-4.2428,-2.5069e-13,-0.44176,0,0,0.25,-8.1416e-16,0,0.66667
0.26325,0.39347,1.053,-0.1598,-3.0837,39.131,0.4487,-0.14957,-1.9089,0.59827,4.0195e-11,-0.95445,0,0,0.25,2.9606e-16,0,0.66667
0.00078654,0.50475,0.0031462,0.0071234,0.14781,62.484,-6.0792e-05,8.9904e-05,-2.0007,-4.6235e-05,0.00010446,-1.0003,0,0,0.25,-0,-0,0.66667
0.2355,0.038739,0.94199,-0.69189,-13.882,41.697,1.738,-0.57934,-0.29832,2.3174,8.9034e-12,-0.14916,0,0,0.25,-0,-0,0.66667
0.67357,0.21411,2.6943,-0.42884,-4.8296,10.174,3.0811,-1.027,-1.3468,4.1081,-2.4964e-12,-0.67338,0,0,0.25,-1.1842e-15,0,0.66667
0.87832,0.45599,3.5133,-0.06602,-0.28369,1.9085,0.61853,-0.20618,-1.984,0.8247,-3.9672e-09,-0.99199,0,0,0.25,-1.1842e-15,0,0.66667
0.8307,0.70722,3.3228,0.31083,1.905,3.4098,-2.7542,0.91808,-1.6562,-3.6723,4.7094e-10,-0.82809,0,0,0.25,-1.1842e-15,0,0.66667
0.10811,0.54864,0.43243,0.072964,1.4962,52.755,-0.084139,0.028046,-1.981,-0.11218,-3.3802e-09,-0.9905,0,0,0.25,-0,-0,0.66667
0.071125,0.11008,0.2845,-0.58488,-12.281,56.137,0.44373,-0.14791,-0.78272,0.59164,6.4419e-08,-0.39136,0,0,0.25,-2.3226e-16,0,0.66667
0.76159,0.35928,3.0464,-0.21108,-1.7778,5.8761,1.7147,-0.57157,-1.8409,2.2863,-9.0316e-11,-0.92045,0,0,0.25,-0,-0,0.66667
0.28483,0.901,1.1393,0.60151,11.666,37.476,-1.8275,0.60917,-0.71369,-2.4367,-3.9326e-12,-0.35685,0,0,0.25,-0,-0,0.66667
0.2718,0.18837,1.0872,-0.46745,-9.0688,38.498,1.3553,-0.45175,-1.2237,1.807,2.7956e-11,-0.61183,0,0,0.25,-0,-0,0.66667
0.0020003,0.0071759,0.0080012,-0.73924,-15.758,62.375,0.015811,-0.0052257,-0.057179,0.021104,6.6969e-05,-0.028589,0,0,0.25,-9.2519e-18,0,0.66667
0.098539,0.62422,0.39416,0.18633,3.8345,53.622,-0.19585,0.065284,-1.8773,-0.26114,-3.6531e-09,-0.93864,0,0,0.25,4.6259e-17,0,0.66667
0.1356,0.41263,0.54239,-0.13105,-2.6702,50.291,0.18954,-0.063181,-1.9387,0.25273,-2.4722e-09,-0.96935,0,0,0.25,-0,-0,0.66667
0.15936,0.67684,0.63744,0.26526,5.3797,48.189,-0.45089,0.1503,-1.7495,-0.60119,-2.8848e-10,-0.87473,0,0,0.25,1.4803e-16,0,0.66667
0.44531,0.34086,1.7813,-0.23871,-3.9575,24.589,1.1339,-0.37796,-1.7975,1.5118,-1.0006e-12,-0.89876,0,0,0.25,2.9606e-16,0,0.66667
0.81414,0.92379,3.2565,0.63569,4.4682,4.4033,-5.5204,1.8401,-0.56304,-7.3605,1.0958e-10,-0.28152,0,0,0.25,-0,-0,0.66667
0.8123,0.092795,3.2492,-0.61081,-4.3126,4.4208,5.2923,-1.7641,-0.67521,7.0565,3.5604e-11,-0.33761,0,0,0.25,-5.181e-16,-3.508e-17,0.66667
0.90999,0.89039,3.64,0.58558,2.0143,1.7354,-5.684,1.8947,-0.78012,-7.5787,-8.6991e-09,-0.39006,0,0,0.25,-1.1842e-15,0,0.66667
0.44359,0.03121,1.7744,-0.70318,-12,25.061,3.3272,-1.1091,-0.24265,4.4363,-1.5099e-14,-0.12132,0,0,0.25,-1.9018e-16,0,0.66667
0.70871,0.38419,2.8348,-0.17371,-1.7486,8.2261,1.3132,-0.43773,-1.8921,1.7509,-1.98e-11,-0.94605,0,0,0.25,-0,-0,0.66667
0.48833,0.87911,1.9533,0.56867,9.0976,21.71,-2.9622,0.98738,-0.85042,-3.9495,-1.2212e-13,-0.42521,0,0,0.25,1.1842e-15,0,0.66667
0.049843,0.39337,0.19937,-0.15994,-3.3145,58.026,0.085033,-0.028344,-1.9086,0.11338,3.4487e-08,-0.9543,0,0,0.25,-7.4015e-17,0,0.66667
0.080431,0.2615,0.32173,-0.35774,-7.4213,55.269,0.30692,-0.10231,-1.5447,0.40923,-9.4453e-10,-0.77236,0,0,0.25,-0,-0,0.66667
0.24594,0.87117,0.98377,0.55676,11.013,40.733,-1.4606,0.48687,-0.89811,-1.9475,-4.1079e-11,-0.44906,0,0,0.25,-3.7007e-16,0,0.66667
0.98162,0.37245,3.9265,-0.19133,-0.044301,0.19668,2.0033,-0.66778,-1.8706,2.6711,1.1763e-07,-0.93529,0,0,0.25,1.4803e-15,0,0.66667
0.69192,0.28051,2.7677,-0.32923,-3.506,9.1468,2.4299,-0.80996,-1.6154,3.2398,-1.2172e-11,-0.8077,0,0,0.25,3.7007e-16,0,0.66667
0.26801,0.50003,1.072,4.1974e-05,0.00080659,38.714,-0.00011999,3.9998e-05,-2.0013,-0.00015999,-2.2091e-12,-1.0007,0,0,0.25,-0,-0,0.66667
0.70626,0.83926,2.8251,0.50889,5.2809,8.6314,-3.8337,1.2779,-1.0796,-5.1116,8.7479e-12,-0.53978,0,0,0.25,-5.9212e-16,0,0.66667
0.66135,0.53672,2.6454,0.055081,0.62915,10.604,-0.38856,0.12952,-1.9891,-0.51808,1.2697e-12,-0.99454,0,0,0.25,-2.3685e-15,0,0.66667
0.04329,0.19648,0.17316,-0.45528,-9.5266,58.634,0.21023,-0.070076,-1.2627,0.28031,-3.2645e-08,-0.63135,0,0,0.25,-0,-0,0.66667
0.36149,0.42846,1.446,-0.10731,-1.9289,31.011,0.41378,-0.13793,-1.959,0.55171,1.8252e-13,-0.97952,0,0,0.25,-0,-0,0.66667
0.77373,0.27243,3.0949,-0.34136,-2.7648,5.4819,2.8173,-0.93909,-1.585,3.7563,-1.4994e-10,-0.79251,0,0,0.25,-0,-0,0.66667
0.078523,0.1796,0.31409,-0.48061,-10.024,55.456,0.40255,-0.13418,-1.1793,0.53673,-5.3124e-09,-0.58966,0,0,0.25,-7.4015e-17,0,0.66667
0.88438,0.88156,3.5375,0.57234,2.5207,2.2669,-5.3991,1.7997,-0.83493,-7.1988,5.2411e-09,-0.41746,0,0,0.25,-0,-0,0.66667
0.93087,0.21978,3.7235,-0.42033,-1.0288,1.0826,4.1736,-1.3912,-1.3723,5.5648,-1.6577e-09,-0.68616,0,0,0.25,-0,-0,0.66667
0.85309,0.51708,3.4123,0.025622,0.13388,2.5851,-0.23315,0.077717,-1.9967,-0.31087,-5.6709e-10,-0.99836,0,0,0.25,-0,-0,0.66667
0.11738,0.68085,0.46951,0.27127,5.5698,51.936,-0.33964,0.11321,-1.7379,-0.45285,4.4151e-10,-0.86896,0,0,0.25,-0,-0,0.66667
0.56517,0.32986,2.2607,-0.25521,-3.5738,16.325,1.5386,-0.51285,-1.768,2.0514,1.1046e-12,-0.884,0,0,0.25,1.1842e-15,0,0.66667
0.70756,0.59401,2.8302,0.14102,1.423,8.2686,-1.0643,0.35478,-1.9302,-1.4191,1.6051e-11,-0.96509,0,0,0.25,-2.3685e-15,0,0.66667
0.88798,0.39999,3.5519,-0.15002,-0.59284,1.7011,1.4209,-0.47365,-1.9202,1.8946,1.0843e-09,-0.96008,0,0,0.25,-0,-0,0.66667
0.095776,0.57822,0.3831,0.11733,2.4134,53.867,-0.11987,0.039957,-1.9508,-0.15983,-5.3321e-09,-0.97538,0,0,0.25,1.4803e-16,0,0.66667
0.81577,0.54341,3.2631,0.06511,0.42695,3.7685,-0.56656,0.18885,-1.9844,-0.75541,1.6533e-10,-0.99222,0,0,0.25,-0,-0,0.66667
0.27802,0.97921,1.1121,0.71882,14.115,38.123,-2.1317,0.71055,-0.16248,-2.8422,-1.6365e-13,-0.081239,0,0,0.25,-0,-0,0.66667
0.59229,0.4139,2.3691,-0.12915,-1.7156,14.585,0.81596,-0.27199,-1.941,1.0879,8.693e-13,-0.9705,0,0,0.25,-1.1842e-15,0,0.66667
0.7198,0.32524,2.8792,-0.26214,-2.5607,7.7499,2.0127,-0.67089,-1.7557,2.6836,-3.3828e-11,-0.87785,0,0,0.25,1.1842e-15,0,0.66667
0.77702,0.94369,3.1081,0.66553,5.5433,5.8029,-5.5161,1.8387,-0.42502,-7.3548,1.455e-11,-0.21251,0,0,0.25,-0,1.1609e-17,0.66667
0.29466,0.88692,1.1787,0.58039,11.171,36.645,-1.8242,0.60807,-0.80208,-2.4323,-3.2498e-12,-0.40104,0,0,0.25,-0,-0,0.66667
0.60738,0.23086,2.4295,-0.40372,-5.2681,13.834,2.6156,-0.87185,-1.4203,3.4874,1.9893e-12,-0.71015,0,0,0.25,-0,-0,0.66667
0.28747,0.85008,1.1499,0.52512,10.121,37.212,-1.6102,0.53674,-1.0192,-2.147,-9.8878e-12,-0.5096,0,0,0.25,-0,-0,0.66667
0.99832,0.9494,3.9933,0.67409,-0.027199,0.81625,-7.1782,2.3927,-0.38424,-9.571,-4.3298e-06,-0.19212,0,0,0.25,-0,-0,0.66667
0.81451,0.47683,3.258,-0.034749,-0.22929,3.8075,0.3019,-0.10063,-1.9958,0.40254,-1.4948e-10,-0.99791,0,0,0.25,-0,-0,0.66667
0.41398,0.67123,1.6559,0.25685,4.4081,26.95,-1.1342,0.37806,-1.7644,-1.5122,1.4831e-12,-0.88222,0,0,0.25,5.9212e-16,0,0.66667
0.87914,0.064453,3.5166,-0.65332,-3.0734,2.5482,6.1265,-2.0422,-0.48298,8.1687,-1.9745e-08,-0.24149,0,0,0.25,-0,-0,0.66667
0.7325,0.067974,2.93,-0.64804,-6.3112,7.6243,5.0634,-1.6878,-0.5073,6.7511,-3.1584e-12,-0.25365,0,0,0.25,-0,-0,0.66667
0.92875,0.4071,3.715,-0.13935,-0.33008,0.85877,1.3805,-0.46017,-1.9315,1.8407,8.9311e-08,-0.96575,0,0,0.25,-0,-0,0.66667
0.17161,0.74723,0.68644,0.37085,7.515,47.125,-0.67884,0.22628,-1.5124,-0.90512,-5.2599e-10,-0.75619,0,0,0.25,-7.4015e-17,0,0.66667
0.29484,0.49468,1.1793,-0.0079807,-0.1508,36.455,0.025099,-0.0083662,-2.0002,0.033465,2.0998e-12,-1.0001,0,0,0.25,-5.9212e-16,0,0.66667
0.093737,0.61069,0.37495,0.16603,3.4188,54.054,-0.16601,0.055336,-1.9023,-0.22134,3.315e-09,-0.95115,0,0,0.25,-0,-0,0.66667
0.31798,0.069938,1.2719,-0.64509,-12.273,34.769,2.188,-0.72934,-0.51996,2.9174,-3.3462e-13,-0.25998,0,0,0.25,-0,-0,0.66667
0.38119,0.056603,1.5248,-0.6651,-12.044,29.743,2.7043,-0.90143,-0.42691,3.6057,-4.6785e-13,-0.21345,0,0,0.25,2.9606e-16,0,0.66667
0.63271,0.45312,2.5309,-0.070319,-0.85894,12.189,0.47458,-0.15819,-1.9814,0.63277,-3.2599e-13,-0.99071,0,0,0.25,1.1842e-15,0,0.66667
0.47152,0.25066,1.8861,-0.37401,-6.041,22.746,1.8811,-0.62703,-1.5037,2.5081,-6.8068e-13,-0.75187,0,0,0.25,-0,-0,0.66667
0.71767,0.51415,2.8707,0.021222,0.20718,7.7623,-0.16246,0.054152,-1.9984,-0.21661,3.3693e-12,-0.99919,0,0,0.25,-0,-0,0.66667
0.26922,0.0027919,1.0769,-0.74581,-14.753,38.877,2.1418,-0.71392,-0.022801,2.8557,-3.9524e-14,-0.011401,0,0,0.25,-0,-0,0.66667
0.17306,0.095606,0.69223,-0.60659,-12.431,47.068,1.1197,-0.37324,-0.69299,1.493,6.3085e-10,-0.34649,0,0,0.25,-0,-0,0.66667
0.37912,0.55089,1.5165,0.07633,1.3503,29.609,-0.30868,0.10289,-1.9787,-0.41157,3.2654e-13,-0.98934,0,0,0.25,-0,-0,0.66667
0.43808,0.74618,1.7523,0.36927,6.2027,25.188,-1.7255,0.57518,-1.5163,-2.3007,1.3091e-12,-0.75813,0,0,0.25,1.4803e-16,0,0.66667
0.42213,0.089047,1.6885,-0.61643,-10.691,26.567,2.7756,-0.9252,-0.64999,3.7008,-5.3002e-13,-0.325,0,0,0.25,-5.9212e-16,0,0.66667
0.91357,0.6794,3.6543,0.2691,0.81272,1.2265,-2.6223,0.87411,-1.7419,-3.4964,-1.7444e-09,-0.87096,0,0,0.25,5.9212e-16,0,0.66667
0.26957,0.055595,1.0783,-0.66661,-13.106,38.795,1.9168,-0.63892,-0.41988,2.5557,1.5411e-12,-0.20994,0,0,0.25,-4.4409e-16,0,0.66667
0.35204,0.29457,1.4082,-0.30814,-5.6096,31.82,1.1571,-0.38571,-1.6614,1.5428,1.8696e-13,-0.83071,0,0,0.25,-5.9212e-16,0,0.66667
0.21521,0.32759,0.86084,-0.25861,-5.1286,43.281,0.59366,-0.19789,-1.7616,0.79154,1.7805e-10,-0.8808,0,0,0.25,2.9606e-16,0,0.66667
0.37192,0.22084,1.4877,-0.41875,-7.5294,30.29,1.6612,-0.55375,-1.3773,2.215,-1.994e-12,-0.68865,0,0,0.25,-1.1842e-15,0,0.66667
0.38986,0.3029,1.5594,-0.29565,-5.2028,28.825,1.2294,-0.40981,-1.6895,1.6392,-2.0002e-12,-0.84476,0,0,0.25,5.9212e-16,0,0.66667
0.57543,0.20341,2.3017,-0.44489,-6.1801,15.814,2.7307,-0.91022,-1.2958,3.6409,1.3163e-12,-0.64791,0,0,0.25,1.1842e-15,0,0.66667
0.27836,0.34648,1.1135,-0.23028,-4.4103,37.864,0.68376,-0.22792,-1.8121,0.91168,3.425e-11,-0.90606,0,0,0.25,1.1842e-15,0,0.66667
0.25949,0.0021308,1.038,-0.7468,-14.855,39.696,2.0671,-0.68903,-0.017341,2.7561,-7.1287e-12,-0.0086707,0,0,0.25,-0,-0,0.66667
0.71906,0.90357,2.8762,0.60536,6.1139,8.1648,-4.6431,1.5477,-0.69841,-6.1908,4.0266e-12,-0.3492,0,0,0.25,-1.6283e-15,0,0.66667
0.91018,0.030298,3.6407,-0.70455,-2.5305,1.98,6.8402,-2.2801,-0.23587,9.1203,1.5634e-07,-0.11793,0,0,0.25,-0,-0,0.66667
0.1221,0.40545,0.48839,-0.14182,-2.9007,51.501,0.18471,-0.061569,-1.9295,0.24628,1.0013e-08,-0.96477,0,0,0.25,2.7756e-17,0,0.66667
0.18229,0.24035,0.72916,-0.38947,-7.8667,46.189,0.7573,-0.25243,-1.4601,1.0097,4.4143e-10,-0.73003,0,0,0.25,-2.9606e-16,0,0.66667
0.13311,0.3601,0.53244,-0.20985,-4.2847,50.52,0.29795,-0.099318,-1.8424,0.39727,1.0498e-09,-0.92121,0,0,0.25,-2.9606e-16,0,0.66667
0.68361,0.78134,2.7344,0.42201,4.6275,9.6507,-3.0773,1.0258,-1.3678,-4.103,5.222e-12,-0.68389,0,0,0.25,-0,-0,0.66667
0.21401,0.72615,0.85604,0.33923,6.748,43.403,-0.77438,0.25813,-1.5905,-1.0325,-2.1526e-10,-0.79525,0,0,0.25,-0,-0,0.66667
0.60457,0.082913,2.4183,-0.62563,-8.3574,14.246,4.0345,-1.3448,-0.60766,5.3794,6.5947e-13,-0.30383,0,0,0.25,5.9212e-16,0,0.66667
0.20168,0.51455,0.80671,0.021827,0.43399,44.436,-0.046956,0.015652,-1.9982,-0.062608,-7.9193e-11,-0.99909,0,0,0.25,5.9212e-16,0,0.66667
0.81776,0.27441,3.271,-0.33839,-2.2342,3.8611,2.9517,-0.98388,-1.5925,3.9355,-4.5258e-10,-0.79627,0,0,0.25,-1.1842e-15,0,0.66667
0.31611,0.17578,1.2644,-0.48634,-9.174,34.821,1.6398,-0.54661,-1.1585,2.1864,2.6286e-12,-0.57926,0,0,0.25,2.9606e-16,0,0.66667
0.66962,0.74389,2.6785,0.36583,4.1424,10.32,-2.613,0.871,-1.5244,-3.484,3.2094e-12,-0.76222,0,0,0.25,-5.9212e-16,0,0.66667
0.14873,0.14992,0.59493,-0.52512,-10.799,49.187,0.8331,-0.2777,-1.0191,1.1108,5.2584e-10,-0.50957,0,0,0.25,7.4015e-17,0,0.66667
0.30595,0.71867,1.2238,0.328,6.1877,35.588,-1.0704,0.3568,-1.6182,-1.4272,-1.3578e-11,-0.8091,0,0,0.25,8.2625e-16,0,0.66667
0.29724,0.091263,1.189,-0.61311,-11.805,36.452,1.9439,-0.64797,-0.66486,2.5919,1.1346e-12,-0.33243,0,0,0.25,4.4409e-16,0,0.66667
0.63508,0.65302,2.5403,0.22952,2.8003,12.109,-1.5548,0.51828,-1.8129,-2.0731,-5.3846e-13,-0.90643,0,0,0.25,-2.9606e-16,0,0.66667
0.68088,0.68528,2.7235,0.27792,3.0404,9.6676,-2.0184,0.67281,-1.7257,-2.6912,8.068e-12,-0.86283,0,0,0.25,4.4409e-16,0,0.66667
0.84525,0.36392,3.381,-0.20412,-1.1332,2.8777,1.8403,-0.61344,-1.8519,2.4537,1.3322e-10,-0.92593,0,0,0.25,-1.1842e-15,0,0.66667
0.18335,0.93796,0.73339,0.65693,13.454,46.187,-1.2848,0.42825,-0.46645,-1.713,-3.5678e-10,-0.23323,0,0,0.25,-0,-0,0.66667
0.76043,0.21763,3.0417,-0.42355,-3.6425,6.1066,3.4355,-1.1452,-1.3628,4.5807,-9.6502e-11,-0.68138,0,0,0.25,-1.6638e-15,0,0.66667
0.71194,0.29792,2.8478,-0.30312,-3.041,8.1496,2.3019,-0.76729,-1.6723,3.0692,-2.6345e-11,-0.83617,0,0,0.25,-8.4311e-16,0,0.66667
0.55754,0.24686,2.2302,-0.37971,-5.4176,16.892,2.2582,-0.75272,-1.4876,3.0109,1.3001e-12,-0.74382,0,0,0.25,-0,-0,0.66667
0.65016,0.73326,2.6007,0.34989,4.1494,11.35,-2.4265,0.80884,-1.5638,-3.2353,-4.0634e-14,-0.78189,0,0,0.25,1.1842e-15,0,0.66667
0.089995,0.13806,0.35998,-0.5429,-11.337,54.434,0.52116,-0.17372,-0.95141,0.69488,2.367e-08,-0.4757,0,0,0.25,-1.4803e-16,0,0.66667
0.14688,0.48388,0.5875,-0.024173,-0.49047,49.28,0.037871,-0.012624,-1.997,0.050494,-6.8198e-10,-0.99849,0,0,0.25,-2.9606e-16,0,0.66667
0.41557,0.29715,1.6623,-0.30427,-5.2218,26.848,1.3488,-0.44959,-1.6699,1.7983,-1.9428e-12,-0.83494,0,0,0.25,-0,-0,0.66667
0.71137,0.52401,2.8455,0.036014,0.35854,8.0621,-0.27327,0.09109,-1.9949,-0.36436,4.8948e-12,-0.99744,0,0,0.25,1.1842e-15,0,0.66667
0.16782,0.14053,0.67128,-0.53921,-11.027,47.505,0.96524,-0.32175,-0.96552,1.287,4.5888e-10,-0.48276,0,0,0.25,-2.9606e-16,0,0.66667
0.38898,0.83404,1.5559,0.50106,8.9102,29.006,-2.079,0.69299,-1.1074,-2.772,1.9278e-12,-0.55369,0,0,0.25,-0,-0,0.66667
0.49795,0.92253,1.9918,0.63379,10.063,21.11,-3.3663,1.1221,-0.57148,-4.4884,-1.6542e-13,-0.28574,0,0,0.25,-0,2.9555e-16,0.66667
0.93505,0.55284,3.7402,0.079267,0.16683,0.73075,-0.7906,0.26353,-1.9775,-1.0541,-6.2817e-08,-0.98876,0,0,0.25,-1.1842e-15,0,0.66667
0.055196,0.98,0.22078,0.72,15.28,57.588,-0.42391,0.1413,-0.15594,-0.56521,2.0823e-07,-0.077968,0,0,0.25,-0,-0,0.66667
0.82901,0.96905,3.316,0.70357,4.6449,4.0513,-6.2215,2.0738,-0.24162,-8.2953,2.7629e-10,-0.12081,0,0,0.25,2.3685e-15,0,0.66667
0.98416,0.73062,3.9366,0.34593,0.073077,0.32043,-3.6315,1.2105,-1.5748,-4.842,1.1374e-08,-0.78742,0,0,0.25,-0,-0,0.66667
0.26727,0.079996,1.0691,-0.63001,-12.372,38.965,1.7961,-0.5987,-0.5886,2.3948,5.3668e-12,-0.2943,0,0,0.25,2.9606e-16,0,0.66667
0.89006,0.15945,3.5602,-0.51082,-2.1047,2.0296,4.8497,-1.6166,-1.0734,6.4663,-8.7807e-09,-0.53671,0,0,0.25,-0,-0,0.66667
0.2903,0.47104,1.1612,-0.043437,-0.8233,36.835,0.1345,-0.044834,-1.9936,0.17934,4.9051e-12,-0.99678,0,0,0.25,-0,-0,0.66667
0.79901,0.91405,3.196,0.62108,4.6771,4.9032,-5.2933,1.7644,-0.6286,-7.0577,1.4894e-10,-0.3143,0,0,0.25,2.3685e-15,0,0.66667
0.45986,0.085968,1.8394,-0.62105,-10.333,23.79,3.0463,-1.0154,-0.62807,4.0618,-1.8119e-13,-0.31404,0,0,0.25,-2.9606e-16,0,0.66667
0.59761,0.95646,2.3904,0.68469,9.3236,14.742,-4.3646,1.4549,-0.33256,-5.8194,-2.2116e-13,-0.16628,0,0,0.25,5.9212e-16,0,0.66667
0.23667,0.95245,0.94667,0.67867,13.596,41.59,-1.7133,0.57109,-0.36199,-2.2844,-7.2389e-12,-0.18099,0,0,0.25,-0,-0,0.66667
0.68761,0.71755,2.7505,0.32633,3.5157,9.3605,-2.3935,0.79782,-1.6231,-3.1913,1.0258e-11,-0.81155,0,0,0.25,-1.5543e-15,0,0.66667
0.14868,0.1198,0.59474,-0.5703,-11.757,49.205,0.90447,-0.30149,-0.84336,1.206,2.0826e-09,-0.42168,0,0,0.25,-5.9991e-17,0,0.66667
0.55969,0.78058,2.2387,0.42086,5.9977,16.787,-2.5126,0.83752,-1.3713,-3.3501,-1.3605e-12,-0.68566,0,0,0.25,3.0048e-16,0,0.66667
0.49433,0.88877,1.9773,0.58315,9.266,21.306,-3.0748,1.0249,-0.79001,-4.0998,-9.1038e-14,-0.395,0,0,0.25,-0,-0,0.66667
0.83721,0.89265,3.3488,0.58897,3.6262,3.5776,-5.2596,1.7532,-0.7657,-7.0128,7.0213e-10,-0.38285,0,0,0.25,-1.1842e-15,0,0.66667
0.48147,0.80111,1.9259,0.45167,7.234,22.091,-2.3196,0.77321,-1.2743,-3.0928,1.3167e-13,-0.63714,0,0,0.25,5.9212e-16,0,0.66667
0.78473,0.85756,3.1389,0.53634,4.2431,5.2918,-4.4894,1.4965,-0.97661,-5.9859,1.1676e-10,-0.48831,0,0,0.25,1.1842e-15,0,0.66667
0.40029,0.63914,1.6012,0.20871,3.6268,27.984,-0.89117,0.29706,-1.8442,-1.1882,1.5099e-12,-0.9221,0,0,0.25,-0,-0,0.66667
0.30791,0.64452,1.2316,0.21677,4.0702,35.392,-0.71195,0.23732,-1.8322,-0.94927,-1.2363e-11,-0.91612,0,0,0.25,-3.6463e-16,0,0.66667
0.78723,0.13407,3.1489,-0.5489,-4.3042,5.2166,4.6091,-1.5364,-0.92813,6.1455,-1.4502e-10,-0.46406,0,0,0.25,-0,-0,0.66667
0.41846,0.55708,1.6739,0.085616,1.4574,26.565,-0.38216,0.12739,-1.9741,-0.50954,4.6568e-13,-0.98704,0,0,0.25,2.9606e-16,0,0.66667
0.49677,0.43418,1.9871,-0.098732,-1.5299,20.845,0.52317,-0.17439,-1.9658,0.69755,-9.942e-14,-0.98292,0,0,0.25,-5.9212e-16,0,0.66667
0.57732,0.25909,2.3093,-0.36137,-4.9779,15.627,2.2254,-0.74179,-1.536,2.9671,1.6331e-12,-0.76801,0,0,0.25,-0,-0,0.66667
0.81967,0.76601,3.2787,0.39901,2.6264,3.8622,-3.4886,1.1629,-1.4329,-4.6515,4.2822e-10,-0.71646,0,0,0.25,1.1842e-15,0,0.66667
0.58132,0.42556,2.3253,-0.11166,-1.5133,15.256,0.69235,-0.23078,-1.9552,0.92313,6.5664e-13,-0.97761,0,0,0.25,-0,-0,0.66667
0.40614,0.76356,1.6246,0.39534,6.8761,27.615,-1.7127,0.57089,-1.4446,-2.2836,2.0934e-12,-0.7223,0,0,0.25,-5.9212e-16,0,0.66667
0.16059,0.9862,0.64235,0.7293,15.134,48.212,-1.2492,0.41641,-0.10814,-1.6657,1.6396e-10,-0.054068,0,0,0.25,-0,-0,0.66667
0.70211,0.45597,2.8084,-0.066047,-0.67619,8.5139,0.49464,-0.16488,-1.9845,0.65952,-7.0393e-12,-0.99226,0,0,0.25,-0,-0,0.66667
0.88323,0.45637,3.5329,-0.065439,-0.2691,1.7866,0.61651,-0.2055,-1.9838,0.82201,-5.1279e-09,-0.99192,0,0,0.25,1.1842e-15,0,0.66667
0.10838,0.86201,0.43352,0.54302,11.298,52.786,-0.62775,0.20925,-0.95161,-0.837,-1.4336e-10,-0.47581,0,0,0.25,-1.4803e-16,3.3876e-16,0.66667
0.46621,0.14011,1.8649,-0.53984,-8.8617,23.254,2.6846,-0.89487,-0.9634,3.5795,-4.7273e-13,-0.4817,0,0,0.25,-5.9212e-16,0,0.66667
0.93454,0.80444,3.7381,0.45665,1.0661,1.0751,-4.5521,1.5174,-1.2584,-6.0695,-9.0536e-09,-0.62922,0,0,0.25,-0,-0,0.66667
0.56351,0.462,2.254,-0.056998,-0.79678,16.369,0.3426,-0.1142,-1.989,0.4568,2.8197e-13,-0.99449,0,0,0.25,-8.8818e-16,0,0.66667
0.54525,0.84944,2.181,0.52416,7.7012,17.815,-3.0485,1.0162,-1.0236,-4.0647,-9.5302e-13,-0.51182,0,0,0.25,1.1842e-15,0,0.66667
0.063476,0.28965,0.2539,-0.31553,-6.5526,56.798,0.21363,-0.071212,-1.6464,0.28485,-1.0615e-09,-0.82319,0,0,0.25,-0,-0,0.66667
0.5353,0.3209,2.1412,-0.26865,-3.9523,18.275,1.5339,-0.51131,-1.7431,2.0452,6.3916e-13,-0.87153,0,0,0.25,-0,-0,0.66667
0.65454,0.3904,2.6182,-0.16441,-1.9134,11,1.1479,-0.38262,-1.9037,1.5305,-1.8477e-12,-0.95184,0,0,0.25,-0,-0,0.66667
0.14659,0.15396,0.58637,-0.51906,-10.678,49.376,0.81162,-0.27054,-1.0424,1.0822,6.0563e-10,-0.52119,0,0,0.25,-3.3307e-16,0,0.66667
0.95636,0.50805,3.8255,0.012075,0.014943,0.40762,-0.12318,0.041061,-1.9993,-0.16424,2.4367e-06,-0.99966,0,0,0.25,-0,-0,0.66667
0.19615,0.49968,0.7846,-0.00048224,-0.0096102,44.92,0.001009,-0.00033633,-2.0006,0.0013453,2.4902e-10,-1.0003,0,0,0.25,9.7145e-16,0,0.66667
0.67393,0.52099,2.6957,0.031492,0.34836,9.9358,-0.22638,0.07546,-1.9964,-0.30184,1.0114e-12,-0.99819,0,0,0.25,1.1842e-15,0,0.66667
0.27434,0.58863,1.0974,0.13294,2.5475,38.186,-0.38902,0.12967,-1.9369,-0.51869,-2.7284e-11,-0.96847,0,0,0.25,2.9606e-16,0,0.66667
0.10843,0.35218,0.43372,-0.22172,-4.5565,52.734,0.25645,-0.085482,-1.8256,0.34193,-3.2037e-09,-0.91278,0,0,0.25,-0,-0,0.66667
0.2609,0.33691,1.0436,-0.24463,-4.736,39.346,0.68079,-0.22693,-1.787,0.90772,5.5502e-11,-0.89348,0,0,0.25,-0,-0,0.66667
0.33415,0.77339,1.3366,0.41008,7.6039,33.309,-1.4616,0.48722,-1.4016,-1.9489,-1.1141e-12,-0.70078,0,0,0.25,-2.9606e-16,0,0.66667
0.46473,0.93001,1.8589,0.64502,10.691,23.464,-3.1975,1.0658,-0.52048,-4.2633,1.3878e-13,-0.26024,0,0,0.25,5.9212e-16,0,0.66667
0.23436,0.72636,0.93743,0.33954,6.6882,41.643,-0.84878,0.28293,-1.5908,-1.1317,-1.258e-10,-0.79542,0,0,0.25,-0,-0,0.66667
0.7275,0.094182,2.91,-0.60873,-5.9919,7.7842,4.7238,-1.5746,-0.68312,6.2983,-5.5973e-12,-0.34156,0,0,0.25,-0,-0,0.66667
0.80719,0.53525,3.2288,0.052868,0.3623,4.065,-0.4552,0.15173,-1.9901,-0.60693,5.8431e-12,-0.99507,0,0,0.25,2.3685e-15,0,0.66667
0.79098,0.92435,3.1639,0.63652,4.9796,5.2227,-5.3704,1.7901,-0.55854,-7.1605,5.4708e-11,-0.27927,0,0,0.25,-1.1842e-15,0,0.66667
0.71575,0.49834,2.863,-0.0024972,-0.024523,7.8523,0.019065,-0.0063551,-2.0008,0.025421,-6.399e-13,-1.0004,0,0,0.25,3.5527e-15,0,0.66667
0.26964,0.72303,1.0786,0.33455,6.4617,38.629,-0.96222,0.32074,-1.6023,-1.283,-4.6754e-11,-0.80113,0,0,0.25,5.9212e-16,0,0.66667
0.21046,0.52258,0.84183,0.033873,0.6709,43.669,-0.076041,0.025347,-1.9953,-0.10139,-3.4303e-11,-0.99763,0,0,0.25,-2.9606e-16,0,0.66667
0.10913,0.33713,0.43651,-0.24431,-5.0224,52.673,0.28438,-0.094794,-1.7886,0.37917,-2.996e-09,-0.89429,0,0,0.25,-2.2204e-16,0,0.66667
0.39668,0.4187,1.5867,-0.12195,-2.1229,28.244,0.516,-0.172,-1.9463,0.688,-5.8392e-13,-0.97313,0,0,0.25,-5.9212e-16,0,0.66667
0.087267,0.25741,0.34907,-0.36388,-7.5414,54.654,0.33872,-0.11291,-1.5287,0.45162,2.2521e-10,-0.76436,0,0,0.25,-0,-0,0.66667
0.65539,0.69228,2.6216,0.28842,3.3667,11.02,-2.0163,0.6721,-1.7051,-2.6884,1.4364e-12,-0.85254,0,0,0.25,-0,-0,0.66667
0.94983,0.2142,3.7993,-0.4287,-0.72629,0.80584,4.3433,-1.4478,-1.3468,5.7911,9.4617e-09,-0.67342,0,0,0.25,2.3388e-15,0,0.66667
0.75563,0.7108,3.0225,0.31621,2.7424,6.1997,-2.5487,0.84955,-1.644,-3.3982,9.5668e-11,-0.822,0,0,0.25,-5.9212e-16,0,0.66667
0.11689,0.275,0.46757,-0.33749,-6.9445,51.987,0.4208,-0.14027,-1.5946,0.56107,1.1188e-09,-0.79732,0,0,0.25,-2.2204e-16,0,0.66667
0.020481,0.45033,0.081925,-0.074498,-1.5456,60.692,0.016277,-0.0054252,-1.9795,0.021702,4.7724e-07,-0.98975,0,0,0.25,3.7007e-17,0,0.66667
0.33489,0.45488,1.3396,-0.067687,-1.2429,33.152,0.24179,-0.080596,-1.9828,0.32238,1.5865e-12,-0.99138,0,0,0.25,1.9553e-16,0,0.66667
0.99288,0.53825,3.9715,0.057381,-0.015903,0.0505,-0.6077,0.20257,-1.9878,-0.81027,1.7059e-06,-0.99391,0,0,0.25,2.3685e-15,0,0.66667
0.31283,0.21314,1.2513,-0.43029,-8.1128,35.062,1.4358,-0.47861,-1.3426,1.9144,5.9494e-12,-0.67129,0,0,0.25,2.9606e-16,0,0.66667
0.73751,0.49241,2.95,-0.011388,-0.10416,6.8528,0.089588,-0.029863,-1.9995,0.11945,-8.1645e-12,-0.99973,0,0,0.25,1.7764e-15,0,0.66667
0.71653,0.9375,2.8661,0.65624,6.7224,8.364,-5.0157,1.6719,-0.47015,-6.6875,1.1489e-12,-0.23507,0,0,0.25,3.8408e-16,0,0.66667
0.57256,0.67636,2.2902,0.26453,3.6582,15.863,-1.6156,0.53853,-1.7504,-2.1541,-1.6342e-12,-0.87522,0,0,0.25,-0,-0,0.66667
0.36765,0.69952,1.4706,0.29928,5.3748,30.572,-1.1736,0.39121,-1.6806,-1.5648,1.16e-12,-0.84032,0,0,0.25,-0,-0,0.66667
0.20827,0.14151,0.83306,-0.53773,-10.822,43.967,1.1946,-0.39819,-0.97105,1.5928,1.5949e-10,-0.48553,0,0,0.25,-2.9606e-16,0,0.66667
0.98,0.36891,3.92,-0.19664,-0.059302,0.21462,2.0556,-0.68519,-1.8624,2.7407,1.3001e-07,-0.9312,0,0,0.25,2.3566e-15,0,0.66667
0.065894,0.74339,0.26358,0.36508,7.5922,56.583,-0.25661,0.085535,-1.5261,-0.34214,5.6385e-09,-0.76304,0,0,0.25,3.7007e-17,0,0.66667
0.23623,0.81295,0.94491,0.46942,9.2889,41.526,-1.1828,0.39427,-1.2179,-1.5771,-8.6381e-11,-0.60894,0,0,0.25,-5.9212e-16,0,0.66667
0.3089,0.77446,1.2356,0.41169,7.777,35.377,-1.3565,0.45217,-1.3973,-1.8087,-8.7752e-12,-0.69864,0,0,0.25,-0,-0,0.66667
0.9095,0.47248,3.638,-0.041282,-0.12818,1.1933,0.40049,-0.1335,-1.9944,0.53399,-6.9454e-08,-0.99719,0,0,0.25,-0,-0,0.66667
0.71337,0.74036,2.8535,0.36054,3.6156,8.13,-2.7434,0.91448,-1.5372,-3.6579,2.5301e-11,-0.7686,0,0,0.25,-0,-0,0.66667
0.26537,0.87586,1.0615,0.56379,11.038,39.088,-1.5959,0.53196,-0.87157,-2.1279,-1.459e-11,-0.43578,0,0,0.25,-0,-0,0.66667
0.1645,0.15509,0.65801,-0.51737,-10.58,47.791,0.90782,-0.30261,-1.0487,1.2104,1.2733e-09,-0.52437,0,0,0.25,2.9606e-16,0,0.66667
0.8805,0.82132,3.522,0.48199,2.1457,2.2109,-4.5268,1.5089,-1.1734,-6.0357,3.1414e-09,-0.58672,0,0,0.25,-0,-0,0.66667
0.79378,0.65352,3.1751,0.23028,1.6956,4.6228,-1.9498,0.64993,-1.8121,-2.5997,1.7817e-10,-0.90604,0,0,0.25,1.7153e-15,0,0.66667
0.038387,0.32472,0.15355,-0.26292,-5.4661,59.069,0.10765,-0.035885,-1.7533,0.14354,-1.1688e-08,-0.87666,0,0,0.25,7.4015e-17,0,0.66667
0.8793,0.76816,3.5172,0.40224,1.7793,2.13,-3.7727,1.2576,-1.424,-5.0303,5.6008e-10,-0.71201,0,0,0.25,1.1842e-15,0,0.66667
0.58794,0.79362,2.3518,0.44043,5.9796,15.037,-2.7621,0.92069,-1.3095,-3.6828,-1.9844e-12,-0.65473,0,0,0.25,1.1842e-15,0,0.66667
0.45754,0.80761,1.8301,0.46142,7.6157,23.817,-2.2519,0.75064,-1.243,-3.0025,4.6363e-13,-0.62152,0,0,0.25,2.9606e-16,0,0.66667
0.67385,0.025757,2.6954,-0.71136,-8.2432,10.545,5.1131,-1.7044,-0.20119,6.8175,1.128e-13,-0.10059,0,0,0.25,5.9212e-16,0,0.66667
0.039443,0.69116,0.15777,0.28674,5.9647,58.974,-0.12064,0.040212,-1.7077,-0.16085,-1.3178e-08,-0.85383,0,0,0.25,-0,-0,0.66667
0.33032,0.82292,1.3213,0.48437,9.0411,33.659,-1.7067,0.56889,-1.1657,-2.2755,-6.3549e-13,-0.58283,0,0,0.25,-0,-0,0.66667
0.088048,0.50142,0.35219,0.0021283,0.043809,54.563,-0.0019989,0.00066643,-2.0005,-0.0026651,1.9519e-07,-1.0002,0,0,0.25,-0,-0,0.66667
0.68364,0.18775,2.7345,-0.46838,-5.1555,9.6993,3.4155,-1.1385,-1.221,4.5539,-3.5041e-12,-0.61049,0,0,0.25,-0,-0,0.66667
0.39801,0.78264,1.592,0.42395,7.4433,28.257,-1.7999,0.59996,-1.3614,-2.3998,2.375e-12,-0.68068,0,0,0.25,-1.1842e-15,0,0.66667
0.47895,0.36755,1.9158,-0.19868,-3.1584,22.13,1.015,-0.33833,-1.8592,1.3533,-3.4917e-13,-0.92962,0,0,0.25,-5.9212e-16,0,0.66667
0.2898,0.83643,1.1592,0.50465,9.7005,37.007,-1.56,0.51999,-1.094,-2.08,-1.0901e-11,-0.547,0,0,0.25,4.6766e-16,0,0.66667
0.78829,0.78435,3.1532,0.42652,3.2765,5.0093,-3.5864,1.1955,-1.3533,-4.7819,1.9912e-10,-0.67664,0,0,0.25,-0,-0,0.66667
0.046513,0.38134,0.18605,-0.17799,-3.6909,58.328,0.088307,-0.029436,-1.8881,0.11774,6.0758e-08,-0.94407,0,0,0.25,1.4803e-16,0,0.66667
0.28113,0.51985,1.1245,0.029777,0.5677,37.606,-0.089292,0.029764,-1.9972,-0.11906,-5.3756e-12,-0.99861,0,0,0.25,-0,-0,0.66667
0.5906,0.81796,2.3624,0.47693,6.4599,14.91,-3.0045,1.0015,-1.1914,-4.006,-1.6998e-12,-0.59571,0,0,0.25,-0,-0,0.66667
0.79013,0.95734,3.1605,0.686,5.4327,5.3458,-5.7817,1.9272,-0.3259,-7.7089,1.1282e-11,-0.16295,0,0,0.25,-0,-0,0.66667
0.6016,0.47447,2.4064,-0.038298,-0.49905,14.005,0.24576,-0.081921,-1.9945,0.32768,3.4307e-13,-0.99723,0,0,0.25,-1.1842e-15,0,0.66667
0.73049,0.70496,2.922,0.30744,2.9097,7.2914,-2.3956,0.79852,-1.6633,-3.1941,4.6885e-11,-0.83164,0,0,0.25,1.1842e-15,0,0.66667
0.023528,0.064396,0.094112,-0.65341,-13.84,60.433,0.16398,-0.054659,-0.48231,0.21864,1.4236e-06,-0.24115,0,0,0.25,-7.4015e-17,0,0.66667
0.25492,0.46422,1.0197,-0.053665,-1.0393,39.83,0.14593,-0.048642,-1.9898,0.19457,1.7043e-11,-0.9949,0,0,0.25,2.9606e-16,0,0.66667
0.042092,0.78866,0.16837,0.43298,9.0522,58.741,-0.1944,0.0648,-1.3331,-0.2592,1.0982e-08,-0.66654,0,0,0.25,1.4803e-16,0,0.66667
0.50001,0.50244,2,0.0036639,0.056481,20.61,-0.019541,0.0065137,-2.0015,-0.026055,-1.1085e-13,-1.0007,0,0,0.25,-0,-0,0.66667
0.98914,0.90718,3.9566,0.61078,0.16146,0.72755,-6.4442,2.1481,-0.67431,-8.5923,6.9692e-07,-0.33715,0,0,0.25,2.3685e-15,0,0.66667
0.013531,0.76749,0.054122,0.40124,8.3911,61.328,-0.057909,0.019303,-1.4273,-0.077212,-5.4563e-09,-0.71365,0,0,0.25,2.4804e-18,0,0.66667
0.44088,0.33311,1.7635,-0.25033,-4.1725,24.922,1.1772,-0.39241,-1.7768,1.5696,-1.2346e-12,-0.88839,0,0,0.25,-0,-0,0.66667
0.0047864,0.10515,0.019146,-0.59228,-12.505,62.123,0.030239,-0.010079,-0.75206,0.040319,3.306e-07,-0.37603,0,0,0.25,-0,-0,0.66667
0.61289,0.027611,2.4516,-0.70858,-9.3938,13.878,4.6323,-1.5441,-0.21519,6.1765,4.0412e-14,-0.10759,0,0,0.25,1.7764e-15,0,0.66667
0.18336,0.69746,0.73343,0.29619,5.9605,46.074,-0.5793,0.1931,-1.6876,-0.7724,-2.8845e-10,-0.84379,0,0,0.25,-0,-0,0.66667
0.71274,0.82461,2.851,0.48692,4.9463,8.2954,-3.7018,1.2339,-1.1562,-4.9357,1.363e-11,-0.57809,0,0,0.25,1.1842e-15,0,0.66667
0.15965,0.53158,0.63859,0.047376,0.9574,48.144,-0.080678,0.026893,-1.9931,-0.10757,-2.7342e-10,-0.99653,0,0,0.25,-0,-0,0.66667
0.82858,0.085825,3.3143,-0.62126,-4.0408,3.9043,5.4908,-1.8303,-0.62824,7.3211,-6.6932e-10,-0.31412,0,0,0.25,-0,-0,0.66667
0.20618,0.40713,0.82471,-0.1393,-2.767,44.05,0.30636,-0.10212,-1.932,0.40848,9.924e-11,-0.966,0,0,0.25,-5.9212e-16,0,0.66667
0.35222,0.51707,1.4089,0.025604,0.46354,31.747,-0.096194,0.032065,-1.9967,-0.12826,-2.181e-13,-0.99834,0,0,0.25,-0,-0,0.66667
0.23058,0.27093,0.92231,-0.34361,-6.7822,41.97,0.84511,-0.2817,-1.5797,1.1268,1.3451e-10,-0.78987,0,0,0.25,-0,-0,0.66667
0.80768,0.74374,3.2307,0.3656,2.5489,4.2355,-3.1498,1.0499,-1.5245,-4.1997,3.3812e-10,-0.76227,0,0,0.25,-1.1842e-15,0,0.66667
0.49027,0.032144,1.9611,-0.70178,-11.322,21.722,3.67,-1.2233,-0.24948,4.8933,-5.9952e-14,-0.12474,0,0,0.25,1.1842e-15,0,0.66667
0.87383,0.81098,3.4953,0.46648,2.1858,2.3542,-4.348,1.4493,-1.2276,-5.7973,3.2555e-09,-0.61382,0,0,0.25,1.7764e-15,0,0.66667
0.13009,0.090971,0.52034,-0.61354,-12.749,50.867,0.85134,-0.28378,-0.66187,1.1351,2.6607e-09,-0.33094,0,0,0.25,-1.8504e-16,0,0.66667
0.49896,0.47162,1.9958,-0.042576,-0.65741,20.685,0.2266,-0.075533,-1.9947,0.30213,1.7805e-14,-0.99733,0,0,0.25,-0,-0,0.66667
0.77661,0.80209,3.1065,0.45314,3.6687,5.4905,-3.7537,1.2512,-1.2693,-5.005,1.3852e-10,-0.63467,0,0,0.25,-0,-0,0.66667
0.98121,0.96932,3.9248,0.70397,0.51022,1.0009,-7.368,2.456,-0.23897,-9.824,2.7089e-07,-0.11949,0,0,0.25,-0,-0,0.66667
0.67338,0.02095,2.6935,-0.71858,-8.3442,10.581,5.1613,-1.7204,-0.16413,6.8817,1.7808e-13,-0.082066,0,0,0.25,-0,-0,0.66667
0.183,0.38086,0.732,-0.1787,-3.5864,46.087,0.34883,-0.11628,-1.8863,0.46511,3.4739e-11,-0.94317,0,0,0.25,-0,-0,0.66667
0.75977,0.56098,3.0391,0.091473,0.77239,5.9028,-0.74132,0.24711,-1.9707,-0.98843,3.943e-11,-0.98536,0,0,0.25,5.9212e-16,0,0.66667
0.074635,0.33789,0.29854,-0.24317,-5.0317,55.783,0.19359,-0.064529,-1.7898,0.25812,-1.8554e-08,-0.89491,0,0,0.25,-1.1102e-16,0,0.66667
0.76277,0.55075,3.0511,0.076118,0.63511,5.7747,-0.61931,0.20644,-1.979,-0.82575,3.9502e-11,-0.98951,0,0,0.25,-0,-0,0.66667
0.82782,0.7945,3.3113,0.44176,2.7977,3.6476,-3.9007,1.3002,-1.3064,-5.201,6.5811e-10,-0.65319,0,0,0.25,-0,-0,0.66667
0.55921,0.024074,2.2368,-0.71389,-10.428,17.148,4.2583,-1.4194,-0.18789,5.6777,1.2745e-13,-0.093943,0,0,0.25,-0,-0,0.66667
0.49272,0.55737,1.9709,0.086054,1.3406,21.127,-0.45228,0.15076,-1.9734,-0.60303,1.0278e-13,-0.98672,0,0,0.25,-8.8818e-16,0,0.66667
0.93653,0.075036,3.7461,-0.63745,-1.5683,1.3727,6.3678,-2.1226,-0.55531,8.4905,-6.5498e-08,-0.27765,0,0,0.25,-0,-0,0.66667
9.6951e-05,0.66354,0.0003878,0.2453,5.1054,62.547,-0.00025369,8.4589e-05,-1.7868,-0.00033824,3.9269e-08,-0.8934,0,0,0.25,-0,-7.7167e-16,0.66667
0.0095669,0.8698,0.038268,0.55471,11.686,61.69,-0.056606,0.018869,-0.90578,-0.075475,4.6676e-08,-0.45289,0,0,0.25,-1.3878e-17,0,0.66667
0.25195,0.53254,1.0078,0.048806,0.94675,40.084,-0.13117,0.043722,-1.9927,-0.17489,-2.0399e-11,-0.99635,0,0,0.25,-0,-0,0.66667
0.50568,0.16472,2.0227,-0.50291,-7.8239,20.444,2.7127,-0.90422,-1.1002,3.6169,-2.2871e-14,-0.55009,0,0,0.25,-1.1842e-15,0,0.66667
0.54042,0.17315,2.1617,-0.49027,-7.2408,18.098,2.8262,-0.94205,-1.1444,3.7682,4.8184e-13,-0.5722,0,0,0.25,5.9212e-16,0,0.66667
0.37129,0.02789,1.4852,-0.70817,-12.98,30.555,2.8047,-0.93489,-0.2173,3.7395,-4.6541e-13,-0.10865,0,0,0.25,-0,-1.1365e-16,0.66667
0.29271,0.66384,1.1708,0.24577,4.6658,36.664,-0.76734,0.25578,-1.785,-1.0231,-2.2145e-11,-0.89249,0,0,0.25,-0,-0,0.66667
0.20237,0.94452,0.80947,0.66678,13.561,44.536,-1.4393,0.47977,-0.4198,-1.9191,5.7592e-12,-0.2099,0,0,0.25,-0,-0,0.66667
0.80028,0.0095423,3.2011,-0.73569,-5.6268,5.0789,6.2801,-2.0934,-0.07528,8.3734,1.7324e-10,-0.03764,0,0,0.25,-0,-0,0.66667
0.31592,0.62313,1.2637,0.18469,3.4456,34.723,-0.62237,0.20746,-1.8795,-0.82983,-8.7507e-12,-0.93973,0,0,0.25,-0,-0,0.66667
0.49247,0.70933,1.9699,0.31399,4.9229,21.225,-1.6494,0.5498,-1.6487,-2.1992,5.8398e-14,-0.82436,0,0,0.25,-0,-0,0.66667
0.81129,0.57736,3.2452,0.11603,0.78003,3.9364,-1.0041,0.33471,-1.9521,-1.3388,1.367e-10,-0.97603,0,0,0.25,-0,-0,0.66667
0.61236,0.76847,2.4494,0.40271,5.2024,13.539,-2.6304,0.8768,-1.4229,-3.5072,-2.1305e-12,-0.71147,0,0,0.25,-0,-0,0.66667
0.40861,0.58763,1.6344,0.13144,2.2616,27.325,-0.57289,0.19096,-1.9388,-0.76385,9.1299e-13,-0.96942,0,0,0.25,5.9212e-16,0,0.66667
0.1769,0.2461,0.70762,-0.38085,-7.7056,46.66,0.71865,-0.23955,-1.4844,0.9582,4.9964e-10,-0.74221,0,0,0.25,3.7007e-16,0,0.66667
0.39765,0.54835,1.5906,0.072522,1.2606,28.162,-0.30761,0.10254,-1.9803,-0.41015,5.467e-13,-0.99016,0,0,0.25,-5.9212e-16,0,0.66667
0.48521,0.072983,1.9409,-0.64053,-10.346,22.004,3.3151,-1.105,-0.54147,4.4201,-1.9496e-13,-0.27074,0,0,0.25,-0,-0,0.66667
0.99058,0.50395,3.9623,0.005929,-0.0010922,0.060953,-0.062648,0.02089,-1.9999,-0.083527,1.0704e-05,-0.99994,0,0,0.25,-0,-0,0.66667
0.2842,0.34423,1.1368,-0.23366,-4.4591,37.374,0.70832,-0.23611,-1.807,0.94443,2.8775e-11,-0.90349,0,0,0.25,1.1842e-15,0,0.66667
0.16564,0.37379,0.66256,-0.18931,-3.8245,47.622,0.33448,-0.11149,-1.8731,0.44598,8.2073e-10,-0.93654,0,0,0.25,4.0708e-16,0,0.66667
0.22058,0.77582,0.8823,0.41373,8.229,42.856,-0.97343,0.32448,-1.3919,-1.2979,-1.688e-10,-0.69593,0,0,0.25,4.4409e-16,0,0.66667
0.21147,0.9348,0.84587,0.65219,13.199,43.741,-1.4711,0.49037,-0.48779,-1.9615,-5.9323e-11,-0.24389,0,0,0.25,7.4015e-17,0,0.66667
0.076048,0.51227,0.30419,0.018412,0.37979,55.648,-0.014936,0.0049784,-1.9986,-0.019914,-2.0015e-07,-0.99929,0,0,0.25,-0,-0,0.66667
0.36491,0.34747,1.4596,-0.22879,-4.1099,30.765,0.89053,-0.29684,-1.814,1.1874,-4.2161e-13,-0.90699,0,0,0.25,-0,-0,0.66667
0.28473,0.46319,1.1389,-0.055211,-1.0503,37.303,0.16768,-0.055895,-1.9893,0.22358,8.5257e-12,-0.99463,0,0,0.25,2.9606e-16,0,0.66667
0.88759,0.059514,3.5504,-0.66073,-2.9046,2.3638,6.2555,-2.0852,-0.44838,8.3407,6.4883e-09,-0.22419,0,0,0.25,-1.1842e-15,0,0.66667
0.78026,0.49029,3.121,-0.014563,-0.11304,5.0641,0.12121,-0.040402,-1.9995,0.16161,1.3428e-11,-0.99974,0,0,0.25,1.7764e-15,0,0.66667
0.10906,0.92227,0.43626,0.63341,13.246,52.745,-0.73688,0.24563,-0.57367,-0.98251,-3.7383e-09,-0.28684,0,0,0.25,-0,-2.9587e-16,0.66667
0.8505,0.95279,3.402,0.67918,3.937,3.3567,-6.1615,2.0538,-0.3589,-8.2154,8.5275e-10,-0.17945,0,0,0.25,1.1842e-15,0,0.66667
0.1096,0.88191,0.43839,0.57287,11.935,52.683,-0.66971,0.22324,-0.8339,-0.89295,5.8464e-09,-0.41695,0,0,0.25,-0,-0,0.66667
0.72021,0.23833,2.8808,-0.39251,-3.8639,7.8399,3.0153,-1.0051,-1.4522,4.0205,-2.9714e-11,-0.72609,0,0,0.25,-1.1842e-15,0,0.66667
0.57282,0.33338,2.2913,-0.24993,-3.4528,15.839,1.5271,-0.50904,-1.7772,2.0362,1.3628e-12,-0.88861,0,0,0.25,-0,-0,0.66667
0.086808,0.87481,0.34723,0.56221,11.76,54.723,-0.52058,0.17353,-0.87683,-0.69411,-5.661e-08,-0.43842,0,0,0.25,-7.1702e-17,0,0.66667
0.90533,0.45149,3.6213,-0.072758,-0.23794,1.2857,0.70261,-0.2342,-1.9812,0.93681,9.9277e-09,-0.9906,0,0,0.25,-1.1842e-15,0,0.66667
0.87457,0.84426,3.4983,0.51639,2.4319,2.4118,-4.8172,1.6057,-1.0537,-6.4229,-1.3609e-09,-0.52683,0,0,0.25,-2.3685e-15,0,0.66667
0.84385,0.23736,3.3754,-0.39396,-2.2534,3.09,3.5461,-1.182,-1.4485,4.7281,-8.4779e-10,-0.72424,0,0,0.25,-1.1842e-15,0,0.66667
0.36957,0.5191,1.4783,0.028647,0.51099,30.361,-0.11293,0.037643,-1.9963,-0.15057,-3.8388e-13,-0.99814,0,0,0.25,1.1842e-15,0,0.66667
0.22295,0.43047,0.89181,-0.10429,-2.0546,42.587,0.24801,-0.082671,-1.9611,0.33068,6.9015e-11,-0.98056,0,0,0.25,-1.4803e-16,0,0.66667
0.99711,0.50527,3.9884,0.0079011,-0.0036412,0.017193,-0.084034,0.027969,-2,-0.11207,-6.3331e-05,-1,0,0,0.25,-0,-0,0.66667
0.81734,0.080668,3.2694,-0.629,-4.3456,4.2838,5.4838,-1.8279,-0.59252,7.3117,-6.3679e-11,-0.29626,0,0,0.25,1.1842e-15,0,0.66667
0.042128,0.96095,0.16851,0.69142,14.664,58.76,-0.3107,0.10357,-0.29983,-0.41427,-2.574e-06,-0.14992,0,0,0.25,-7.4015e-17,0,0.66667
0.37328,0.13563,1.4931,-0.54655,-9.8856,30.265,2.1762,-0.72539,-0.93786,2.9015,-1.6314e-12,-0.46893,0,0,0.25,-5.9212e-16,0,0.66667
0.81219,0.50778,3.2487,0.011666,0.077893,3.8861,-0.10106,0.033687,-2.0001,-0.13475,-2.1163e-10,-1.0001,0,0,0.25,-0,-0,0.66667
0.52838,0.49377,2.1135,-0.0093479,-0.13829,18.669,0.052686,-0.017562,-1.9998,0.070247,1.6862e-13,-0.99991,0,0,0.25,5.9212e-16,0,0.66667
0.24713,0.68265,0.98852,0.27397,5.3492,40.529,-0.7222,0.24073,-1.7335,-0.96293,-8.4603e-11,-0.86673,0,0,0.25,-0,-0,0.66667
0.79289,0.23283,3.1716,-0.40076,-3.0077,4.8077,3.3894,-1.1298,-1.4283,4.5192,-2.3914e-10,-0.71414,0,0,0.25,-1.1842e-15,0,0.66667
0.26175,0.72137,1.047,0.33205,6.4428,39.298,-0.9271,0.30903,-1.6085,-1.2361,-5.9143e-11,-0.80424,0,0,0.25,-0,-0,0.66667
0.00039838,0.38209,0.0015935,-0.17686,-3.6756,62.519,0.00075126,-0.00025034,-1.8895,0.0010017,1.1887e-07,-0.94473,0,0,0.25,-0,-0,0.66667
0.23132,0.81532,0.92528,0.47298,9.384,41.95,-1.167,0.38901,-1.2052,-1.556,-9.1806e-11,-0.60262,0,0,0.25,5.9212e-16,0,0.66667
0.99337,0.47712,3.9735,-0.034323,0.010299,0.043392,0.36369,-0.12123,-1.9952,0.48492,1.5385e-06,-0.99761,0,0,0.25,-0,-0,0.66667
0.6562,0.28182,2.6248,-0.32727,-3.8209,11.003,2.2907,-0.76358,-1.621,3.0543,-1.1715e-12,-0.81052,0,0,0.25,-0,-0,0.66667
0.22067,0.98312,0.88267,0.72468,14.679,42.986,-1.7057,0.56858,-0.13253,-2.2743,-7.0862e-12,-0.066266,0,0,0.25,-0,-0,0.66667
0.68614,0.8728,2.7446,0.55921,6.1685,9.6866,-4.0927,1.3642,-0.88928,-5.457,8.4022e-13,-0.44464,0,0,0.25,1.1842e-15,-2.5591e-16,0.66667
0.68694,0.31488,2.7477,-0.27768,-2.9887,9.3588,2.0346,-0.67821,-1.7272,2.7129,-1.0644e-11,-0.8636,0,0,0.25,-0,-0,0.66667
0.64074,0.58544,2.563,0.12817,1.5391,11.749,-0.87596,0.29199,-1.9422,-1.1679,3.4694e-13,-0.97111,0,0,0.25,-5.9212e-16,0,0.66667
0.070549,0.94505,0.28219,0.66758,14.09,56.202,-0.50237,0.16746,-0.41486,-0.66982,5.6502e-08,-0.20743,0,0,0.25,-0,-0,0.66667
0.24296,0.21133,0.97186,-0.43301,-8.5238,40.935,1.1222,-0.37406,-1.3328,1.4963,8.37e-11,-0.66641,0,0,0.25,2.9606e-16,0,0.66667
0.87084,0.17019,3.4833,-0.49472,-2.3873,2.4732,4.5954,-1.5318,-1.1291,6.1272,-2.855e-09,-0.56454,0,0,0.25,-0,-0,0.66667
0.73474,0.14917,2.939,-0.52624,-5.0101,7.3382,4.1243,-1.3748,-1.0161,5.499,-2.488e-11,-0.50803,0,0,0.25,-5.9212e-16,0,0.66667
0.16782,0.72634,0.67126,0.33951,6.8813,47.453,-0.60773,0.20258,-1.5899,-0.8103,-4.5536e-10,-0.79496,0,0,0.25,5.9212e-16,0,0.66667
0.29859,0.30533,1.1944,-0.29201,-5.5296,36.186,0.93004,-0.31001,-1.6971,1.24,1.7966e-11,-0.84855,0,0,0.25,-2.9606e-16,0,0.66667
0.56272,0.36168,2.2509,-0.20748,-2.9128,16.459,1.2454,-0.41512,-1.8472,1.6605,9.4313e-13,-0.9236,0,0,0.25,-0,-0,0.66667
0.82645,0.99167,3.3058,0.73751,4.9731,4.2043,-6.5015,2.1672,-0.066222,-8.6686,-3.0058e-10,-0.033111,0,0,0.25,-7.9765e-16,0,0.66667
0.20052,0.16403,0.80207,-0.50395,-10.157,44.628,1.0779,-0.35929,-1.097,1.4372,2.98e-10,-0.54851,0,0,0.25,-0,-0,0.66667
0.10167,0.99874,0.40666,0.74812,15.793,53.435,-0.81128,0.27043,-0.010479,-1.0817,7.079e-08,-0.0052394,0,0,0.25,-1.8504e-17,0,0.66667
0.38187,0.53458,1.5275,0.051867,0.91503,29.391,-0.21127,0.070423,-1.9905,-0.28169,2.4605e-14,-0.99525,0,0,0.25,-0,-0,0.66667
0.91235,0.24369,3.6494,-0.38447,-1.2094,1.3728,3.7416,-1.2472,-1.4741,4.9887,8.4547e-10,-0.73705,0,0,0.25,-0,-0,0.66667
0.26051,0.52966,1.0421,0.044484,0.85873,39.353,-0.12361,0.041204,-1.9935,-0.16482,-1.0523e-11,-0.99675,0,0,0.25,3.7007e-16,0,0.66667
0.1083,0.56559,0.43322,0.098388,2.0179,52.738,-0.11366,0.037887,-1.9666,-0.15155,-2.0803e-08,-0.98332,0,0,0.25,-2.9606e-16,0,0.66667
0.055943,0.15873,0.22377,-0.51191,-10.727,57.496,0.30547,-0.10182,-1.0685,0.40729,-6.9921e-08,-0.53425,0,0,0.25,-0,-0,0.66667
0.35167,0.32482,1.4067,-0.26277,-4.778,31.834,0.9857,-0.32857,-1.7536,1.3143,8.6053e-13,-0.87678,0,0,0.25,-5.9212e-16,0,0.66667
0.037627,0.37532,0.15051,-0.18702,-3.8818,59.135,0.075061,-0.02502,-1.8763,0.10008,9.7786e-08,-0.93816,0,0,0.25,-0,-0,0.66667
0.58303,0.57185,2.3321,0.10778,1.4562,15.149,-0.6703,0.22343,-1.9581,-0.89373,-8.2823e-13,-0.97907,0,0,0.25,-0,-0,0.66667
0.67256,0.39057,2.6902,-0.16415,-1.8267,10.038,1.1776,-0.39253,-1.9043,1.5701,-5.0586e-12,-0.95214,0,0,0.25,1.1842e-15,0,0.66667
0.46048,0.89103,1.8419,0.58654,9.7267,23.711,-2.881,0.96033,-0.77578,-3.8413,3.0531e-13,-0.38789,0,0,0.25,5.9212e-16,0,0.66667
0.74112,0.92567,2.9645,0.6385,6.0373,7.2297,-5.0475,1.6825,-0.54957,-6.73,6.3274e-12,-0.27479,0,0,0.25,-1.1842e-15,0,0.66667
0.50102,0.1426,2.0041,-0.53611,-8.413,20.796,2.8651,-0.95503,-0.97811,3.8201,-2.6934e-13,-0.48905,0,0,0.25,-0,-0,0.66667
0.70235,0.51993,2.8094,0.029896,0.30576,8.4977,-0.22397,0.074658,-1.997,-0.29863,3.2317e-12,-0.9985,0,0,0.25,-0,-0,0.66667
0.23064,0.34984,0.92256,-0.22524,-4.43,41.937,0.55413,-0.18471,-1.8196,0.73884,1.0604e-10,-0.9098,0,0,0.25,-0,-0,0.66667
0.74461,0.047222,2.9784,-0.67917,-6.3843,7.1497,5.3943,-1.7981,-0.35906,7.1924,-3.2054e-12,-0.17953,0,0,0.25,-1.1842e-15,0,0.66667
0.50164,0.77911,2.0065,0.41867,6.5159,20.653,-2.2402,0.74673,-1.3779,-2.9869,-1.9229e-13,-0.68893,0,0,0.25,-7.4015e-16,0,0.66667
0.70537,0.68015,2.8215,0.27022,2.7594,8.4412,-2.0332,0.67772,-1.7405,-2.7109,2.1289e-11,-0.87025,0,0,0.25,-0,-0,0.66667
0.4467,0.08029,1.7868,-0.62956,-10.642,24.756,2.9997,-0.99991,-0.58982,3.9996,-7.3497e-14,-0.29491,0,0,0.25,-5.9212e-16,0,0.66667
0.50594,0.34805,2.0238,-0.22793,-3.4972,20.245,1.2301,-0.41002,-1.8152,1.6401,-7.3275e-15,-0.90762,0,0,0.25,1.1842e-15,0,0.66667
0.041535,0.68024,0.16614,0.27035,5.6204,58.783,-0.11978,0.039926,-1.7397,-0.1597,-1.9144e-09,-0.86987,0,0,0.25,7.4015e-17,0,0.66667
0.48931,0.53802,1.9572,0.057029,0.89226,21.364,-0.29765,0.099218,-1.9882,-0.39687,2.861e-13,-0.99408,0,0,0.25,-1.1842e-15,0,0.66667
0.14229,0.87903,0.56915,0.56854,11.742,49.771,-0.8629,0.28763,-0.85144,-1.1505,3.4196e-10,-0.42572,0,0,0.25,-0,-0,0.66667
0.1425,0.33311,0.56998,-0.25034,-5.1024,49.687,0.3805,-0.12683,-1.7771,0.50734,3.0331e-10,-0.88855,0,0,0.25,-0,-0,0.66667
0.43335,0.40162,1.7334,-0.14758,-2.4743,25.452,0.68215,-0.22738,-1.9227,0.90954,-1.0232e-12,-0.96135,0,0,0.25,-5.9212e-16,0,0.66667
0.57621,0.92844,2.3049,0.64267,9.0585,15.985,-3.95,1.3167,-0.53153,-5.2667,-4.563e-13,-0.26577,0,0,0.25,-0,-0,0.66667
0.34305,0.49925,1.3722,-0.0011251,-0.02052,32.486,0.004117,-0.0013723,-2.0016,0.0054893,-4.9946e-13,-1.0008,0,0,0.25,-1.1842e-15,0,0.66667
0.16049,0.33873,0.64197,-0.2419,-4.9012,48.085,0.41411,-0.13804,-1.792,0.55215,2.3674e-10,-0.896,0,0,0.25,-7.4015e-17,0,0.66667
0.74141,0.77551,2.9656,0.41326,3.8021,6.9047,-3.2682,1.0894,-1.3925,-4.3576,5.7058e-11,-0.69623,0,0,0.25,-5.9212e-16,0,0.66667
0.96309,0.98507,3.8524,0.72761,1.0997,1.2304,-7.4747,2.4916,-0.11674,-9.9663,-1.0296e-07,-0.058371,0,0,0.25,-0,-0,0.66667
0.73364,0.45643,2.9346,-0.065352,-0.60596,7.0315,0.51142,-0.17047,-1.985,0.68189,-1.6588e-11,-0.99248,0,0,0.25,-1.1842e-15,0,0.66667
0.077064,0.52718,0.30826,0.040764,0.84077,55.556,-0.033509,0.01117,-1.995,-0.044679,1.3365e-07,-0.9975,0,0,0.25,-1.4803e-16,0,0.66667
0.84091,0.1331,3.3636,-0.55035,-3.2904,3.3996,4.9364,-1.6455,-0.92301,6.5819,-7.7829e-10,-0.46151,0,0,0.25,-2.3685e-15,0,0.66667
0.067514,0.3904,0.27006,-0.1644,-3.4,56.424,0.1184,-0.039465,-1.9031,0.15786,-2.6586e-08,-0.95153,0,0,0.25,1.4803e-16,0,0.66667
0.43631,0.89494,1.7452,0.5924,10.102,25.486,-2.757,0.91901,-0.75227,-3.6761,5.1448e-13,-0.37613,0,0,0.25,-0,-0,0.66667
0.92886,0.65588,3.7155,0.23382,0.5613,0.91498,-2.3166,0.77221,-1.8063,-3.0889,-2.4713e-08,-0.90313,0,0,0.25,-1.5543e-15,0,0.66667
0.26318,0.68553,1.0527,0.2783,5.3858,39.161,-0.78125,0.26042,-1.7255,-1.0417,-5.7891e-11,-0.86277,0,0,0.25,-0,-0,0.66667
0.12795,0.10336,0.51181,-0.59497,-12.356,51.052,0.81203,-0.27068,-0.74114,1.0827,1.9088e-09,-0.37057,0,0,0.25,-0,-0,0.66667
0.76224,0.22871,3.049,-0.40693,-3.4698,6.0133,3.3085,-1.1028,-1.4109,4.4114,-1.053e-10,-0.70544,0,0,0.25,-0,-0,0.66667
0.92861,0.36518,3.7144,-0.20223,-0.48462,0.89664,2.0031,-0.66771,-1.8538,2.6708,-2.8399e-08,-0.92692,0,0,0.25,1.1842e-15,0,0.66667
0.32577,0.24551,1.3031,-0.38174,-7.1145,33.978,1.3265,-0.44216,-1.4824,1.7686,3.4974e-12,-0.74119,0,0,0.25,-4.4409e-16,0,0.66667
0.23246,0.2141,0.92983,-0.42885,-8.486,41.835,1.0633,-0.35445,-1.3467,1.4178,1.2397e-10,-0.67334,0,0,0.25,-0,-0,0.66667
0.18249,0.7706,0.72994,0.40591,8.2036,46.176,-0.7901,0.26337,-1.4135,-1.0535,-3.9144e-10,-0.70676,0,0,0.25,1.4803e-16,0,0.66667
0.96324,0.61619,3.8529,0.17428,0.17219,0.37427,-1.7907,0.59689,-1.8914,-2.3876,-3.4491e-08,-0.94572,0,0,0.25,-0,-0,0.66667
0.57663,0.98105,2.3065,0.72157,10.244,16.069,-4.4382,1.4794,-0.14868,-5.9176,1.4388e-13,-0.074338,0,0,0.25,-0,-0,0.66667
0.86009,0.31223,3.4404,-0.28165,-1.4226,2.5067,2.5839,-0.86131,-1.7197,3.4452,-1.1801e-09,-0.85984,0,0,0.25,1.3138e-15,0,0.66667
0.30834,0.77585,1.2334,0.41378,7.8201,35.424,-1.3609,0.45364,-1.3913,-1.8146,-8.7427e-12,-0.69563,0,0,0.25,-0,-0,0.66667
0.056436,0.24122,0.22575,-0.38818,-8.0889,57.44,0.23368,-0.077893,-1.4636,0.31157,-7.7557e-09,-0.73182,0,0,0.25,-7.4015e-17,0,0.66667
0.4538,0.85581,1.8152,0.53372,8.8875,24.147,-2.5835,0.86117,-0.98735,-3.4447,5.6044e-13,-0.49367,0,0,0.25,-0,-0,0.66667
0.20711,0.3319,0.82844,-0.25215,-5.018,43.985,0.55704,-0.18568,-1.7734,0.74272,2.0853e-10,-0.88668,0,0,0.25,-2.9606e-16,0,0.66667
0.51898,0.38886,2.0759,-0.16671,-2.5061,19.33,0.92287,-0.30762,-1.9006,1.2305,2.9948e-13,-0.95031,0,0,0.25,-0,-0,0.66667
0.53799,0.30862,2.152,-0.28707,-4.2086,18.107,1.6473,-0.54911,-1.707,2.1964,7.8815e-13,-0.85349,0,0,0.25,-4.3284e-16,0,0.66667
0.29429,0.54457,1.1772,0.066859,1.2641,36.503,-0.20988,0.069959,-1.9837,-0.27983,-7.9426e-12,-0.99186,0,0,0.25,-5.9212e-16,0,0.66667
0.30745,0.34045,1.2298,-0.23933,-4.4977,35.435,0.78488,-0.26163,-1.7966,1.0465,1.2949e-11,-0.89828,0,0,0.25,5.3511e-16,0,0.66667
0.024174,0.36262,0.096695,-0.20608,-4.2826,60.358,0.053137,-0.017712,-1.8481,0.07085,-8.9718e-08,-0.92404,0,0,0.25,3.7007e-17,0,0.66667
0.4204,0.86712,1.6816,0.55069,9.5236,26.639,-2.4694,0.82315,-0.92203,-3.2926,1.1471e-12,-0.46102,0,0,0.25,-0,-0,0.66667
0.32369,0.11956,1.2948,-0.57066,-10.758,34.252,1.9703,-0.65677,-0.84209,2.6271,-5.7576e-13,-0.42105,0,0,0.25,2.9606e-16,0,0.66667
0.61949,0.2447,2.478,-0.38296,-4.8693,13.106,2.5305,-0.84351,-1.4784,3.374,1.9769e-12,-0.73921,0,0,0.25,-2.9606e-16,0,0.66667
0.85976,0.64633,3.4391,0.2195,1.1042,2.4681,-2.013,0.67099,-1.8291,-2.684,-4.0949e-10,-0.91455,0,0,0.25,1.1842e-15,0,0.66667
0.49264,0.092421,1.9706,-0.61137,-9.7575,21.453,3.2126,-1.0709,-0.67147,4.2835,-2.538e-13,-0.33573,0,0,0.25,8.1416e-16,0,0.66667
0.082708,0.71921,0.33083,0.32881,6.8118,55.061,-0.29009,0.096696,-1.6164,-0.38678,8.9994e-10,-0.8082,0,0,0.25,-0,-0,0.66667
0.93348,0.034588,3.7339,-0.69812,-1.8611,1.555,6.9512,-2.3171,-0.26749,9.2683,-1.8582e-09,-0.13375,0,0,0.25,-0,-1.1637e-16,0.66667
0.80833,0.59907,3.2333,0.1486,1.0155,4.0526,-1.2813,0.42709,-1.9215,-1.7084,1.3294e-10,-0.96075,0,0,0.25,-0,-0,0.66667
0.36552,0.88209,1.4621,0.57314,10.454,30.896,-2.2346,0.74486,-0.83161,-2.9795,1.6203e-12,-0.4158,0,0,0.25,-0,-0,0.66667
0.33073,0.072396,1.3229,-0.64141,-12.086,33.73,2.2627,-0.75425,-0.53704,3.017,-8.511e-13,-0.26852,0,0,0.25,-0,-0,0.66667
0.93793,0.86542,3.7517,0.54812,1.2575,1.1746,-5.4838,1.8279,-0.93219,-7.3117,4.2677e-08,-0.46609,0,0,0.25,-1.1842e-15,0,0.66667
0.37489,0.79099,1.4996,0.43648,7.8345,30.066,-1.7454,0.58181,-1.3231,-2.3272,1.9693e-12,-0.66156,0,0,0.25,-0,-0,0.66667
0.6358,0.63864,2.5432,0.20796,2.5311,12.057,-1.4104,0.47013,-1.8454,-1.8805,-3.3895e-13,-0.92272,0,0,0.25,-0,-0,0.66667
0.98534,0.328,3.9414,-0.258,-0.027457,0.21789,2.7117,-0.9039,-1.7633,3.6156,-3.5313e-08,-0.88166,0,0,0.25,-0,-0,0.66667
0.03674,0.65771,0.14696,0.23656,4.9155,59.217,-0.092705,0.030902,-1.8015,-0.12361,3.4506e-08,-0.90077,0,0,0.25,-1.4803e-16,0,0.66667
0.31463,0.0093527,1.2585,-0.73597,-14.131,35.113,2.47,-0.82332,-0.074082,3.2933,-2.8511e-13,-0.037041,0,0,0.25,1.1842e-15,0,0.66667
0.23124,0.72638,0.92494,0.33958,6.6995,41.912,-0.83757,0.27919,-1.5899,-1.1168,-1.3343e-10,-0.79495,0,0,0.25,5.9212e-16,0,0.66667
0.92237,0.61519,3.6895,0.17279,0.45469,0.98989,-1.7,0.56667,-1.8942,-2.2667,1.4922e-08,-0.94711,0,0,0.25,-1.1842e-15,0,0.66667
0.55114,0.35017,2.2045,-0.22475,-3.2189,17.213,1.3212,-0.44041,-1.8203,1.7616,8.1746e-13,-0.91013,0,0,0.25,1.1842e-15,0,0.66667
0.053714,0.80622,0.21485,0.45934,9.6035,57.692,-0.26317,0.087725,-1.2494,-0.3509,-6.2286e-09,-0.62472,0,0,0.25,7.4015e-17,0,0.66667
0.75525,0.52341,3.021,0.035118,0.30142,6.0833,-0.28291,0.094304,-1.9952,-0.37722,1.7759e-11,-0.99759,0,0,0.25,-1.1842e-15,0,0.66667
0.68408,0.71792,2.7363,0.32688,3.5556,9.5398,-2.3852,0.79507,-1.621,-3.1803,8.5594e-12,-0.81051,0,0,0.25,2.2204e-16,0,0.66667
0.66217,0.34227,2.6487,-0.23659,-2.7099,10.622,1.6711,-0.55702,-1.8015,2.2281,-3.2844e-12,-0.90073,0,0,0.25,1.3323e-15,0,0.66667
0.95573,0.022927,3.8229,-0.71561,-1.2844,1.2857,7.2952,-2.4317,-0.17916,9.727,-1.6188e-06,-0.08958,0,0,0.25,-0,-0,0.66667
0.8746,0.64374,3.4984,0.21561,0.96588,2.0686,-2.0114,0.67048,-1.8349,-2.6819,8.358e-10,-0.91747,0,0,0.25,-1.1842e-15,0,0.66667
0.75325,0.43548,3.013,-0.096785,-0.83772,6.179,0.77764,-0.25921,-1.9674,1.0369,-3.2008e-11,-0.98371,0,0,0.25,1.1842e-15,0,0.66667
0.22267,0.40135,0.89066,-0.14798,-2.9174,42.616,0.35147,-0.11716,-1.9223,0.46862,9.2488e-11,-0.96113,0,0,0.25,-4.4409e-16,0,0.66667
0.13801,0.47717,0.55206,-0.034245,-0.69672,50.071,0.050414,-0.016805,-1.9958,0.067219,-1.8519e-09,-0.99788,0,0,0.25,-2.9606e-16,0,0.66667
0.22089,0.46397,0.88355,-0.054052,-1.0655,42.762,0.12735,-0.042451,-1.9901,0.1698,4.5782e-11,-0.99506,0,0,0.25,-4.4409e-16,0,0.66667
0.20551,0.68147,0.82204,0.27221,5.424,44.128,-0.59671,0.1989,-1.7368,-0.79561,-2.3297e-10,-0.86841,0,0,0.25,2.9606e-16,0,0.66667
0.56796,0.424,2.2719,-0.11399,-1.5824,16.095,0.6906,-0.2302,-1.9529,0.9208,6.6408e-13,-0.97647,0,0,0.25,-5.9212e-16,0,0.66667
0.66304,0.12591,2.6522,-0.56114,-6.5641,10.881,3.9687,-1.3229,-0.88096,5.2915,1.0505e-12,-0.44048,0,0,0.25,-2.3685e-15,0,0.66667
0.52742,0.039493,2.1097,-0.69076,-10.576,19.181,3.8861,-1.2954,-0.30318,5.1814,-4.7296e-14,-0.15159,0,0,0.25,-0,-0,0.66667
0.056349,0.29911,0.2254,-0.30134,-6.2608,57.442,0.18112,-0.060374,-1.6762,0.2415,-9.3592e-09,-0.83811,0,0,0.25,7.4015e-17,0,0.66667
0.36316,0.039103,1.4527,-0.69135,-12.743,31.179,2.6781,-0.8927,-0.30035,3.5708,-3.384e-13,-0.15018,0,0,0.25,-0,-0,0.66667
0.96773,0.87059,3.8709,0.55588,0.60695,0.80241,-5.7381,1.9127,-0.90217,-7.6507,-3.1048e-08,-0.45109,0,0,0.25,5.9212e-16,1.4948e-16,0.66667
0.69551,0.87182,2.782,0.55772,5.9971,9.2186,-4.1376,1.3792,-0.8941,-5.5169,2.4158e-12,-0.44705,0,0,0.25,1.4803e-15,0,0.66667
0.36974,0.69169,1.479,0.28754,5.1525,30.401,-1.134,0.378,-1.7061,-1.512,1.2401e-12,-0.85304,0,0,0.25,1.1842e-15,0,0.66667
0.67163,0.61842,2.6865,0.17763,1.9823,10.093,-1.2725,0.42418,-1.8886,-1.6967,4.9061e-12,-0.9443,0,0,0.25,-1.1842e-15,0,0.66667
0.26511,0.76073,1.0604,0.3911,7.5909,39.033,-1.106,0.36865,-1.4565,-1.4746,-4.8156e-11,-0.72823,0,0,0.25,-0,-0,0.66667
0.077478,0.81861,0.30991,0.47791,9.9686,55.55,-0.39496,0.13165,-1.1886,-0.52661,7.4278e-09,-0.59432,0,0,0.25,-0,-0,0.66667
0.52807,0.090709,2.1123,-0.61394,-9.3269,19.044,3.4581,-1.1527,-0.66041,4.6108,2.1982e-14,-0.33021,0,0,0.25,-7.4015e-16,0,0.66667
0.28977,0.06578,1.1591,-0.65133,-12.635,37.097,2.0132,-0.67106,-0.4917,2.6842,2.2826e-13,-0.24585,0,0,0.25,-0,-0,0.66667
0.48165,0.58499,1.9266,0.12748,2.0165,21.917,-0.65496,0.21832,-1.9421,-0.87327,1.994e-13,-0.97105,0,0,0.25,-5.9212e-16,0,0.66667
0.90199,0.6359,3.608,0.20385,0.7005,1.4149,-1.9613,0.65376,-1.8517,-2.615,3.2419e-09,-0.92584,0,0,0.25,-2.3685e-15,0,0.66667
0.65174,0.1193,2.607,-0.57105,-6.8677,11.499,3.9699,-1.3233,-0.84046,5.2932,1.2048e-12,-0.42023,0,0,0.25,-0,-0,0.66667
0.72332,0.28612,2.8933,-0.32082,-3.1105,7.6302,2.4753,-0.82509,-1.6341,3.3004,-3.7809e-11,-0.81703,0,0,0.25,-0,-0,0.66667
0.10259,0.07752,0.41035,-0.63372,-13.271,53.324,0.69345,-0.23115,-0.57111,0.9246,-7.0354e-09,-0.28555,0,0,0.25,-1.4803e-16,0,0.66667
0.47966,0.16321,1.9186,-0.50519,-8.1369,22.263,2.5847,-0.86158,-1.0923,3.4463,-5.1315e-13,-0.54614,0,0,0.25,1.1842e-15,0,0.66667
0.40434,0.72655,1.6174,0.33982,5.9067,27.724,-1.4656,0.48855,-1.5896,-1.9542,1.8728e-12,-0.79479,0,0,0.25,-0,-0,0.66667
0.64686,0.2863,2.5874,-0.32055,-3.8242,11.508,2.2117,-0.73724,-1.6345,2.9489,-5.3957e-14,-0.81725,0,0,0.25,-0,-0,0.66667
0.28774,0.79918,1.1509,0.44878,8.6132,37.152,-1.3774,0.45912,-1.283,-1.8365,-1.7508e-11,-0.64149,0,0,0.25,2.9606e-16,0,0.66667
0.38306,0.18867,1.5323,-0.46699,-8.3338,29.444,1.9081,-0.63604,-1.2251,2.5442,-1.8193e-12,-0.61253,0,0,0.25,1.1842e-15,0,0.66667
0.98102,0.27259,3.9241,-0.34111,-0.11583,0.34106,3.5694,-1.1898,-1.586,4.7593,-9.1328e-09,-0.79302,0,0,0.25,-1.1842e-15,0,0.66667
0.11481,0.20952,0.45924,-0.43572,-9.0044,52.19,0.5336,-0.17787,-1.3244,0.71146,2.317e-09,-0.66219,0,0,0.25,-0,-0,0.66667
0.19991,0.41875,0.79963,-0.12187,-2.4268,44.596,0.25987,-0.086624,-1.9467,0.3465,8.5532e-11,-0.97335,0,0,0.25,-0,-0,0.66667
0.23905,0.42839,0.95618,-0.10741,-2.0991,41.196,0.27387,-0.091291,-1.9585,0.36517,4.891e-11,-0.97924,0,0,0.25,-2.9606e-16,0,0.66667
0.69665,0.5648,2.7866,0.097198,1.0115,8.7889,-0.72228,0.24076,-1.9667,-0.96303,8.0697e-12,-0.98334,0,0,0.25,2.3685e-15,0,0.66667
0.71369,0.93119,2.8548,0.64679,6.6734,8.4808,-4.9238,1.6413,-0.51234,-6.5651,1.2323e-12,-0.25617,0,0,0.25,-1.1842e-15,0,0.66667
0.78475,0.092771,3.139,-0.61084,-4.8861,5.4101,5.1132,-1.7044,-0.67421,6.8176,-1.5468e-11,-0.3371,0,0,0.25,-2.2204e-16,0,0.66667
0.38104,0.80416,1.5242,0.45624,8.1522,29.595,-1.8544,0.61812,-1.2593,-2.4725,2.0618e-12,-0.62967,0,0,0.25,-0,-0,0.66667
0.8524,0.41338,3.4096,-0.12993,-0.68433,2.6295,1.1814,-0.39379,-1.9395,1.5752,-6.1873e-10,-0.96975,0,0,0.25,-0,-0,0.66667
0.69735,0.60291,2.7894,0.15437,1.6055,8.7725,-1.1483,0.38276,-1.9146,-1.531,1.2518e-11,-0.95732,0,0,0.25,-0,-0,0.66667
0.71326,0.81707,2.853,0.47561,4.8186,8.2572,-3.6185,1.2062,-1.1957,-4.8246,1.5171e-11,-0.59785,0,0,0.25,-0,-0,0.66667
0.82199,0.10694,3.288,-0.58959,-3.9481,4.0603,5.1695,-1.7232,-0.76313,6.8926,-2.1877e-10,-0.38156,0,0,0.25,-1.1842e-15,0,0.66667
0.62892,0.28476,2.5157,-0.32287,-4.0099,12.516,2.1659,-0.72198,-1.6297,2.8879,1.3556e-12,-0.81485,0,0,0.25,-0,-0,0.66667
0.42223,0.39104,1.6889,-0.16344,-2.7743,26.294,0.73608,-0.24536,-1.9052,0.98144,-1.1721e-12,-0.9526,0,0,0.25,5.9212e-16,0,0.66667
0.030799,0.44358,0.1232,-0.084627,-1.7549,59.754,0.027801,-0.0092674,-1.9753,0.037068,-5.9996e-07,-0.98766,0,0,0.25,-0,-0,0.66667
0.59546,0.31477,2.3818,-0.27785,-3.686,14.456,1.7648,-0.58826,-1.7265,2.353,1.679e-12,-0.86327,0,0,0.25,-0,-0,0.66667
0.56376,0.1086,2.2551,-0.5871,-8.4114,16.695,3.5305,-1.1768,-0.77438,4.7073,5.6355e-13,-0.38719,0,0,0.25,-0,-0,0.66667
0.60081,0.042332,2.4032,-0.6865,-9.2939,14.554,4.3995,-1.4665,-0.32347,5.866,3.455e-13,-0.16173,0,0,0.25,-0,-0,0.66667
0.32285,0.21016,1.2914,-0.43476,-8.1398,34.242,1.4972,-0.49908,-1.3274,1.9963,3.0729e-12,-0.6637,0,0,0.25,-0,-0,0.66667
0.55488,0.28243,2.2195,-0.32636,-4.6643,17.026,1.9316,-0.64388,-1.6218,2.5755,1.3269e-12,-0.81088,0,0,0.25,-2.3685e-15,0,0.66667
0.17166,0.64815,0.68663,0.22223,4.4829,47.094,-0.40689,0.13563,-1.825,-0.54253,-1.0857e-10,-0.91252,0,0,0.25,-0,-0,0.66667
0.64986,0.42536,2.5994,-0.11196,-1.3159,11.239,0.77609,-0.2587,-1.9546,1.0348,-1.0118e-12,-0.97728,0,0,0.25,-1.1842e-15,0,0.66667
0.071673,0.80958,0.28669,0.46437,9.6886,56.071,-0.35502,0.11834,-1.2334,-0.47336,1.7718e-08,-0.61672,0,0,0.25,-1.4531e-16,0,0.66667
0.87508,0.94955,3.5003,0.67433,3.2943,2.6915,-6.2943,2.0981,-0.38357,-8.3924,6.5548e-09,-0.19178,0,0,0.25,-0,-0,0.66667
0.21614,0.28575,0.86455,-0.32137,-6.3826,43.214,0.74091,-0.24697,-1.6332,0.98788,1.9879e-10,-0.81661,0,0,0.25,-0,-0,0.66667
0.29384,0.91009,1.1754,0.61514,11.872,36.735,-1.9281,0.64268,-0.65505,-2.5707,-1.6389e-12,-0.32753,0,0,0.25,-0,-0,0.66667
0.88474,0.87537,3.5389,0.56306,2.4662,2.242,-5.3137,1.7712,-0.87345,-7.085,9.5455e-09,-0.43673,0,0,0.25,-0,-0,0.66667
0.88359,0.66685,3.5344,0.25028,1.041,1.8695,-2.3589,0.78629,-1.7765,-3.1451,1.8783e-09,-0.88824,0,0,0.25,2.3685e-15,0,0.66667
0.83627,0.8254,3.3451,0.4881,2.9665,3.4448,-4.3539,1.4513,-1.152,-5.8052,8.3772e-10,-0.57599,0,0,0.25,1.1842e-15,0,0.66667
0.32694,0.67756,1.3077,0.26634,4.9388,33.84,-0.9288,0.3096,-1.7479,-1.2384,-5.6743e-12,-0.87397,0,0,0.25,-0,-0,0.66667
0.90234,0.30937,3.6094,-0.28594,-0.99067,1.4718,2.7522,-0.91739,-1.7097,3.6696,-2.7059e-10,-0.85485,0,0,0.25,5.6321e-16,0,0.66667
0.7718,0.9036,3.0872,0.6054,5.0988,5.9016,-4.984,1.6613,-0.69709,-6.6453,5.1132e-11,-0.34855,0,0,0.25,1.4803e-15,0,0.66667
0.65808,0.3206,2.6323,-0.2691,-3.1179,10.861,1.889,-0.62966,-1.7427,2.5186,-2.1653e-12,-0.87134,0,0,0.25,-0,-0,0.66667
0.8998,0.67711,3.5992,0.26566,0.94331,1.5088,-2.5498,0.84994,-1.7483,-3.3998,-1.5285e-09,-0.87414,0,0,0.25,-1.1842e-15,0,0.66667
0.78313,0.19468,3.1325,-0.45798,-3.6106,5.2442,3.8257,-1.2752,-1.2545,5.1009,-1.9019e-10,-0.62725,0,0,0.25,-0,-0,0.66667
0.42475,0.25533,1.699,-0.367,-6.254,26.185,1.6627,-0.55425,-1.5214,2.217,-2.0326e-12,-0.76068,0,0,0.25,1.1842e-15,0,0.66667
0.32426,0.30159,1.297,-0.29762,-5.5354,34.069,1.0294,-0.34313,-1.6845,1.3725,5.8713e-12,-0.84227,0,0,0.25,2.9606e-16,0,0.66667
0.39388,0.39443,1.5755,-0.15835,-2.7658,28.468,0.66529,-0.22176,-1.9104,0.88705,-9.7555e-13,-0.95519,0,0,0.25,-0,-0,0.66667
0.061412,0.24962,0.24565,-0.37557,-7.8179,56.989,0.24602,-0.082008,-1.5001,0.32803,-4.0511e-09,-0.75003,0,0,0.25,2.313e-17,0,0.66667
0.36343,0.10731,1.4537,-0.58904,-10.775,31.073,2.2835,-0.76115,-0.76567,3.0446,-1.4964e-12,-0.38284,0,0,0.25,-0,-0,0.66667
0.35304,0.7713,1.4122,0.40695,7.432,31.784,-1.5325,0.51083,-1.4104,-2.0433,8.3977e-13,-0.70522,0,0,0.25,-0,-0,0.66667
0.86562,0.6549,3.4625,0.23236,1.1201,2.3164,-2.1454,0.71514,-1.8085,-2.8606,-1.5777e-09,-0.90426,0,0,0.25,-1.4803e-16,0,0.66667
0.8887,0.57654,3.5548,0.11482,0.44949,1.6694,-1.0884,0.3628,-1.9529,-1.4512,-1.4474e-09,-0.97644,0,0,0.25,-1.1842e-15,0,0.66667
0.96305,0.81396,3.8522,0.47094,0.5623,0.70415,-4.8378,1.6126,-1.2119,-6.4504,-3.9456e-08,-0.60596,0,0,0.25,-2.3685e-15,0,0.66667
0.3282,0.027373,1.3128,-0.70894,-13.451,33.988,2.4819,-0.82728,-0.21423,3.3091,-5.4401e-14,-0.10712,0,0,0.25,-0,-0,0.66667
0.69332,0.95508,2.7733,0.68263,7.4942,9.5176,-5.0483,1.6828,-0.34229,-6.7311,-1.9096e-14,-0.17115,0,0,0.25,-0,-0,0.66667
0.63307,0.5994,2.5323,0.1491,1.8225,12.188,-1.0068,0.33561,-1.9207,-1.3424,-3.7192e-13,-0.96033,0,0,0.25,-0,-0,0.66667
0.24244,0.79486,0.96977,0.4423,8.7128,40.983,-1.1438,0.38127,-1.3035,-1.5251,-8.4214e-11,-0.65173,0,0,0.25,-0,-0,0.66667
0.86999,0.89016,3.48,0.58524,2.9019,2.6464,-5.4309,1.8103,-0.78139,-7.2412,3.0509e-09,-0.39069,0,0,0.25,1.1842e-15,0,0.66667
0.2141,0.29111,0.85641,-0.31333,-6.2271,43.389,0.71557,-0.23852,-1.6504,0.95409,1.9864e-10,-0.82519,0,0,0.25,-0,-0,0.66667
0.74771,0.97281,2.9909,0.70922,6.6274,7.0728,-5.6564,1.8855,-0.21218,-7.5419,-9.4058e-13,-0.10609,0,0,0.25,-0,-1.3392e-16,0.66667
0.14466,0.96519,0.57866,0.69778,14.52,49.602,-1.0767,0.35891,-0.26914,-1.4356,-3.0223e-10,-0.13457,0,0,0.25,-7.4015e-17,0,0.66667
0.10682,0.12218,0.42728,-0.56673,-11.81,52.931,0.64573,-0.21524,-0.85876,0.86098,-1.4749e-08,-0.42938,0,0,0.25,-0,2.4081e-18,0.66667
0.72032,0.95738,2.8813,0.68608,6.9767,8.2401,-5.2714,1.7571,-0.32635,-7.0286,2.8688e-13,-0.16318,0,0,0.25,-0,-0,0.66667
0.52632,0.94254,2.1053,0.66382,10.155,19.22,-3.7267,1.2422,-0.4332,-4.9689,-5.9064e-14,-0.2166,0,0,0.25,-0,-0,0.66667
0.44292,0.27849,1.7717,-0.33226,-5.5419,24.809,1.5698,-0.52325,-1.6077,2.093,-1.3399e-12,-0.80387,0,0,0.25,-1.4803e-16,0,0.66667
0.77818,0.95955,3.1127,0.68933,5.738,5.8026,-5.7218,1.9073,-0.31026,-7.6291,6.1746e-12,-0.15513,0,0,0.25,-1.1842e-15,0,0.66667
0.35874,0.71202,1.435,0.31804,5.7595,31.288,-1.217,0.40567,-1.641,-1.6227,5.0737e-13,-0.82051,0,0,0.25,5.0848e-16,0,0.66667
0.85335,0.49528,3.4134,-0.007086,-0.036949,2.5766,0.064499,-0.0215,-1.9997,0.085999,1.7193e-09,-0.99986,0,0,0.25,1.7764e-15,0,0.66667
0.96217,0.57067,3.8487,0.10601,0.10725,0.35415,-1.088,0.36267,-1.9595,-1.4507,3.3786e-07,-0.97973,0,0,0.25,-0,-0,0.66667
0.97913,0.85427,3.9165,0.53141,0.31399,0.64677,-5.55,1.85,-0.99524,-7.4001,2.8399e-08,-0.49762,0,0,0.25,-0,-0,0.66667
0.27763,0.48881,1.1105,-0.016783,-0.32065,37.9,0.0497,-0.016567,-1.9985,0.066267,1.7082e-12,-0.99925,0,0,0.25,-0,-0,0.66667
0.41501,0.88573,1.66,0.5786,10.081,27.07,-2.5613,0.85377,-0.80886,-3.4151,1.12e-12,-0.40443,0,0,0.25,-1.1842e-15,0,0.66667
0.72501,0.30149,2.9,-0.29776,-2.867,7.5339,2.3027,-0.76758,-1.6839,3.0703,-3.977e-11,-0.84197,0,0,0.25,1.1842e-15,0,0.66667
0.89487,0.35344,3.5795,-0.21984,-0.81709,1.5828,2.0984,-0.69948,-1.8277,2.7979,1.7116e-09,-0.91384,0,0,0.25,2.3685e-15,0,0.66667
0.71131,0.15703,2.8452,-0.51445,-5.2632,8.398,3.9033,-1.3011,-1.0595,5.2044,-1.0371e-11,-0.52976,0,0,0.25,-0,-0,0.66667
0.75813,0.89858,3.0325,0.59787,5.2966,6.4419,-4.8348,1.6116,-0.72851,-6.4464,2.4053e-11,-0.36426,0,0,0.25,1.1842e-15,0,0.66667
0.8834,0.36374,3.5336,-0.20439,-0.84714,1.8413,1.926,-0.64198,-1.8506,2.5679,3.1082e-09,-0.9253,0,0,0.25,-1.1842e-15,0,0.66667
0.36695,0.32603,1.4678,-0.26096,-4.6837,30.613,1.0214,-0.34047,-1.7569,1.3619,-8.1679e-13,-0.87845,0,0,0.25,-5.9212e-16,0,0.66667
0.54254,0.69403,2.1702,0.29104,4.237,17.808,-1.6843,0.56143,-1.6987,-2.2457,-1.1657e-12,-0.84933,0,0,0.25,-0,-0,0.66667
0.53477,0.56825,2.1391,0.10238,1.5009,18.252,-0.584,0.19467,-1.9628,-0.77867,-4.6219e-13,-0.9814,0,0,0.25,-0,-0,0.66667
0.64758,0.45064,2.5903,-0.074034,-0.8743,11.357,0.5114,-0.17047,-1.9796,0.68186,-8.3372e-13,-0.98978,0,0,0.25,1.1842e-15,0,0.66667
0.89518,0.59869,3.5807,0.14804,0.54436,1.5336,-1.4136,0.47119,-1.9221,-1.8848,-1.8452e-08,-0.96105,0,0,0.25,-2.3685e-15,0,0.66667
0.60083,0.0087298,2.4033,-0.73691,-10.031,14.63,4.7227,-1.5742,-0.068569,6.2969,2.0606e-13,-0.034285,0,0,0.25,-0,-0,0.66667
0.96994,0.18092,3.8798,-0.47863,-0.43917,0.6417,4.9519,-1.6506,-1.186,6.6025,4.6239e-09,-0.59299,0,0,0.25,-1.1842e-15,0,0.66667
0.73214,0.71999,2.9285,0.32998,3.111,7.2357,-2.577,0.859,-1.6139,-3.436,4.9564e-11,-0.80697,0,0,0.25,-0,-0,0.66667
0.41529,0.77649,1.6612,0.41473,7.1538,26.928,-1.8372,0.61239,-1.3883,-2.4496,1.5272e-12,-0.69414,0,0,0.25,-6.4228e-16,0,0.66667
0.58114,0.78705,2.3246,0.43058,5.9151,15.446,-2.6691,0.88969,-1.341,-3.5588,-1.6478e-12,-0.67049,0,0,0.25,-1.1842e-15,0,0.66667
0.92232,0.76645,3.6893,0.39967,1.1063,1.2037,-3.932,1.3107,-1.4322,-5.2427,-2.0532e-09,-0.7161,0,0,0.25,-0,-0,0.66667
0.6185,0.055975,2.474,-0.66604,-8.6912,13.49,4.3941,-1.4647,-0.42235,5.8588,4.5741e-13,-0.21117,0,0,0.25,-0,-0,0.66667
0.70993,0.86622,2.8397,0.54933,5.6641,8.5104,-4.1598,1.3866,-0.92641,-5.5465,6.529e-12,-0.4632,0,0,0.25,-5.9212e-16,0,0.66667
0.66129,0.83645,2.6452,0.50468,5.8972,10.903,-3.5599,1.1866,-1.094,-4.7465,-7.081e-13,-0.54702,0,0,0.25,-0,-0,0.66667
0.33615,0.16339,1.3446,-0.50492,-9.3934,33.199,1.8104,-0.60347,-1.093,2.4139,-7.9969e-13,-0.54652,0,0,0.25,-0,-0,0.66667
0.20333,0.68331,0.81334,0.27496,5.4845,44.319,-0.59637,0.19879,-1.7323,-0.79516,-2.5859e-10,-0.86616,0,0,0.25,7.4015e-17,0,0.66667
0.40781,0.60288,1.6313,0.15432,2.6584,27.391,-0.67129,0.22376,-1.9155,-0.89505,1.1324e-12,-0.95773,0,0,0.25,-1.1842e-15,0,0.66667
0.15077,0.59032,0.60308,0.13548,2.748,48.938,-0.21787,0.072625,-1.9349,-0.2905,-1.6314e-09,-0.96745,0,0,0.25,-2.5142e-16,0,0.66667
0.82633,0.26684,3.3053,-0.34973,-2.2068,3.5885,3.0826,-1.0275,-1.5649,4.1102,-5.2396e-10,-0.78244,0,0,0.25,-0,-0,0.66667
0.71046,0.78904,2.8418,0.43356,4.4123,8.3415,-3.2857,1.0952,-1.3311,-4.3809,1.7488e-11,-0.66553,0,0,0.25,-0,-0,0.66667
0.40106,0.61814,1.6042,0.17722,3.0749,27.917,-0.75812,0.25271,-1.888,-1.0108,1.266e-12,-0.94401,0,0,0.25,2.3747e-16,0,0.66667
0.17138,0.049424,0.68553,-0.67586,-13.921,47.242,1.2355,-0.41184,-0.37604,1.6474,-1.0958e-10,-0.18802,0,0,0.25,2.9606e-16,2.8818e-16,0.66667
0.8758,0.63445,3.5032,0.20168,0.89322,2.029,-1.884,0.62801,-1.8557,-2.512,-2.0047e-09,-0.92785,0,0,0.25,-0,-0,0.66667
0.63906,0.89305,2.5563,0.58958,7.3095,12.22,-4.019,1.3397,-0.76394,-5.3586,-1.4642e-12,-0.38197,0,0,0.25,1.1842e-15,3.417e-16,0.66667
0.9966,0.21687,3.9864,-0.4247,0.10685,0.3398,4.5147,-1.5049,-1.3594,6.0196,-2.629e-08,-0.67972,0,0,0.25,1.3318e-15,0,0.66667
0.1011,0.98751,0.40439,0.73126,15.42,53.481,-0.78857,0.26286,-0.097774,-1.0514,2.7316e-08,-0.048887,0,0,0.25,-2.9606e-16,0,0.66667
0.24485,0.66684,0.97939,0.25026,4.889,40.719,-0.6536,0.21787,-1.7766,-0.87147,-9.0519e-11,-0.88832,0,0,0.25,-0,-0,0.66667
0.083655,0.23528,0.33462,-0.39709,-8.2452,54.983,0.35433,-0.11811,-1.4385,0.47244,-2.8799e-09,-0.71924,0,0,0.25,1.4803e-16,0,0.66667
0.74474,0.00090398,2.979,-0.74864,-7.1113,7.2755,5.9472,-1.9824,-0.0078778,7.9295,2.6832e-12,-0.0039389,0,0,0.25,4.737e-15,0,0.66667
0.15958,0.2859,0.6383,-0.32115,-6.5238,48.179,0.54665,-0.18222,-1.6335,0.72886,5.9314e-10,-0.81677,0,0,0.25,-0,-0,0.66667
0.88166,0.70227,3.5266,0.30341,1.2933,1.9628,-2.8534,0.95112,-1.6717,-3.8045,-6.0106e-10,-0.83586,0,0,0.25,-0,-0,0.66667
0.49148,0.99858,1.9659,0.74787,12.098,21.696,-3.9207,1.3069,-0.011743,-5.2276,-6.0174e-14,-0.0058716,0,0,0.25,-1.4803e-16,0,0.66667
0.52617,0.41923,2.1047,-0.12116,-1.8003,18.831,0.67999,-0.22666,-1.947,0.90665,1.843e-13,-0.97351,0,0,0.25,-0,-0,0.66667
0.04252,0.78422,0.17008,0.42633,8.9102,58.702,-0.19336,0.064454,-1.3541,-0.25782,4.5906e-09,-0.67706,0,0,0.25,-0,-0,0.66667
0.61405,0.85366,2.4562,0.53049,6.8952,13.57,-3.4747,1.1582,-0.99883,-4.6329,-1.7151e-12,-0.49942,0,0,0.25,-0,-0,0.66667
0.22761,0.71451,0.91046,0.32177,6.3556,42.22,-0.78121,0.2604,-1.6318,-1.0416,-1.4698e-10,-0.8159,0,0,0.25,7.4015e-17,0,0.66667
0.2135,0.71716,0.85402,0.32574,6.4782,43.444,-0.74184,0.24728,-1.6232,-0.98912,-2.1406e-10,-0.81162,0,0,0.25,-3.3307e-16,0,0.66667
0.89532,0.2267,3.5813,-0.40995,-1.5675,1.7632,3.9151,-1.305,-1.4021,5.2201,-3.3014e-09,-0.70103,0,0,0.25,-0,-0,0.66667
0.88801,0.79504,3.5521,0.44257,1.8279,1.974,-4.192,1.3973,-1.3032,-5.5894,2.8655e-09,-0.6516,0,0,0.25,-0,-0,0.66667
0.0052652,0.64798,0.021061,0.22198,4.6172,62.077,-0.012467,0.0041555,-1.8243,-0.016622,-3.7419e-09,-0.91216,0,0,0.25,-4.6259e-18,0,0.66667
0.8323,0.28814,3.3292,-0.31778,-1.931,3.3653,2.8213,-0.94042,-1.6407,3.7617,-4.6764e-10,-0.82037,0,0,0.25,-0,-0,0.66667
0.9023,0.90172,3.6092,0.60259,2.2646,1.9241,-5.7996,1.9332,-0.70912,-7.7328,1.1572e-08,-0.35456,0,0,0.25,-0,-0,0.66667
0.51195,0.85414,2.0478,0.53122,8.208,20.042,-2.9009,0.96695,-0.99621,-3.8678,-3.7148e-13,-0.4981,0,0,0.25,-0,-0,0.66667
0.65617,0.66839,2.6247,0.25258,2.9377,10.954,-1.7679,0.58929,-1.7735,-2.3572,1.7129e-12,-0.88676,0,0,0.25,1.1842e-15,0,0.66667
0.76779,0.41411,3.0711,-0.12883,-1.0553,5.5838,1.0551,-0.3517,-1.9411,1.4068,-5.961e-11,-0.97054,0,0,0.25,-0,-0,0.66667
0.68544,0.83276,2.7418,0.49915,5.4833,9.6443,-3.6494,1.2165,-1.114,-4.8659,2.7733e-12,-0.557,0,0,0.25,-0,-0,0.66667
0.45912,0.97478,1.8365,0.71217,11.95,23.943,-3.4877,1.1626,-0.19638,-4.6502,1.8296e-13,-0.098188,0,0,0.25,-0,-0,0.66667
0.57345,0.11401,2.2938,-0.57899,-8.1534,16.077,3.5416,-1.1805,-0.80744,4.7221,5.056e-13,-0.40372,0,0,0.25,5.9212e-16,0,0.66667
0.57406,0.77051,2.2962,0.40576,5.6362,15.865,-2.4846,0.8282,-1.4141,-3.3128,-1.7362e-12,-0.70703,0,0,0.25,5.9212e-16,0,0.66667
0.84213,0.47502,3.3685,-0.037463,-0.21063,2.9115,0.33652,-0.11217,-1.9954,0.44869,-5.634e-10,-0.99772,0,0,0.25,-0,-0,0.66667
0.24044,0.97903,0.96177,0.71854,14.408,41.291,-1.8429,0.61429,-0.16351,-2.4571,-2.3395e-12,-0.081753,0,0,0.25,-5.9212e-16,0,0.66667
0.75723,0.56479,3.0289,0.097187,0.82875,6.0109,-0.78499,0.26166,-1.9667,-1.0467,3.6277e-11,-0.98333,0,0,0.25,2.3685e-15,0,0.66667
0.81234,0.75023,3.2493,0.37534,2.5592,4.0841,-3.2523,1.0841,-1.501,-4.3364,4.2362e-10,-0.7505,0,0,0.25,-0,-0,0.66667
0.79703,0.80607,3.1881,0.45911,3.4049,4.7264,-3.9032,1.3011,-1.2514,-5.2043,2.2673e-10,-0.62569,0,0,0.25,5.9212e-16,0,0.66667
0.80771,0.26664,3.2308,-0.35005,-2.4361,4.2187,3.0158,-1.0053,-1.5635,4.0211,-3.2349e-10,-0.78176,0,0,0.25,-9.5652e-16,0,0.66667
0.82928,0.93794,3.3171,0.65691,4.2873,3.9491,-5.8108,1.9369,-0.46723,-7.7477,-4.7034e-10,-0.23361,0,0,0.25,-0,-0,0.66667
0.41752,0.65419,1.6701,0.23129,3.9519,26.672,-1.03,0.34335,-1.8103,-1.3734,1.6476e-12,-0.90517,0,0,0.25,-8.1416e-16,0,0.66667
0.61789,0.76972,2.4715,0.40459,5.1686,13.218,-2.6666,0.88885,-1.4171,-3.5554,-2.0963e-12,-0.70856,0,0,0.25,-0,-0,0.66667
0.75525,0.51887,3.021,0.028308,0.24295,6.0828,-0.22805,0.076016,-1.9964,-0.30406,1.0522e-11,-0.99818,0,0,0.25,-0,-0,0.66667
0.76977,0.0099375,3.0791,-0.73509,-6.3729,6.2203,6.0357,-2.0119,-0.07822,8.0476,2.5834e-11,-0.03911,0,0,0.25,-0,-0,0.66667
0.9586,0.017567,3.8344,-0.72365,-1.2225,1.2712,7.3994,-2.4665,-0.13721,9.8659,-2.7365e-07,-0.068603,0,0,0.25,-2.2704e-15,0,0.66667
0.97508,0.037552,3.9003,-0.69367,-0.67,1.0279,7.2147,-2.4049,-0.28879,9.6197,5.9214e-06,-0.14439,0,0,0.25,-0,-0,0.66667
0.56473,0.92279,2.2589,0.63418,9.109,16.692,-3.8202,1.2734,-0.56966,-5.0936,-4.0079e-13,-0.28483,0,0,0.25,-0,-0,0.66667
0.46574,0.80396,1.863,0.45595,7.4493,23.219,-2.2651,0.75503,-1.2607,-3.0201,5.4801e-13,-0.63034,0,0,0.25,-5.9212e-16,0,0.66667
0.83553,0.050552,3.3421,-0.67417,-4.2665,3.789,6.0084,-2.0028,-0.38307,8.0112,1.6669e-10,-0.19153,0,0,0.25,1.1842e-15,0,0.66667
0.21996,0.088681,0.87984,-0.61698,-12.409,42.991,1.4476,-0.48253,-0.64724,1.9301,3.1662e-11,-0.32362,0,0,0.25,-0,-0,0.66667
0.7664,0.7811,3.0656,0.42165,3.5435,5.86,-3.447,1.149,-1.3696,-4.596,1.248e-10,-0.68479,0,0,0.25,2.313e-16,0,0.66667
0.19201,0.95311,0.76805,0.67967,13.894,45.442,-1.392,0.46401,-0.35675,-1.8561,-3.5964e-11,-0.17838,0,0,0.25,-0,-0,0.66667
0.59163,0.43464,2.3665,-0.098046,-1.3033,14.618,0.61874,-0.20625,-1.9666,0.82498,6.582e-13,-0.98332,0,0,0.25,7.4015e-16,0,0.66667
0.60683,0.4064,2.4273,-0.1404,-1.8132,13.711,0.90881,-0.30294,-1.9312,1.2117,7.8554e-13,-0.96559,0,0,0.25,-0,-0,0.66667
0.44184,0.77908,1.7674,0.41861,7.0189,24.939,-1.9729,0.65764,-1.3774,-2.6306,1.4209e-12,-0.68872,0,0,0.25,-0,-0,0.66667
0.86455,0.66916,3.4582,0.25373,1.236,2.3614,-2.3399,0.77997,-1.7703,-3.1199,-4.9852e-10,-0.88514,0,0,0.25,-0,-0,0.66667
0.54348,0.82878,2.1739,0.49316,7.25,17.9,-2.8589,0.95298,-1.1347,-3.8119,-7.323e-13,-0.56733,0,0,0.25,-1.1842e-15,0,0.66667
0.49273,0.55387,1.9709,0.080802,1.2587,21.126,-0.42468,0.14156,-1.9761,-0.56623,-7.6938e-14,-0.98807,0,0,0.25,5.9212e-16,0,0.66667
0.41813,0.22147,1.6725,-0.41779,-7.1866,26.715,1.8633,-0.62112,-1.3799,2.4845,-1.7125e-12,-0.68995,0,0,0.25,-1.1842e-15,0,0.66667
0.062225,0.86446,0.2489,0.54669,11.468,56.933,-0.36286,0.12095,-0.93775,-0.48381,-3.369e-08,-0.46887,0,0,0.25,-7.4015e-17,2.9841e-16,0.66667
0.36215,0.97278,1.4486,0.70917,13.101,31.275,-2.7395,0.91316,-0.21232,-3.6526,3.7015e-13,-0.10616,0,0,0.25,-0,-0,0.66667
0.092815,0.84327,0.37126,0.51491,10.731,54.176,-0.50977,0.16992,-1.0589,-0.6797,1.3492e-08,-0.52947,0,0,0.25,-3.7007e-17,0,0.66667
0.56564,0.81434,2.2626,0.47151,6.6743,16.454,-2.8449,0.94829,-1.2103,-3.7931,-1.3003e-12,-0.60515,0,0,0.25,-0,-0,0.66667
0.6405,0.12523,2.562,-0.56215,-6.929,12.104,3.8406,-1.2802,-0.8783,5.1209,1.7319e-12,-0.43915,0,0,0.25,-2.3685e-15,0,0.66667
0.76778,0.55578,3.0711,0.083668,0.68453,5.5709,-0.68521,0.2284,-1.9753,-0.91361,5.7168e-11,-0.98767,0,0,0.25,5.9212e-16,0,0.66667
0.63254,0.38361,2.5301,-0.17458,-2.138,12.228,1.1779,-0.39264,-1.891,1.5706,3.0631e-13,-0.94549,0,0,0.25,-1.1842e-15,0,0.66667
0.18706,0.16559,0.74824,-0.50162,-10.165,45.803,1.0009,-0.33363,-1.1058,1.3345,2.8836e-10,-0.5529,0,0,0.25,-0,-0,0.66667
0.75024,0.28735,3.001,-0.31897,-2.8222,6.4308,2.5526,-0.85088,-1.6391,3.4035,-8.4427e-11,-0.81955,0,0,0.25,-0,-0,0.66667
0.54886,0.83253,2.1954,0.49879,7.2731,17.555,-2.9202,0.9734,-1.1152,-3.8936,-8.3711e-13,-0.55762,0,0,0.25,-5.9212e-16,0,0.66667
0.10217,0.51943,0.40868,0.029144,0.59828,53.289,-0.031762,0.010587,-1.9961,-0.042349,-6.731e-09,-0.99804,0,0,0.25,-0,-0,0.66667
0.024827,0.7116,0.099308,0.3174,6.615,60.301,-0.084054,0.028018,-1.6413,-0.11207,-1.0645e-09,-0.82067,0,0,0.25,3.7007e-17,0,0.66667
0.29875,0.048527,1.195,-0.67721,-13.085,36.372,2.158,-0.71934,-0.36914,2.8774,-3.1308e-14,-0.18457,0,0,0.25,5.9212e-16,0,0.66667
0.69002,0.60901,2.7601,0.16351,1.7365,9.1418,-1.2035,0.40115,-1.9045,-1.6046,9.9972e-12,-0.95227,0,0,0.25,-1.1842e-15,0,0.66667
0.93279,0.52742,3.7312,0.041127,0.090063,0.76052,-0.40921,0.1364,-1.9942,-0.54561,-1.2669e-09,-0.99708,0,0,0.25,-1.1842e-15,0,0.66667
0.9665,0.089648,3.866,-0.61553,-0.74791,0.93555,6.3457,-2.1152,-0.65348,8.4609,2.7944e-07,-0.32674,0,0,0.25,1.7764e-15,0,0.66667
0.76455,0.44707,3.0582,-0.079398,-0.65794,5.7022,0.64751,-0.21584,-1.9778,0.86334,-4.5237e-11,-0.9889,0,0,0.25,-0,-0,0.66667
0.29325,0.24457,1.173,-0.38314,-7.3055,36.664,1.1985,-0.39948,-1.4782,1.5979,1.8328e-11,-0.73908,0,0,0.25,-2.7045e-16,0,0.66667
0.62207,0.93099,2.4883,0.64648,8.3577,13.257,-4.2897,1.4299,-0.51409,-5.7195,-6.3594e-13,-0.25705,0,0,0.25,5.9212e-16,0,0.66667
0.2311,0.31647,0.92438,-0.2753,-5.4204,41.908,0.67862,-0.22621,-1.7309,0.90482,1.3463e-10,-0.86546,0,0,0.25,5.9212e-16,0,0.66667
0.75069,0.24721,3.0028,-0.37919,-3.366,6.4678,3.0363,-1.0121,-1.49,4.0484,-8.2096e-11,-0.745,0,0,0.25,5.9212e-16,0,0.66667
0.16587,0.0021379,0.66347,-0.74679,-15.49,47.756,1.3213,-0.44042,-0.017406,1.7617,-1.7204e-09,-0.0087028,0,0,0.25,-1.1842e-15,0,0.66667
0.75647,0.56323,3.0259,0.094842,0.81103,6.0421,-0.76528,0.25509,-1.9686,-1.0204,3.3583e-11,-0.9843,0,0,0.25,-0,-0,0.66667
0.86859,0.77441,3.4744,0.41161,1.9884,2.4153,-3.8136,1.2712,-1.3972,-5.0848,1.9159e-09,-0.69859,0,0,0.25,1.6985e-15,0,0.66667
0.51951,0.49522,2.078,-0.0071758,-0.10758,19.269,0.039764,-0.013255,-2,0.053019,1.3232e-13,-0.99998,0,0,0.25,-8.8818e-16,0,0.66667
0.065635,0.96551,0.26254,0.69826,14.778,56.648,-0.48886,0.16295,-0.26695,-0.65181,1.2154e-07,-0.13348,0,0,0.25,3.7007e-17,0,0.66667
0.44889,0.18768,1.7956,-0.46848,-7.8137,24.454,2.2432,-0.74773,-1.2206,2.9909,-8.4621e-13,-0.61029,0,0,0.25,-0,-0,0.66667
0.83783,0.79776,3.3513,0.44664,2.6717,3.339,-3.9916,1.3305,-1.2898,-5.3221,6.4137e-10,-0.64489,0,0,0.25,-0,-0,0.66667
0.17975,0.31887,0.71901,-0.27169,-5.4711,46.387,0.52093,-0.17364,-1.7371,0.69458,3.0531e-10,-0.86857,0,0,0.25,-0,-0,0.66667
0.038559,0.64731,0.15424,0.22097,4.5894,59.052,-0.090885,0.030295,-1.8257,-0.12118,-9.8873e-09,-0.91285,0,0,0.25,-3.7007e-17,0,0.66667
0.73269,0.46514,2.9308,-0.052295,-0.48635,7.0723,0.40871,-0.13624,-1.9911,0.54494,-1.2599e-11,-0.99554,0,0,0.25,1.4803e-15,0,0.66667
0.56304,0.50767,2.2522,0.011504,0.1609,16.396,-0.069088,0.023029,-2.0001,-0.092118,-2.0352e-13,-1,0,0,0.25,-0,-0,0.66667
0.042061,0.4233,0.16824,-0.11506,-2.3847,58.731,0.05162,-0.017206,-1.9521,0.068826,2.2754e-07,-0.97607,0,0,0.25,-0,-0,0.66667
0.98489,0.79755,3.9395,0.44633,0.11751,0.45384,-4.6889,1.563,-1.2918,-6.2518,2.5316e-08,-0.64592,0,0,0.25,-1.1842e-15,0,0.66667
0.56933,0.96942,2.2773,0.70413,10.104,16.497,-4.2761,1.4254,-0.23776,-5.7014,1.2657e-13,-0.11888,0,0,0.25,-0,-0,0.66667
0.58516,0.34209,2.3406,-0.23686,-3.1984,15.064,1.4784,-0.4928,-1.8009,1.9712,1.5875e-12,-0.90045,0,0,0.25,-1.4803e-15,0,0.66667
0.78991,0.25661,3.1596,-0.36508,-2.7663,4.8805,3.076,-1.0253,-1.5257,4.1014,-2.4062e-10,-0.76284,0,0,0.25,-0,-0,0.66667
0.90263,0.44197,3.6105,-0.087045,-0.29392,1.3466,0.83808,-0.27936,-1.9733,1.1174,6.178e-09,-0.98665,0,0,0.25,-2.3685e-15,0,0.66667
0.060751,0.48691,0.243,-0.019642,-0.40603,57.034,0.012728,-0.004243,-1.9985,0.016971,-4.6626e-07,-0.99923,0,0,0.25,7.4015e-17,0,0.66667
0.34851,0.42516,1.3941,-0.11226,-2.04,32.053,0.41733,-0.13911,-1.9545,0.55644,9.9015e-13,-0.97723,0,0,0.25,-0,-0,0.66667
0.20009,0.85509,0.80037,0.53263,10.754,44.676,-1.1368,0.37894,-0.99091,-1.5157,-2.3783e-10,-0.49545,0,0,0.25,-0,-0,0.66667
0.46515,0.11181,1.8606,-0.58229,-9.5995,23.37,2.8891,-0.96303,-0.79386,3.8521,-2.5091e-13,-0.39693,0,0,0.25,5.9212e-16,0,0.66667
0.091468,0.023298,0.36587,-0.71505,-15.089,54.337,0.69765,-0.23255,-0.1821,0.9302,-6.2189e-08,-0.091051,0,0,0.25,-0,2.2467e-16,0.66667
0.068086,0.34419,0.27234,-0.23372,-4.8398,56.375,0.16974,-0.056579,-1.8065,0.22632,-1.5935e-08,-0.90325,0,0,0.25,-0,-0,0.66667
0.30089,0.64732,1.2036,0.22098,4.1697,35.976,-0.70923,0.23641,-1.826,-0.94563,-1.6041e-11,-0.913,0,0,0.25,-2.9606e-16,0,0.66667
0.90435,0.165,3.6174,-0.50251,-1.7912,1.7039,4.8474,-1.6158,-1.1022,6.4631,-3.9078e-09,-0.55112,0,0,0.25,-0,-0,0.66667
0.97554,0.09895,3.9022,-0.60157,-0.49495,0.81685,6.2599,-2.0866,-0.71305,8.3465,9.587e-07,-0.35653,0,0,0.25,-0,-0,0.66667
0.76372,0.42414,3.0549,-0.11379,-0.94676,5.7453,0.92696,-0.30899,-1.9537,1.236,-5.6415e-11,-0.97687,0,0,0.25,-0,-0,0.66667
0.00074091,0.7009,0.0029637,0.30134,6.2813,62.488,-0.0023816,0.00079383,-1.6772,-0.0031754,-2.7703e-08,-0.83861,0,0,0.25,-1.1565e-18,0,0.66667
0.73522,0.5078,2.9409,0.011694,0.1078,6.9554,-0.091708,0.030569,-2,-0.12228,6.6707e-12,-0.99999,0,0,0.25,-0,-0,0.66667
0.021993,0.48901,0.08797,-0.016483,-0.34186,60.555,0.0038651,-0.00129,-1.9982,0.0051527,-2.4921e-06,-0.99911,0,0,0.25,-2.6044e-17,0,0.66667
0.16857,0.88915,0.67426,0.58373,11.965,47.454,-1.0496,0.34986,-0.78792,-1.3994,-3.3898e-10,-0.39396,0,0,0.25,-0,-0,0.66667
0.010514,0.5907,0.042056,0.13605,2.8253,61.599,-0.015258,0.0050859,-1.9344,-0.020343,9.2222e-08,-0.96722,0,0,0.25,1.2365e-17,0,0.66667
0.14913,0.66125,0.59651,0.24188,4.9189,49.095,-0.38475,0.12825,-1.7918,-0.51301,-1.0245e-09,-0.89589,0,0,0.25,-0,-0,0.66667
0.68751,0.849,2.75,0.52349,5.7326,9.5708,-3.839,1.2797,-1.0267,-5.1187,2.4056e-12,-0.51333,0,0,0.25,-2.3685e-15,0,0.66667
0.70202,0.66322,2.8081,0.24483,2.5214,8.5878,-1.8333,0.61111,-1.7874,-2.4444,1.8623e-11,-0.89368,0,0,0.25,-0,-0,0.66667
0.37108,0.62406,1.4843,0.18608,3.3213,30.264,-0.73655,0.24552,-1.8777,-0.98207,5.0104e-13,-0.93885,0,0,0.25,-7.4015e-17,0,0.66667
0.73119,0.38961,2.9248,-0.16559,-1.5521,7.1724,1.2915,-0.4305,-1.902,1.722,-3.6813e-11,-0.95098,0,0,0.25,1.1842e-15,0,0.66667
0.8473,0.93495,3.3892,0.65242,3.8334,3.3948,-5.8965,1.9655,-0.48714,-7.8621,2.3282e-09,-0.24357,0,0,0.25,-0,-0,0.66667
0.13036,0.34722,0.52143,-0.22917,-4.6847,50.768,0.31866,-0.10622,-1.8134,0.42487,-2.992e-10,-0.90671,0,0,0.25,2.9606e-16,0,0.66667
0.087407,0.31784,0.34963,-0.27324,-5.6463,54.632,0.25475,-0.084918,-1.7343,0.33967,-4.0288e-09,-0.86716,0,0,0.25,-2.9606e-16,0,0.66667
0.37192,0.38719,1.4877,-0.16922,-3.017,30.193,0.67133,-0.22378,-1.8977,0.89511,-4.9488e-13,-0.94887,0,0,0.25,-0,-0,0.66667
0.40388,0.36851,1.6155,-0.19723,-3.4142,27.704,0.8497,-0.28323,-1.8619,1.1329,-1.3097e-12,-0.93095,0,0,0.25,-2.9606e-16,0,0.66667
0.2764,0.26887,1.1056,-0.3467,-6.6722,38.062,1.0222,-0.34073,-1.5719,1.3629,3.6677e-11,-0.78594,0,0,0.25,-2.9606e-16,0,0.66667
0.75417,0.94955,3.0167,0.67432,6.1281,6.7371,-5.4246,1.8082,-0.38262,-7.2328,6.3602e-12,-0.19131,0,0,0.25,-0,-0,0.66667
0.32179,0.38059,1.2871,-0.17911,-3.3268,34.239,0.61477,-0.20492,-1.8857,0.8197,6.2249e-12,-0.94284,0,0,0.25,-0,-0,0.66667
0.80014,0.32556,3.2006,-0.26167,-1.8743,4.4112,2.2333,-0.74443,-1.756,2.9777,-2.362e-10,-0.87802,0,0,0.25,1.1842e-15,0,0.66667
0.91131,0.010434,3.6452,-0.73435,-2.638,2.0277,7.1383,-2.3794,-0.081945,9.5178,-9.699e-08,-0.040973,0,0,0.25,-4.737e-15,0,0.66667
0.51315,0.34174,2.0526,-0.23739,-3.6062,19.754,1.2994,-0.43313,-1.8005,1.7325,2.8055e-13,-0.90026,0,0,0.25,-7.4015e-16,0,0.66667
0.42942,0.85161,1.7177,0.52741,9.0211,25.943,-2.4158,0.80527,-1.0104,-3.2211,1.0132e-12,-0.5052,0,0,0.25,-0,-0,0.66667
0.091595,0.89346,0.36638,0.59018,12.354,54.299,-0.57662,0.19221,-0.76127,-0.76882,1.5833e-08,-0.38064,0,0,0.25,-0,3.3596e-16,0.66667
0.27368,0.57463,1.0947,0.11194,2.1454,38.24,-0.32678,0.10893,-1.9545,-0.43571,-2.2807e-11,-0.97726,0,0,0.25,-0,-0,0.66667
0.88665,0.22596,3.5466,-0.41106,-1.7076,1.9637,3.8876,-1.2959,-1.399,5.1835,-8.0131e-10,-0.69951,0,0,0.25,2.3685e-15,0,0.66667
0.24594,0.84764,0.98378,0.52147,10.295,40.717,-1.368,0.45601,-1.0334,-1.824,-4.377e-11,-0.51671,0,0,0.25,-0,-0,0.66667
0.62119,0.40113,2.4848,-0.14831,-1.8599,12.87,0.98268,-0.32756,-1.9219,1.3102,5.0454e-13,-0.96095,0,0,0.25,-0,-0,0.66667
0.49501,0.13347,1.98,-0.5498,-8.7067,21.226,2.903,-0.96766,-0.92476,3.8706,-2.4802e-13,-0.46238,0,0,0.25,-0,-0,0.66667
0.094373,0.39387,0.37749,-0.15919,-3.2772,53.996,0.16025,-0.053417,-1.9101,0.21367,2.3322e-09,-0.95503,0,0,0.25,1.4803e-16,0,0.66667
0.89937,0.2333,3.5975,-0.40005,-1.4643,1.6613,3.8378,-1.2793,-1.43,5.1171,-2.291e-09,-0.71499,0,0,0.25,-0,-0,0.66667
0.067771,0.42028,0.27108,-0.11958,-2.4713,56.399,0.086442,-0.028814,-1.9483,0.11526,3.4778e-08,-0.97416,0,0,0.25,-0,-0,0.66667
0.6807,0.99542,2.7228,0.74312,8.4997,10.252,-5.3957,1.7986,-0.036381,-7.1942,-2.0695e-13,-0.018191,0,0,0.25,-0,-0,0.66667
0.972,0.03792,3.888,-0.69312,-0.75751,1.0551,7.1863,-2.3954,-0.29186,9.5817,5.3436e-06,-0.14593,0,0,0.25,-0,-0,0.66667
0.70937,0.60707,2.8375,0.16061,1.6127,8.1887,-1.2152,0.40508,-1.9074,-1.6203,1.8776e-11,-0.95369,0,0,0.25,-0,-0,0.66667
0.32591,0.44267,1.3036,-0.085998,-1.5903,33.887,0.29896,-0.099654,-1.9741,0.39861,2.9454e-12,-0.98707,0,0,0.25,-0,-0,0.66667
0.07344,0.089115,0.29376,-0.61633,-12.961,55.933,0.48281,-0.16094,-0.64944,0.64374,1.3475e-07,-0.32472,0,0,0.25,-7.4015e-17,0,0.66667
0.57974,0.45462,2.3189,-0.068069,-0.9247,15.347,0.42093,-0.14031,-1.9834,0.56124,3.4039e-13,-0.99168,0,0,0.25,-0,-0,0.66667
0.73352,0.54604,2.9341,0.069061,0.64065,7.0378,-0.54035,0.18012,-1.9831,-0.72046,1.7661e-11,-0.99154,0,0,0.25,1.1842e-15,0,0.66667
0.35885,0.30163,1.4354,-0.29756,-5.3843,31.271,1.139,-0.37966,-1.6855,1.5186,-5.2169e-13,-0.84273,0,0,0.25,-0,-0,0.66667
0.65375,0.45072,2.615,-0.073922,-0.8603,11.018,0.51548,-0.17183,-1.9802,0.68731,-1.0536e-12,-0.99011,0,0,0.25,-0,-0,0.66667
0.56659,0.28236,2.2664,-0.32645,-4.5743,16.277,1.973,-0.65766,-1.6218,2.6306,1.1057e-12,-0.81092,0,0,0.25,2.3685e-15,0,0.66667
0.034106,0.81002,0.13643,0.46503,9.7421,59.466,-0.16918,0.056393,-1.2318,-0.22557,2.8807e-08,-0.61592,0,0,0.25,-8.3267e-17,0,0.66667
0.92069,0.71045,3.6828,0.31568,0.87429,1.135,-3.1002,1.0334,-1.646,-4.1336,-3.6056e-09,-0.82299,0,0,0.25,1.1842e-15,0,0.66667
0.38001,0.39284,1.52,-0.16074,-2.8445,29.553,0.65155,-0.21718,-1.9073,0.86874,-7.7288e-13,-0.95366,0,0,0.25,-5.9212e-16,0,0.66667
0.3794,0.47358,1.5176,-0.039633,-0.70074,29.584,0.16039,-0.053464,-1.9945,0.21386,4.1897e-14,-0.99724,0,0,0.25,-0,-0,0.66667
0.84636,0.95139,3.3854,0.67708,4.0246,3.4717,-6.1126,2.0375,-0.36957,-8.1501,1.0357e-09,-0.18479,0,0,0.25,-1.1842e-15,0,0.66667
0.48428,0.74198,1.9371,0.36298,5.7653,21.83,-1.875,0.625,-1.5322,-2.5,1.0081e-13,-0.76611,0,0,0.25,5.9212e-16,0,0.66667
0.45107,0.58382,1.8043,0.12573,2.0653,24.131,-0.60496,0.20165,-1.9437,-0.80661,7.217e-13,-0.97186,0,0,0.25,-0,-0,0.66667
0.63986,0.077903,2.5594,-0.63315,-7.8709,12.236,4.3213,-1.4404,-0.57473,5.7617,7.061e-13,-0.28736,0,0,0.25,1.1842e-15,0,0.66667
0.21177,0.37721,0.84709,-0.18419,-3.6522,43.567,0.41606,-0.13869,-1.8796,0.55475,1.0572e-10,-0.93982,0,0,0.25,-0,-0,0.66667
0.5283,0.65954,2.1132,0.2393,3.5549,18.728,-1.3485,0.44951,-1.797,-1.798,-8.8074e-13,-0.89848,0,0,0.25,1.1842e-15,0,0.66667
0.66857,0.73875,2.6743,0.35812,4.0637,10.369,-2.5539,0.8513,-1.5436,-3.4052,3.0507e-12,-0.77178,0,0,0.25,-0,-0,0.66667
0.53878,0.53461,2.1551,0.051909,0.7558,17.978,-0.29832,0.09944,-1.9905,-0.39776,-3.5466e-13,-0.99524,0,0,0.25,-0,-0,0.66667
0.70876,0.51033,2.835,0.015493,0.15544,8.186,-0.11713,0.039042,-1.9984,-0.15617,2.5822e-12,-0.99922,0,0,0.25,2.3685e-15,0,0.66667
0.59854,0.27236,2.3941,-0.34145,-4.5168,14.312,2.18,-0.72666,-1.585,2.9066,1.8758e-12,-0.79248,0,0,0.25,-0,-0,0.66667
0.84141,0.97782,3.3656,0.71673,4.429,3.7,-6.4327,2.1442,-0.17343,-8.5769,1.3015e-10,-0.086716,0,0,0.25,-0,-0,0.66667
0.87917,0.69178,3.5167,0.28767,1.2503,2.0097,-2.6977,0.89923,-1.7059,-3.5969,-1.5036e-09,-0.85297,0,0,0.25,-0,-0,0.66667
0.097839,0.91423,0.39136,0.62134,13.015,53.746,-0.64844,0.21615,-0.62702,-0.86459,8.5956e-11,-0.31351,0,0,0.25,-0,-0,0.66667
0.25859,0.81313,1.0344,0.46969,9.1835,39.617,-1.2956,0.43185,-1.2162,-1.7274,-4.3041e-11,-0.6081,0,0,0.25,-0,-0,0.66667
0.054656,0.72675,0.21862,0.34013,7.0767,57.598,-0.19829,0.066098,-1.5881,-0.26439,9.1246e-10,-0.79404,0,0,0.25,-0,-0,0.66667
0.22889,0.72613,0.91557,0.3392,6.6997,42.114,-0.82816,0.27605,-1.5905,-1.1042,-1.4044e-10,-0.79525,0,0,0.25,-0,-0,0.66667
0.72092,0.92251,2.8837,0.63376,6.3878,8.1243,-4.8735,1.6245,-0.57158,-6.498,3.1246e-12,-0.28579,0,0,0.25,-0,-0,0.66667
0.078545,0.26805,0.31418,-0.34793,-7.2174,55.439,0.2915,-0.097167,-1.5698,0.38867,-1.8055e-09,-0.78489,0,0,0.25,1.4803e-16,0,0.66667
0.15512,0.29818,0.62048,-0.30273,-6.1551,48.571,0.50091,-0.16697,-1.6741,0.66788,4.444e-10,-0.83705,0,0,0.25,2.9606e-16,0,0.66667
0.77077,0.53238,3.0831,0.04857,0.39238,5.4436,-0.39932,0.13311,-1.9922,-0.53243,5.2591e-12,-0.99612,0,0,0.25,-2.3685e-15,0,0.66667
0.44433,0.61235,1.7773,0.16852,2.792,24.64,-0.79871,0.26624,-1.8981,-1.0649,7.8215e-13,-0.94905,0,0,0.25,5.9212e-16,0,0.66667
0.29012,0.25853,1.1605,-0.36221,-6.9147,36.917,1.1209,-0.37363,-1.5329,1.4945,2.1947e-11,-0.76645,0,0,0.25,-0,-0,0.66667
0.64398,0.052056,2.5759,-0.67192,-8.3122,12.066,4.6155,-1.5385,-0.39438,6.154,3.7392e-13,-0.19719,0,0,0.25,5.9212e-16,0,0.66667
0.88694,0.78263,3.5478,0.42394,1.7612,1.9738,-4.0108,1.3369,-1.3618,-5.3477,1.5567e-09,-0.68088,0,0,0.25,-2.3685e-15,0,0.66667
0.037605,0.21276,0.15042,-0.43086,-9.0103,59.147,0.17283,-0.05761,-1.3396,0.23044,-1.1908e-08,-0.66982,0,0,0.25,1.8504e-17,0,0.66667
0.69309,0.34974,2.7724,-0.22539,-2.3789,9.0171,1.6663,-0.55544,-1.8191,2.2217,-1.3217e-11,-0.90956,0,0,0.25,-0,-0,0.66667
0.66855,0.79927,2.6742,0.4489,5.1282,10.457,-3.2012,1.0671,-1.283,-4.2683,1.1675e-12,-0.64149,0,0,0.25,-1.1842e-15,0,0.66667
0.86801,0.95452,3.472,0.68178,3.517,2.8864,-6.3124,2.1041,-0.34633,-8.4166,-2.2203e-11,-0.17316,0,0,0.25,1.5631e-16,0,0.66667
0.19637,0.81264,0.78549,0.46895,9.4519,44.978,-0.98228,0.32743,-1.2188,-1.3097,-2.1807e-10,-0.60939,0,0,0.25,-0,-0,0.66667
0.71279,0.15627,2.8512,-0.5156,-5.2523,8.3295,3.9202,-1.3067,-1.0556,5.2269,-1.0942e-11,-0.52778,0,0,0.25,-0,-0,0.66667
0.1039,0.056099,0.4156,-0.66585,-13.969,53.214,0.73795,-0.24598,-0.42332,0.98393,-2.9373e-08,-0.21166,0,0,0.25,7.4015e-17,0,0.66667
0.056626,0.54676,0.22651,0.070139,1.4509,57.408,-0.042365,0.014122,-1.9816,-0.056487,-1.5396e-07,-0.99079,0,0,0.25,-0,-0,0.66667
0.6808,0.40741,2.7232,-0.13889,-1.5114,9.6018,1.0086,-0.3362,-1.9319,1.3448,-6.2904e-12,-0.96595,0,0,0.25,-0,-0,0.66667
0.022635,0.96403,0.090539,0.69604,14.785,60.516,-0.16805,0.05602,-0.27727,-0.22407,5.2276e-06,-0.13864,0,0,0.25,-0,-0,0.66667
0.044299,0.56065,0.1772,0.090972,1.8847,58.527,-0.042987,0.014329,-1.9715,-0.057316,-5.7125e-07,-0.98574,0,0,0.25,9.2519e-17,0,0.66667
0.036953,0.65012,0.14781,0.22519,4.6779,59.198,-0.088761,0.029587,-1.8194,-0.11835,-3.6722e-11,-0.90971,0,0,0.25,3.7007e-17,0,0.66667
0.46541,0.98725,1.8616,0.73087,12.193,23.513,-3.6283,1.2094,-0.1002,-4.8378,1.2568e-13,-0.050098,0,0,0.25,-0,-0,0.66667
0.75787,0.97817,3.0315,0.71726,6.4771,6.6643,-5.7983,1.9328,-0.17006,-7.7311,2.0099e-12,-0.085028,0,0,0.25,-2.3685e-15,0,0.66667
0.9922,0.35965,3.9688,-0.21052,0.043334,0.12756,2.228,-0.74268,-1.8414,2.9707,2.1444e-08,-0.92071,0,0,0.25,-1.1842e-15,0,0.66667
0.22661,0.051699,0.90643,-0.67245,-13.532,42.447,1.6254,-0.5418,-0.39137,2.1672,8.4929e-12,-0.19569,0,0,0.25,-2.9606e-16,0,0.66667
0.79238,0.9928,3.1695,0.73919,5.856,5.37,-6.2477,2.0826,-0.056943,-8.3303,1.8481e-11,-0.028472,0,0,0.25,5.9212e-16,2.258e-16,0.66667
0.79525,0.63474,3.181,0.20211,1.4756,4.5514,-1.7144,0.57147,-1.8548,-2.2859,1.7745e-10,-0.92741,0,0,0.25,-0,-0,0.66667
0.87224,0.73008,3.489,0.34512,1.6024,2.2421,-3.211,1.0703,-1.5762,-4.2813,5.0399e-10,-0.78809,0,0,0.25,-0,-0,0.66667
0.31426,0.1988,1.257,-0.4518,-8.5187,34.955,1.5145,-0.50482,-1.2741,2.0193,4.4059e-12,-0.63707,0,0,0.25,-0,-0,0.66667
0.13293,0.97676,0.5317,0.71514,14.949,50.647,-1.014,0.33799,-0.18101,-1.352,3.3725e-10,-0.090506,0,0,0.25,-0,-0,0.66667
0.7967,0.4663,3.1868,-0.050555,-0.36458,4.4435,0.42962,-0.14321,-1.9924,0.57283,3.0527e-11,-0.99618,0,0,0.25,-2.9606e-16,0,0.66667
0.56746,0.72882,2.2699,0.34323,4.8061,16.233,-2.0775,0.69251,-1.5805,-2.7701,-1.7526e-12,-0.79026,0,0,0.25,-0,-0,0.66667
0.41465,0.95374,1.6586,0.68061,11.953,27.191,-3.0103,1.0034,-0.35195,-4.0138,3.8636e-13,-0.17597,0,0,0.25,5.9212e-16,0,0.66667
0.058642,0.28368,0.23457,-0.32448,-6.7445,57.236,0.20296,-0.067655,-1.6262,0.27062,-7.9676e-10,-0.8131,0,0,0.25,-1.4803e-16,0,0.66667
0.0065569,0.5739,0.026228,0.11085,2.3014,61.959,-0.0077526,0.0025846,-1.9555,-0.010337,5.2352e-07,-0.97773,0,0,0.25,-0,-0,0.66667
0.31602,0.75669,1.2641,0.38504,7.2283,34.778,-1.2979,0.43264,-1.4728,-1.7306,-6.9537e-12,-0.73641,0,0,0.25,-0,-0,0.66667
0.27146,0.081049,1.0858,-0.62843,-12.309,38.612,1.8196,-0.60655,-0.59498,2.4262,4.4703e-12,-0.29749,0,0,0.25,-0,-0,0.66667
0.47572,0.10702,1.9029,-0.58947,-9.598,22.621,2.9912,-0.99707,-0.76358,3.9883,-2.8688e-13,-0.38179,0,0,0.25,-0,-0,0.66667
0.92361,0.70004,3.6944,0.30007,0.79361,1.066,-2.9562,0.98541,-1.6797,-3.9416,2.2445e-11,-0.83985,0,0,0.25,-0,-0,0.66667
0.41668,0.22976,1.6667,-0.40536,-6.9789,26.817,1.8017,-0.60056,-1.415,2.4023,-1.8022e-12,-0.70752,0,0,0.25,-0,-0,0.66667
0.28788,0.10823,1.1515,-0.58766,-11.365,37.214,1.8046,-0.60152,-0.77115,2.4061,4.0691e-12,-0.38557,0,0,0.25,-0,-0,0.66667
0.84525,0.91623,3.381,0.62435,3.6917,3.4009,-5.6291,1.8764,-0.61408,-7.5055,-5.5363e-10,-0.30704,0,0,0.25,-0,-0,0.66667
0.30695,0.78329,1.2278,0.42494,8.043,35.544,-1.3913,0.46377,-1.3583,-1.8551,-8.6892e-12,-0.67917,0,0,0.25,-0,-0,0.66667
0.91558,0.72742,3.6623,0.34113,1.019,1.2588,-3.3315,1.1105,-1.5856,-4.4421,1.702e-10,-0.79281,0,0,0.25,-0,-0,0.66667
0.86341,0.41234,3.4536,-0.13149,-0.63963,2.3201,1.211,-0.40367,-1.9385,1.6147,2.666e-09,-0.96923,0,0,0.25,-0,-0,0.66667
0.63882,0.45407,2.5553,-0.068897,-0.83014,11.844,0.46947,-0.15649,-1.9829,0.62596,-1.8457e-13,-0.99145,0,0,0.25,-1.1842e-15,0,0.66667
0.74768,0.11919,2.9907,-0.57122,-5.2339,6.8396,4.5556,-1.5185,-0.84017,6.0741,-2.6011e-11,-0.42008,0,0,0.25,5.9212e-16,0,0.66667
0.15732,0.51803,0.62929,0.02704,0.54682,48.35,-0.045376,0.015125,-1.9974,-0.060501,-3.7481e-11,-0.9987,0,0,0.25,5.9212e-16,0,0.66667
0.60287,0.40279,2.4115,-0.14582,-1.8983,13.95,0.9377,-0.31257,-1.9245,1.2503,8.4227e-13,-0.96223,0,0,0.25,7.7061e-16,0,0.66667
0.32704,0.77317,1.3081,0.40975,7.6388,33.888,-1.4294,0.47646,-1.4034,-1.9058,-2.8175e-12,-0.7017,0,0,0.25,-0,-0,0.66667
0.48868,0.32935,1.9547,-0.25597,-4.0247,21.462,1.3343,-0.44475,-1.7663,1.779,-3.495e-13,-0.88315,0,0,0.25,5.9212e-16,0,0.66667
0.22539,0.050825,0.90154,-0.67376,-13.568,42.553,1.6198,-0.53993,-0.38507,2.1597,9.8388e-12,-0.19253,0,0,0.25,-2.9606e-16,0,0.66667
0.90196,0.60304,3.6078,0.15455,0.52849,1.3873,-1.4869,0.49565,-1.9146,-1.9826,-5.9352e-09,-0.95731,0,0,0.25,2.3685e-15,0,0.66667
0.41153,0.42271,1.6461,-0.11593,-1.9883,27.098,0.50889,-0.16963,-1.9514,0.67852,-8.9101e-13,-0.97568,0,0,0.25,5.9212e-16,0,0.66667
0.47673,0.70617,1.9069,0.30926,4.9483,22.336,-1.5726,0.52421,-1.659,-2.0968,5.0415e-13,-0.8295,0,0,0.25,-5.9212e-16,0,0.66667
0.7214,0.15836,2.8856,-0.51246,-5.0836,7.9237,3.9434,-1.3145,-1.0671,5.2578,-1.5014e-11,-0.53355,0,0,0.25,-0,-0,0.66667
0.1222,0.17644,0.48879,-0.48533,-10.035,51.539,0.6326,-0.21087,-1.1622,0.84347,2.7537e-09,-0.58109,0,0,0.25,1.4803e-16,0,0.66667
0.50307,0.68793,2.0123,0.28189,4.3505,20.469,-1.5126,0.50421,-1.7186,-2.0168,-5.8398e-14,-0.85928,0,0,0.25,-0,-0,0.66667
0.81315,0.36156,3.2526,-0.20766,-1.389,3.9149,1.8011,-0.60037,-1.8468,2.4015,-2.0714e-10,-0.9234,0,0,0.25,-0,-0,0.66667
0.67734,0.69818,2.7094,0.29728,3.2861,9.8632,-2.1478,0.71594,-1.6851,-2.8637,6.5488e-12,-0.84254,0,0,0.25,-0,-0,0.66667
0.32165,0.80098,1.2866,0.45147,8.4669,34.348,-1.549,0.51632,-1.2745,-2.0653,-3.1684e-12,-0.63723,0,0,0.25,-0,-0,0.66667
0.71067,0.039029,2.8427,-0.69146,-7.2406,8.6983,5.2415,-1.7472,-0.29947,6.9887,-3.7259e-13,-0.14974,0,0,0.25,-0,-0,0.66667
0.93444,0.58484,3.7378,0.12727,0.27223,0.75718,-1.2685,0.42284,-1.9422,-1.6913,3.2902e-08,-0.9711,0,0,0.25,-0,-0,0.66667
0.89478,0.50953,3.5791,0.014295,0.05246,1.5083,-0.13643,0.045478,-1.9988,-0.18191,4.3846e-08,-0.99941,0,0,0.25,-0,-0,0.66667
0.74223,0.14996,2.9689,-0.52505,-4.8741,7.0071,4.1569,-1.3856,-1.0194,5.5426,-3.265e-11,-0.5097,0,0,0.25,-5.9212e-16,0,0.66667
0.2661,0.93073,1.0644,0.64609,12.71,39.074,-1.8339,0.61129,-0.51648,-2.4452,-3.3203e-12,-0.25824,0,0,0.25,-2.9606e-16,0,0.66667
0.37249,0.86234,1.4899,0.54351,9.8357,30.325,-2.1595,0.71983,-0.94932,-2.8793,1.648e-12,-0.47466,0,0,0.25,-4.4111e-16,0,0.66667
0.55842,0.31668,2.2337,-0.27499,-3.8982,16.768,1.6379,-0.54598,-1.7314,2.1839,1.1238e-12,-0.86568,0,0,0.25,-0,-0,0.66667
0.38105,0.070133,1.5242,-0.6448,-11.66,29.736,2.6208,-0.8736,-0.52122,3.4944,-7.4518e-13,-0.26061,0,0,0.25,1.1842e-15,0,0.66667
0.45575,0.84494,1.823,0.51742,8.5873,23.992,-2.5153,0.83844,-1.0491,-3.3537,6.6014e-13,-0.52457,0,0,0.25,-0,-0,0.66667
0.79353,0.18086,3.1741,-0.47872,-3.6164,4.8808,4.052,-1.3507,-1.1852,5.4027,-2.0684e-10,-0.59258,0,0,0.25,1.1842e-15,0,0.66667
0.10394,0.71371,0.41576,0.32057,6.6121,53.148,-0.35541,0.11847,-1.6345,-0.47388,6.7229e-10,-0.81726,0,0,0.25,1.4803e-16,0,0.66667
0.973,0.92263,3.892,0.63395,0.61494,0.90985,-6.5795,2.1932,-0.57034,-8.7726,3.7128e-07,-0.28517,0,0,0.25,-0,-0,0.66667
0.70462,0.8528,2.8185,0.52921,5.5295,8.7369,-3.9775,1.3258,-1.0044,-5.3033,6.5046e-12,-0.50219,0,0,0.25,-0,-0,0.66667
0.86473,0.52076,3.4589,0.031139,0.14944,2.2591,-0.28722,0.095741,-1.9959,-0.38296,-3.5868e-10,-0.99793,0,0,0.25,-0,-0,0.66667
0.78168,0.68811,3.1267,0.28216,2.2001,5.1191,-2.3526,0.78421,-1.7187,-3.1369,1.6072e-10,-0.85933,0,0,0.25,-0,-0,0.66667
0.43218,0.39892,1.7287,-0.15162,-2.5455,25.541,0.69894,-0.23298,-1.9179,0.93192,-9.0178e-13,-0.95894,0,0,0.25,-5.9212e-16,0,0.66667
0.94251,0.66326,3.77,0.24489,0.45579,0.70287,-2.462,0.82067,-1.7864,-3.2827,2.3614e-08,-0.89322,0,0,0.25,-0,-0,0.66667
0.25309,0.76368,1.0123,0.39553,7.7309,40.056,-1.0678,0.35592,-1.4433,-1.4237,-6.9983e-11,-0.72163,0,0,0.25,-0,-0,0.66667
0.046248,0.68612,0.18499,0.27918,5.8028,58.356,-0.13772,0.045908,-1.7244,-0.18363,-8.1464e-09,-0.8622,0,0,0.25,2.535e-17,0,0.66667
0.096878,0.058385,0.38751,-0.66242,-13.914,53.841,0.68453,-0.22818,-0.4402,0.9127,2.3193e-08,-0.2201,0,0,0.25,3.7007e-17,0,0.66667
0.20074,0.92202,0.80295,0.63304,12.854,44.662,-1.3555,0.45182,-0.57479,-1.8073,-8.4919e-11,-0.28739,0,0,0.25,-2.9606e-16,0,0.66667
0.53908,0.92003,2.1563,0.63004,9.4267,18.336,-3.6228,1.2076,-0.58764,-4.8305,-2.2871e-13,-0.29382,0,0,0.25,-0,-0,0.66667
0.2236,0.96428,0.89441,0.69642,14.058,42.719,-1.661,0.55368,-0.27559,-2.2147,-7.9512e-12,-0.13779,0,0,0.25,-4.4409e-16,0,0.66667
0.83532,0.38831,3.3413,-0.16754,-0.9874,3.162,1.4928,-0.4976,-1.8992,1.9904,-1.5694e-10,-0.94962,0,0,0.25,-1.1842e-15,0,0.66667
0.0093387,0.58342,0.037355,0.12514,2.5984,61.706,-0.012465,0.0041549,-1.9436,-0.01662,-1.2578e-07,-0.97178,0,0,0.25,-9.2519e-18,0,0.66667
0.7459,0.015099,2.9836,-0.72735,-6.8585,7.1844,5.787,-1.929,-0.11826,7.716,3.1086e-15,-0.059132,0,0,0.25,2.3685e-15,0,0.66667
0.96901,0.0082624,3.876,-0.73761,-0.94615,1.194,7.624,-2.5413,-0.066145,10.165,-4.4012e-06,-0.033072,0,0,0.25,-0,-0,0.66667
0.26718,0.74307,1.0687,0.36461,7.0606,38.848,-1.0391,0.34637,-1.5277,-1.3855,-4.865e-11,-0.76385,0,0,0.25,-4.4409e-16,0,0.66667
0.62382,0.32965,2.4953,-0.25552,-3.1981,12.766,1.7002,-0.56675,-1.7678,2.267,1.0936e-12,-0.8839,0,0,0.25,-0,-0,0.66667
0.71478,0.52636,2.8591,0.039541,0.38957,7.9002,-0.30147,0.10049,-1.9946,-0.40197,6.1721e-12,-0.99728,0,0,0.25,5.9212e-16,0,0.66667
0.32696,0.7978,1.3078,0.4467,8.3427,33.913,-1.5579,0.51929,-1.2905,-2.0772,-2.0439e-12,-0.64523,0,0,0.25,2.0492e-16,0,0.66667
0.43313,0.90443,1.7325,0.60665,10.392,25.736,-2.8027,0.93424,-0.69206,-3.737,5.9752e-13,-0.34603,0,0,0.25,2.2204e-16,0,0.66667
0.73441,0.54863,2.9376,0.072945,0.67469,6.9984,-0.57143,0.19048,-1.9814,-0.7619,1.9489e-11,-0.99069,0,0,0.25,-0,-0,0.66667
0.13115,0.57227,0.5246,0.10841,2.2111,50.688,-0.15166,0.050554,-1.9575,-0.20222,-2.0682e-09,-0.97875,0,0,0.25,-0,-0,0.66667
0.14369,0.47577,0.57474,-0.036347,-0.73826,49.565,0.055708,-0.018569,-1.9953,0.074277,-6.3983e-10,-0.99765,0,0,0.25,-0,-0,0.66667
0.37541,0.69567,1.5016,0.2935,5.234,29.956,-1.1753,0.39176,-1.6943,-1.567,1.7263e-12,-0.84713,0,0,0.25,-0,-0,0.66667
0.22841,0.19772,0.91364,-0.45343,-9.0006,42.193,1.1047,-0.36824,-1.2683,1.4729,1.1393e-10,-0.63413,0,0,0.25,5.9212e-16,0,0.66667
0.30699,0.88371,1.2279,0.57556,10.983,35.623,-1.8847,0.62823,-0.8216,-2.5129,-1.7368e-12,-0.4108,0,0,0.25,-5.9212e-16,0,0.66667
0.15007,0.072026,0.60026,-0.64196,-13.287,49.106,1.0276,-0.34253,-0.53402,1.3701,1.3719e-09,-0.26701,0,0,0.25,-0,-0,0.66667
0.096636,0.18496,0.38654,-0.47256,-9.821,53.826,0.48711,-0.16237,-1.2067,0.64948,4.1864e-09,-0.60335,0,0,0.25,1.8504e-16,0,0.66667
0.91598,0.64756,3.6639,0.22134,0.64222,1.1413,-2.1626,0.72085,-1.8252,-2.8834,-2.5961e-09,-0.91261,0,0,0.25,1.1842e-15,0,0.66667
0.34589,0.11261,1.3836,-0.58109,-10.778,32.464,2.144,-0.71465,-0.79916,2.8586,-1.3611e-12,-0.39958,0,0,0.25,-5.9212e-16,0,0.66667
0.56597,0.13305,2.2639,-0.55042,-7.8329,16.514,3.3229,-1.1076,-0.9226,4.4305,7.474e-13,-0.4613,0,0,0.25,-1.1842e-15,0,0.66667
0.5472,0.55488,2.1888,0.082323,1.1829,17.428,-0.4805,0.16017,-1.9765,-0.64067,-4.9891e-13,-0.98827,0,0,0.25,-0,-0,0.66667
0.45036,0.74018,1.8014,0.36028,5.9654,24.275,-1.7307,0.5769,-1.5383,-2.3076,1.2204e-12,-0.76913,0,0,0.25,-0,-0,0.66667
0.74782,0.86528,2.9913,0.54792,5.003,6.7987,-4.3706,1.4569,-0.9325,-5.8275,3.1887e-11,-0.46625,0,0,0.25,-5.9212e-16,0,0.66667
0.33158,0.45399,1.3263,-0.069014,-1.2705,33.422,0.24409,-0.081363,-1.9825,0.32545,1.7396e-12,-0.99124,0,0,0.25,-5.9212e-16,0,0.66667
0.89248,0.95819,3.5699,0.68728,2.9193,2.3099,-6.5428,2.1809,-0.32043,-8.7237,1.1677e-08,-0.16022,0,0,0.25,1.1842e-15,0,0.66667
0.068033,0.51241,0.27213,0.018622,0.38458,56.374,-0.013514,0.0045046,-1.9979,-0.018019,-1.248e-07,-0.99897,0,0,0.25,-0,-0,0.66667
0.57489,0.96135,2.2996,0.69202,9.8239,16.134,-4.2436,1.4145,-0.29718,-5.6581,7.2387e-14,-0.14859,0,0,0.25,-0,-2.1407e-16,0.66667
0.33905,0.43135,1.3562,-0.10297,-1.8853,32.817,0.37241,-0.12414,-1.9621,0.49655,1.6143e-12,-0.98106,0,0,0.25,2.9606e-16,0,0.66667
0.3639,0.66764,1.4556,0.25147,4.524,30.852,-0.97609,0.32536,-1.7745,-1.3015,5.5306e-13,-0.88726,0,0,0.25,-0,-0,0.66667
0.3051,0.37781,1.2204,-0.18329,-3.4456,35.618,0.59649,-0.19883,-1.8807,0.79531,1.2544e-11,-0.94035,0,0,0.25,1.1842e-15,0,0.66667
0.60359,0.94863,2.4143,0.67295,9.0495,14.37,-4.3326,1.4442,-0.38904,-5.7768,-3.6193e-13,-0.19452,0,0,0.25,-0,-0,0.66667
0.23441,0.46749,0.93763,-0.048765,-0.95484,41.592,0.12193,-0.040643,-1.9933,0.16257,1.224e-11,-0.99664,0,0,0.25,2.9606e-16,0,0.66667
0.29431,0.43836,1.1772,-0.092459,-1.7485,36.503,0.29025,-0.096751,-1.9707,0.387,1.113e-11,-0.98536,0,0,0.25,1.1842e-15,0,0.66667
0.28549,0.42049,1.142,-0.11926,-2.269,37.245,0.36318,-0.12106,-1.9487,0.48424,1.7352e-11,-0.97436,0,0,0.25,-0,-0,0.66667
0.0067954,0.58364,0.027182,0.12547,2.6053,61.937,-0.0090943,0.0030315,-1.9433,-0.012126,1.0047e-07,-0.97163,0,0,0.25,-9.2519e-18,0,0.66667
0.37162,0.0048918,1.4865,-0.74266,-13.647,30.562,2.9439,-0.98129,-0.039164,3.9251,2.4669e-13,-0.019582,0,0,0.25,-0,-1.5636e-16,0.66667
0.048897,0.076676,0.19559,-0.63499,-13.409,58.144,0.33119,-0.1104,-0.5661,0.44159,1.2072e-07,-0.28305,0,0,0.25,-0,-0,0.66667
0.87438,0.14969,3.4975,-0.52546,-2.4835,2.4314,4.9008,-1.6336,-1.0189,6.5345,2.5419e-10,-0.50947,0,0,0.25,-5.9212e-16,0,0.66667
0.72182,0.92676,2.8873,0.64014,6.4396,8.0932,-4.9287,1.6429,-0.54266,-6.5716,3.1131e-12,-0.27133,0,0,0.25,5.9212e-16,0,0.66667
0.59531,0.62135,2.3812,0.18202,2.4071,14.419,-1.1558,0.38528,-1.883,-1.5411,-1.5526e-12,-0.94152,0,0,0.25,1.1842e-15,0,0.66667
0.74388,0.72732,2.9755,0.34099,3.0913,6.7249,-2.7056,0.90187,-1.586,-3.6075,6.8193e-11,-0.793,0,0,0.25,-0,-0,0.66667
0.90109,0.89498,3.6044,0.59247,2.2466,1.93,-5.6946,1.8982,-0.75122,-7.5928,1.8163e-08,-0.37561,0,0,0.25,-1.1842e-15,0,0.66667
0.69409,0.53893,2.7764,0.058402,0.61181,8.9089,-0.43239,0.14413,-1.9873,-0.57652,4.8935e-12,-0.99367,0,0,0.25,-0,-0,0.66667
0.59076,0.78029,2.363,0.42044,5.671,14.847,-2.6494,0.88312,-1.3725,-3.5325,-1.8916e-12,-0.68624,0,0,0.25,-1.3323e-15,0,0.66667
0.12426,0.25482,0.49704,-0.36778,-7.5618,51.332,0.48746,-0.16249,-1.52,0.64995,1.053e-09,-0.75998,0,0,0.25,-0,-0,0.66667
0.40458,0.13421,1.6183,-0.54868,-9.6404,27.839,2.3679,-0.78929,-0.92969,3.1571,-1.1744e-12,-0.46484,0,0,0.25,-0,-0,0.66667
0.57895,0.47578,2.3158,-0.036332,-0.49414,15.392,0.22437,-0.074789,-1.9959,0.29915,1.1324e-14,-0.99793,0,0,0.25,-0,-0,0.66667
0.60284,0.39327,2.4114,-0.16009,-2.085,13.956,1.0294,-0.34315,-1.908,1.3726,1.1557e-12,-0.95398,0,0,0.25,-1.8981e-15,0,0.66667
0.96078,0.57742,3.8431,0.11613,0.12441,0.37485,-1.1901,0.39671,-1.951,-1.5869,2.2666e-07,-0.97552,0,0,0.25,-0,-0,0.66667
0.2055,0.25097,0.822,-0.37355,-7.4686,44.153,0.81881,-0.27294,-1.505,1.0918,2.5939e-10,-0.7525,0,0,0.25,-0,-0,0.66667
0.66315,0.28458,2.6526,-0.32312,-3.7083,10.627,2.2857,-0.76189,-1.6288,3.0475,-2.3532e-12,-0.81442,0,0,0.25,-2.3685e-15,0,0.66667
0.25643,0.71292,1.0257,0.31938,6.213,39.747,-0.87359,0.2912,-1.637,-1.1648,-6.9415e-11,-0.81851,0,0,0.25,-0,-0,0.66667
0.41776,0.90282,1.671,0.60424,10.517,26.884,-2.6925,0.89751,-0.7022,-3.5901,6.819e-13,-0.3511,0,0,0.25,-6.1647e-16,0,0.66667
0.97195,0.79455,3.8878,0.44182,0.35305,0.56275,-4.5806,1.5269,-1.3054,-6.1074,-8.2985e-09,-0.65271,0,0,0.25,-0,-0,0.66667
0.33108,0.21938,1.3243,-0.42092,-7.8272,33.564,1.4865,-0.4955,-1.3711,1.982,1.447e-12,-0.68555,0,0,0.25,1.1842e-15,0,0.66667
0.36202,0.80588,1.4481,0.45882,8.3379,31.097,-1.7718,0.59059,-1.2516,-2.3624,1.6913e-12,-0.62581,0,0,0.25,5.9212e-16,0,0.66667
0.43957,0.88818,1.7583,0.58227,9.8867,25.236,-2.7301,0.91004,-0.79427,-3.6401,6.366e-13,-0.39714,0,0,0.25,-1.1842e-15,0,0.66667
0.040668,0.2298,0.16267,-0.4053,-8.4648,58.869,0.17582,-0.058605,-1.4151,0.23442,-3.5119e-09,-0.70756,0,0,0.25,-0,-0,0.66667
0.39857,0.98348,1.5943,0.72522,12.986,28.459,-3.0832,1.0277,-0.12897,-4.111,-1.0214e-14,-0.064487,0,0,0.25,9.44e-16,0,0.66667
0.61899,0.75301,2.4759,0.37952,4.8297,13.132,-2.5058,0.83526,-1.488,-3.3411,-2.0164e-12,-0.74402,0,0,0.25,-0,-0,0.66667
0.57808,0.34732,2.3123,-0.22902,-3.1319,15.499,1.4122,-0.47073,-1.8148,1.8829,1.4078e-12,-0.9074,0,0,0.25,-0,-0,0.66667
0.87341,0.69227,3.4937,0.2884,1.3157,2.1562,-2.6868,0.89561,-1.7049,-3.5824,8.4805e-12,-0.85246,0,0,0.25,-0,-0,0.66667
0.64119,0.48266,2.5647,-0.02601,-0.3116,11.706,0.17789,-0.059296,-1.9977,0.23718,-2.5449e-13,-0.99887,0,0,0.25,-0,-0,0.66667
0.55696,0.28943,2.2278,-0.31585,-4.4964,16.886,1.8764,-0.62547,-1.6448,2.5019,1.2494e-12,-0.82239,0,0,0.25,-1.1842e-15,0,0.66667
0.64065,0.67751,2.5626,0.26626,3.2132,11.817,-1.8195,0.60651,-1.7484,-2.426,-3.7415e-13,-0.87422,0,0,0.25,5.9212e-16,0,0.66667
0.047617,0.81433,0.19047,0.47149,9.8693,58.244,-0.23948,0.079826,-1.211,-0.3193,2.8951e-08,-0.60549,0,0,0.25,-1.4803e-16,0,0.66667
0.99612,0.68887,3.9845,0.28331,-0.09489,0.1654,-3.0102,1.0034,-1.7154,-4.0136,9.6622e-09,-0.85769,0,0,0.25,2.3685e-15,0,0.66667
0.15171,0.22945,0.60682,-0.40583,-8.291,48.894,0.65671,-0.2189,-1.4138,0.87561,6.2986e-10,-0.7069,0,0,0.25,-0,-0,0.66667
0.41845,0.81781,1.6738,0.47671,8.2234,26.73,-2.1278,0.70926,-1.1921,-2.837,1.4748e-12,-0.59606,0,0,0.25,-0,-0,0.66667
0.29525,0.80281,1.181,0.45422,8.6776,36.528,-1.4305,0.47683,-1.2665,-1.9073,-1.2297e-11,-0.63324,0,0,0.25,-0,-0,0.66667
0.57722,0.81039,2.3089,0.46559,6.4563,15.722,-2.8666,0.95555,-1.2305,-3.8222,-1.5978e-12,-0.61527,0,0,0.25,1.3323e-15,0,0.66667
0.55956,0.38471,2.2382,-0.17294,-2.4386,16.649,1.0322,-0.34406,-1.8934,1.3763,9.1804e-13,-0.94671,0,0,0.25,-1.1842e-15,0,0.66667
0.35211,0.38676,1.4085,-0.16986,-3.0805,31.773,0.63799,-0.21266,-1.8965,0.85065,8.8884e-13,-0.94826,0,0,0.25,-0,-0,0.66667
0.97363,0.5925,3.8945,0.13875,0.075888,0.24157,-1.4409,0.48032,-1.9322,-1.9213,4.4364e-07,-0.96609,0,0,0.25,-1.3323e-15,0,0.66667
0.75127,0.074357,3.0051,-0.63846,-5.8305,6.7954,5.1164,-1.7055,-0.55063,6.8218,-1.2005e-11,-0.27532,0,0,0.25,1.1842e-15,0,0.66667
0.88984,0.47627,3.5594,-0.035598,-0.13738,1.6237,0.33788,-0.11263,-1.996,0.45051,1.0044e-08,-0.998,0,0,0.25,-0,-0,0.66667
0.45541,0.35388,1.8216,-0.21918,-3.5892,23.839,1.0647,-0.35491,-1.829,1.4196,-9.7544e-13,-0.91452,0,0,0.25,1.1842e-15,0,0.66667
0.59941,0.38751,2.3976,-0.16873,-2.2129,14.166,1.0788,-0.3596,-1.8979,1.4384,1.0328e-12,-0.94897,0,0,0.25,-0,-0,0.66667
0.41345,0.26606,1.6538,-0.3509,-6.0464,27.032,1.5475,-0.51585,-1.5612,2.0634,-2.035e-12,-0.7806,0,0,0.25,-0,-0,0.66667
0.30426,0.81819,1.217,0.47729,9.0739,35.793,-1.549,0.51633,-1.1897,-2.0653,-6.7705e-12,-0.59486,0,0,0.25,-0,-0,0.66667
0.52547,0.88331,2.1019,0.57497,8.7408,19.174,-3.2227,1.0742,-0.82404,-4.2969,-4.5564e-13,-0.41202,0,0,0.25,-0,-0,0.66667
0.19097,0.46084,0.76387,-0.058738,-1.1733,45.377,0.11965,-0.039883,-1.9875,0.15953,5.7651e-11,-0.99377,0,0,0.25,1.4803e-16,0,0.66667
0.2141,0.36253,0.85641,-0.2062,-4.0861,43.368,0.47091,-0.15697,-1.8481,0.62788,1.3392e-10,-0.92405,0,0,0.25,-2.9606e-16,0,0.66667
0.51079,0.3033,2.0431,-0.29505,-4.5066,19.944,1.6075,-0.53584,-1.69,2.1434,1.481e-13,-0.84498,0,0,0.25,-5.9212e-16,0,0.66667
0.013852,0.4555,0.055408,-0.066746,-1.385,61.295,0.0098638,-0.0032897,-1.984,0.013151,-2.5853e-06,-0.99199,0,0,0.25,-0,-0,0.66667
0.44549,0.60343,1.7819,0.15514,2.5662,24.55,-0.73721,0.24574,-1.9137,-0.98295,8.5371e-13,-0.95683,0,0,0.25,-0,-0,0.66667
0.9967,0.13602,3.9868,-0.54597,0.072978,0.54781,5.8045,-1.9348,-0.93972,7.7393,-1.693e-08,-0.46986,0,0,0.25,-0,-2.7034e-16,0.66667
0.82268,0.39534,3.2907,-0.157,-0.99488,3.5653,1.3777,-0.45923,-1.9116,1.8369,-2.6893e-10,-0.95582,0,0,0.25,-0,-0,0.66667
0.083461,0.43763,0.33384,-0.093562,-1.9284,54.978,0.083293,-0.027765,-1.9697,0.11106,-2.8234e-08,-0.98484,0,0,0.25,-0,-0,0.66667
0.65589,0.91258,2.6236,0.61887,7.4077,11.342,-4.3297,1.4432,-0.63901,-5.7729,-1.0267e-12,-0.31951,0,0,0.25,-0,1.9127e-16,0.66667
0.22539,0.92737,0.90157,0.64106,12.88,42.535,-1.5412,0.51374,-0.53806,-2.055,-2.0983e-11,-0.26903,0,0,0.25,-2.9606e-16,0,0.66667
0.11796,0.88753,0.47182,0.5813,12.093,51.939,-0.73139,0.2438,-0.79762,-0.97519,-1.8564e-09,-0.39881,0,0,0.25,-0,-0,0.66667
0.34868,0.49436,1.3947,-0.0084663,-0.15371,32.032,0.031488,-0.010496,-1.9996,0.041984,-3.8712e-13,-0.99981,0,0,0.25,2.9606e-16,0,0.66667
0.67717,0.62839,2.7087,0.19259,2.1196,9.8105,-1.3911,0.46369,-1.8683,-1.8548,6.6348e-12,-0.93415,0,0,0.25,-2.3685e-15,0,0.66667
0.55076,0.47968,2.2031,-0.030475,-0.43518,17.189,0.17904,-0.059679,-1.9962,0.23872,-3.7192e-14,-0.99809,0,0,0.25,-0,-0,0.66667
0.043963,0.78433,0.17585,0.42649,8.9126,58.572,-0.2,0.066666,-1.3539,-0.26666,4.6636e-09,-0.67694,0,0,0.25,-0,-0,0.66667
0.85675,0.0087876,3.427,-0.73682,-4.1658,3.306,6.7336,-2.2445,-0.069581,8.9781,5.7139e-10,-0.034791,0,0,0.25,-0,-2.3937e-16,0.66667
0.4776,0.76365,1.9104,0.39548,6.3459,22.326,-2.0147,0.67156,-1.443,-2.6863,3.3951e-13,-0.72148,0,0,0.25,-0,-0,0.66667
0.85678,0.40213,3.4271,-0.1468,-0.7505,2.5113,1.3416,-0.44721,-1.9239,1.7889,3.2284e-10,-0.96194,0,0,0.25,-1.4803e-15,0,0.66667
0.18765,0.18459,0.75062,-0.47311,-9.5714,45.742,0.947,-0.31567,-1.2055,1.2627,5.0237e-10,-0.60276,0,0,0.25,-3.7007e-16,0,0.66667
0.083733,0.59121,0.33493,0.13681,2.8211,54.955,-0.1222,0.040732,-1.9337,-0.16293,-1.5971e-08,-0.96687,0,0,0.25,1.6653e-16,0,0.66667
0.51597,0.75327,2.0639,0.37991,5.7822,19.642,-2.0909,0.69696,-1.4881,-2.7878,-4.7207e-13,-0.74404,0,0,0.25,-0,-0,0.66667
0.45454,0.079215,1.8182,-0.63118,-10.576,24.185,3.0603,-1.0201,-0.58339,4.0803,-1.6431e-13,-0.2917,0,0,0.25,-5.9212e-16,0,0.66667
0.013894,0.80385,0.055578,0.45578,9.5537,61.296,-0.06755,0.022517,-1.2615,-0.090066,-2.5496e-08,-0.63076,0,0,0.25,9.2519e-18,0,0.66667
0.039355,0.13732,0.15742,-0.54401,-11.437,58.997,0.22837,-0.076123,-0.9468,0.30449,-1.5233e-07,-0.4734,0,0,0.25,-0,-0,0.66667
0.093633,0.42198,0.37453,-0.11702,-2.408,54.061,0.11688,-0.03896,-1.9516,0.15584,2.1742e-09,-0.97578,0,0,0.25,-0,-0,0.66667
0.040677,0.40013,0.16271,-0.14981,-3.1068,58.857,0.065002,-0.021668,-1.9199,0.08667,-2.4453e-07,-0.95994,0,0,0.25,3.7007e-17,0,0.66667
0.17574,0.76862,0.70296,0.40294,8.1633,46.768,-0.75532,0.25177,-1.4221,-1.0071,-4.9689e-10,-0.71106,0,0,0.25,-0,-0,0.66667
0.57554,0.29493,2.3021,-0.3076,-4.2392,15.701,1.8884,-0.62946,-1.6632,2.5178,1.5052e-12,-0.83159,0,0,0.25,-0,-0,0.66667
0.47675,0.54357,1.907,0.065361,1.0396,22.257,-0.33238,0.11079,-1.9839,-0.44318,3.9829e-14,-0.99194,0,0,0.25,-0,-0,0.66667
0.97977,0.095186,3.9191,-0.60722,-0.3968,0.79157,6.346,-2.1153,-0.68963,8.4613,7.4162e-07,-0.34481,0,0,0.25,-0,-0,0.66667
0.070737,0.36442,0.28295,-0.20337,-4.2069,56.134,0.15345,-0.051149,-1.8521,0.20459,2.6181e-08,-0.92606,0,0,0.25,7.4015e-17,0,0.66667
0.86742,0.45709,3.4697,-0.06437,-0.30272,2.1914,0.59558,-0.19853,-1.9844,0.79411,2.1068e-09,-0.99219,0,0,0.25,-0,-0,0.66667
0.57852,0.75118,2.3141,0.37678,5.1834,15.564,-2.325,0.77501,-1.4969,-3.1,-1.8145e-12,-0.74844,0,0,0.25,-0,-0,0.66667
0.87648,0.76618,3.5059,0.39927,1.8074,2.1968,-3.7328,1.2443,-1.433,-4.9771,1.0287e-09,-0.71652,0,0,0.25,1.1842e-15,0,0.66667
0.055714,0.13538,0.22285,-0.54694,-11.482,57.52,0.32503,-0.10834,-0.9356,0.43338,8.6481e-08,-0.4678,0,0,0.25,-0,-0,0.66667
0.099154,0.065607,0.39661,-0.65159,-13.671,53.635,0.68914,-0.22971,-0.49064,0.91886,-1.2663e-08,-0.24532,0,0,0.25,2.9606e-16,0,0.66667
0.86309,0.33672,3.4524,-0.24493,-1.2051,2.3943,2.2549,-0.75162,-1.7866,3.0065,1.0369e-09,-0.89329,0,0,0.25,5.9212e-16,0,0.66667
0.57038,0.17495,2.2815,-0.48757,-6.8533,16.17,2.9664,-0.98881,-1.1538,3.9552,1.0936e-12,-0.57691,0,0,0.25,-0,-0,0.66667
0.55849,0.65161,2.234,0.22742,3.2179,16.739,-1.3548,0.45161,-1.8163,-1.8064,-1.2876e-12,-0.90813,0,0,0.25,-0,-0,0.66667
0.013013,0.89615,0.052051,0.59422,12.546,61.38,-0.082479,0.027493,-0.74432,-0.10997,-2.5744e-07,-0.37216,0,0,0.25,-1.8504e-17,0,0.66667
0.64225,0.11172,2.569,-0.58241,-7.1648,12.033,3.9899,-1.33,-0.79379,5.3199,1.261e-12,-0.39689,0,0,0.25,-0,-0,0.66667
0.84766,0.59015,3.3907,0.13523,0.73569,2.7705,-1.2227,0.40757,-1.9353,-1.6303,1.6645e-09,-0.96766,0,0,0.25,-1.4803e-15,0,0.66667
0.99613,0.38683,3.9845,-0.16975,0.065943,0.074261,1.8036,-0.60121,-1.897,2.4048,-1.5399e-07,-0.94849,0,0,0.25,-2.3685e-15,0,0.66667
0.43295,0.31054,1.7318,-0.28419,-4.7843,25.527,1.3124,-0.43748,-1.7134,1.7499,-1.4345e-12,-0.85669,0,0,0.25,-8.1416e-16,0,0.66667
0.31141,0.19017,1.2456,-0.46475,-8.7862,35.196,1.5438,-0.51459,-1.2332,2.0583,4.7926e-12,-0.61658,0,0,0.25,-0,-0,0.66667
0.40477,0.16796,1.6191,-0.49806,-8.722,27.786,2.1504,-0.7168,-1.118,2.8672,-1.4813e-12,-0.55898,0,0,0.25,-0,-0,0.66667
0.22803,0.4193,0.9121,-0.12104,-2.3792,42.148,0.29441,-0.098136,-1.947,0.39254,6.825e-11,-0.9735,0,0,0.25,-0,-0,0.66667
0.2261,0.81613,0.90439,0.4742,9.433,42.4,-1.1436,0.38121,-1.2005,-1.5248,-1.145e-10,-0.60025,0,0,0.25,-0,-0,0.66667
0.43364,0.22349,1.7346,-0.41477,-7.0166,25.546,1.9185,-0.63951,-1.3885,2.558,-1.4883e-12,-0.69424,0,0,0.25,-0,-0,0.66667
0.68454,0.32333,2.7382,-0.265,-2.869,9.4721,1.935,-0.64499,-1.75,2.58,-9.5977e-12,-0.87498,0,0,0.25,-0,-0,0.66667
0.66074,0.85717,2.6429,0.53576,6.2867,10.971,-3.776,1.2587,-0.97868,-5.0346,-8.36e-13,-0.48934,0,0,0.25,-1.1842e-15,0,0.66667
0.77249,0.27764,3.09,-0.33354,-2.7133,5.524,2.7484,-0.91612,-1.6045,3.6645,-1.4614e-10,-0.80223,0,0,0.25,-2.9606e-16,0,0.66667
0.21681,0.25066,0.86726,-0.37401,-7.4399,43.169,0.86497,-0.28832,-1.5039,1.1533,2.0397e-10,-0.75197,0,0,0.25,5.9212e-16,0,0.66667
0.72871,0.40707,2.9148,-0.1394,-1.3162,7.2751,1.0835,-0.36117,-1.9315,1.4447,-3.0212e-11,-0.96577,0,0,0.25,-2.3685e-15,0,0.66667
0.79525,0.59001,3.181,0.13502,0.98255,4.5191,-1.1453,0.38178,-1.936,-1.5271,7.7357e-11,-0.96799,0,0,0.25,2.9606e-16,0,0.66667
0.56181,0.50053,2.2473,0.00080059,0.011221,16.475,-0.0047977,0.0015992,-2.0017,-0.0063969,3.5784e-13,-1.0008,0,0,0.25,-4.737e-15,0,0.66667
0.46567,0.96338,1.8627,0.69507,11.556,23.452,-3.4525,1.1508,-0.28242,-4.6034,1.2657e-13,-0.14121,0,0,0.25,2.9606e-16,1.6847e-16,0.66667
0.1582,0.082714,0.6328,-0.62593,-12.908,48.382,1.0562,-0.35208,-0.60686,1.4083,-2.2829e-11,-0.30343,0,0,0.25,-0,-0,0.66667
0.046453,0.33579,0.18581,-0.24631,-5.1151,58.336,0.12205,-0.040682,-1.7849,0.16273,-1.196e-08,-0.89243,0,0,0.25,7.4015e-17,0,0.66667
0.46383,0.13498,1.8553,-0.54753,-9.0185,23.432,2.7089,-0.90298,-0.93348,3.6119,-5.1559e-13,-0.46674,0,0,0.25,-0,-0,0.66667
0.6543,0.80689,2.6172,0.46033,5.4488,11.228,-3.2127,1.0709,-1.247,-4.2836,-8.7574e-13,-0.6235,0,0,0.25,3.8742e-16,0,0.66667
0.21255,0.23422,0.85019,-0.39868,-7.954,43.547,0.90386,-0.30129,-1.4339,1.2051,2.0462e-10,-0.71696,0,0,0.25,-0,-0,0.66667
0.39995,0.31306,1.5998,-0.28042,-4.8846,28.036,1.1963,-0.39876,-1.721,1.5951,-1.9769e-12,-0.86052,0,0,0.25,-0,-0,0.66667
0.49764,0.13385,1.9906,-0.54923,-8.6667,21.043,2.9154,-0.97179,-0.92742,3.8872,-3.022e-13,-0.46371,0,0,0.25,-0,-0,0.66667
0.9549,0.56247,3.8196,0.093712,0.12243,0.44138,-0.95452,0.31817,-1.9703,-1.2727,6.1793e-07,-0.98513,0,0,0.25,1.5728e-16,0,0.66667
0.87745,0.93564,3.5098,0.65347,3.1158,2.5899,-6.1161,2.0387,-0.48265,-8.1547,1.8161e-08,-0.24133,0,0,0.25,-1.7764e-15,0,0.66667
0.87405,0.9128,3.4962,0.61921,3.003,2.6064,-5.773,1.9243,-0.63731,-7.6973,-4.1274e-09,-0.31866,0,0,0.25,-0,-0,0.66667
0.9966,0.1661,3.9864,-0.50086,0.089344,0.4647,5.3243,-1.7748,-1.1077,7.0991,-1.324e-07,-0.55386,0,0,0.25,-0,-2.5557e-16,0.66667
0.77345,0.46386,3.0938,-0.054206,-0.43315,5.3367,0.44721,-0.14907,-1.9894,0.59628,-1.8842e-11,-0.99468,0,0,0.25,2.9606e-16,0,0.66667
0.20306,0.40338,0.81224,-0.14493,-2.883,44.323,0.31392,-0.10464,-1.9267,0.41856,6.2609e-11,-0.96337,0,0,0.25,7.4015e-17,0,0.66667
0.83989,0.6164,3.3595,0.1746,1.001,3.0237,-1.5642,0.52142,-1.8913,-2.0857,7.7349e-11,-0.94564,0,0,0.25,-1.1842e-15,0,0.66667
0.16625,0.80773,0.66499,0.4616,9.408,47.621,-0.81856,0.27285,-1.2423,-1.0914,-3.4253e-10,-0.62117,0,0,0.25,1.4803e-16,0,0.66667
0.88909,0.90186,3.5563,0.6028,2.5699,2.2138,-5.7167,1.9056,-0.70876,-7.6222,1.2809e-08,-0.35438,0,0,0.25,1.4803e-15,0,0.66667
0.33858,0.2391,1.3543,-0.39135,-7.2256,32.941,1.4134,-0.47112,-1.4547,1.8845,9.7722e-13,-0.72737,0,0,0.25,-0,-0,0.66667
0.28794,0.9023,1.1518,0.60344,11.682,37.218,-1.8534,0.61781,-0.70524,-2.4712,-3.2667e-12,-0.35262,0,0,0.25,2.9606e-16,0,0.66667
0.60622,0.68511,2.4249,0.27767,3.6069,13.81,-1.7955,0.59851,-1.7265,-2.394,-1.7577e-12,-0.86327,0,0,0.25,-1.4803e-15,0,0.66667
0.060612,0.36258,0.24245,-0.20613,-4.2701,57.051,0.13327,-0.044422,-1.8487,0.17769,-2.5071e-08,-0.92437,0,0,0.25,7.4015e-17,0,0.66667
0.90709,0.46791,3.6284,-0.048132,-0.15398,1.2441,0.4657,-0.15523,-1.9933,0.62094,-7.635e-08,-0.99666,0,0,0.25,4.4409e-16,0,0.66667
0.38107,0.19756,1.5243,-0.45366,-8.1049,29.592,1.844,-0.61468,-1.2675,2.4587,-2.1172e-12,-0.63376,0,0,0.25,1.1842e-15,0,0.66667
0.78998,0.8593,3.1599,0.53894,4.1702,5.0983,-4.5414,1.5138,-0.96627,-6.0552,1.4928e-10,-0.48313,0,0,0.25,-0,-0,0.66667
0.71055,0.77097,2.8422,0.40645,4.1257,8.3086,-3.0806,1.0269,-1.4118,-4.1074,1.9903e-11,-0.70591,0,0,0.25,-0,-0,0.66667
0.70415,0.27606,2.8166,-0.3359,-3.4563,8.5502,2.5229,-0.84098,-1.5996,3.3639,-1.9323e-11,-0.79978,0,0,0.25,2.9606e-16,0,0.66667
0.53263,0.1956,2.1305,-0.45659,-6.8097,18.582,2.5941,-0.86469,-1.259,3.4588,4.8517e-13,-0.62951,0,0,0.25,1.1842e-15,0,0.66667
0.46668,0.88395,1.8667,0.57593,9.4728,23.254,-2.8669,0.95563,-0.82066,-3.8225,2.8244e-13,-0.41033,0,0,0.25,-0,-0,0.66667
0.6454,0.052621,2.5816,-0.67107,-8.2749,11.988,4.6198,-1.5399,-0.39824,6.1597,4.543e-13,-0.19912,0,0,0.25,-0,-0,0.66667
0.69158,0.00065314,2.7663,-0.74902,-8.3355,9.7203,5.5254,-1.8418,-0.0060848,7.3672,-1.8563e-13,-0.0030424,0,0,0.25,-0,-0,0.66667
0.23582,0.80525,0.94327,0.45787,9.0572,41.557,-1.1517,0.38391,-1.2549,-1.5356,-9.5255e-11,-0.62747,0,0,0.25,1.4803e-16,0,0.66667
0.75381,0.46888,3.0152,-0.046674,-0.4028,6.1456,0.37529,-0.1251,-1.9933,0.50039,-2.9369e-11,-0.99664,0,0,0.25,-0,-0,0.66667
0.93662,0.86543,3.7465,0.54814,1.2864,1.195,-5.4763,1.8254,-0.93197,-7.3017,2.0514e-08,-0.46599,0,0,0.25,1.1842e-15,-2.7938e-16,0.66667
0.8151,0.45436,3.2604,-0.068458,-0.45055,3.7922,0.5952,-0.1984,-1.9829,0.7936,-1.0631e-10,-0.99146,0,0,0.25,-0,-0,0.66667
0.73061,0.045553,2.9224,-0.68167,-6.7106,7.7667,5.3124,-1.7708,-0.34718,7.0832,-1.5561e-12,-0.17359,0,0,0.25,-0,-0,0.66667
0.82171,0.12038,3.2868,-0.56942,-3.8048,4.0353,4.9909,-1.6636,-0.84702,6.6546,-4.6164e-10,-0.42351,0,0,0.25,-2.9606e-16,0,0.66667
0.0069549,0.31145,0.02782,-0.28282,-5.8918,61.924,0.020982,-0.0069939,-1.7161,0.027975,-7.9159e-09,-0.85805,0,0,0.25,-2.8912e-18,0,0.66667
0.17482,0.55718,0.6993,0.085764,1.7243,46.801,-0.15993,0.053311,-1.9741,-0.21324,-2.133e-10,-0.98705,0,0,0.25,-1.4803e-16,0,0.66667
0.34198,0.2631,1.3679,-0.35535,-6.5335,32.65,1.2962,-0.43208,-1.5508,1.7283,8.783e-13,-0.77542,0,0,0.25,-0,-0,0.66667
0.73352,0.46297,2.9341,-0.055542,-0.51513,7.0356,0.43457,-0.14486,-1.9897,0.57943,-1.351e-11,-0.99487,0,0,0.25,5.9212e-16,0,0.66667
0.97837,0.14085,3.9135,-0.53873,-0.33962,0.66698,5.6222,-1.8741,-0.96714,7.4962,-7.4196e-08,-0.48357,0,0,0.25,-0,-0,0.66667
0.73288,0.21193,2.9315,-0.43211,-4.0987,7.3037,3.378,-1.126,-1.3365,4.504,-4.028e-11,-0.66825,0,0,0.25,-5.9212e-16,0,0.66667
0.47899,0.50457,1.916,0.006852,0.10864,22.093,-0.035008,0.011669,-1.9998,-0.046678,1.3345e-13,-0.99991,0,0,0.25,-0,-0,0.66667
0.92105,0.61173,3.6842,0.1676,0.44939,1.0112,-1.6466,0.54887,-1.9002,-2.1955,8.0016e-09,-0.9501,0,0,0.25,-0,-0,0.66667
0.3777,0.35179,1.5108,-0.22231,-3.9477,29.751,0.89563,-0.29854,-1.8242,1.1942,-9.816e-13,-0.91212,0,0,0.25,-0,-0,0.66667
0.64169,0.93411,2.5668,0.65117,8.078,12.161,-4.4571,1.4857,-0.49339,-5.9427,-7.1321e-13,-0.24669,0,0,0.25,-2.9606e-16,0,0.66667
0.0015045,0.80301,0.0060179,0.45452,9.5287,62.419,-0.007294,0.0024313,-1.2656,-0.0097253,1.4123e-08,-0.63278,0,0,0.25,-2.313e-18,5.0071e-16,0.66667
0.17936,0.05775,0.71744,-0.66338,-13.613,46.538,1.2691,-0.42305,-0.43514,1.6922,2.472e-10,-0.21757,0,0,0.25,7.4015e-17,0,0.66667
0.29484,0.44,1.1794,-0.089995,-1.7013,36.459,0.28303,-0.094344,-1.9721,0.37737,1.0749e-11,-0.98606,0,0,0.25,1.1842e-15,0,0.66667
0.38699,0.65195,1.548,0.22793,4.0136,29.024,-0.94087,0.31362,-1.8155,-1.2545,1.3876e-12,-0.90777,0,0,0.25,-0,-0,0.66667
0.45982,0.095491,1.8393,-0.60676,-10.085,23.778,2.976,-0.99201,-0.69135,3.968,-4.0323e-13,-0.34567,0,0,0.25,1.1842e-15,0,0.66667
0.79672,0.59366,3.1869,0.14049,1.0156,4.4672,-1.1939,0.39797,-1.9318,-1.5919,4.5939e-11,-0.96588,0,0,0.25,-3.7933e-16,0,0.66667
0.27985,0.23424,1.1194,-0.39865,-7.6716,37.792,1.19,-0.39666,-1.4348,1.5866,2.8616e-11,-0.71741,0,0,0.25,-5.9212e-16,0,0.66667
0.082662,0.06807,0.33065,-0.6479,-13.631,55.111,0.57126,-0.19042,-0.50742,0.76169,3.6003e-08,-0.25371,0,0,0.25,-0,-0,0.66667
0.52137,0.56691,2.0855,0.10036,1.5016,19.151,-0.55815,0.18605,-1.9642,-0.7442,-3.7648e-13,-0.98208,0,0,0.25,-1.1842e-15,0,0.66667
0.98115,0.53115,3.9246,0.046732,0.010072,0.14074,-0.48908,0.16303,-1.9934,-0.65211,-1.3029e-06,-0.99668,0,0,0.25,-1.3508e-15,0,0.66667
0.40076,0.89873,1.603,0.59809,10.583,28.172,-2.5567,0.85223,-0.7277,-3.4089,8.2712e-13,-0.36385,0,0,0.25,2.9606e-16,0,0.66667
0.25719,0.32695,1.0288,-0.25957,-5.038,39.666,0.71211,-0.23737,-1.7594,0.94948,6.3682e-11,-0.87972,0,0,0.25,-0,-0,0.66667
0.77634,0.79751,3.1054,0.44627,3.6142,5.4927,-3.6955,1.2318,-1.2911,-4.9274,1.4044e-10,-0.64554,0,0,0.25,-1.1842e-15,0,0.66667
0.61558,0.36792,2.4623,-0.19812,-2.5174,13.216,1.3009,-0.43363,-1.86,1.7345,9.831e-13,-0.93,0,0,0.25,-0,-0,0.66667
0.0075483,0.74472,0.030193,0.36707,7.6676,61.87,-0.029555,0.0098517,-1.5207,-0.039407,-6.1318e-09,-0.76033,0,0,0.25,4.6259e-18,0,0.66667
0.98621,0.73741,3.9448,0.35612,0.04726,0.31667,-3.7462,1.2487,-1.5489,-4.9949,1.0194e-08,-0.77446,0,0,0.25,1.1842e-15,0,0.66667
0.48892,0.69282,1.9557,0.28922,4.5516,21.461,-1.5083,0.50278,-1.7025,-2.0111,4.6829e-13,-0.85127,0,0,0.25,-1.1842e-15,0,0.66667
0.30402,0.41774,1.2161,-0.12339,-2.3189,35.697,0.40013,-0.13338,-1.945,0.5335,9.6263e-12,-0.9725,0,0,0.25,-0,-0,0.66667
0.66508,0.70055,2.6603,0.30082,3.4316,10.508,-2.1341,0.71135,-1.6773,-2.8454,3.0347e-12,-0.83866,0,0,0.25,1.1842e-15,0,0.66667
0.28556,0.65862,1.1422,0.23793,4.5372,37.261,-0.72474,0.24158,-1.7992,-0.96632,-2.8422e-11,-0.8996,0,0,0.25,-0,-0,0.66667
0.46354,0.45538,1.8542,-0.066924,-1.0822,23.21,0.3309,-0.1103,-1.9833,0.4412,-4.4226e-13,-0.99163,0,0,0.25,-5.9212e-16,0,0.66667
0.65182,0.80568,2.6073,0.45852,5.4582,11.361,-3.188,1.0627,-1.2523,-4.2506,-9.4191e-13,-0.62614,0,0,0.25,-0,-0,0.66667
0.12188,0.20821,0.48753,-0.43769,-9.0304,51.557,0.56903,-0.18968,-1.3185,0.75871,1.6522e-09,-0.65925,0,0,0.25,-0,-0,0.66667
0.46722,0.709,1.8689,0.3135,5.0771,23.021,-1.5624,0.5208,-1.6506,-2.0832,6.9988e-13,-0.82532,0,0,0.25,-0,-0,0.66667
0.73521,0.73287,2.9408,0.3493,3.2643,7.1151,-2.7393,0.91309,-1.5662,-3.6524,5.3104e-11,-0.78312,0,0,0.25,-1.1842e-15,0,0.66667
0.96052,0.8993,3.8421,0.59895,0.86249,0.96758,-6.1366,2.0455,-0.724,-8.1821,3.9452e-07,-0.362,0,0,0.25,-1.7764e-15,0,0.66667
0.021389,0.63735,0.085558,0.20602,4.282,60.611,-0.047004,0.015668,-1.8482,-0.062672,1.0223e-07,-0.92412,0,0,0.25,-3.7007e-17,0,0.66667
0.83248,0.66735,3.3299,0.25102,1.5139,3.3035,-2.229,0.743,-1.7754,-2.972,1.516e-10,-0.88768,0,0,0.25,-0,-0,0.66667
0.93915,0.50438,3.7566,0.00657,0.012703,0.6545,-0.065815,0.021938,-2.0005,-0.087754,-1.0019e-06,-1.0003,0,0,0.25,-0,-0,0.66667
0.98582,0.81944,3.9433,0.47916,0.12246,0.49982,-5.0386,1.6795,-1.184,-6.7181,1.1094e-10,-0.59202,0,0,0.25,-0,-0,0.66667
0.93783,0.14503,3.7513,-0.53245,-1.2144,1.1479,5.3264,-1.7755,-0.99231,7.1019,1.429e-08,-0.49615,0,0,0.25,-0,-0,0.66667
0.12925,0.31695,0.51701,-0.27458,-5.6212,50.872,0.37856,-0.12619,-1.7321,0.50475,2.1186e-10,-0.86604,0,0,0.25,-2.9606e-16,0,0.66667
0.88602,0.45458,3.5441,-0.068132,-0.27304,1.7197,0.64391,-0.21464,-1.9827,0.85855,-3.2628e-09,-0.99136,0,0,0.25,-1.1842e-15,0,0.66667
0.15286,0.39646,0.61145,-0.15531,-3.1492,48.753,0.25324,-0.084413,-1.9139,0.33765,1.0131e-09,-0.95694,0,0,0.25,1.4803e-16,0,0.66667
0.36052,0.3097,1.4421,-0.28545,-5.1558,31.134,1.0977,-0.3659,-1.7114,1.4636,-2.7922e-13,-0.85569,0,0,0.25,-7.4015e-16,0,0.66667
0.36116,0.066237,1.4446,-0.65064,-11.976,31.302,2.5065,-0.83551,-0.49556,3.3421,-9.015e-13,-0.24778,0,0,0.25,-0,-0,0.66667
0.27979,0.66117,1.1191,0.24175,4.6272,37.747,-0.72147,0.24049,-1.7929,-0.96196,-3.42e-11,-0.89643,0,0,0.25,-0,-0,0.66667
0.3548,0.85379,1.4192,0.53068,9.7415,31.716,-2.0084,0.66947,-0.99811,-2.6779,1.6074e-12,-0.49905,0,0,0.25,-0,-0,0.66667
0.543,0.856,2.172,0.53399,7.8794,17.972,-3.0929,1.031,-0.98554,-4.1239,-6.3394e-13,-0.49277,0,0,0.25,-0,-0,0.66667
0.078517,0.23343,0.31407,-0.39986,-8.3108,55.447,0.33489,-0.11163,-1.4317,0.44652,-2.4431e-09,-0.71585,0,0,0.25,-0,-0,0.66667
0.37287,0.14908,1.4915,-0.52638,-9.5123,30.283,2.0936,-0.69785,-1.015,2.7914,-1.9456e-12,-0.50752,0,0,0.25,-0,-0,0.66667
0.58322,0.82772,2.3329,0.49158,6.7564,15.376,-3.0581,1.0194,-1.1399,-4.0775,-1.4673e-12,-0.56997,0,0,0.25,-0,-0,0.66667
0.13425,0.012047,0.537,-0.73193,-15.313,50.536,1.0481,-0.34937,-0.094348,1.3975,-5.8141e-09,-0.047174,0,0,0.25,-0,-0,0.66667
0.24299,0.89676,0.97195,0.59514,11.818,41.005,-1.5425,0.51417,-0.73994,-2.0567,-2.4547e-11,-0.36997,0,0,0.25,-0,-0,0.66667
0.31278,0.075172,1.2511,-0.63724,-12.161,35.189,2.126,-0.70868,-0.55644,2.8347,-3.7881e-13,-0.27822,0,0,0.25,5.9212e-16,0,0.66667
0.074534,0.26455,0.29814,-0.35318,-7.3322,55.801,0.28078,-0.093595,-1.5559,0.37438,-4.1747e-09,-0.77794,0,0,0.25,-0,-0,0.66667
0.80769,0.34351,3.2308,-0.23473,-1.6173,4.1224,2.0223,-0.67411,-1.8049,2.6964,-2.2058e-10,-0.90247,0,0,0.25,-1.4803e-15,0,0.66667
0.2634,0.12764,1.0536,-0.55854,-10.944,39.252,1.5693,-0.52308,-0.89164,2.0923,1.6177e-11,-0.44582,0,0,0.25,-0,-2.4811e-16,0.66667
0.4106,0.45806,1.6424,-0.062905,-1.0793,27.163,0.27551,-0.091836,-1.9854,0.36735,-3.2699e-13,-0.99268,0,0,0.25,-0,-0,0.66667
0.40541,0.83519,1.6217,0.50278,8.8017,27.741,-2.1742,0.72475,-1.1016,-2.899,1.775e-12,-0.55078,0,0,0.25,2.9606e-16,0,0.66667
0.30474,0.99385,1.2189,0.74077,14.325,35.927,-2.4079,0.80263,-0.048555,-3.2105,-6.1551e-13,-0.024277,0,0,0.25,5.9212e-16,0,0.66667
0.12774,0.27162,0.51095,-0.34257,-7.0309,51.017,0.46677,-0.15559,-1.5825,0.62236,5.0249e-10,-0.79126,0,0,0.25,-1.4803e-16,0,0.66667
0.89356,0.27205,3.5742,-0.34193,-1.3122,1.7214,3.2591,-1.0864,-1.5841,4.3454,5.9375e-10,-0.79204,0,0,0.25,-1.1842e-15,0,0.66667
0.68139,0.3169,2.7256,-0.27465,-3,9.639,1.9962,-0.66539,-1.7317,2.6616,-8.3294e-12,-0.86587,0,0,0.25,-0,-0,0.66667
0.26689,0.1912,1.0676,-0.46321,-9.0107,38.911,1.3187,-0.43956,-1.238,1.7582,3.3622e-11,-0.61901,0,0,0.25,-0,-0,0.66667
0.092431,0.84151,0.36972,0.51226,10.676,54.21,-0.50506,0.16835,-1.0681,-0.67341,1.2531e-08,-0.53406,0,0,0.25,2.3091e-16,0,0.66667
0.1235,0.73021,0.49398,0.34532,7.0957,51.397,-0.45488,0.15163,-1.576,-0.60651,-9.0233e-10,-0.78799,0,0,0.25,-0,-0,0.66667
0.27644,0.3347,1.1057,-0.24795,-4.7565,38.031,0.73111,-0.2437,-1.7809,0.97482,3.7207e-11,-0.89045,0,0,0.25,-0,-0,0.66667
0.049043,0.94023,0.19617,0.66035,13.967,58.134,-0.34545,0.11515,-0.45039,-0.4606,1.9124e-07,-0.22519,0,0,0.25,-0,-0,0.66667
0.14515,0.37122,0.58059,-0.19317,-3.9288,49.444,0.29907,-0.099689,-1.8675,0.39875,-1.5256e-10,-0.93377,0,0,0.25,3.7007e-16,0,0.66667
0.47503,0.7379,1.9001,0.35685,5.7339,22.484,-1.8081,0.60271,-1.5464,-2.4109,4.3843e-13,-0.77318,0,0,0.25,-0,-0,0.66667
0.93598,0.14027,3.7439,-0.5396,-1.2749,1.1896,5.3872,-1.7957,-0.96458,7.183,5.7838e-09,-0.48229,0,0,0.25,-0,7.7449e-17,0.66667
0.43407,0.47495,1.7363,-0.037572,-0.62866,25.383,0.17396,-0.057987,-1.995,0.23195,-3.1644e-13,-0.9975,0,0,0.25,-0,-0,0.66667
0.70914,0.71212,2.8366,0.31818,3.2221,8.295,-2.4067,0.80225,-1.6397,-3.209,2.3589e-11,-0.81984,0,0,0.25,5.9212e-16,0,0.66667
0.57031,0.50896,2.2812,0.01344,0.18563,15.934,-0.081762,0.027254,-1.9987,-0.10902,-6.5504e-13,-0.99933,0,0,0.25,2.3685e-15,0,0.66667
0.97624,0.55261,3.905,0.078916,0.033517,0.1932,-0.82177,0.27392,-1.9771,-1.0957,2.6869e-07,-0.98854,0,0,0.25,-0,-0,0.66667
0.17821,0.58353,0.71284,0.1253,2.5171,46.504,-0.23818,0.079393,-1.9434,-0.31757,-1.5782e-10,-0.97171,0,0,0.25,-1.4803e-16,0,0.66667
0.73911,0.70115,2.9564,0.30173,2.773,6.9012,-2.3787,0.79292,-1.6755,-3.1717,6.1352e-11,-0.83777,0,0,0.25,-1.1842e-15,0,0.66667
0.35041,0.64576,1.4016,0.21864,3.9749,31.922,-0.8172,0.2724,-1.8292,-1.0896,-9.8355e-13,-0.91462,0,0,0.25,-0,-0,0.66667
0.99121,0.38334,3.9648,-0.17499,0.031192,0.11033,1.8502,-0.61673,-1.8905,2.4669,1.3667e-08,-0.94525,0,0,0.25,-0,-0,0.66667
0.35281,0.13027,1.4112,-0.55459,-10.212,31.892,2.0871,-0.6957,-0.9062,2.7828,-1.505e-12,-0.4531,0,0,0.25,-0,-0,0.66667
0.97878,0.15083,3.9151,-0.52375,-0.31257,0.6357,5.4682,-1.8227,-1.0245,7.2909,4.168e-08,-0.51224,0,0,0.25,-0,-0,0.66667
0.86037,0.64047,3.4415,0.2107,1.0544,2.4454,-1.9336,0.64455,-1.8421,-2.5782,3.1983e-10,-0.92107,0,0,0.25,-0,-0,0.66667
0.59774,0.91003,2.3909,0.61505,8.3156,14.638,-3.9215,1.3072,-0.65527,-5.2286,-9.0683e-13,-0.32763,0,0,0.25,-0,-0,0.66667
0.027448,0.32369,0.10979,-0.26446,-5.5025,60.062,0.077428,-0.025809,-1.7508,0.10324,4.2688e-09,-0.8754,0,0,0.25,-0,-0,0.66667
0.18553,0.038911,0.74213,-0.69163,-14.187,46.012,1.3687,-0.45625,-0.29934,1.825,-1.3411e-11,-0.14967,0,0,0.25,-0,-2.1914e-16,0.66667
0.056512,0.027569,0.22605,-0.70865,-15.025,57.469,0.42717,-0.14239,-0.21453,0.56956,-1.0188e-06,-0.10727,0,0,0.25,-1.1102e-16,0,0.66667
0.79246,0.66157,3.1698,0.24235,1.7967,4.68,-2.0486,0.68286,-1.7912,-2.7314,2.0096e-10,-0.89558,0,0,0.25,-0,-0,0.66667
0.073951,0.96627,0.2958,0.69941,14.786,55.902,-0.5517,0.1839,-0.26122,-0.7356,-4.6795e-07,-0.13061,0,0,0.25,-7.4015e-17,2.5094e-16,0.66667
0.78646,0.98878,3.1458,0.73317,5.9477,5.5758,-6.1505,2.0502,-0.088048,-8.2006,6.5027e-11,-0.044024,0,0,0.25,1.1842e-15,0,0.66667
0.027952,0.91755,0.11181,0.62633,13.241,60.032,-0.18674,0.062247,-0.60477,-0.24899,1.7388e-07,-0.30238,0,0,0.25,-0,-0,0.66667
0.25521,0.65201,1.0208,0.22802,4.4269,39.828,-0.62071,0.2069,-1.8152,-0.82762,-6.4454e-11,-0.90759,0,0,0.25,2.9606e-16,0,0.66667
0.29758,0.77834,1.1903,0.41751,7.9501,36.317,-1.3253,0.44176,-1.3814,-1.767,-1.4102e-11,-0.6907,0,0,0.25,-0,-0,0.66667
0.56461,0.38915,2.2584,-0.16628,-2.3243,16.324,1.0014,-0.33381,-1.9014,1.3352,7.141e-13,-0.9507,0,0,0.25,1.1842e-15,0,0.66667
0.56206,0.93534,2.2482,0.653,9.4377,16.885,-3.915,1.305,-0.48529,-5.2199,-2.2693e-13,-0.24265,0,0,0.25,-5.9212e-16,7.6355e-17,0.66667
0.8874,0.7612,3.5496,0.3918,1.6101,1.9215,-3.7086,1.2362,-1.4538,-4.9448,5.7821e-10,-0.72689,0,0,0.25,-0,-0,0.66667
0.63738,0.98187,2.5495,0.7228,9.1254,12.511,-4.9141,1.638,-0.14193,-6.5521,-2.7534e-13,-0.070964,0,0,0.25,1.1842e-15,0,0.66667
0.16146,0.39915,0.64585,-0.15127,-3.0584,47.989,0.26053,-0.086843,-1.9183,0.34737,-7.9959e-11,-0.95914,0,0,0.25,9.5605e-17,0,0.66667
0.026995,0.37125,0.10798,-0.19313,-4.0119,60.101,0.055611,-0.018537,-1.8676,0.074148,-1.281e-07,-0.93382,0,0,0.25,-9.2519e-18,0,0.66667
0.76198,0.9189,3.0479,0.62835,5.5125,6.3344,-5.1071,1.7024,-0.5956,-6.8095,2.0143e-11,-0.2978,0,0,0.25,1.1842e-15,4.8524e-17,0.66667
0.53557,0.25423,2.1423,-0.36866,-5.4458,18.318,2.1061,-0.70202,-1.5169,2.8081,6.4015e-13,-0.75847,0,0,0.25,-0,-0,0.66667
0.57863,0.89551,2.3145,0.59327,8.2894,15.773,-3.6617,1.2206,-0.74886,-4.8822,-6.7901e-13,-0.37443,0,0,0.25,5.9212e-16,0,0.66667
0.41411,0.023823,1.6564,-0.71427,-12.586,27.267,3.155,-1.0517,-0.18551,4.2067,2.1338e-13,-0.092754,0,0,0.25,5.9212e-16,0,0.66667
0.58982,0.11237,2.3593,-0.58144,-7.9536,15.073,3.6581,-1.2194,-0.79734,4.8774,7.8781e-13,-0.39867,0,0,0.25,5.9212e-16,0,0.66667
0.40563,0.5458,1.6225,0.068703,1.1848,27.545,-0.29726,0.099087,-1.9833,-0.39635,4.5539e-13,-0.99166,0,0,0.25,-0,-0,0.66667
0.44569,0.43046,1.7828,-0.10431,-1.7236,24.524,0.4959,-0.1653,-1.9608,0.6612,-7.2725e-13,-0.98041,0,0,0.25,-2.9606e-16,0,0.66667
0.59274,0.62907,2.371,0.19361,2.5738,14.579,-1.2241,0.40804,-1.8676,-1.6321,-1.488e-12,-0.93382,0,0,0.25,-0,-0,0.66667
0.49234,0.31065,1.9694,-0.28402,-4.4484,21.218,1.4916,-0.49719,-1.7135,1.9888,-3.1342e-13,-0.85676,0,0,0.25,6.6613e-16,0,0.66667
0.059103,0.71322,0.23641,0.31983,6.6466,57.194,-0.20163,0.067212,-1.6364,-0.26885,1.8545e-09,-0.81821,0,0,0.25,1.1102e-16,0,0.66667
0.97679,0.42932,3.9072,-0.10602,-0.043159,0.19666,1.1046,-0.36821,-1.9594,1.4728,8.7931e-07,-0.97971,0,0,0.25,1.1842e-15,0,0.66667
0.85514,0.54424,3.4206,0.066367,0.34208,2.5318,-0.60537,0.20179,-1.9837,-0.80716,4.695e-10,-0.99183,0,0,0.25,-0,-0,0.66667
0.37909,0.50191,1.5163,0.0028618,0.050606,29.608,-0.011572,0.0038573,-2.0006,-0.015429,-1.3957e-13,-1.0003,0,0,0.25,-0,-0,0.66667
0.54652,0.047108,2.1861,-0.67934,-10.093,17.913,3.9603,-1.3201,-0.35929,5.2804,1.8296e-13,-0.17965,0,0,0.25,-1.1842e-15,0,0.66667
0.93287,0.63826,3.7315,0.20739,0.46231,0.82761,-2.0637,0.6879,-1.8463,-2.7516,1.4452e-08,-0.92316,0,0,0.25,2.3685e-15,0,0.66667
0.39797,0.71966,1.5919,0.32949,5.7607,28.21,-1.3987,0.46622,-1.6145,-1.8649,1.7752e-12,-0.80726,0,0,0.25,1.1842e-15,0,0.66667
0.94477,0.71087,3.7791,0.3163,0.57305,0.73647,-3.1875,1.0625,-1.6437,-4.2501,-4.3211e-09,-0.82185,0,0,0.25,5.9212e-16,0,0.66667
0.030486,0.42722,0.12195,-0.10918,-2.2646,59.783,0.035503,-0.011835,-1.9579,0.047337,-4.1693e-07,-0.97894,0,0,0.25,-3.7007e-17,0,0.66667
0.7458,0.91331,2.9832,0.61997,5.755,6.9969,-4.932,1.644,-0.63316,-6.576,1.1709e-11,-0.31658,0,0,0.25,-0,-0,0.66667
0.79701,0.45601,3.188,-0.06599,-0.47533,4.4348,0.56101,-0.187,-1.9848,0.74801,-4.5104e-11,-0.99241,0,0,0.25,-0,-0,0.66667
0.19384,0.65975,0.77534,0.23962,4.7943,45.143,-0.49544,0.16515,-1.7959,-0.66058,-1.9476e-10,-0.89796,0,0,0.25,-5.9212e-16,0,0.66667
0.16287,0.049645,0.65147,-0.67553,-13.955,47.99,1.1736,-0.39119,-0.37652,1.5648,-4.464e-11,-0.18826,0,0,0.25,-2.9606e-16,0,0.66667
0.59108,0.052066,2.3643,-0.6719,-9.2486,15.116,4.2362,-1.4121,-0.39459,5.6483,2.5357e-13,-0.1973,0,0,0.25,5.9212e-16,-2.6338e-16,0.66667
0.47969,0.053234,1.9188,-0.67015,-10.928,22.426,3.429,-1.143,-0.40269,4.5719,1.5077e-13,-0.20135,0,0,0.25,-5.9212e-16,2.6028e-17,0.66667
0.58654,0.50702,2.3462,0.010534,0.14126,14.92,-0.065906,0.021969,-1.9991,-0.087874,-4.1737e-13,-0.99956,0,0,0.25,-0,-0,0.66667
0.13227,0.082697,0.52908,-0.62595,-13.009,50.677,0.88315,-0.29438,-0.60602,1.1775,1.9854e-09,-0.30301,0,0,0.25,1.4803e-16,0,0.66667
0.27774,0.69664,1.1109,0.29496,5.6616,37.934,-0.87382,0.29127,-1.6904,-1.1651,-3.6932e-11,-0.84518,0,0,0.25,5.9212e-16,0,0.66667
0.069672,0.33608,0.27869,-0.24588,-5.0919,56.232,0.18273,-0.060909,-1.7845,0.24364,-1.7022e-08,-0.89225,0,0,0.25,-0,-0,0.66667
0.108,0.11412,0.43199,-0.57882,-12.068,52.828,0.66678,-0.22226,-0.80881,0.88904,-1.0314e-09,-0.40441,0,0,0.25,1.4803e-16,0,0.66667
0.71638,0.17926,2.8655,-0.48111,-4.8313,8.1174,3.6764,-1.2255,-1.177,4.9018,-1.6832e-11,-0.5885,0,0,0.25,-5.9212e-16,0,0.66667
0.026402,0.13146,0.10561,-0.5528,-11.638,60.168,0.15568,-0.051894,-0.91322,0.20758,1.3141e-07,-0.45661,0,0,0.25,-0,-0,0.66667
0.53965,0.9154,2.1586,0.6231,9.3091,18.29,-3.5868,1.1956,-0.61882,-4.7823,-6.3949e-14,-0.30941,0,0,0.25,-1.1842e-15,0,0.66667
0.29866,0.76246,1.1947,0.39369,7.4831,36.217,-1.2542,0.41806,-1.4488,-1.6722,-1.4579e-11,-0.72439,0,0,0.25,-0,-0,0.66667
0.8685,0.39235,3.474,-0.16147,-0.75657,2.1964,1.4958,-0.49861,-1.9064,1.9944,1.2075e-09,-0.95318,0,0,0.25,-0,-0,0.66667
0.54504,0.88012,2.1802,0.57018,8.41,17.878,-3.3149,1.105,-0.84459,-4.4199,-4.1678e-13,-0.42229,0,0,0.25,-0,3.6925e-16,0.66667
0.99755,0.020554,3.9902,-0.71917,-0.041366,0.93163,7.6523,-2.5508,-0.16084,10.203,-4.9067e-06,-0.080422,0,0,0.25,-0,-7.9978e-16,0.66667
0.56108,0.72499,2.2443,0.33748,4.7761,16.635,-2.0198,0.67326,-1.5955,-2.693,-1.561e-12,-0.79776,0,0,0.25,-0,-0,0.66667
0.5621,0.31103,2.2484,-0.28346,-3.9947,16.537,1.6995,-0.56651,-1.7159,2.266,1.0434e-12,-0.85795,0,0,0.25,1.2583e-15,0,0.66667
0.33511,0.77139,1.3404,0.40708,7.5417,33.23,-1.4551,0.48504,-1.41,-1.9401,-1.1986e-12,-0.70501,0,0,0.25,-2.9606e-16,0,0.66667
0.25232,0.21904,1.0093,-0.42145,-8.2502,40.131,1.1343,-0.3781,-1.3698,1.5124,6.5158e-11,-0.68488,0,0,0.25,-0,-0,0.66667
0.42737,0.8209,1.7095,0.48135,8.2282,26.061,-2.1943,0.73144,-1.1756,-2.9257,1.3178e-12,-0.58782,0,0,0.25,-0,-0,0.66667
0.22718,0.12757,0.9087,-0.55865,-11.158,42.342,1.3537,-0.45124,-0.89054,1.805,5.3582e-11,-0.44527,0,0,0.25,5.9212e-16,0,0.66667
0.070876,0.2131,0.2835,-0.43035,-8.9664,56.139,0.32535,-0.10845,-1.3412,0.4338,-1.0471e-09,-0.6706,0,0,0.25,-3.7007e-17,0,0.66667
0.42505,0.76592,1.7002,0.39888,6.8052,26.18,-1.8085,0.60283,-1.4337,-2.4113,1.6998e-12,-0.71687,0,0,0.25,-0,-0,0.66667
0.10642,0.55692,0.42567,0.085385,1.7518,52.907,-0.096922,0.032307,-1.9743,-0.12923,-2.0501e-08,-0.98714,0,0,0.25,1.4803e-16,0,0.66667
0.72312,0.39708,2.8925,-0.15438,-1.485,7.5377,1.1908,-0.39693,-1.9148,1.5877,-2.8289e-11,-0.9574,0,0,0.25,5.9212e-16,0,0.66667
0.29839,0.56864,1.1936,0.10296,1.9419,36.163,-0.3277,0.10923,-1.9628,-0.43693,-1.0588e-11,-0.98139,0,0,0.25,-5.9212e-16,0,0.66667
0.49036,0.24559,1.9614,-0.38162,-6.0187,21.413,1.9961,-0.66536,-1.4821,2.6614,-4.8228e-13,-0.74107,0,0,0.25,-3.0177e-16,0,0.66667
0.19558,0.42938,0.78233,-0.10593,-2.1128,44.974,0.22099,-0.073662,-1.9595,0.29465,1.6884e-10,-0.97975,0,0,0.25,-2.9606e-16,0,0.66667
0.68083,0.02707,2.7233,-0.7094,-8.0753,10.186,5.1517,-1.7172,-0.21064,6.869,2.0384e-13,-0.10532,0,0,0.25,-1.1842e-15,0,0.66667
0.83083,0.60977,3.3233,0.16466,0.99656,3.3032,-1.4592,0.48641,-1.9032,-1.9456,1.6562e-10,-0.95158,0,0,0.25,-0,-0,0.66667
0.22041,0.50139,0.88163,0.0020806,0.041014,42.803,-0.0048914,0.0016305,-2.0012,-0.0065219,3.2089e-11,-1.0006,0,0,0.25,-0,-0,0.66667
0.0078087,0.61138,0.031235,0.16707,3.4713,61.845,-0.013915,0.0046385,-1.8998,-0.018554,-2.5094e-08,-0.94989,0,0,0.25,-9.2519e-18,0,0.66667
0.2509,0.1504,1.0036,-0.5244,-10.327,40.295,1.4035,-0.46782,-1.0229,1.8713,3.7443e-11,-0.51145,0,0,0.25,-0,-0,0.66667
0.62764,0.88734,2.5105,0.58102,7.3768,12.85,-3.8898,1.2966,-0.79936,-5.1864,-1.5616e-12,-0.39968,0,0,0.25,1.1842e-15,0,0.66667
0.31082,0.28871,1.2433,-0.31694,-5.9563,35.181,1.0508,-0.35026,-1.6431,1.401,1.0839e-11,-0.82155,0,0,0.25,-0,-0,0.66667
0.83621,0.88998,3.3448,0.58498,3.6197,3.6012,-5.2177,1.7392,-0.7823,-6.9569,5.8286e-10,-0.39115,0,0,0.25,-1.1842e-15,0,0.66667
0.85274,0.33432,3.411,-0.24851,-1.3174,2.6878,2.2605,-0.75349,-1.7797,3.0139,-7.8859e-10,-0.88985,0,0,0.25,-0,-0,0.66667
0.37174,0.67645,1.487,0.26467,4.7309,30.235,-1.0495,0.34983,-1.7505,-1.3993,1.2342e-12,-0.87526,0,0,0.25,-0,-0,0.66667
0.36533,0.17567,1.4613,-0.48649,-8.8288,30.851,1.8958,-0.63193,-1.1577,2.5277,-1.6336e-12,-0.57884,0,0,0.25,-0,-0,0.66667
0.016563,0.1602,0.06625,-0.5097,-10.711,61.056,0.090047,-0.030016,-1.0773,0.12006,-3.7303e-08,-0.53863,0,0,0.25,-0,-0,0.66667
0.54968,0.67011,2.1987,0.25516,3.6671,17.323,-1.4961,0.49869,-1.7681,-1.9948,-1.1843e-12,-0.88403,0,0,0.25,-0,-0,0.66667
0.15427,0.22486,0.61708,-0.4127,-8.4269,48.668,0.67912,-0.22637,-1.3948,0.9055,6.0121e-10,-0.69738,0,0,0.25,-0,-0,0.66667
0.11268,0.77965,0.45072,0.41948,8.6672,52.378,-0.50418,0.16806,-1.3752,-0.67224,-1.3679e-09,-0.68758,0,0,0.25,-0,-0,0.66667
0.053338,0.17701,0.21335,-0.48449,-10.142,57.728,0.27565,-0.091882,-1.1646,0.36753,-2.1796e-08,-0.58231,0,0,0.25,-0,-0,0.66667
0.17928,0.97401,0.71714,0.71102,14.639,46.566,-1.3597,0.45324,-0.20225,-1.813,-2.462e-11,-0.10112,0,0,0.25,-0,-0,0.66667
0.15593,0.26048,0.62372,-0.35928,-7.3168,48.509,0.59758,-0.19919,-1.5414,0.79677,7.0242e-10,-0.77071,0,0,0.25,-0,-0,0.66667
0.03549,0.11481,0.14196,-0.57778,-12.173,59.348,0.21873,-0.072909,-0.81252,0.29164,3.913e-08,-0.40626,0,0,0.25,-0,-0,0.66667
0.98243,0.08499,3.9297,-0.62252,-0.34954,0.80256,6.5235,-2.1745,-0.62219,8.698,-2.0606e-07,-0.3111,0,0,0.25,-1.1842e-15,-2.3891e-16,0.66667
0.6583,0.74969,2.6332,0.37453,4.3634,10.929,-2.6299,0.87664,-1.5026,-3.5066,7.7516e-13,-0.7513,0,0,0.25,-3.1456e-16,0,0.66667
0.38699,0.55282,1.548,0.07923,1.3914,28.992,-0.32706,0.10902,-1.9773,-0.43608,4.4009e-13,-0.98865,0,0,0.25,-0,-0,0.66667
0.062485,0.063575,0.24994,-0.65464,-13.82,56.924,0.43632,-0.14544,-0.47804,0.58177,4.4742e-07,-0.23902,0,0,0.25,-0,3.9328e-17,0.66667
0.047245,0.75793,0.18898,0.38689,8.0697,58.272,-0.19498,0.064992,-1.4684,-0.25997,9.5459e-09,-0.73419,0,0,0.25,-0,-0,0.66667
0.80495,0.90286,3.2198,0.60428,4.4148,4.6631,-5.1885,1.7295,-0.7017,-6.918,2.0574e-10,-0.35085,0,0,0.25,-0,-0,0.66667
0.42278,0.45365,1.6911,-0.069521,-1.1778,26.236,0.31352,-0.10451,-1.9828,0.41802,-5.3382e-13,-0.99142,0,0,0.25,5.9212e-16,0,0.66667
0.10826,0.93002,0.43304,0.64504,13.502,52.82,-0.74487,0.24829,-0.52106,-0.99316,1.9528e-08,-0.26053,0,0,0.25,-0,-2.1554e-16,0.66667
0.16703,0.48184,0.66814,-0.027247,-0.54917,47.488,0.048545,-0.016182,-1.9966,0.064727,1.8991e-10,-0.9983,0,0,0.25,-2.9606e-16,0,0.66667
0.68019,0.93436,2.7208,0.65155,7.3755,10.123,-4.7272,1.5757,-0.49072,-6.303,-3.2774e-13,-0.24536,0,0,0.25,-1.1842e-15,0,0.66667
0.42723,0.51986,1.7089,0.029795,0.50225,25.896,-0.13578,0.04526,-1.9961,-0.18104,1.6008e-13,-0.99805,0,0,0.25,-0,-0,0.66667
0.096808,0.74691,0.38723,0.37036,7.6636,53.795,-0.38244,0.12748,-1.5129,-0.50992,4.3162e-10,-0.75644,0,0,0.25,1.8504e-16,0,0.66667
0.39201,0.345,1.568,-0.2325,-4.0752,28.634,0.97217,-0.32406,-1.8091,1.2962,-1.6738e-12,-0.90456,0,0,0.25,-0,-0,0.66667
0.044756,0.050428,0.17902,-0.67436,-14.282,58.522,0.32193,-0.10731,-0.38286,0.42925,4.5813e-07,-0.19143,0,0,0.25,-0,-0,0.66667
0.27103,0.50175,1.0841,0.00262,0.050257,38.458,-0.0075743,0.0025248,-2.0004,-0.010099,-7.7691e-13,-1.0002,0,0,0.25,-0,-0,0.66667
0.50308,0.93003,2.0123,0.64504,10.18,20.769,-3.4614,1.1538,-0.52056,-4.6152,-1.2346e-13,-0.26028,0,0,0.25,-8.8818e-16,0,0.66667
0.45748,0.73319,1.8299,0.34979,5.7408,23.748,-1.7069,0.56897,-1.5642,-2.2759,9.4658e-13,-0.78211,0,0,0.25,-5.9212e-16,0,0.66667
0.76863,0.51012,3.0745,0.015173,0.12361,5.527,-0.1244,0.041467,-1.9989,-0.16587,3.1089e-11,-0.99944,0,0,0.25,-0,-0,0.66667
0.16023,0.065735,0.64092,-0.6514,-13.446,48.212,1.1133,-0.37111,-0.4917,1.4844,2.7147e-10,-0.24585,0,0,0.25,-5.9212e-16,0,0.66667
0.51004,0.47306,2.0402,-0.040405,-0.61423,19.917,0.21982,-0.073273,-1.9942,0.29309,-1.7908e-13,-0.9971,0,0,0.25,1.1842e-15,0,0.66667
0.14153,0.57578,0.56611,0.11367,2.3115,49.76,-0.17159,0.057197,-1.9541,-0.22879,-7.739e-11,-0.97706,0,0,0.25,-0,-0,0.66667
0.18937,0.87093,0.75748,0.55639,11.298,45.62,-1.1239,0.37462,-0.89999,-1.4985,-3.2362e-10,-0.45,0,0,0.25,-3.7007e-16,0,0.66667
0.4099,0.99863,1.6396,0.74795,13.273,27.621,-3.2702,1.0901,-0.011726,-4.3603,2.7756e-14,-0.0058628,0,0,0.25,-2.9606e-16,0,0.66667
0.14586,0.053295,0.58345,-0.67006,-13.912,49.487,1.0425,-0.34751,-0.40307,1.39,5.8003e-10,-0.20153,0,0,0.25,-0,-0,0.66667
0.56233,0.039981,2.2493,-0.69003,-10.004,16.918,4.1389,-1.3796,-0.30763,5.5185,-1.279e-13,-0.15382,0,0,0.25,1.1842e-15,0,0.66667
0.45523,0.75448,1.8209,0.38172,6.2907,23.931,-1.8535,0.61785,-1.4825,-2.4714,8.38e-13,-0.74125,0,0,0.25,-0,-0,0.66667
0.9421,0.96945,3.7684,0.70417,1.6406,1.4392,-7.0762,2.3587,-0.23775,-9.4349,-1.3978e-06,-0.11887,0,0,0.25,-0,-0,0.66667
0.66999,0.20952,2.68,-0.43573,-4.9544,10.367,3.114,-1.038,-1.325,4.152,-1.6798e-12,-0.66249,0,0,0.25,-5.9212e-16,0,0.66667
0.10314,0.39609,0.41257,-0.15587,-3.2028,53.205,0.17148,-0.057161,-1.9129,0.22864,-1.2224e-08,-0.95644,0,0,0.25,-1.4803e-16,0,0.66667
0.60711,0.34802,2.4284,-0.22797,-2.9501,13.73,1.4763,-0.49209,-1.8158,1.9684,1.2381e-12,-0.90789,0,0,0.25,-0,-0,0.66667
0.42033,0.68516,1.6813,0.27774,4.7385,26.476,-1.2453,0.41509,-1.7268,-1.6603,1.5915e-12,-0.8634,0,0,0.25,7.4015e-16,0,0.66667
0.50063,0.38817,2.0025,-0.16774,-2.5886,20.592,0.89573,-0.29858,-1.9001,1.1943,-1.9185e-13,-0.95005,0,0,0.25,1.1842e-15,0,0.66667
0.65581,0.97596,2.6232,0.71395,8.6413,11.494,-4.9942,1.6647,-0.18831,-6.659,-1.1013e-13,-0.094154,0,0,0.25,-0,-0,0.66667
0.18572,0.4786,0.74287,-0.032101,-0.64252,45.838,0.063593,-0.021198,-1.9963,0.08479,9.0472e-11,-0.99817,0,0,0.25,-0,-0,0.66667
0.35953,0.58538,1.4381,0.12807,2.3064,31.17,-0.49115,0.16372,-1.9423,-0.65487,-4.2055e-13,-0.97115,0,0,0.25,-5.9212e-16,0,0.66667
0.48038,0.92355,1.9215,0.63532,10.321,22.339,-3.2554,1.0851,-0.56419,-4.3406,6.2839e-14,-0.2821,0,0,0.25,2.3235e-17,0,0.66667
0.61478,0.10255,2.4591,-0.59617,-7.7833,13.608,3.9095,-1.3032,-0.73574,5.2126,9.1016e-13,-0.36787,0,0,0.25,1.1842e-15,0,0.66667
0.28556,0.84647,1.1422,0.51971,10.025,37.369,-1.583,0.52767,-1.0401,-2.1107,-1.0784e-11,-0.52004,0,0,0.25,-1.1842e-15,0,0.66667
0.50277,0.28156,2.0111,-0.32766,-5.0684,20.514,1.7572,-0.58573,-1.6195,2.3429,1.7519e-13,-0.80973,0,0,0.25,-1.1842e-15,0,0.66667
0.27855,0.93816,1.1142,0.65723,12.844,38.036,-1.9527,0.65092,-0.46528,-2.6037,-2.4351e-12,-0.23264,0,0,0.25,-1.1842e-15,0,0.66667
0.57239,0.9367,2.2896,0.65505,9.3053,16.239,-3.9994,1.3331,-0.47499,-5.3325,-3.0798e-13,-0.23749,0,0,0.25,-3.3307e-16,0,0.66667
0.34229,0.29746,1.3692,-0.30381,-5.5737,32.604,1.1092,-0.36974,-1.6717,1.479,1.5661e-12,-0.83584,0,0,0.25,-0,-0,0.66667
0.83916,0.90905,3.3566,0.61358,3.7537,3.5622,-5.4922,1.8307,-0.66178,-7.3229,4.5892e-10,-0.33089,0,0,0.25,2.3685e-15,0,0.66667
0.68591,0.55116,2.7437,0.076742,0.82262,9.3239,-0.56148,0.18716,-1.979,-0.74863,4.4924e-12,-0.98951,0,0,0.25,-0,-0,0.66667
0.81613,0.50449,3.2645,0.0067357,0.044052,3.7502,-0.058637,0.019546,-2.0001,-0.078183,-5.4416e-10,-1,0,0,0.25,-4.737e-15,0,0.66667
0.15425,0.59451,0.61698,0.14176,2.8725,48.629,-0.23324,0.077746,-1.9298,-0.31098,-1.8463e-09,-0.96491,0,0,0.25,5.9212e-16,0,0.66667
0.18519,0.774,0.74077,0.41099,8.2994,45.939,-0.81188,0.27063,-1.3995,-1.0825,-3.6814e-10,-0.69977,0,0,0.25,1.4803e-16,0,0.66667
0.54259,0.58437,2.1704,0.12656,1.8334,17.739,-0.73249,0.24416,-1.9426,-0.97666,-5.4212e-13,-0.97129,0,0,0.25,-0,-0,0.66667
0.061398,0.40484,0.24559,-0.14274,-2.9534,56.977,0.093483,-0.031161,-1.9289,0.12464,1.3531e-07,-0.96446,0,0,0.25,-8.343e-17,0,0.66667
0.53806,0.35769,2.1522,-0.21347,-3.1211,18.067,1.2251,-0.40838,-1.837,1.6335,6.054e-13,-0.91851,0,0,0.25,-0,-0,0.66667
0.336,0.87976,1.344,0.56965,10.64,33.253,-2.0416,0.68053,-0.84606,-2.7221,8.5376e-13,-0.42303,0,0,0.25,-0,-0,0.66667
0.32445,0.50967,1.2978,0.014503,0.26837,34.002,-0.050193,0.016731,-1.9989,-0.066924,-7.801e-13,-0.99943,0,0,0.25,-0,-0,0.66667
0.22985,0.82909,0.91941,0.49364,9.8114,42.084,-1.2103,0.40343,-1.1328,-1.6137,-1.014e-10,-0.56641,0,0,0.25,-0,-0,0.66667
0.0046867,0.61641,0.018747,0.17461,3.6286,62.129,-0.0087289,0.0029096,-1.8911,-0.011639,-4.2017e-08,-0.94557,0,0,0.25,4.6259e-18,0,0.66667
0.68707,0.89772,2.7483,0.59658,6.5911,9.6925,-4.3722,1.4574,-0.73508,-5.8296,2.5624e-13,-0.36754,0,0,0.25,-5.9212e-16,2.3505e-16,0.66667
0.75278,0.68346,3.0111,0.2752,2.405,6.2878,-2.2097,0.73658,-1.7312,-2.9463,8.4217e-11,-0.8656,0,0,0.25,-1.7764e-15,0,0.66667
0.33828,0.13222,1.3531,-0.55167,-10.275,33.056,1.9906,-0.66354,-0.9175,2.6542,-1.4179e-12,-0.45875,0,0,0.25,-0,-0,0.66667
0.4698,0.51337,1.8792,0.02006,0.32179,22.753,-0.10052,0.033508,-1.9986,-0.13403,2.3146e-13,-0.99929,0,0,0.25,-0,-0,0.66667
0.79738,0.22182,3.1895,-0.41728,-3.0738,4.6616,3.5491,-1.183,-1.3821,4.7321,-3.0868e-10,-0.69107,0,0,0.25,-0,-0,0.66667
0.64747,0.62309,2.5899,0.18463,2.1864,11.396,-1.2751,0.42504,-1.8791,-1.7002,8.4099e-13,-0.93956,0,0,0.25,-2.9606e-16,0,0.66667
0.022978,0.49389,0.091913,-0.0091693,-0.19016,60.465,0.0022465,-0.0007519,-1.9993,0.0029938,-4.5881e-06,-0.99967,0,0,0.25,-5.5511e-17,0,0.66667
0.28397,0.53922,1.1359,0.05883,1.1197,37.367,-0.1782,0.059399,-1.9877,-0.2376,-9.7452e-12,-0.99383,0,0,0.25,-0,-0,0.66667
0.95439,0.38983,3.8176,-0.16526,-0.22251,0.47954,1.6824,-0.56078,-1.9028,2.2431,2.225e-08,-0.95141,0,0,0.25,-0,-0,0.66667
0.88315,0.60933,3.5326,0.16399,0.67871,1.824,-1.5448,0.51495,-1.9034,-2.0598,2.409e-09,-0.95169,0,0,0.25,-0,-0,0.66667
0.32522,0.93694,1.3009,0.65541,12.413,34.187,-2.2736,0.75787,-0.47378,-3.0315,4.2188e-13,-0.23689,0,0,0.25,8.5117e-16,0,0.66667
0.91063,0.54656,3.6425,0.069836,0.214,1.1755,-0.67834,0.22611,-1.9819,-0.90446,1.6931e-08,-0.99095,0,0,0.25,-0,-0,0.66667
0.47918,0.33199,1.9167,-0.25202,-4.0115,22.134,1.2881,-0.42937,-1.7734,1.7175,-5.1681e-13,-0.88671,0,0,0.25,-0,-0,0.66667
0.20207,0.0064462,0.80827,-0.74033,-15.138,44.599,1.5957,-0.5319,-0.051797,2.1276,-1.568e-10,-0.025899,0,0,0.25,-0,-1.9389e-16,0.66667
0.27145,0.14925,1.0858,-0.52613,-10.241,38.556,1.5234,-0.50779,-1.0154,2.0312,1.8154e-11,-0.50769,0,0,0.25,-0,-0,0.66667
0.24098,0.060174,0.96393,-0.65974,-13.17,41.211,1.6958,-0.56528,-0.45269,2.2611,1.1646e-11,-0.22634,0,0,0.25,-7.4015e-17,0,0.66667
0.055575,0.050093,0.2223,-0.67486,-14.278,57.548,0.40006,-0.13335,-0.37976,0.53341,-1.8681e-07,-0.18988,0,0,0.25,-0,-0,0.66667
0.43714,0.88836,1.7485,0.58254,9.9179,25.416,-2.7163,0.90542,-0.79364,-3.6217,5.5711e-13,-0.39682,0,0,0.25,-0,-2.8983e-16,0.66667
0.90458,0.38064,3.6183,-0.17904,-0.59563,1.3444,1.7275,-0.57584,-1.8865,2.3033,8.4783e-09,-0.94326,0,0,0.25,-0,-0,0.66667
0.52576,0.082671,2.103,-0.62599,-9.5523,19.212,3.5106,-1.1702,-0.60595,4.6808,-4.6629e-15,-0.30298,0,0,0.25,-0,-0,0.66667
0.54546,0.030784,2.1818,-0.70382,-10.499,18.016,4.095,-1.365,-0.24016,5.46,6.5281e-14,-0.12008,0,0,0.25,-5.9212e-16,-1.7413e-17,0.66667
0.227,0.55039,0.908,0.07558,1.4857,42.234,-0.183,0.061002,-1.9788,-0.24401,-4.8042e-11,-0.98939,0,0,0.25,-0,-0,0.66667
0.046401,0.57717,0.1856,0.11575,2.3982,58.337,-0.057291,0.019097,-1.9525,-0.076389,-3.977e-08,-0.97626,0,0,0.25,7.4015e-17,0,0.66667
0.12581,0.61854,0.50323,0.17781,3.6353,51.171,-0.23861,0.079535,-1.8882,-0.31814,2.4672e-09,-0.94411,0,0,0.25,2.2204e-16,0,0.66667
0.21513,0.41516,0.8605,-0.12727,-2.5173,43.268,0.29204,-0.097345,-1.9421,0.38938,1.1473e-10,-0.97105,0,0,0.25,-0,-0,0.66667
0.87339,0.74188,3.4936,0.36282,1.6737,2.2319,-3.3801,1.1267,-1.5322,-4.5068,7.4658e-10,-0.76609,0,0,0.25,-0,-0,0.66667
0.98833,0.9501,3.9533,0.67514,0.25955,0.8786,-7.1175,2.3725,-0.37869,-9.49,2.7065e-06,-0.18935,0,0,0.25,-0,-0,0.66667
0.017766,0.46314,0.071065,-0.055283,-1.1469,60.939,0.010477,-0.0034933,-1.9895,0.013969,-1.5363e-06,-0.99476,0,0,0.25,1.8504e-17,0,0.66667
0.44331,0.1646,1.7732,-0.5031,-8.4621,24.892,2.379,-0.79299,-1.0995,3.172,-9.1438e-13,-0.54976,0,0,0.25,-0,-0,0.66667
0.3692,0.049496,1.4768,-0.67576,-12.377,30.69,2.6612,-0.88706,-0.3755,3.5483,-5.7798e-13,-0.18775,0,0,0.25,-5.9212e-16,0,0.66667
0.53646,0.41015,2.1459,-0.13478,-1.9717,18.146,0.77122,-0.25707,-1.9355,1.0283,4.8483e-13,-0.96776,0,0,0.25,-0,-0,0.66667
0.61652,0.96458,2.4661,0.69687,9.1602,13.65,-4.5828,1.5276,-0.27327,-6.1103,-3.9302e-13,-0.13663,0,0,0.25,1.4803e-15,0,0.66667
0.396,0.60956,1.584,0.16433,2.8648,28.305,-0.69415,0.23138,-1.9031,-0.92553,1.0348e-12,-0.95155,0,0,0.25,5.9212e-16,0,0.66667
0.18386,0.15177,0.73546,-0.52235,-10.61,46.09,1.0244,-0.34148,-1.0301,1.3659,1.503e-10,-0.51506,0,0,0.25,2.9606e-16,0,0.66667
0.58527,0.1641,2.3411,-0.50386,-6.9057,15.262,3.1455,-1.0485,-1.0968,4.1941,1.2523e-12,-0.54839,0,0,0.25,-0,-0,0.66667
0.033297,0.65908,0.13319,0.23861,4.9597,59.53,-0.084748,0.028249,-1.7984,-0.113,7.3785e-09,-0.8992,0,0,0.25,-0,-0,0.66667
0.89398,0.57297,3.5759,0.10945,0.40638,1.5451,-1.0437,0.3479,-1.957,-1.3916,1.3239e-08,-0.97851,0,0,0.25,-0,-0,0.66667
0.64441,0.81161,2.5776,0.46741,5.6639,11.776,-3.2129,1.071,-1.2241,-4.2838,-1.3638e-12,-0.61203,0,0,0.25,-1.4803e-15,0,0.66667
0.094544,0.090236,0.37818,-0.61465,-12.877,54.04,0.61985,-0.20662,-0.65782,0.82647,-3.0591e-08,-0.32891,0,0,0.25,-3.7007e-17,0,0.66667
0.55137,0.38788,2.2055,-0.16818,-2.4039,17.176,0.9891,-0.3297,-1.8987,1.3188,8.3827e-13,-0.94936,0,0,0.25,-1.1842e-15,0,0.66667
0.12897,0.86454,0.5159,0.54682,11.322,50.948,-0.75227,0.25076,-0.93635,-1.003,-1.0928e-09,-0.46818,0,0,0.25,-0,-0,0.66667
0.11882,0.62957,0.47528,0.19435,3.9818,51.799,-0.24632,0.082108,-1.8656,-0.32843,5.6175e-09,-0.9328,0,0,0.25,-0,-0,0.66667
0.26555,0.068562,1.0622,-0.64716,-12.736,39.121,1.8331,-0.61103,-0.5118,2.4441,2.3339e-12,-0.2559,0,0,0.25,-5.9212e-16,-1.8516e-16,0.66667
0.76291,0.97716,3.0516,0.71575,6.3448,6.456,-5.8245,1.9415,-0.17843,-7.766,2.7165e-12,-0.089215,0,0,0.25,-0,-0,0.66667
0.69822,0.50659,2.7929,0.0098848,0.1023,8.6998,-0.073619,0.02454,-1.9994,-0.098158,7.8366e-13,-0.9997,0,0,0.25,-0,-0,0.66667
0.55885,0.20512,2.2354,-0.44233,-6.3209,16.859,2.6367,-0.87892,-1.3037,3.5157,9.5612e-13,-0.65187,0,0,0.25,-0,-0,0.66667
0.25523,0.70714,1.0209,0.31071,6.0466,39.847,-0.84589,0.28196,-1.656,-1.1279,-7.2009e-11,-0.82799,0,0,0.25,-0,-0,0.66667
0.51787,0.62492,2.0715,0.18738,2.8229,19.412,-1.0351,0.34503,-1.8765,-1.3801,-2.84e-13,-0.93825,0,0,0.25,-1.2906e-15,0,0.66667
0.92975,0.75604,3.719,0.38405,0.94539,1.0531,-3.8088,1.2696,-1.4752,-5.0784,-3.1244e-09,-0.7376,0,0,0.25,-2.3685e-15,0,0.66667
0.18532,0.29997,0.74128,-0.30005,-6.0341,45.902,0.59311,-0.1977,-1.6796,0.79081,3.1227e-10,-0.83982,0,0,0.25,-0,-0,0.66667
0.73421,0.71474,2.9368,0.32211,3.0142,7.1359,-2.5226,0.84087,-1.6323,-3.3635,5.2696e-11,-0.81614,0,0,0.25,-0,-0,0.66667
0.87218,0.66614,3.4887,0.24921,1.1429,2.1553,-2.3185,0.77282,-1.7789,-3.0913,-4.1956e-11,-0.88947,0,0,0.25,-2.3685e-15,0,0.66667
0.66946,0.85609,2.6778,0.53414,6.1345,10.509,-3.8142,1.2714,-0.98527,-5.0856,-2.498e-13,-0.49263,0,0,0.25,-0,-0,0.66667
0.2037,0.15554,0.81478,-0.51669,-10.407,44.356,1.1226,-0.37421,-1.0525,1.4968,2.6559e-10,-0.52623,0,0,0.25,-3.5157e-16,0,0.66667
0.12917,0.18059,0.51666,-0.47912,-9.8853,50.915,0.66012,-0.22004,-1.1836,0.88016,2.2472e-09,-0.59181,0,0,0.25,-1.4803e-16,0,0.66667
0.51503,0.26628,2.0601,-0.35058,-5.3353,19.686,1.926,-0.64199,-1.5631,2.568,2.8755e-13,-0.78156,0,0,0.25,-0,-0,0.66667
0.13031,0.5904,0.52123,0.13561,2.7673,50.765,-0.18849,0.062829,-1.9348,-0.25132,9.196e-10,-0.9674,0,0,0.25,1.4803e-16,0,0.66667
0.8257,0.050328,3.3028,-0.67451,-4.5038,4.0974,5.9407,-1.9802,-0.38206,7.9209,-1.8408e-11,-0.19103,0,0,0.25,-0,-0,0.66667
0.52364,0.82894,2.0946,0.49341,7.4766,19.215,-2.756,0.91866,-1.1334,-3.6746,-4.6585e-13,-0.56669,0,0,0.25,-6.2012e-16,0,0.66667
0.29142,0.8793,1.1657,0.56895,10.966,36.908,-1.7686,0.58953,-0.84907,-2.3581,-4.4522e-12,-0.42453,0,0,0.25,-0,-0,0.66667
0.56813,0.71415,2.2725,0.32122,4.4879,16.176,-1.9466,0.64888,-1.6331,-2.5955,-1.7787e-12,-0.81653,0,0,0.25,5.9212e-16,0,0.66667
0.26064,0.35571,1.0425,-0.21643,-4.1878,39.363,0.6017,-0.20057,-1.8327,0.80227,5.3603e-11,-0.91636,0,0,0.25,-0,-0,0.66667
0.58447,0.10427,2.3379,-0.5936,-8.2081,15.414,3.7007,-1.2336,-0.7464,4.9342,5.8686e-13,-0.3732,0,0,0.25,1.1842e-15,0,0.66667
0.23212,0.012567,0.92849,-0.73115,-14.736,42.009,1.8103,-0.60344,-0.09899,2.4137,-1.7009e-11,-0.049495,0,0,0.25,-0,2.8472e-16,0.66667
0.21905,0.75306,0.87621,0.37959,7.5446,42.977,-0.88693,0.29564,-1.489,-1.1826,-1.9092e-10,-0.7445,0,0,0.25,-0,-0,0.66667
0.51851,0.65488,2.074,0.23231,3.5011,19.386,-1.2849,0.42829,-1.809,-1.7131,-5.1925e-13,-0.90452,0,0,0.25,2.2204e-16,0,0.66667
0.83542,0.9508,3.3417,0.67621,4.2839,3.7964,-6.0258,2.0086,-0.37324,-8.0343,-1.3689e-10,-0.18662,0,0,0.25,-0,-0,0.66667
0.64477,0.94235,2.5791,0.66352,8.1863,12.011,-4.5634,1.5211,-0.43474,-6.0845,-7.1854e-13,-0.21737,0,0,0.25,-0,-0,0.66667
0.094191,0.083239,0.37676,-0.62514,-13.107,54.073,0.62808,-0.20936,-0.61082,0.83744,-1.5636e-08,-0.30541,0,0,0.25,-0,-0,0.66667
0.13407,0.96471,0.53627,0.69706,14.548,50.54,-0.99684,0.33228,-0.27236,-1.3291,-2.2779e-09,-0.13618,0,0,0.25,-1.4803e-16,0,0.66667
0.3903,0.50048,1.5612,0.00071809,0.012566,28.729,-0.0029896,0.00099652,-2.0018,-0.0039861,-5.0277e-13,-1.0009,0,0,0.25,-0,-0,0.66667
0.31956,0.072127,1.2783,-0.64181,-12.193,34.637,2.1877,-0.72924,-0.53466,2.917,-2.8266e-13,-0.26733,0,0,0.25,-5.9212e-16,0,0.66667
0.89122,0.96181,3.5649,0.69271,2.9808,2.3498,-6.5851,2.195,-0.29452,-8.7802,1.6341e-08,-0.14726,0,0,0.25,-5.9212e-16,0,0.66667
0.89129,0.34245,3.5652,-0.23633,-0.9124,1.6764,2.2468,-0.74894,-1.8029,2.9958,5.5351e-09,-0.90147,0,0,0.25,-2.9606e-16,0,0.66667
0.029824,0.14414,0.1193,-0.53379,-11.224,59.857,0.16981,-0.056604,-0.98684,0.22642,-7.2743e-08,-0.49342,0,0,0.25,3.7007e-17,0,0.66667
0.21052,0.79144,0.84209,0.43716,8.7443,43.735,-0.98166,0.32722,-1.3197,-1.3089,-2.172e-10,-0.65986,0,0,0.25,-0,-0,0.66667
0.38835,0.20918,1.5534,-0.43623,-7.7342,29.013,1.807,-0.60234,-1.3233,2.4094,-1.9134e-12,-0.66166,0,0,0.25,-2.9606e-16,0,0.66667
0.17637,0.45022,0.7055,-0.074676,-1.5004,46.663,0.14049,-0.04683,-1.9795,0.18732,1.2209e-10,-0.98973,0,0,0.25,-0,-0,0.66667
0.91869,0.54374,3.6747,0.06561,0.18039,1.0167,-0.64294,0.21431,-1.9842,-0.85725,1.338e-08,-0.99211,0,0,0.25,-0,-0,0.66667
0.1896,0.32043,0.75839,-0.26936,-5.4029,45.52,0.54475,-0.18158,-1.7421,0.72633,2.5917e-10,-0.87107,0,0,0.25,-0,-0,0.66667
0.73399,0.41842,2.9359,-0.12237,-1.1347,7.03,0.95804,-0.31935,-1.947,1.2774,-3.0168e-11,-0.97351,0,0,0.25,-0,-0,0.66667
0.95692,0.78192,3.8277,0.42288,0.59237,0.70449,-4.3164,1.4388,-1.3651,-5.7552,-1.9498e-09,-0.68253,0,0,0.25,2.3685e-15,0,0.66667
0.47772,0.45006,1.9109,-0.074904,-1.19,22.189,0.38168,-0.12723,-1.9791,0.50891,-3.0803e-13,-0.98957,0,0,0.25,-0,-0,0.66667
0.81422,0.39825,3.2569,-0.15262,-1.012,3.8493,1.3255,-0.44184,-1.9174,1.7673,-2.9949e-10,-0.95869,0,0,0.25,-5.9212e-16,0,0.66667
0.42822,0.80021,1.7129,0.45031,7.6771,25.976,-2.0569,0.68563,-1.2781,-2.7425,1.4269e-12,-0.63906,0,0,0.25,-0,-0,0.66667
0.81345,0.93087,3.2538,0.6463,4.5673,4.4462,-5.6078,1.8693,-0.51541,-7.4771,1.9006e-10,-0.2577,0,0,0.25,1.1842e-15,0,0.66667
0.7617,0.55632,3.0468,0.084486,0.70801,5.821,-0.68643,0.22881,-1.9746,-0.91524,4.2041e-11,-0.98728,0,0,0.25,-1.1842e-15,0,0.66667
0.9596,0.20572,3.8384,-0.44142,-0.57715,0.69869,4.5182,-1.5061,-1.3063,6.0243,2.1804e-08,-0.65314,0,0,0.25,-0,-0,0.66667
0.3366,0.22655,1.3464,-0.41017,-7.5912,33.11,1.4727,-0.49089,-1.4012,1.9636,6.6092e-13,-0.70062,0,0,0.25,-0,-0,0.66667
0.76659,0.68871,3.0664,0.28306,2.3483,5.7189,-2.3146,0.77153,-1.7166,-3.0861,1.3026e-10,-0.85828,0,0,0.25,2.3685e-15,0,0.66667
0.92162,0.40088,3.6865,-0.14868,-0.39441,0.99095,1.4616,-0.48719,-1.9224,1.9488,3.4159e-08,-0.96118,0,0,0.25,-1.1842e-15,0,0.66667
0.81077,0.81939,3.2431,0.47909,3.3366,4.266,-4.1433,1.3811,-1.1842,-5.5244,4.2047e-10,-0.59211,0,0,0.25,-0,-0,0.66667
0.81434,0.89498,3.2573,0.59247,4.1277,4.3197,-5.1464,1.7155,-0.75181,-6.8618,1.4291e-10,-0.3759,0,0,0.25,-0,-0,0.66667
0.9483,0.37711,3.7932,-0.18434,-0.29509,0.57444,1.8646,-0.62153,-1.8796,2.4861,2.8226e-08,-0.93982,0,0,0.25,-2.3685e-15,0,0.66667
0.29068,0.29189,1.1627,-0.31216,-5.9462,36.852,0.9679,-0.32263,-1.6528,1.2905,2.3576e-11,-0.82638,0,0,0.25,5.9212e-16,0,0.66667
0.44015,0.95285,1.7606,0.67928,11.613,25.289,-3.1892,1.0631,-0.35895,-4.2522,1.0902e-13,-0.17948,0,0,0.25,-0,-0,0.66667
0.10606,0.80128,0.42423,0.45191,9.3645,52.977,-0.51124,0.17041,-1.2734,-0.68166,4.873e-10,-0.63671,0,0,0.25,1.4803e-16,0,0.66667
0.87728,0.15756,3.5091,-0.51366,-2.3654,2.3394,4.8067,-1.6022,-1.063,6.4089,3.5948e-09,-0.53148,0,0,0.25,-0,-0,0.66667
0.3437,0.89534,1.3748,0.59302,11.027,32.649,-2.1741,0.72469,-0.75006,-2.8988,9.3348e-13,-0.37503,0,0,0.25,-0,-0,0.66667
0.90524,0.92055,3.621,0.63083,2.3219,1.9193,-6.0912,2.0304,-0.58508,-8.1217,-2.4223e-09,-0.29254,0,0,0.25,-0,-0,0.66667
0.20386,0.19547,0.81543,-0.45679,-9.1723,44.321,0.99329,-0.3311,-1.2586,1.3244,2.3551e-10,-0.62929,0,0,0.25,-0,-0,0.66667
0.34961,0.80318,1.3984,0.45478,8.3483,32.085,-1.6959,0.56531,-1.264,-2.2612,1.0071e-12,-0.632,0,0,0.25,-0,-0,0.66667
0.69048,0.77674,2.7619,0.41511,4.4657,9.2972,-3.0573,1.0191,-1.3877,-4.0765,7.9714e-12,-0.69384,0,0,0.25,-8.8818e-16,0,0.66667
0.92271,0.56264,3.6908,0.093958,0.24394,0.94914,-0.92475,0.30825,-1.9703,-1.233,1.2791e-07,-0.98516,0,0,0.25,-0,-0,0.66667
0.68795,0.53771,2.7518,0.056569,0.60285,9.2174,-0.41511,0.13837,-1.9894,-0.55348,3.9322e-12,-0.99468,0,0,0.25,-2.3685e-15,0,0.66667
0.34009,0.3772,1.3604,-0.1842,-3.3742,32.746,0.66823,-0.22274,-1.88,0.89097,2.5686e-12,-0.93999,0,0,0.25,-0,-0,0.66667
0.040043,0.92407,0.16017,0.63611,13.444,58.942,-0.2717,0.090567,-0.56037,-0.36227,4.3406e-07,-0.28018,0,0,0.25,-7.4015e-17,0,0.66667
0.33175,0.17309,1.327,-0.49037,-9.146,33.547,1.7352,-0.57841,-1.1444,2.3137,-1.5787e-13,-0.57221,0,0,0.25,5.9212e-16,0,0.66667
0.47616,0.25174,1.9046,-0.37238,-5.9793,22.413,1.8914,-0.63045,-1.5073,2.5218,-5.6866e-13,-0.75365,0,0,0.25,-0,-0,0.66667
0.7304,0.22495,2.9216,-0.41258,-3.9383,7.3938,3.2144,-1.0715,-1.3947,4.2858,-3.913e-11,-0.69735,0,0,0.25,-0,-0,0.66667
0.89363,0.85203,3.5745,0.52805,2.1138,1.977,-5.0334,1.6778,-1.0084,-6.7112,8.9839e-09,-0.50422,0,0,0.25,-0,-0,0.66667
0.006309,0.32109,0.025236,-0.26836,-5.5884,61.982,0.01806,-0.00602,-1.7433,0.02408,-2.011e-09,-0.87166,0,0,0.25,-0,-0,0.66667
0.076734,0.73156,0.30694,0.34734,7.2071,55.602,-0.2843,0.094766,-1.571,-0.37906,3.0649e-09,-0.78549,0,0,0.25,-0,-0,0.66667
0.28179,0.26187,1.1272,-0.3572,-6.8541,37.613,1.0737,-0.35789,-1.5466,1.4316,3.0133e-11,-0.77328,0,0,0.25,5.9212e-16,0,0.66667
0.53562,0.1882,2.1425,-0.46771,-6.9485,18.393,2.6721,-0.89071,-1.223,3.5628,3.0087e-13,-0.61152,0,0,0.25,2.3685e-15,0,0.66667
0.53579,0.95077,2.1431,0.67616,10.21,18.609,-3.8643,1.2881,-0.37369,-5.1524,-2.2204e-15,-0.18684,0,0,0.25,-0,-0,0.66667
0.42526,0.96481,1.7011,0.69721,12.129,26.412,-3.1626,1.0542,-0.27201,-4.2169,-7.1276e-14,-0.13601,0,0,0.25,8.8818e-16,0,0.66667
0.88364,0.033297,3.5345,-0.70005,-3.2208,2.5399,6.5983,-2.1994,-0.25781,8.7978,6.2395e-09,-0.12891,0,0,0.25,-2.3685e-15,0,0.66667
0.72735,0.61572,2.9094,0.17358,1.6482,7.3509,-1.3467,0.44891,-1.8922,-1.7957,3.3678e-11,-0.94608,0,0,0.25,1.1842e-15,0,0.66667
0.13596,0.8092,0.54385,0.4638,9.5445,50.307,-0.67263,0.22421,-1.2354,-0.89684,1.6872e-10,-0.61771,0,0,0.25,-1.8504e-16,0,0.66667
0.23514,0.12705,0.94055,-0.55942,-11.13,41.659,1.4031,-0.4677,-0.88864,1.8708,4.3523e-11,-0.44432,0,0,0.25,-5.9212e-16,0,0.66667
0.50531,0.11181,2.0212,-0.58228,-9.1153,20.547,3.1384,-1.0461,-0.79366,4.1846,-2.0273e-13,-0.39683,0,0,0.25,5.9212e-16,0,0.66667
0.36252,0.11994,1.4501,-0.5701,-10.423,31.131,2.2045,-0.73483,-0.84465,2.9393,-1.6156e-12,-0.42233,0,0,0.25,-4.4409e-16,0,0.66667
0.80862,0.54022,3.2345,0.060326,0.41049,4.0158,-0.52032,0.17344,-1.9867,-0.69377,4.8351e-11,-0.99335,0,0,0.25,-0,-0,0.66667
0.41934,0.064992,1.6773,-0.65251,-11.38,26.811,2.9186,-0.97288,-0.48694,3.8915,-1.0725e-13,-0.24347,0,0,0.25,-1.1842e-15,0,0.66667
0.94116,0.03024,3.7647,-0.70464,-1.6687,1.4538,7.0739,-2.358,-0.23547,9.4319,1.3496e-06,-0.11773,0,0,0.25,-1.3323e-15,0,0.66667
0.18246,0.41005,0.72983,-0.13493,-2.7065,46.131,0.2626,-0.087534,-1.9354,0.35014,3.9597e-10,-0.9677,0,0,0.25,-0,-0,0.66667
0.48279,0.038145,1.9311,-0.69278,-11.275,22.235,3.5676,-1.1892,-0.29388,4.7569,1.4277e-13,-0.14694,0,0,0.25,-0,2.0364e-16,0.66667
0.89425,0.90652,3.577,0.60977,2.4853,2.1111,-5.8164,1.9388,-0.67898,-7.7552,4.6313e-08,-0.33949,0,0,0.25,-0,-0,0.66667
0.065736,0.63568,0.26294,0.20352,4.213,56.586,-0.1427,0.047568,-1.8523,-0.19027,-9.2296e-09,-0.92617,0,0,0.25,-0,-0,0.66667
0.27923,0.6332,1.1169,0.1998,3.8218,37.785,-0.59511,0.19837,-1.8582,-0.79348,-3.0649e-11,-0.92908,0,0,0.25,-0,-0,0.66667
0.20277,0.21508,0.81109,-0.42737,-8.5741,44.406,0.92437,-0.30812,-1.3518,1.2325,3.0642e-10,-0.67589,0,0,0.25,-2.9606e-16,0,0.66667
0.98481,0.92867,3.9393,0.64301,0.31412,0.82951,-6.7546,2.2515,-0.53041,-9.0061,-9.3843e-07,-0.2652,0,0,0.25,-0,4.801e-16,0.66667
0.46845,0.39867,1.8738,-0.15199,-2.4459,22.87,0.75947,-0.25316,-1.9185,1.0126,-5.9558e-13,-0.95926,0,0,0.25,2.9606e-16,0,0.66667
0.88817,0.87912,3.5527,0.56868,2.4206,2.1717,-5.3875,1.7958,-0.8507,-7.1834,-1.0923e-09,-0.42535,0,0,0.25,2.3685e-15,-5.1398e-18,0.66667
0.85393,0.94951,3.4157,0.67427,3.82,3.2501,-6.1416,2.0472,-0.38273,-8.1888,5.4037e-10,-0.19136,0,0,0.25,-0,-0,0.66667
0.10397,0.078431,0.41587,-0.63235,-13.238,53.2,0.70128,-0.23376,-0.57736,0.93504,-3.3959e-09,-0.28868,0,0,0.25,-1.4803e-16,0,0.66667
0.34994,0.82452,1.3998,0.48679,8.9487,32.077,-1.817,0.60568,-1.1566,-2.4227,1.2078e-12,-0.57831,0,0,0.25,-0,-0,0.66667
0.4967,0.0012393,1.9868,-0.74814,-12.021,21.336,3.9637,-1.3212,-0.01078,5.285,-1.3212e-13,-0.0053902,0,0,0.25,-0,-0,0.66667
0.8789,0.34239,3.5156,-0.23642,-1.0234,1.9746,2.2164,-0.7388,-1.802,2.9552,-3.9199e-09,-0.90101,0,0,0.25,-5.9212e-16,0,0.66667
0.98185,0.26024,3.9274,-0.35964,-0.11437,0.35653,3.7665,-1.2555,-1.5399,5.0221,-7.9688e-09,-0.76996,0,0,0.25,-0,-0,0.66667
0.33695,0.53122,1.3478,0.046824,0.85829,32.983,-0.16829,0.056097,-1.9929,-0.22439,-1.0991e-12,-0.99646,0,0,0.25,-1.5728e-16,0,0.66667
0.78195,0.077452,3.1278,-0.63382,-5.1482,5.5565,5.2866,-1.7622,-0.5717,7.0488,-3.5632e-11,-0.28585,0,0,0.25,-0,-0,0.66667
0.85872,0.044453,3.4349,-0.68332,-3.7604,3.1365,6.259,-2.0863,-0.33994,8.3453,4.0059e-10,-0.16997,0,0,0.25,-0,-0,0.66667
0.28125,0.89533,1.125,0.593,11.52,37.77,-1.779,0.59299,-0.75017,-2.372,-5.099e-12,-0.37508,0,0,0.25,-0,2.6921e-16,0.66667
0.19893,0.76491,0.79571,0.39737,7.975,44.733,-0.84318,0.28106,-1.4378,-1.1242,-3.2078e-10,-0.71892,0,0,0.25,2.9606e-16,0,0.66667
0.64661,0.71678,2.5865,0.32517,3.8825,11.525,-2.2427,0.74758,-1.6244,-2.9903,-1.299e-13,-0.81222,0,0,0.25,-4.4409e-16,0,0.66667
0.56414,0.77004,2.2566,0.40507,5.7239,16.49,-2.4375,0.81249,-1.4166,-3.25,-1.4238e-12,-0.70828,0,0,0.25,-0,-0,0.66667
0.15458,0.13706,0.6183,-0.54441,-11.186,48.676,0.89762,-0.29921,-0.9461,1.1968,1.3913e-09,-0.47305,0,0,0.25,2.9606e-16,-1.1162e-16,0.66667
0.74217,0.62283,2.9687,0.18425,1.6645,6.6908,-1.4586,0.48619,-1.8796,-1.9448,5.4399e-11,-0.93978,0,0,0.25,1.3323e-15,0,0.66667
0.36009,0.84422,1.4404,0.51633,9.4283,31.286,-1.9832,0.66107,-1.0538,-2.6443,1.6479e-12,-0.52689,0,0,0.25,-0,-0,0.66667
0.60467,0.055232,2.4187,-0.66715,-8.9475,14.297,4.303,-1.4343,-0.41714,5.7374,3.6104e-13,-0.20857,0,0,0.25,-0,-1.6015e-17,0.66667
0.006493,0.7986,0.025972,0.44789,9.3866,61.967,-0.03102,0.01034,-1.2858,-0.041361,-9.6541e-09,-0.64289,0,0,0.25,-9.2519e-18,0,0.66667
0.59052,0.79943,2.3621,0.44914,6.0724,14.888,-2.8291,0.94302,-1.2822,-3.7721,-1.8032e-12,-0.64111,0,0,0.25,-0,-0,0.66667
0.73343,0.88798,2.9337,0.58197,5.6019,7.4773,-4.5529,1.5176,-0.79582,-6.0705,1.2249e-11,-0.39791,0,0,0.25,-0,2.8757e-16,0.66667
0.34567,0.39184,1.3827,-0.16224,-2.9573,32.29,0.59819,-0.1994,-1.9062,0.79759,1.6901e-12,-0.95308,0,0,0.25,-5.9212e-16,0,0.66667
0.75933,0.75572,3.0373,0.38358,3.2996,6.1086,-3.1068,1.0356,-1.4766,-4.1424,1.0177e-10,-0.7383,0,0,0.25,-0,-0,0.66667
0.42697,0.74292,1.7079,0.36438,6.1939,26.016,-1.6595,0.55317,-1.5276,-2.2127,1.5523e-12,-0.76379,0,0,0.25,2.5282e-16,0,0.66667
0.4232,0.39173,1.6928,-0.16241,-2.7539,26.22,0.73312,-0.24437,-1.9061,0.9775,-1.1159e-12,-0.95306,0,0,0.25,-5.9212e-16,0,0.66667
0.29935,0.95199,1.1974,0.67798,13.095,36.322,-2.1649,0.72162,-0.36527,-2.8865,5.0626e-14,-0.18264,0,0,0.25,-0,-0,0.66667
0.74106,0.040197,2.9642,-0.6897,-6.5713,7.3218,5.4519,-1.8173,-0.30799,7.2691,-3.4888e-12,-0.15399,0,0,0.25,-0,-0,0.66667
0.91708,0.19076,3.6683,-0.46386,-1.4059,1.3911,4.5376,-1.5125,-1.2352,6.0502,-6.8701e-09,-0.61761,0,0,0.25,2.3685e-15,0,0.66667
0.4431,0.36569,1.7724,-0.20147,-3.3451,24.74,0.95223,-0.31741,-1.8551,1.2696,-1.1868e-12,-0.92753,0,0,0.25,-5.9212e-16,0,0.66667
0.98698,0.79473,3.9479,0.4421,0.075624,0.43108,-4.6543,1.5514,-1.3047,-6.2058,2.2398e-08,-0.65234,0,0,0.25,-0,-0,0.66667
0.79949,0.64503,3.198,0.21755,1.5583,4.405,-1.8552,0.61841,-1.8314,-2.4736,1.7844e-10,-0.91572,0,0,0.25,-1.1842e-15,0,0.66667
0.31124,0.50736,1.2449,0.011042,0.20631,35.091,-0.036659,0.01222,-2,-0.048879,-8.2133e-13,-0.99998,0,0,0.25,1.1842e-15,0,0.66667
0.23311,0.98419,0.93242,0.72628,14.626,41.922,-1.8059,0.60195,-0.12443,-2.4078,8.7605e-12,-0.062213,0,0,0.25,-2.9606e-16,2.9602e-16,0.66667
0.35894,0.13272,1.4357,-0.55092,-10.091,31.401,2.1093,-0.7031,-0.92142,2.8124,-1.65e-12,-0.46071,0,0,0.25,-0,2.383e-16,0.66667
0.40467,0.41456,1.6187,-0.12817,-2.2139,27.627,0.55323,-0.18441,-1.9418,0.73764,-6.7213e-13,-0.9709,0,0,0.25,-1.1842e-15,0,0.66667
0.4959,0.6795,1.9836,0.26925,4.1946,20.961,-1.4242,0.47474,-1.7419,-1.899,-4.4631e-14,-0.87097,0,0,0.25,5.9212e-16,0,0.66667
0.70153,0.37924,2.8061,-0.18114,-1.863,8.5776,1.3555,-0.45183,-1.8841,1.8073,-1.6228e-11,-0.94203,0,0,0.25,-0,-0,0.66667
0.841,0.2069,3.364,-0.43965,-2.5772,3.233,3.944,-1.3147,-1.3124,5.2586,-7.3814e-10,-0.65619,0,0,0.25,-1.1842e-15,0,0.66667
0.059074,0.43867,0.2363,-0.091996,-1.9029,57.187,0.057969,-0.019323,-1.9708,0.077292,-3.2106e-07,-0.98539,0,0,0.25,-1.4803e-16,0,0.66667
0.45307,0.78614,1.8123,0.42921,7.1086,24.12,-2.0743,0.69143,-1.3461,-2.7657,9.9853e-13,-0.67304,0,0,0.25,-1.1842e-15,0,0.66667
0.42756,0.30497,1.7102,-0.29255,-4.9554,25.936,1.3342,-0.44473,-1.6953,1.7789,-1.7629e-12,-0.84763,0,0,0.25,2.9606e-16,0,0.66667
0.42403,0.4577,1.6961,-0.063455,-1.0736,26.14,0.28701,-0.095669,-1.9855,0.38268,-4.4334e-13,-0.99275,0,0,0.25,-0,-0,0.66667
0.56368,0.41811,2.2547,-0.12283,-1.7181,16.37,0.73854,-0.24618,-1.9464,0.98472,5.7915e-13,-0.97319,0,0,0.25,-0,-0,0.66667
0.9398,0.21483,3.7592,-0.42776,-0.89724,0.94985,4.2881,-1.4294,-1.35,5.7174,1.3181e-08,-0.67501,0,0,0.25,1.4803e-15,0,0.66667
0.33032,0.68057,1.3213,0.27085,5.0103,33.565,-0.95432,0.31811,-1.7394,-1.2724,-5.0089e-12,-0.86968,0,0,0.25,-2.9606e-16,0,0.66667
0.94897,0.44349,3.7959,-0.084761,-0.13104,0.51975,0.85798,-0.28599,-1.9744,1.144,-4.7309e-08,-0.98719,0,0,0.25,-2.3685e-15,0,0.66667
0.24588,0.58462,0.98354,0.12693,2.4722,40.61,-0.3329,0.11097,-1.9423,-0.44387,-5.4502e-11,-0.97115,0,0,0.25,-0,-0,0.66667
0.54841,0.11128,2.1936,-0.58308,-8.5635,17.674,3.4108,-1.1369,-0.79103,4.5478,3.3928e-13,-0.39551,0,0,0.25,-0,-0,0.66667
0.7134,0.87394,2.8536,0.5609,5.7318,8.3627,-4.2683,1.4228,-0.88198,-5.691,6.4548e-12,-0.44099,0,0,0.25,-1.4803e-16,0,0.66667
0.88062,0.85869,3.5225,0.53803,2.4245,2.2974,-5.0539,1.6846,-0.96984,-6.7385,5.1861e-09,-0.48492,0,0,0.25,-0,-0,0.66667
0.7817,0.32071,3.1268,-0.26893,-2.0947,5.1082,2.2424,-0.74745,-1.7434,2.9898,-1.5976e-10,-0.8717,0,0,0.25,-2.3685e-15,0,0.66667
0.96576,0.29485,3.863,-0.30772,-0.29256,0.4555,3.17,-1.0567,-1.6628,4.2267,-4.927e-09,-0.83142,0,0,0.25,-0,-0,0.66667
0.55114,0.15396,2.2046,-0.51907,-7.552,17.428,3.0515,-1.0172,-1.0425,4.0687,7.1143e-13,-0.52127,0,0,0.25,-7.4015e-16,0,0.66667
0.90543,0.76401,3.6217,0.39601,1.3558,1.5275,-3.8246,1.2749,-1.4425,-5.0995,8.6454e-10,-0.72123,0,0,0.25,1.1842e-15,0,0.66667
0.65468,0.78061,2.6187,0.42091,4.9626,11.167,-2.9393,0.97978,-1.3715,-3.9191,-2.9199e-13,-0.68574,0,0,0.25,-1.6653e-15,0,0.66667
0.16901,0.38375,0.67604,-0.17437,-3.5175,47.322,0.31436,-0.10479,-1.8917,0.41914,4.6268e-10,-0.94587,0,0,0.25,-0,-0,0.66667
0.030661,0.79387,0.12264,0.4408,9.2267,59.777,-0.14416,0.048055,-1.3093,-0.19222,1.6338e-08,-0.65465,0,0,0.25,-0,-0,0.66667
0.76078,0.52148,3.0431,0.03222,0.27077,5.8509,-0.26147,0.087155,-1.9957,-0.34862,1.5072e-11,-0.99787,0,0,0.25,1.1842e-15,0,0.66667
0.67762,0.93804,2.7105,0.65706,7.4918,10.262,-4.7492,1.5831,-0.46566,-6.3322,-7.0788e-13,-0.23283,0,0,0.25,2.3685e-15,0,0.66667
0.28831,0.61978,1.1533,0.17967,3.4156,37.017,-0.55255,0.18418,-1.885,-0.73673,-2.1954e-11,-0.94249,0,0,0.25,2.9606e-16,0,0.66667
0.10602,0.11989,0.42407,-0.57016,-11.886,53.003,0.64476,-0.21492,-0.84433,0.85969,-1.0751e-08,-0.42217,0,0,0.25,-1.4803e-16,0,0.66667
0.68946,0.0081631,2.7578,-0.73776,-8.2433,9.8041,5.4256,-1.8085,-0.064888,7.2342,-9.0594e-14,-0.032444,0,0,0.25,-0,-0,0.66667
0.74945,0.37868,2.9978,-0.18197,-1.6017,6.3732,1.4547,-0.48491,-1.8834,1.9396,-5.9574e-11,-0.94169,0,0,0.25,-0,-0,0.66667
0.55828,0.81749,2.2331,0.47623,6.8272,16.926,-2.8359,0.94531,-1.1937,-3.7813,-1.336e-12,-0.59684,0,0,0.25,1.1842e-15,0,0.66667
0.66524,0.27045,2.6609,-0.34432,-3.9363,10.533,2.4432,-0.81441,-1.5777,3.2577,-2.6614e-12,-0.78883,0,0,0.25,5.9212e-16,0,0.66667
0.40406,0.16452,1.6162,-0.50321,-8.8211,27.844,2.1688,-0.72295,-1.0997,2.8918,-1.2488e-12,-0.54985,0,0,0.25,-0,-0,0.66667
0.86609,0.64831,3.4644,0.22247,1.0676,2.297,-2.0552,0.68508,-1.8235,-2.7403,-3.5029e-10,-0.91173,0,0,0.25,-5.9212e-16,0,0.66667
0.5324,0.2351,2.1296,-0.39735,-5.9073,18.549,2.2565,-0.75217,-1.4386,3.0087,5.2625e-13,-0.71929,0,0,0.25,-0,-0,0.66667
0.89484,0.3014,3.5794,-0.29791,-1.12,1.6477,2.8435,-0.94783,-1.6839,3.7913,-1.5572e-09,-0.84193,0,0,0.25,-0,-0,0.66667
0.73971,0.030675,2.9588,-0.70399,-6.7519,7.4065,5.5546,-1.8515,-0.23859,7.4062,-3.9573e-12,-0.11929,0,0,0.25,1.0362e-15,0,0.66667
0.5229,0.73523,2.0916,0.35284,5.3088,19.154,-1.968,0.656,-1.5564,-2.624,-6.0274e-13,-0.77818,0,0,0.25,-0,-0,0.66667
0.71966,0.35729,2.8786,-0.21406,-2.0869,7.727,1.6432,-0.54775,-1.8371,2.191,-3.1335e-11,-0.91856,0,0,0.25,-0,-0,0.66667
0.88675,0.58768,3.547,0.13152,0.5252,1.7223,-1.244,0.41468,-1.9385,-1.6587,-1.6784e-09,-0.96923,0,0,0.25,-1.7764e-15,0,0.66667
0.19451,0.80572,0.77805,0.45858,9.2454,45.137,-0.95146,0.31715,-1.2518,-1.2686,-2.7368e-10,-0.62592,0,0,0.25,1.4803e-16,0,0.66667
0.42981,0.76106,1.7192,0.39159,6.6446,25.819,-1.7953,0.59843,-1.4539,-2.3937,1.5516e-12,-0.72696,0,0,0.25,-0,-0,0.66667
0.85935,0.051229,3.4374,-0.67316,-3.6792,3.0982,6.1704,-2.0568,-0.38926,8.2272,1.7989e-09,-0.19463,0,0,0.25,-0,2.7307e-16,0.66667
0.030496,0.3059,0.12199,-0.29115,-6.0611,59.786,0.094708,-0.031569,-1.6992,0.12628,-4.764e-10,-0.84962,0,0,0.25,-1.8504e-17,0,0.66667
0.13308,0.81319,0.53233,0.46978,9.6779,50.564,-0.66687,0.22229,-1.2159,-0.88916,-6.5663e-11,-0.60794,0,0,0.25,-0,-0,0.66667
0.40535,0.062281,1.6214,-0.65658,-11.616,27.874,2.8388,-0.94628,-0.4689,3.7851,-3.475e-13,-0.23445,0,0,0.25,6.5688e-16,8.2227e-18,0.66667
0.11236,0.96136,0.44944,0.69205,14.517,52.467,-0.82942,0.27647,-0.29711,-1.1059,-3.4034e-09,-0.14856,0,0,0.25,7.4015e-17,0,0.66667
0.72615,0.042525,2.9046,-0.68621,-6.8548,7.9749,5.3151,-1.7717,-0.32486,7.0869,-6.6569e-13,-0.16243,0,0,0.25,-0,-0,0.66667
0.97481,0.36479,3.8992,-0.20282,-0.10557,0.26772,2.1089,-0.70296,-1.853,2.8118,9.7603e-08,-0.92651,0,0,0.25,-0,-0,0.66667
0.48907,0.64006,1.9563,0.21009,3.297,21.416,-1.096,0.36533,-1.8423,-1.4613,1.4211e-14,-0.92113,0,0,0.25,-0,-0,0.66667
0.96027,0.59781,3.8411,0.14672,0.16147,0.39482,-1.5028,0.50093,-1.9234,-2.0037,-2.631e-07,-0.9617,0,0,0.25,-0,-0,0.66667
0.13577,0.63742,0.54308,0.20613,4.2053,50.282,-0.29852,0.099508,-1.8482,-0.39803,-1.3719e-09,-0.92409,0,0,0.25,-0,-0,0.66667
0.70044,0.16041,2.8018,-0.50939,-5.3754,8.9133,3.8059,-1.2686,-1.0779,5.0745,-6.4042e-12,-0.53894,0,0,0.25,-0,-0,0.66667
0.58286,0.50707,2.3314,0.010607,0.14322,15.148,-0.065944,0.021981,-1.9993,-0.087926,9.3967e-14,-0.99966,0,0,0.25,-2.3685e-15,0,0.66667
0.79173,0.15422,3.1669,-0.51867,-3.9711,5.0032,4.3802,-1.4601,-1.0439,5.8403,-1.6272e-10,-0.52197,0,0,0.25,-1.0979e-15,0,0.66667
0.5377,0.032374,2.1508,-0.70144,-10.586,18.517,4.0231,-1.341,-0.25111,5.3641,3.7303e-14,-0.12556,0,0,0.25,-0,-0,0.66667
0.97989,0.7481,3.9196,0.37215,0.15242,0.38947,-3.8897,1.2966,-1.5081,-5.1863,4.715e-09,-0.75407,0,0,0.25,1.4803e-15,0,0.66667
0.43965,0.39214,1.7586,-0.16179,-2.6943,24.985,0.75872,-0.25291,-1.9066,1.0116,-1.1011e-12,-0.95332,0,0,0.25,-0,-0,0.66667
0.95027,0.5597,3.8011,0.089546,0.13378,0.50286,-0.90766,0.30255,-1.9722,-1.2102,1.0657e-07,-0.98608,0,0,0.25,2.9606e-16,0,0.66667
0.91828,0.069413,3.6731,-0.64588,-2.0627,1.6985,6.3264,-2.1088,-0.51667,8.4352,-1.6107e-08,-0.25833,0,0,0.25,2.3685e-15,0,0.66667
0.42387,0.83958,1.6955,0.50936,8.754,26.345,-2.303,0.76766,-1.0781,-3.0706,1.2355e-12,-0.53907,0,0,0.25,-0,-0,0.66667
0.41052,0.40633,1.6421,-0.1405,-2.4131,27.18,0.61522,-0.20507,-1.9308,0.8203,-1.1553e-12,-0.96538,0,0,0.25,-0,-0,0.66667
0.019947,0.15337,0.079788,-0.51994,-10.93,60.75,0.11063,-0.036876,-1.0392,0.1475,-5.8902e-08,-0.51959,0,0,0.25,3.7007e-17,0,0.66667
0.44849,0.183,1.794,-0.47549,-7.9376,24.489,2.2747,-0.75825,-1.1962,3.033,-1.0278e-12,-0.59809,0,0,0.25,2.9606e-16,0,0.66667
0.19941,0.66022,0.79764,0.24034,4.7975,44.655,-0.51121,0.1704,-1.7949,-0.68161,-1.5418e-10,-0.89746,0,0,0.25,-0,-0,0.66667
0.33593,0.65222,1.3437,0.22833,4.2005,33.096,-0.81815,0.27272,-1.8146,-1.0909,-3.5352e-12,-0.90729,0,0,0.25,9.3906e-16,0,0.66667
0.28252,0.058519,1.1301,-0.66222,-12.915,37.708,1.9956,-0.6652,-0.44161,2.6608,1.0886e-12,-0.22081,0,0,0.25,-4.4409e-16,0,0.66667
0.6702,0.42633,2.6808,-0.11051,-1.2355,10.145,0.78998,-0.26333,-1.9565,1.0533,-3.4635e-12,-0.97826,0,0,0.25,-0,-0,0.66667
0.44017,0.44975,1.7607,-0.075378,-1.253,24.93,0.35392,-0.11797,-1.9794,0.47189,-6.3888e-13,-0.98972,0,0,0.25,-0,-0,0.66667
0.60025,0.34235,2.401,-0.23648,-3.103,14.144,1.5141,-0.5047,-1.8016,2.0188,1.5936e-12,-0.90081,0,0,0.25,-1.2583e-15,0,0.66667
0.84352,0.70547,3.3741,0.3082,1.7473,3.0097,-2.7731,0.92435,-1.6625,-3.6974,5.7425e-10,-0.83126,0,0,0.25,-0,-0,0.66667
0.83277,0.6182,3.3311,0.1773,1.0616,3.2475,-1.5749,0.52497,-1.888,-2.0999,5.4444e-10,-0.94399,0,0,0.25,5.9212e-16,0,0.66667
0.58556,0.98599,2.3422,0.72899,10.196,15.534,-4.5532,1.5177,-0.10949,-6.071,2.4825e-13,-0.054747,0,0,0.25,-1.1842e-15,0,0.66667
0.44054,0.038786,1.7621,-0.69182,-11.834,25.273,3.2509,-1.0836,-0.29819,4.3345,-1.4122e-13,-0.1491,0,0,0.25,-0,-0,0.66667
0.40041,0.82476,1.6016,0.48715,8.5619,28.113,-2.0806,0.69354,-1.1554,-2.7742,1.9718e-12,-0.57769,0,0,0.25,-0,-0,0.66667
0.071127,0.73671,0.28451,0.35507,7.3758,56.109,-0.26939,0.089796,-1.5508,-0.35918,5.4489e-09,-0.77539,0,0,0.25,-8.4231e-17,0,0.66667
0.46738,0.98111,1.8695,0.72167,12.001,23.361,-3.5978,1.1993,-0.1482,-4.7971,8.904e-14,-0.074099,0,0,0.25,-0,-0,0.66667
0.40304,0.4091,1.6122,-0.13636,-2.3595,27.754,0.58621,-0.1954,-1.9345,0.78161,-7.5789e-13,-0.96724,0,0,0.25,-0,-0,0.66667
0.20153,0.61706,0.80612,0.17558,3.4969,44.46,-0.37745,0.12582,-1.8906,-0.50326,-2.0756e-10,-0.94531,0,0,0.25,-0,-0,0.66667
0.80272,0.92677,3.2109,0.64015,4.7553,4.8053,-5.4812,1.8271,-0.54221,-7.3083,4.8956e-11,-0.2711,0,0,0.25,-0,-0,0.66667
0.69815,0.77512,2.7926,0.41268,4.3449,8.9147,-3.0732,1.0244,-1.3943,-4.0976,1.1543e-11,-0.69714,0,0,0.25,-0,-0,0.66667
0.97541,0.64526,3.9016,0.21789,0.10944,0.27286,-2.267,0.75565,-1.8304,-3.0226,-2.8217e-08,-0.91519,0,0,0.25,1.1842e-15,0,0.66667
0.38552,0.12996,1.5421,-0.55506,-9.9349,29.315,2.2825,-0.76083,-0.90452,3.0433,-1.676e-12,-0.45226,0,0,0.25,1.1842e-15,0,0.66667
0.41693,0.73451,1.6677,0.35176,6.0398,26.768,-1.5644,0.52146,-1.5592,-2.0858,1.709e-12,-0.77961,0,0,0.25,5.9212e-16,0,0.66667
0.51973,0.99757,2.0789,0.74636,11.617,19.768,-4.1377,1.3792,-0.019875,-5.5169,3.4772e-13,-0.0099373,0,0,0.25,-1.9244e-15,0,0.66667
0.35329,0.024974,1.4132,-0.71254,-13.263,31.979,2.6851,-0.89505,-0.19447,3.5802,-3.1974e-13,-0.097236,0,0,0.25,-5.9212e-16,0,0.66667
0.54525,0.83111,2.181,0.49666,7.2829,17.788,-2.8886,0.96286,-1.1228,-3.8514,-9.1371e-13,-0.5614,0,0,0.25,5.9212e-16,0,0.66667
0.88975,0.49816,3.559,-0.0027625,-0.010664,1.6238,0.026218,-0.0087394,-2.0013,0.034958,-3.4164e-08,-1.0007,0,0,0.25,1.7764e-15,0,0.66667
0.73052,0.93548,2.9221,0.65321,6.4066,7.7214,-5.09,1.6967,-0.48352,-6.7866,2.8728e-12,-0.24176,0,0,0.25,-1.1842e-15,-2.5894e-16,0.66667
0.20651,0.14358,0.82605,-0.53462,-10.766,44.118,1.1777,-0.39256,-0.98322,1.5702,1.7635e-10,-0.49161,0,0,0.25,2.9606e-16,0,0.66667
0.80015,0.65123,3.2006,0.22685,1.6208,4.3867,-1.9361,0.64537,-1.8173,-2.5815,1.5305e-10,-0.90863,0,0,0.25,-0,-0,0.66667
0.79531,0.20932,3.1812,-0.43601,-3.2498,4.7601,3.6988,-1.2329,-1.3242,4.9318,-2.7097e-10,-0.66208,0,0,0.25,-5.9212e-16,0,0.66667
0.79909,0.59601,3.1964,0.14402,1.0296,4.3817,-1.2276,0.4092,-1.9272,-1.6368,2.5813e-11,-0.96358,0,0,0.25,2.3685e-15,0,0.66667
0.3168,0.49343,1.2672,-0.0098512,-0.18332,34.631,0.033289,-0.011096,-1.9995,0.044386,2.8781e-13,-0.99974,0,0,0.25,2.9606e-16,0,0.66667
0.61295,0.86959,2.4518,0.55439,7.2367,13.662,-3.6247,1.2082,-0.90733,-4.8329,-1.4879e-12,-0.45366,0,0,0.25,-2.9606e-16,0,0.66667
0.65229,0.99038,2.6092,0.73556,8.999,11.719,-5.1179,1.706,-0.075823,-6.8238,2.931e-14,-0.037911,0,0,0.25,-1.7764e-15,0,0.66667
0.12023,0.84892,0.4809,0.52339,10.848,51.723,-0.67119,0.22373,-1.026,-0.89492,1.4347e-09,-0.51299,0,0,0.25,-2.9606e-16,0,0.66667
0.91868,0.46765,3.6747,-0.04853,-0.13335,1.0138,0.47555,-0.15852,-1.9926,0.63407,2.4219e-08,-0.99628,0,0,0.25,-2.9606e-16,0,0.66667
0.36814,0.84175,1.4725,0.51262,9.2945,30.646,-2.013,0.67098,-1.066,-2.6839,1.656e-12,-0.53299,0,0,0.25,6.6613e-16,0,0.66667
0.68838,0.16083,2.7535,-0.50876,-5.5502,9.5085,3.7357,-1.2452,-1.0806,4.9809,-2.9612e-12,-0.54028,0,0,0.25,-0,-0,0.66667
0.92834,0.017931,3.7134,-0.7231,-2.102,1.6968,7.1604,-2.3868,-0.13995,9.5472,-1.7114e-08,-0.069976,0,0,0.25,-0,-0,0.66667
0.67487,0.62506,2.6995,0.18759,2.0766,9.9274,-1.3504,0.45013,-1.8761,-1.8005,5.655e-12,-0.93803,0,0,0.25,2.3685e-15,0,0.66667
0.93848,0.4245,3.7539,-0.11325,-0.22357,0.68639,1.1337,-0.37789,-1.9544,1.5115,5.2975e-08,-0.97722,0,0,0.25,1.1842e-15,0,0.66667
0.69911,0.84806,2.7964,0.52209,5.5373,8.9947,-3.8933,1.2978,-1.031,-5.1911,5.0624e-12,-0.51551,0,0,0.25,-0,-0,0.66667
0.17086,0.74637,0.68343,0.36955,7.4904,47.191,-0.6735,0.2245,-1.5154,-0.898,-5.2408e-10,-0.7577,0,0,0.25,2.9606e-16,0,0.66667
0.72891,0.18436,2.9156,-0.47346,-4.5679,7.5313,3.6811,-1.227,-1.2032,4.9081,-2.8234e-11,-0.6016,0,0,0.25,2.158e-16,0,0.66667
0.40572,0.53414,1.6229,0.05121,0.88292,27.537,-0.22162,0.073874,-1.9919,-0.2955,3.2657e-13,-0.99597,0,0,0.25,-0,-0,0.66667
0.31857,0.61105,1.2743,0.16657,3.1005,34.501,-0.56603,0.18868,-1.9004,-0.7547,-7.2785e-12,-0.95021,0,0,0.25,-0,-0,0.66667
0.78065,0.35957,3.1226,-0.21064,-1.642,5.1103,1.754,-0.58467,-1.8423,2.3387,-1.4041e-10,-0.92117,0,0,0.25,1.1842e-15,0,0.66667
0.79049,0.36944,3.162,-0.19584,-1.4608,4.7252,1.6513,-0.55043,-1.8634,2.2017,-1.3234e-10,-0.93169,0,0,0.25,-5.9212e-16,0,0.66667
0.94901,0.35226,3.796,-0.22161,-0.35183,0.58987,2.2433,-0.74776,-1.825,2.991,1.2475e-08,-0.91252,0,0,0.25,-0,-0,0.66667
0.20319,0.74756,0.81274,0.37134,7.4314,44.354,-0.80481,0.26827,-1.5112,-1.0731,-2.7009e-10,-0.7556,0,0,0.25,-2.9606e-16,0,0.66667
0.53266,0.3068,2.1307,-0.2898,-4.2844,18.462,1.6466,-0.54885,-1.702,2.1954,6.2828e-13,-0.85098,0,0,0.25,8.8818e-16,0,0.66667
0.77212,0.48237,3.0885,-0.026439,-0.21237,5.3869,0.21775,-0.072585,-1.9966,0.29034,-2.2349e-11,-0.99829,0,0,0.25,-0,-0,0.66667
0.51635,0.57954,2.0654,0.11931,1.7988,19.497,-0.6571,0.21903,-1.9495,-0.87614,-4.0162e-13,-0.97474,0,0,0.25,-0,-0,0.66667
0.22879,0.53442,0.91515,0.051636,1.0139,42.078,-0.12601,0.042004,-1.9907,-0.16802,-9.9974e-12,-0.99535,0,0,0.25,-0,-0,0.66667
0.99529,0.92434,3.9812,0.63651,0.023739,0.74545,-6.7575,2.2525,-0.55872,-9.01,6.8368e-07,-0.27936,0,0,0.25,-1.1842e-15,0,0.66667
0.88932,0.73493,3.5573,0.35239,1.4118,1.8303,-3.3428,1.1143,-1.5584,-4.4571,7.2755e-10,-0.77919,0,0,0.25,-0,-0,0.66667
0.57714,0.2361,2.3086,-0.39585,-5.4653,15.665,2.437,-0.81232,-1.4429,3.2493,1.6693e-12,-0.72143,0,0,0.25,-1.1842e-15,0,0.66667
0.53805,0.24345,2.1522,-0.38483,-5.6676,18.165,2.2086,-0.7362,-1.473,2.9448,7.6095e-13,-0.73652,0,0,0.25,-8.8818e-16,0,0.66667
0.83998,0.28499,3.3599,-0.32251,-1.8725,3.1307,2.8896,-0.9632,-1.6305,3.8528,-5.8103e-10,-0.81526,0,0,0.25,-0,-0,0.66667
0.91463,0.66044,3.6585,0.24067,0.71322,1.1821,-2.348,0.78265,-1.794,-3.1306,8.9461e-09,-0.89699,0,0,0.25,-0,-0,0.66667
0.81959,0.85147,3.2783,0.5272,3.5366,4.0378,-4.6089,1.5363,-1.0112,-6.1452,2.957e-10,-0.50561,0,0,0.25,-0,-0,0.66667
0.43281,0.67654,1.7312,0.2648,4.4557,25.53,-1.2225,0.4075,-1.75,-1.63,1.4975e-12,-0.87502,0,0,0.25,5.9212e-16,0,0.66667
0.85562,0.96994,3.4225,0.70491,3.9809,3.2671,-6.4334,2.1445,-0.23407,-8.5779,4.3169e-10,-0.11703,0,0,0.25,-0,4.3324e-17,0.66667
0.22561,0.09507,0.90242,-0.60739,-12.176,42.5,1.4617,-0.48722,-0.6887,1.9489,5.0089e-11,-0.34435,0,0,0.25,-5.9212e-16,0,0.66667
0.54052,0.4383,2.1621,-0.092554,-1.3445,17.869,0.53362,-0.17787,-1.9701,0.71149,2.0001e-13,-0.98506,0,0,0.25,-2.3685e-15,0,0.66667
0.31515,0.66325,1.2606,0.24488,4.5776,34.801,-0.82318,0.27439,-1.7869,-1.0976,-9.5261e-12,-0.89344,0,0,0.25,-5.9212e-16,0,0.66667
0.11963,0.32401,0.47854,-0.26399,-5.4163,51.732,0.33688,-0.11229,-1.7515,0.44917,2.9103e-10,-0.87573,0,0,0.25,2.9606e-16,0,0.66667
0.14551,0.41987,0.58205,-0.12019,-2.4415,49.405,0.18655,-0.062184,-1.9478,0.24873,-2.4368e-10,-0.97392,0,0,0.25,-2.9606e-16,0,0.66667
0.9366,0.14387,3.7464,-0.5342,-1.2456,1.1701,5.3369,-1.779,-0.98545,7.1158,1.2755e-08,-0.49273,0,0,0.25,-1.1842e-15,0,0.66667
0.19499,0.99856,0.77997,0.74783,15.345,45.216,-1.5554,0.51848,-0.011942,-2.0739,2.2708e-10,-0.0059708,0,0,0.25,-9.6219e-16,0,0.66667
0.64991,0.17651,2.5996,-0.48524,-5.8147,11.494,3.3638,-1.1213,-1.162,4.4851,1.1915e-12,-0.58101,0,0,0.25,-0,-0,0.66667
0.23912,0.45247,0.95648,-0.071301,-1.3929,41.187,0.18186,-0.060621,-1.9811,0.24248,3.4592e-11,-0.99056,0,0,0.25,2.9606e-16,0,0.66667
0.52547,0.34398,2.1019,-0.23402,-3.4908,18.916,1.3117,-0.43723,-1.806,1.7489,4.2299e-13,-0.90301,0,0,0.25,-2.3685e-15,0,0.66667
0.13063,0.85588,0.52254,0.53382,11.04,50.797,-0.74384,0.24795,-0.98597,-0.99179,-1.3053e-09,-0.49299,0,0,0.25,-0,-0,0.66667
0.28954,0.51812,1.1582,0.027185,0.51548,36.898,-0.083958,0.027986,-1.9964,-0.11194,-4.1531e-12,-0.99821,0,0,0.25,-0,-0,0.66667
0.40052,0.98596,1.6021,0.72894,13.032,28.314,-3.1142,1.0381,-0.10986,-4.1523,3.4972e-13,-0.054929,0,0,0.25,-0,-0,0.66667
0.70668,0.93804,2.8267,0.65705,6.928,8.8285,-4.9528,1.6509,-0.46597,-6.6038,-2.8288e-13,-0.23298,0,0,0.25,2.3685e-15,0,0.66667
0.90107,0.40516,3.6043,-0.14226,-0.49078,1.4007,1.3673,-0.45577,-1.9287,1.8231,9.1524e-09,-0.96433,0,0,0.25,-1.4803e-16,0,0.66667
0.42858,0.59949,1.7143,0.14924,2.5154,25.811,-0.68225,0.22742,-1.9205,-0.90967,1.0464e-12,-0.96026,0,0,0.25,-1.1842e-15,0,0.66667
0.71382,0.00089213,2.8553,-0.74866,-7.8318,8.6549,5.7004,-1.9001,-0.0078239,7.6005,5.0493e-13,-0.0039119,0,0,0.25,-0,-0,0.66667
0.13909,0.17137,0.55635,-0.49295,-10.149,50.035,0.73133,-0.24378,-1.1359,0.97511,1.8926e-09,-0.56793,0,0,0.25,-0,-0,0.66667
0.10058,0.26769,0.4023,-0.34847,-7.1994,53.454,0.37384,-0.12461,-1.5673,0.49845,-1.1715e-09,-0.78365,0,0,0.25,-0,-0,0.66667
0.44811,0.26291,1.7924,-0.35564,-5.9026,24.438,1.6999,-0.56663,-1.5495,2.2665,-1.1929e-12,-0.77476,0,0,0.25,-1.1842e-15,0,0.66667
0.76051,0.36574,3.042,-0.20139,-1.7025,5.9157,1.6337,-0.54457,-1.8552,2.1783,-8.4617e-11,-0.92761,0,0,0.25,-5.9212e-16,0,0.66667
0.23162,0.18404,0.92646,-0.47394,-9.4023,41.924,1.1709,-0.3903,-1.2019,1.5612,9.0788e-11,-0.60096,0,0,0.25,1.4259e-16,0,0.66667
0.80913,0.60592,3.2365,0.15888,1.0819,4.0288,-1.3712,0.45708,-1.9097,-1.8283,1.4468e-10,-0.95487,0,0,0.25,-1.1842e-15,0,0.66667
0.25241,0.45778,1.0096,-0.06333,-1.2283,40.046,0.17051,-0.056836,-1.9855,0.22734,2.3066e-11,-0.99276,0,0,0.25,-0,-0,0.66667
0.083801,0.94775,0.3352,0.67162,14.15,55.014,-0.60035,0.20012,-0.39549,-0.80046,-4.6699e-09,-0.19775,0,0,0.25,-0,-0,0.66667
0.513,0.18077,2.052,-0.47885,-7.3616,19.922,2.6203,-0.87343,-1.1848,3.4937,4.8628e-14,-0.59242,0,0,0.25,3.0376e-16,0,0.66667
0.00097781,0.69041,0.0039112,0.28562,5.9508,62.467,-0.002979,0.00099298,-1.7111,-0.003972,-3.2528e-08,-0.85553,0,0,0.25,-0,-6.871e-16,0.66667
0.70811,0.81301,2.8325,0.46951,4.8273,8.4944,-3.5463,1.1821,-1.217,-4.7285,1.231e-11,-0.60848,0,0,0.25,-0,-0,0.66667
0.73906,0.29006,2.9562,-0.31491,-2.8973,6.9139,2.4825,-0.82751,-1.6469,3.31,-6.081e-11,-0.82347,0,0,0.25,-0,-0,0.66667
0.97332,0.83098,3.8933,0.49647,0.39492,0.63788,-5.1544,1.7181,-1.1229,-6.8725,-7.0763e-08,-0.56145,0,0,0.25,-1.1842e-15,0,0.66667
0.66316,0.7083,2.6527,0.31245,3.5835,10.619,-2.2102,0.73674,-1.6521,-2.9469,2.5551e-12,-0.82604,0,0,0.25,-5.9212e-16,0,0.66667
0.49422,0.29566,1.9769,-0.30651,-4.7928,21.098,1.6158,-0.5386,-1.6651,2.1544,-1.8718e-13,-0.83253,0,0,0.25,-0,-0,0.66667
0.073623,0.5094,0.29449,0.014096,0.29086,55.867,-0.01107,0.0036898,-1.9988,-0.01476,-3.2388e-07,-0.9994,0,0,0.25,-0,-0,0.66667
0.5343,0.45209,2.1372,-0.071862,-1.0539,18.278,0.40955,-0.13652,-1.9811,0.54607,1.4388e-13,-0.99056,0,0,0.25,-0,-0,0.66667
0.14183,0.40311,0.56732,-0.14533,-2.9565,49.735,0.21987,-0.07329,-1.9259,0.29316,-1.2447e-09,-0.96296,0,0,0.25,-1.4803e-16,0,0.66667
0.80239,0.59772,3.2096,0.14658,1.0315,4.2632,-1.2545,0.41818,-1.9237,-1.6727,3.3491e-11,-0.96183,0,0,0.25,-0,-0,0.66667
0.57615,0.058198,2.3046,-0.6627,-9.3599,16.016,4.0727,-1.3576,-0.43911,5.4303,1.1458e-13,-0.21956,0,0,0.25,2.9606e-16,1.4057e-16,0.66667
0.21291,0.32221,0.85166,-0.26668,-5.2954,43.482,0.60566,-0.20189,-1.7465,0.80754,1.8362e-10,-0.87323,0,0,0.25,-0,-0,0.66667
0.70706,0.23416,2.8282,-0.39877,-4.0873,8.4678,3.0075,-1.0025,-1.4339,4.0099,-1.8036e-11,-0.71697,0,0,0.25,1.1842e-15,0,0.66667
0.33301,0.48022,1.332,-0.029665,-0.5454,33.303,0.10537,-0.035125,-1.9962,0.1405,4.9491e-13,-0.99809,0,0,0.25,-0,-0,0.66667
0.6691,0.6906,2.6764,0.2859,3.2261,10.285,-2.0405,0.68017,-1.71,-2.7207,4.1109e-12,-0.855,0,0,0.25,2.3685e-15,0,0.66667
0.77955,0.074944,3.1182,-0.63758,-5.2329,5.6549,5.3016,-1.7672,-0.55448,7.0689,-3.2599e-11,-0.27724,0,0,0.25,1.1842e-15,-2.8379e-16,0.66667
0.086576,0.25356,0.3463,-0.36966,-7.6637,54.717,0.34137,-0.11379,-1.5142,0.45516,4.8135e-11,-0.75708,0,0,0.25,-2.9606e-16,0,0.66667
0.51066,0.065925,2.0426,-0.65111,-10.175,20.258,3.5466,-1.1822,-0.49284,4.7288,-3.9968e-15,-0.24642,0,0,0.25,-1.1842e-15,0,0.66667
0.10367,0.17119,0.4147,-0.49321,-10.245,53.198,0.54542,-0.18181,-1.1342,0.72723,7.9006e-09,-0.5671,0,0,0.25,1.4803e-16,0,0.66667
0.64946,0.12302,2.5978,-0.56547,-6.8326,11.616,3.9173,-1.3058,-0.86343,5.2231,1.5228e-12,-0.43172,0,0,0.25,-1.4803e-15,0,0.66667
0.3155,0.033824,1.262,-0.69926,-13.379,35.013,2.3532,-0.78441,-0.26212,3.1377,-7.6938e-13,-0.13106,0,0,0.25,1.1842e-15,0,0.66667
0.6435,0.067169,2.574,-0.64925,-8.0202,12.059,4.4564,-1.4855,-0.50161,5.9419,6.0707e-13,-0.25081,0,0,0.25,-0,-0,0.66667
0.048554,0.67673,0.19422,0.2651,5.5068,58.146,-0.1373,0.045766,-1.7501,-0.18306,-5.8257e-09,-0.87504,0,0,0.25,-0,-0,0.66667
0.867,0.23599,3.468,-0.39602,-1.9313,2.438,3.6624,-1.2208,-1.4414,4.8831,-1.5175e-09,-0.7207,0,0,0.25,1.1842e-15,0,0.66667
0.47816,0.47888,1.9126,-0.031673,-0.50277,22.154,0.16155,-0.053848,-1.9957,0.21539,-1.9088e-13,-0.99785,0,0,0.25,-0,-0,0.66667
0.79355,0.50768,3.1742,0.011514,0.084229,4.5567,-0.097458,0.032486,-1.9994,-0.12994,2.0891e-11,-0.9997,0,0,0.25,4.737e-15,0,0.66667
0.22664,0.019746,0.90655,-0.72038,-14.546,42.472,1.7415,-0.5805,-0.15396,2.322,-4.3755e-12,-0.076982,0,0,0.25,-0,-0,0.66667
0.33497,0.25484,1.3399,-0.36774,-6.802,33.223,1.314,-0.43799,-1.519,1.752,2.2335e-12,-0.7595,0,0,0.25,-1.1842e-15,0,0.66667
0.76377,0.9978,3.0551,0.7467,6.6332,6.4825,-6.0833,2.0278,-0.018559,-8.1111,-1.1404e-11,-0.0092794,0,0,0.25,-0,-0,0.66667
0.85342,0.91213,3.4137,0.61819,3.4672,3.1542,-5.6275,1.8758,-0.64096,-7.5033,1.2048e-10,-0.32048,0,0,0.25,-0,-0,0.66667
0.43712,0.35022,1.7485,-0.22467,-3.7578,25.192,1.0476,-0.34918,-1.8213,1.3967,-1.3896e-12,-0.91065,0,0,0.25,1.1842e-15,0,0.66667
0.93033,0.55636,3.7213,0.084533,0.19384,0.81116,-0.83886,0.27962,-1.9742,-1.1185,4.5877e-08,-0.98711,0,0,0.25,1.7764e-15,0,0.66667
0.57961,0.018522,2.3185,-0.72222,-10.201,15.887,4.4651,-1.4884,-0.14534,5.9535,6.2172e-15,-0.072672,0,0,0.25,-0,-0,0.66667
0.049097,0.99358,0.19639,0.74037,15.746,58.139,-0.38774,0.12925,-0.051262,-0.51698,7.7584e-07,-0.025631,0,0,0.25,2.2204e-16,0,0.66667
0.45286,0.070823,1.8114,-0.64377,-10.818,24.321,3.1097,-1.0366,-0.52704,4.1463,-2.891e-13,-0.26352,0,0,0.25,-0,-0,0.66667
0.1604,0.3685,0.6416,-0.19726,-3.9928,48.088,0.33749,-0.1125,-1.8615,0.44999,3.5764e-10,-0.93076,0,0,0.25,-2.9606e-16,0,0.66667
0.73282,0.089993,2.9313,-0.61501,-5.9567,7.5556,4.8074,-1.6025,-0.65597,6.4099,-7.7609e-12,-0.32799,0,0,0.25,-3.7516e-16,1.2526e-16,0.66667
0.34735,0.95256,1.3894,0.67885,12.663,32.423,-2.5152,0.8384,-0.36086,-3.3536,5.7088e-13,-0.18043,0,0,0.25,-0,-0,0.66667
0.20118,0.56136,0.80471,0.092041,1.8312,44.483,-0.19751,0.065837,-1.9711,-0.26335,-2.0182e-10,-0.98554,0,0,0.25,3.5157e-16,0,0.66667
0.84279,0.57898,3.3712,0.11847,0.66483,2.9104,-1.065,0.35501,-1.9501,-1.4201,3.3344e-10,-0.97505,0,0,0.25,-0,-0,0.66667
0.8178,0.15611,3.2712,-0.51584,-3.4863,4.0802,4.4998,-1.4999,-1.0547,5.9997,-9.0188e-11,-0.52735,0,0,0.25,-1.6376e-15,0,0.66667
0.34365,0.11076,1.3746,-0.58386,-10.851,32.646,2.1402,-0.71339,-0.78821,2.8536,-1.255e-12,-0.39411,0,0,0.25,-5.9212e-16,2.9373e-16,0.66667
0.40362,0.40093,1.6145,-0.14861,-2.5705,27.712,0.6398,-0.21327,-1.9218,0.85307,-9.3692e-13,-0.9609,0,0,0.25,-8.8818e-16,0,0.66667
0.0606,0.29818,0.2424,-0.30274,-6.2869,57.057,0.19569,-0.06523,-1.6739,0.26092,-5.3118e-09,-0.83694,0,0,0.25,-0,-0,0.66667
0.17888,0.86191,0.71554,0.54286,11.06,46.534,-1.0358,0.34528,-0.95124,-1.3811,-4.8712e-10,-0.47562,0,0,0.25,2.9606e-16,0,0.66667
0.73592,0.10824,2.9437,-0.58764,-5.6146,7.3754,4.6128,-1.5376,-0.77204,6.1505,-1.298e-11,-0.38602,0,0,0.25,-0,-0,0.66667
0.56613,0.01939,2.2645,-0.72092,-10.418,16.722,4.3534,-1.4511,-0.15158,5.8045,7.2387e-14,-0.07579,0,0,0.25,-0,-0,0.66667
0.82324,0.18884,3.2929,-0.46673,-3.0421,3.8296,4.0985,-1.3662,-1.2261,5.4647,-6.0248e-10,-0.61303,0,0,0.25,-0,-0,0.66667
0.50115,0.43709,2.0046,-0.094362,-1.4533,20.539,0.50442,-0.16814,-1.9699,0.67257,-1.7941e-13,-0.98495,0,0,0.25,-7.4015e-17,0,0.66667
0.76786,0.59669,3.0714,0.14503,1.1883,5.5868,-1.1879,0.39596,-1.926,-1.5839,6.2263e-11,-0.963,0,0,0.25,-0,-0,0.66667
0.50992,0.59353,2.0397,0.1403,2.1358,19.942,-0.7631,0.25437,-1.9308,-1.0175,-5.7487e-13,-0.96538,0,0,0.25,1.3693e-15,0,0.66667
0.56807,0.60153,2.2723,0.1523,2.1154,16.099,-0.92285,0.30762,-1.9171,-1.2305,-1.153e-12,-0.95853,0,0,0.25,1.1842e-15,0,0.66667
0.18462,0.82906,0.73847,0.49358,10.008,46.014,-0.972,0.324,-1.1333,-1.296,-3.5138e-10,-0.56665,0,0,0.25,-0,-0,0.66667
0.5444,0.11315,2.1776,-0.58028,-8.5746,17.93,3.3697,-1.1232,-0.80245,4.4929,1.7875e-13,-0.40123,0,0,0.25,5.9212e-16,4.2602e-17,0.66667
0.20103,0.12017,0.80413,-0.56975,-11.523,44.609,1.2217,-0.40725,-0.84632,1.629,5.8366e-11,-0.42316,0,0,0.25,4.4409e-16,-3.664e-16,0.66667
0.55622,0.11992,2.2249,-0.57011,-8.2592,17.156,3.3825,-1.1275,-0.84417,4.51,4.9938e-13,-0.42208,0,0,0.25,-2.9606e-16,0,0.66667
0.14144,0.22933,0.56576,-0.406,-8.3206,49.806,0.61253,-0.20418,-1.4141,0.81671,1.1387e-09,-0.70707,0,0,0.25,-0,-0,0.66667
0.18601,0.67068,0.74404,0.25602,5.1409,45.833,-0.50797,0.16932,-1.7668,-0.6773,-3.0957e-10,-0.8834,0,0,0.25,-2.9606e-16,0,0.66667
0.76478,0.26109,3.0591,-0.35837,-3.0122,5.8585,2.9234,-0.97448,-1.5436,3.8979,-1.2288e-10,-0.77178,0,0,0.25,-0,-0,0.66667
0.070886,0.28377,0.28355,-0.32434,-6.7307,56.128,0.24524,-0.081747,-1.6262,0.32699,-4.7791e-09,-0.81309,0,0,0.25,-0,-0,0.66667
0.36931,0.27069,1.4773,-0.34396,-6.1786,30.458,1.355,-0.45166,-1.5786,1.8066,-1.6377e-12,-0.78931,0,0,0.25,2.9606e-16,0,0.66667
0.87788,0.1537,3.5115,-0.51945,-2.3837,2.334,4.8642,-1.6214,-1.0413,6.4855,3.093e-09,-0.52066,0,0,0.25,2.9606e-16,0,0.66667
0.10434,0.81473,0.41735,0.4721,9.7956,53.134,-0.52542,0.17514,-1.208,-0.70056,2.7656e-09,-0.60398,0,0,0.25,2.9606e-16,0,0.66667
0.35915,0.43564,1.4366,-0.096545,-1.7386,31.196,0.36986,-0.12329,-1.9684,0.49315,1.5526e-13,-0.9842,0,0,0.25,2.9606e-16,0,0.66667
0.11396,0.97971,0.45584,0.71957,15.118,52.332,-0.87469,0.29156,-0.15839,-1.1663,-3.2068e-09,-0.079195,0,0,0.25,2.9606e-16,0,0.66667
0.87654,0.071392,3.5062,-0.64291,-3.0781,2.5908,6.0111,-2.0037,-0.53052,8.0148,-8.4027e-09,-0.26526,0,0,0.25,-0,-0,0.66667
0.12624,0.20061,0.50495,-0.44909,-9.2598,51.17,0.60471,-0.20157,-1.2829,0.80628,1.7418e-09,-0.64144,0,0,0.25,-0,-0,0.66667
0.25456,0.13766,1.0182,-0.54352,-10.693,39.994,1.4758,-0.49193,-0.94894,1.9677,2.93e-11,-0.47447,0,0,0.25,-0,-0,0.66667
0.42191,0.18885,1.6876,-0.46673,-8.0177,26.462,2.1004,-0.70015,-1.2272,2.8006,-1.5619e-12,-0.61359,0,0,0.25,-0,-0,0.66667
0.66526,0.27306,2.661,-0.34041,-3.8904,10.529,2.4156,-0.80518,-1.5874,3.2207,-2.7347e-12,-0.7937,0,0,0.25,-0,-0,0.66667
0.34471,0.26224,1.3788,-0.35664,-6.5434,32.43,1.3113,-0.43711,-1.5478,1.7484,4.4742e-13,-0.77392,0,0,0.25,5.9212e-16,0,0.66667
0.2135,0.84467,0.85401,0.517,10.368,43.505,-1.1774,0.39246,-1.0503,-1.5699,-9.9476e-11,-0.52514,0,0,0.25,-0,-0,0.66667
0.37339,0.58753,1.4935,0.1313,2.3363,30.07,-0.52294,0.17431,-1.9391,-0.69725,3.1586e-13,-0.96957,0,0,0.25,2.9606e-16,0,0.66667
0.57102,0.974,2.2841,0.71101,10.18,16.402,-4.3307,1.4436,-0.20232,-5.7742,8.2157e-14,-0.10116,0,0,0.25,-0,-0,0.66667
0.99075,0.12581,3.963,-0.56129,-0.076425,0.61458,5.9317,-1.9772,-0.88043,7.9089,6.1588e-08,-0.44021,0,0,0.25,2.3685e-15,0,0.66667
0.32717,0.63899,1.3087,0.20849,3.8595,33.805,-0.72759,0.24253,-1.8455,-0.97011,-5.3902e-12,-0.92273,0,0,0.25,-0,-0,0.66667
0.3622,0.55245,1.4488,0.078675,1.4128,30.951,-0.30396,0.10132,-1.9777,-0.40528,-2.8128e-13,-0.98887,0,0,0.25,-0,-0,0.66667
0.70624,0.099204,2.8249,-0.60119,-6.3032,8.7614,4.5289,-1.5096,-0.71509,6.0385,-2.3426e-12,-0.35755,0,0,0.25,-2.3685e-15,0,0.66667
0.29894,0.44449,1.1957,-0.083263,-1.5696,36.116,0.2655,-0.088499,-1.9756,0.354,8.3878e-12,-0.98779,0,0,0.25,-5.9212e-16,0,0.66667
0.3497,0.51382,1.3988,0.020736,0.37618,31.949,-0.077349,0.025783,-1.9976,-0.10313,-5.435e-13,-0.99878,0,0,0.25,-0,-0,0.66667
0.99471,0.016505,3.9788,-0.72524,-0.13586,0.9625,7.695,-2.565,-0.12901,10.26,-9.3958e-06,-0.064505,0,0,0.25,2.3685e-15,0,0.66667
0.60427,0.94035,2.4171,0.66053,8.8595,14.312,-4.2574,1.4191,-0.44903,-5.6766,-3.4284e-13,-0.22451,0,0,0.25,-2.3685e-15,0,0.66667
0.82881,0.22529,3.3152,-0.41207,-2.5844,3.5783,3.643,-1.2143,-1.3969,4.8573,-7.1132e-10,-0.69846,0,0,0.25,-0,-0,0.66667
0.031666,0.037053,0.12666,-0.69442,-14.742,59.702,0.23455,-0.078186,-0.28628,0.31274,-2.4602e-06,-0.14314,0,0,0.25,-7.4015e-17,0,0.66667
0.14549,0.46343,0.58196,-0.054849,-1.1135,49.404,0.08512,-0.028373,-1.9892,0.11349,6.1827e-10,-0.99461,0,0,0.25,7.4015e-17,0,0.66667
0.72773,0.63177,2.9109,0.19765,1.8762,7.3452,-1.5342,0.51141,-1.8607,-2.0456,3.6968e-11,-0.93034,0,0,0.25,-0,-0,0.66667
0.53974,0.8246,2.159,0.4869,7.1968,18.139,-2.8032,0.9344,-1.1562,-3.7376,-7.9248e-13,-0.57809,0,0,0.25,-0,-0,0.66667
0.99526,0.69767,3.9811,0.29651,-0.086168,0.18431,-3.1478,1.0493,-1.6868,-4.1971,9.2915e-09,-0.8434,0,0,0.25,-0,-0,0.66667
0.49563,0.63463,1.9825,0.20194,3.1406,20.952,-1.0676,0.35587,-1.8545,-1.4235,-7.5717e-14,-0.92725,0,0,0.25,-0,-0,0.66667
0.3841,0.69951,1.5364,0.29927,5.2957,29.275,-1.2261,0.40872,-1.6807,-1.6349,1.7223e-12,-0.84034,0,0,0.25,5.9212e-16,0,0.66667
0.19437,0.49297,0.7775,-0.010542,-0.21024,45.076,0.021856,-0.0072853,-1.9991,0.029141,1.3541e-10,-0.99957,0,0,0.25,8.8818e-16,0,0.66667
0.59017,0.13924,2.3607,-0.54114,-7.3721,15.004,3.4065,-1.1355,-0.95822,4.542,1.2434e-12,-0.47911,0,0,0.25,-1.1842e-15,0,0.66667
0.76663,0.18293,3.0665,-0.47561,-4.0173,5.9168,3.8892,-1.2964,-1.1966,5.1856,-8.8179e-11,-0.59828,0,0,0.25,2.9606e-16,0,0.66667
0.92444,0.35378,3.6978,-0.21933,-0.5634,0.98217,2.1628,-0.72092,-1.8288,2.8837,5.2408e-09,-0.91438,0,0,0.25,-2.3685e-15,0,0.66667
0.13763,0.68109,0.5505,0.27163,5.5474,50.124,-0.39876,0.13292,-1.7377,-0.53168,-8.8373e-10,-0.86887,0,0,0.25,-7.4015e-17,0,0.66667
0.0080899,0.92709,0.03236,0.64064,13.565,61.825,-0.055282,0.018428,-0.53993,-0.073709,7.3545e-07,-0.26996,0,0,0.25,-9.2519e-18,0,0.66667
0.47796,0.63293,1.9118,0.1994,3.174,22.201,-1.0166,0.33886,-1.8581,-1.3554,5.4434e-13,-0.92904,0,0,0.25,-0,-0,0.66667
0.18295,0.61762,0.73179,0.17643,3.5407,46.092,-0.3443,0.11477,-1.889,-0.45906,-6.321e-11,-0.94451,0,0,0.25,-0,-0,0.66667
0.61034,0.9303,2.4414,0.64544,8.5425,13.934,-4.202,1.4007,-0.51926,-5.6027,-6.2927e-13,-0.25963,0,0,0.25,-0,-0,0.66667
0.62027,0.93104,2.4811,0.64656,8.3897,13.36,-4.2778,1.4259,-0.51342,-5.7037,-6.7724e-13,-0.25671,0,0,0.25,5.9212e-16,0,0.66667
0.40963,0.15897,1.6385,-0.51155,-8.9223,27.425,2.2352,-0.74506,-1.0701,2.9802,-1.3409e-12,-0.53507,0,0,0.25,-0,-0,0.66667
0.67721,0.13441,2.7088,-0.54838,-6.1848,10.126,3.9612,-1.3204,-0.93017,5.2816,-2.4825e-13,-0.46509,0,0,0.25,-0,-0,0.66667
0.19967,0.42881,0.79868,-0.10679,-2.1263,44.616,0.22744,-0.075815,-1.9592,0.30326,1.6209e-10,-0.97959,0,0,0.25,2.9606e-16,0,0.66667
0.80858,0.53504,3.2343,0.052556,0.35764,4.0159,-0.45329,0.1511,-1.9905,-0.60438,5.0496e-11,-0.99524,0,0,0.25,-2.3685e-15,0,0.66667
0.05034,0.87518,0.20136,0.56276,11.832,58.007,-0.30218,0.10073,-0.87501,-0.40291,-1.6028e-08,-0.43751,0,0,0.25,-1.4803e-16,0,0.66667
0.17186,0.51451,0.68745,0.021767,0.43795,47.061,-0.039903,0.013301,-1.9986,-0.053203,-2.4943e-10,-0.99931,0,0,0.25,-0,-0,0.66667
0.9806,0.35881,3.9224,-0.21179,-0.059891,0.22002,2.2152,-0.73841,-1.8399,2.9536,8.0852e-08,-0.91993,0,0,0.25,-0,-0,0.66667
0.90038,0.13807,3.6015,-0.5429,-2.0419,1.8551,5.214,-1.738,-0.95116,6.952,2.9109e-09,-0.47558,0,0,0.25,-0,-0,0.66667
0.93973,0.94373,3.7589,0.66559,1.5776,1.3854,-6.6718,2.2239,-0.42511,-8.8957,3.1963e-07,-0.21255,0,0,0.25,-2.3685e-15,0,0.66667
0.90844,0.39415,3.6338,-0.15877,-0.50335,1.253,1.5385,-0.51283,-1.9101,2.0513,-1.3864e-08,-0.95506,0,0,0.25,-1.1842e-15,0,0.66667
0.44142,0.70962,1.7657,0.31443,5.2497,24.911,-1.4805,0.49349,-1.6481,-1.974,1.4316e-12,-0.82405,0,0,0.25,-0,-0,0.66667
0.9388,0.3666,3.7552,-0.2001,-0.39806,0.72665,2.0038,-0.66793,-1.8579,2.6717,3.5846e-08,-0.92895,0,0,0.25,1.1842e-15,0,0.66667
0.23741,0.2357,0.94965,-0.39645,-7.8143,41.398,1.004,-0.33466,-1.4406,1.3386,1.0737e-10,-0.72032,0,0,0.25,-0,-0,0.66667
0.049514,0.71385,0.19806,0.32078,6.6736,58.062,-0.16942,0.056474,-1.6345,-0.22589,4.6995e-09,-0.81725,0,0,0.25,1.8504e-17,0,0.66667
0.55726,0.69712,2.2291,0.29569,4.2034,16.854,-1.7576,0.58587,-1.6885,-2.3435,-1.3018e-12,-0.84426,0,0,0.25,-1.1842e-15,0,0.66667
0.31332,0.828,1.2533,0.49199,9.302,35.053,-1.6443,0.54809,-1.1394,-2.1924,-3.5688e-12,-0.5697,0,0,0.25,-5.9212e-16,0,0.66667
0.53208,0.21201,2.1283,-0.43198,-6.4382,18.598,2.4517,-0.81723,-1.3371,3.2689,4.8006e-13,-0.66855,0,0,0.25,5.9212e-16,0,0.66667
0.47161,0.23088,1.8864,-0.40368,-6.5292,22.759,2.0307,-0.6769,-1.4202,2.7076,-6.3594e-13,-0.7101,0,0,0.25,-0,-0,0.66667
0.48313,0.64043,1.9325,0.21064,3.3316,21.836,-1.0855,0.36184,-1.8422,-1.4474,3.3618e-13,-0.92108,0,0,0.25,-5.9212e-16,0,0.66667
0.57008,0.15658,2.2803,-0.51513,-7.2593,16.217,3.1324,-1.0441,-1.0571,4.1766,9.5146e-13,-0.52856,0,0,0.25,-0,-0,0.66667
0.92344,0.43216,3.6938,-0.10176,-0.26141,0.9382,1.0024,-0.33413,-1.9637,1.3365,-9.5452e-08,-0.98187,0,0,0.25,-1.1842e-15,0,0.66667
0.23619,0.67009,0.94477,0.25513,5.0076,41.464,-0.64278,0.21426,-1.7683,-0.85704,-1.1043e-10,-0.88417,0,0,0.25,-0,-0,0.66667
0.87608,0.80874,3.5043,0.46311,2.1297,2.2925,-4.3277,1.4426,-1.2384,-5.7703,4.3188e-09,-0.61919,0,0,0.25,1.7764e-15,0,0.66667
0.73384,0.74863,2.9353,0.37294,3.5078,7.1987,-2.9192,0.97307,-1.507,-3.8923,4.9157e-11,-0.75352,0,0,0.25,-1.4803e-15,0,0.66667
0.079211,0.028411,0.31684,-0.70738,-14.951,55.432,0.59768,-0.19923,-0.22193,0.79691,1.8832e-07,-0.11097,0,0,0.25,-1.1102e-16,0,0.66667
0.83539,0.86492,3.3415,0.54738,3.3789,3.5632,-4.8776,1.6259,-0.93389,-6.5034,1.9193e-10,-0.46694,0,0,0.25,-0,-0,0.66667
0.39764,0.23577,1.5906,-0.39635,-6.9518,28.269,1.6811,-0.56038,-1.4405,2.2415,-1.9758e-12,-0.72023,0,0,0.25,5.9212e-16,0,0.66667
0.33574,0.080976,1.343,-0.62854,-11.788,33.316,2.2509,-0.7503,-0.59441,3.0012,-9.5746e-13,-0.2972,0,0,0.25,-5.9212e-16,0,0.66667
0.000393,0.25022,0.001572,-0.37467,-7.829,62.52,0.0015706,-0.00052354,-1.5027,0.0020942,6.5233e-09,-0.75135,0,0,0.25,-0,-1.6371e-17,0.66667
0.24581,0.10531,0.98322,-0.59204,-11.737,40.763,1.5523,-0.51743,-0.75313,2.0697,2.2789e-11,-0.37657,0,0,0.25,-0,-0,0.66667
0.68795,0.24636,2.7518,-0.38046,-4.1104,9.3905,2.7918,-0.93062,-1.4865,3.7225,-8.6628e-12,-0.74325,0,0,0.25,5.9212e-16,0,0.66667
0.85117,0.098149,3.4047,-0.60278,-3.4183,3.1895,5.4727,-1.8242,-0.70801,7.2969,1.0567e-09,-0.354,0,0,0.25,-0,-0,0.66667
0.24105,0.64252,0.9642,0.21378,4.1811,41.038,-0.54967,0.18322,-1.8366,-0.7329,-8.6136e-11,-0.91828,0,0,0.25,-2.9606e-16,0,0.66667
0.37094,0.38261,1.4838,-0.17608,-3.1424,30.272,0.69669,-0.23223,-1.8895,0.92892,-4.3821e-13,-0.94476,0,0,0.25,-0,-0,0.66667
0.15042,0.20899,0.60169,-0.43651,-8.9332,49.015,0.70039,-0.23346,-1.3218,0.93386,1.011e-09,-0.66091,0,0,0.25,-0,-0,0.66667
0.8035,0.51627,3.214,0.024406,0.1703,4.1934,-0.20918,0.069726,-1.9969,-0.27891,7.7348e-11,-0.99846,0,0,0.25,-0,-0,0.66667
0.71702,0.198,2.8681,-0.453,-4.5277,8.0537,3.4647,-1.1549,-1.2703,4.6196,-2.0388e-11,-0.63516,0,0,0.25,-0,-0,0.66667
0.70048,0.76957,2.8019,0.40436,4.2263,8.7921,-3.0213,1.0071,-1.4183,-4.0283,1.3453e-11,-0.70916,0,0,0.25,-1.1842e-15,0,0.66667
0.67885,0.33448,2.7154,-0.24828,-2.7268,9.7529,1.7978,-0.59928,-1.7801,2.3971,-7.4545e-12,-0.89006,0,0,0.25,-0,-0,0.66667
0.89205,0.13771,3.5682,-0.54343,-2.2174,2.0388,5.1708,-1.7236,-0.94991,6.8944,9.3394e-10,-0.47496,0,0,0.25,-0,-0,0.66667
0.88303,0.78875,3.5321,0.43313,1.8668,2.0793,-4.0797,1.3599,-1.3324,-5.4395,1.6906e-09,-0.66622,0,0,0.25,-0,-0,0.66667
0.62537,0.21736,2.5015,-0.42396,-5.339,12.804,2.828,-0.94268,-1.3625,3.7707,1.9782e-12,-0.68126,0,0,0.25,-2.2204e-16,0,0.66667
0.28878,0.70249,1.1551,0.30374,5.7913,37.009,-0.93561,0.31187,-1.671,-1.2475,-2.5991e-11,-0.83549,0,0,0.25,-5.9212e-16,0,0.66667
0.4031,0.8038,1.6124,0.45569,7.9741,27.885,-1.9594,0.65313,-1.2615,-2.6125,2.0184e-12,-0.63073,0,0,0.25,2.9606e-16,0,0.66667
0.028957,0.47567,0.11583,-0.036499,-0.75676,59.921,0.011274,-0.0037576,-1.9954,0.015032,6.2632e-07,-0.99772,0,0,0.25,-0,-0,0.66667
0.91648,0.81417,3.6659,0.47126,1.4428,1.4137,-4.6069,1.5356,-1.2109,-6.1426,6.9089e-09,-0.60543,0,0,0.25,-2.3685e-15,0,0.66667
0.68745,0.47236,2.7498,-0.041454,-0.44232,9.2409,0.30397,-0.10132,-1.9952,0.4053,-2.981e-12,-0.99759,0,0,0.25,-0,-0,0.66667
0.90817,0.43877,3.6327,-0.091846,-0.29056,1.2315,0.88973,-0.29658,-1.9712,1.1863,6.3019e-08,-0.98559,0,0,0.25,-0,-0,0.66667
0.30209,0.58412,1.2083,0.12619,2.3748,35.858,-0.4066,0.13553,-1.9428,-0.54214,-1.1052e-11,-0.97139,0,0,0.25,-0,-0,0.66667
0.94483,0.029775,3.7793,-0.70534,-1.5671,1.4033,7.1085,-2.3695,-0.23151,9.478,1.0825e-06,-0.11575,0,0,0.25,-8.8818e-16,0,0.66667
0.86403,0.035656,3.4561,-0.69652,-3.7101,3.0218,6.4193,-2.1398,-0.27517,8.5591,-2.3845e-09,-0.13758,0,0,0.25,-0,-0,0.66667
0.88601,0.39178,3.5441,-0.16234,-0.65426,1.7541,1.5342,-0.5114,-1.9055,2.0456,-2.2922e-09,-0.95276,0,0,0.25,-0,-0,0.66667
0.00014133,0.88439,0.00056532,0.57659,12.163,62.543,-0.00086998,0.00028982,-0.81847,-0.0011601,-2.6452e-07,-0.40924,0,0,0.25,2.8912e-19,9.957e-16,0.66667
0.37724,0.44442,1.509,-0.083376,-1.4775,29.758,0.33549,-0.11183,-1.9755,0.44733,-1.8602e-13,-0.98774,0,0,0.25,-0,-0,0.66667
0.12233,0.68876,0.4893,0.28315,5.8084,51.493,-0.36945,0.12315,-1.7159,-0.4926,1.6495e-09,-0.85797,0,0,0.25,2.9606e-16,0,0.66667
0.93281,0.82875,3.7312,0.49312,1.2029,1.1606,-4.9065,1.6355,-1.1346,-6.542,1.2474e-08,-0.56731,0,0,0.25,-0,-0,0.66667
0.51371,0.7453,2.0548,0.36795,5.6151,19.788,-2.0162,0.67206,-1.5192,-2.6883,-6.5614e-13,-0.7596,0,0,0.25,2.9606e-16,0,0.66667
0.48934,0.2351,1.9573,-0.39735,-6.2802,21.496,2.074,-0.69133,-1.4378,2.7653,-3.3951e-13,-0.71891,0,0,0.25,-0,-0,0.66667
0.48692,0.82297,1.9477,0.48445,7.7199,21.733,-2.5162,0.83872,-1.1653,-3.3549,4.2855e-14,-0.58265,0,0,0.25,-0,-0,0.66667
0.57029,0.091207,2.2812,-0.61319,-8.7083,16.316,3.7301,-1.2434,-0.6633,4.9735,5.1692e-13,-0.33165,0,0,0.25,7.4015e-16,0,0.66667
0.54451,0.97621,2.178,0.71431,10.682,18.091,-4.1488,1.3829,-0.18592,-5.5317,5.3735e-14,-0.092959,0,0,0.25,-0,-2.1514e-16,0.66667
0.91711,0.83033,3.6684,0.4955,1.5169,1.4401,-4.8472,1.6157,-1.1263,-6.463,-4.1764e-09,-0.56314,0,0,0.25,-0,-0,0.66667
0.88438,0.7742,3.5375,0.4113,1.7438,2.0178,-3.8799,1.2933,-1.3981,-5.1732,3.7615e-10,-0.69904,0,0,0.25,-0,-0,0.66667
0.78372,0.65947,3.1349,0.23921,1.8433,5.0092,-1.9997,0.66657,-1.7972,-2.6663,1.887e-10,-0.89862,0,0,0.25,-0,-0,0.66667
0.32273,0.018392,1.2909,-0.72241,-13.776,34.443,2.4868,-0.82895,-0.14361,3.3158,-3.7215e-13,-0.071804,0,0,0.25,1.1842e-15,0,0.66667
0.78444,0.93563,3.1377,0.65345,5.2704,5.4973,-5.4676,1.8225,-0.48259,-7.2901,5.8139e-11,-0.24129,0,0,0.25,-1.3323e-15,0,0.66667
0.14519,0.66161,0.58074,0.24242,4.936,49.446,-0.37542,0.12514,-1.791,-0.50056,-5.8342e-10,-0.8955,0,0,0.25,-0,-0,0.66667
0.86023,0.71005,3.4409,0.31507,1.5963,2.5333,-2.891,0.96368,-1.6474,-3.8547,4.2974e-10,-0.8237,0,0,0.25,-1.1842e-15,0,0.66667
0.773,0.017775,3.092,-0.72334,-6.1811,6.0698,5.9642,-1.9881,-0.1387,7.9522,7.9221e-12,-0.069352,0,0,0.25,-0,-0,0.66667
0.77597,0.17559,3.1039,-0.48661,-3.966,5.5593,4.0276,-1.3425,-1.1573,5.3702,-1.2546e-10,-0.57866,0,0,0.25,-1.1842e-15,0,0.66667
0.5287,0.12477,2.1148,-0.56285,-8.5077,18.945,3.1742,-1.0581,-0.87483,4.2322,4.9072e-14,-0.43742,0,0,0.25,7.4015e-17,1.6732e-20,0.66667
0.45019,0.82772,1.8007,0.49158,8.1981,24.377,-2.3606,0.78686,-1.1403,-3.1474,6.3416e-13,-0.57015,0,0,0.25,-0,-0,0.66667
0.22663,0.51597,0.90653,0.023962,0.47098,42.263,-0.057927,0.019309,-1.997,-0.077235,-2.3697e-11,-0.99848,0,0,0.25,-0,-0,0.66667
0.80868,0.1989,3.2347,-0.45165,-3.1662,4.3018,3.8959,-1.2986,-1.2742,5.1945,-3.399e-10,-0.63709,0,0,0.25,-0,-0,0.66667
0.96593,0.60865,3.8637,0.16297,0.1423,0.33661,-1.6792,0.55972,-1.9051,-2.2389,-7.1995e-08,-0.95255,0,0,0.25,-0,-0,0.66667
0.54353,0.27461,2.1741,-0.33809,-4.9246,17.772,1.9601,-0.65338,-1.5936,2.6135,1.0305e-12,-0.79679,0,0,0.25,-8.8818e-16,0,0.66667
0.90221,0.12983,3.6088,-0.55525,-2.0571,1.8381,5.3435,-1.7812,-0.90392,7.1247,-9.6268e-10,-0.45196,0,0,0.25,-0,-0,0.66667
0.28235,0.71523,1.1294,0.32284,6.1848,37.554,-0.97232,0.32411,-1.6304,-1.2964,-3.2065e-11,-0.8152,0,0,0.25,-0,-0,0.66667
0.51776,0.9005,2.071,0.60075,9.2548,19.72,-3.3178,1.1059,-0.71718,-4.4237,-3.0642e-13,-0.35859,0,0,0.25,-2.9606e-16,0,0.66667
0.32816,0.69209,1.3127,0.28813,5.3415,33.746,-1.0086,0.33619,-1.706,-1.3447,-5.1271e-12,-0.85298,0,0,0.25,-0,-0,0.66667
0.9918,0.18077,3.9672,-0.47885,-0.0013536,0.45648,5.0659,-1.6886,-1.1843,6.7545,-4.4008e-08,-0.59214,0,0,0.25,-5.9212e-16,0,0.66667
0.25032,0.96076,1.0013,0.69114,13.76,40.435,-1.8454,0.61512,-0.30222,-2.4605,5.4157e-13,-0.15111,0,0,0.25,-0,-0,0.66667
0.67876,0.94686,2.715,0.67029,7.6328,10.226,-4.8529,1.6176,-0.40184,-6.4705,-2.9265e-13,-0.20092,0,0,0.25,-1.1842e-15,0,0.66667
0.7642,0.57436,3.0568,0.11153,0.92619,5.7248,-0.90917,0.30306,-1.9557,-1.2122,5.7016e-11,-0.97787,0,0,0.25,-1.1842e-15,0,0.66667
0.032227,0.52775,0.12891,0.041622,0.86282,59.624,-0.014308,0.0047687,-1.9949,-0.019078,-1.1399e-06,-0.99743,0,0,0.25,-1.8504e-17,0,0.66667
0.98227,0.045415,3.9291,-0.68188,-0.44224,0.93907,7.1444,-2.3815,-0.34652,9.5259,5.8805e-07,-0.17326,0,0,0.25,-0,-2.9347e-16,0.66667
0.091323,0.52092,0.36529,0.031385,0.64569,54.267,-0.030572,0.010191,-1.9963,-0.040763,-6.4807e-09,-0.99815,0,0,0.25,-0,-0,0.66667
0.61407,0.67922,2.4563,0.26883,3.4357,13.34,-1.7609,0.58695,-1.7426,-2.3478,-1.6601e-12,-0.87131,0,0,0.25,-0,-0,0.66667
0.14935,0.55675,0.5974,0.085122,1.7264,49.061,-0.13561,0.045202,-1.9739,-0.18081,1.1407e-09,-0.98697,0,0,0.25,-1.4803e-16,0,0.66667
0.5208,0.53773,2.0832,0.056594,0.84704,19.184,-0.31439,0.1048,-1.9883,-0.41918,-2.7148e-13,-0.99417,0,0,0.25,-1.1842e-15,0,0.66667
0.093345,0.67424,0.37338,0.26135,5.393,54.096,-0.26022,0.086741,-1.7573,-0.34697,1.7097e-09,-0.87867,0,0,0.25,-0,-0,0.66667
0.7812,0.40491,3.1248,-0.14264,-1.1057,5.0554,1.1886,-0.39619,-1.9294,1.5847,-1.2602e-10,-0.96469,0,0,0.25,-0,-0,0.66667
0.77293,0.22062,3.0917,-0.41907,-3.431,5.5948,3.455,-1.1517,-1.3759,4.6067,-1.4985e-10,-0.68795,0,0,0.25,-0,-0,0.66667
0.59815,0.038863,2.3926,-0.69171,-9.4165,14.72,4.4133,-1.4711,-0.29852,5.8843,2.1672e-13,-0.14926,0,0,0.25,1.1842e-15,0,0.66667
0.014543,0.58802,0.058173,0.13202,2.7413,61.233,-0.02048,0.0068267,-1.9387,-0.027306,1.5732e-07,-0.96934,0,0,0.25,9.2519e-18,0,0.66667
0.042024,0.38922,0.1681,-0.16617,-3.4465,58.736,0.074487,-0.024829,-1.901,0.099316,-7.323e-08,-0.95051,0,0,0.25,-0,-0,0.66667
0.18097,0.21923,0.72388,-0.42116,-8.5223,46.313,0.81299,-0.271,-1.37,1.084,3.7253e-10,-0.68498,0,0,0.25,-0,-0,0.66667
0.97203,0.24904,3.8881,-0.37644,-0.27867,0.46949,3.903,-1.301,-1.4971,5.204,-8.9298e-10,-0.74855,0,0,0.25,-2.9606e-16,0,0.66667
0.2546,0.50729,1.0184,0.010938,0.21184,39.856,-0.029705,0.0099016,-1.9993,-0.039606,-4.9785e-12,-0.99964,0,0,0.25,-1.1842e-15,0,0.66667
0.75101,0.64354,3.004,0.21531,1.8874,6.3241,-1.7248,0.57494,-1.8352,-2.2998,7.3958e-11,-0.9176,0,0,0.25,-1.1842e-15,0,0.66667
0.28124,0.96917,1.1249,0.70376,13.777,37.843,-2.1112,0.70372,-0.24092,-2.8149,1.6573e-12,-0.12046,0,0,0.25,-1.1842e-15,-1.5826e-17,0.66667
0.25552,0.67688,1.0221,0.26532,5.1551,39.81,-0.72313,0.24104,-1.749,-0.96417,-6.7996e-11,-0.8745,0,0,0.25,2.9606e-16,0,0.66667
0.25786,0.27749,1.0315,-0.33377,-6.4908,39.629,0.91804,-0.30601,-1.6039,1.2241,6.5367e-11,-0.80195,0,0,0.25,7.4015e-17,0,0.66667
0.29705,0.4832,1.1882,-0.025193,-0.47535,36.27,0.079825,-0.026608,-1.998,0.10643,2.7982e-12,-0.999,0,0,0.25,5.9212e-16,0,0.66667
0.0089446,0.51066,0.035778,0.015989,0.33175,61.742,-0.0015244,0.00050504,-1.9983,-0.0020341,-4.6552e-06,-0.99915,0,0,0.25,-0,-0,0.66667
0.98718,0.13731,3.9487,-0.54404,-0.1454,0.60607,5.7287,-1.9096,-0.94724,7.6382,-2.1864e-08,-0.47362,0,0,0.25,-0,-0,0.66667
0.56646,0.68432,2.2658,0.27648,3.8662,16.255,-1.6705,0.55685,-1.7286,-2.2274,-1.4473e-12,-0.86431,0,0,0.25,2.9606e-16,0,0.66667
0.60184,0.57562,2.4074,0.11344,1.4788,14.002,-0.72822,0.24274,-1.9533,-0.97096,-9.6906e-13,-0.97664,0,0,0.25,1.1842e-15,0,0.66667
0.53826,0.63507,2.153,0.2026,2.9603,18.049,-1.1632,0.38774,-1.8533,-1.5509,-8.9573e-13,-0.92664,0,0,0.25,-0,-0,0.66667
0.043838,0.35541,0.17535,-0.21688,-4.502,58.572,0.10141,-0.033805,-1.8323,0.13522,3.3779e-09,-0.91617,0,0,0.25,-0,-0,0.66667
0.47152,0.65166,1.8861,0.22749,3.6536,22.673,-1.1442,0.38139,-1.8164,-1.5255,6.2339e-13,-0.9082,0,0,0.25,-5.9212e-16,0,0.66667
0.53968,0.22309,2.1587,-0.41537,-6.1124,18.081,2.3911,-0.79703,-1.3865,3.1881,5.6088e-13,-0.69323,0,0,0.25,-0,-0,0.66667
0.67296,0.38852,2.6918,-0.16722,-1.8591,10.019,1.2004,-0.40012,-1.9006,1.6005,-5.0296e-12,-0.95028,0,0,0.25,-1.1842e-15,0,0.66667
0.53417,0.35692,2.1367,-0.21463,-3.1573,18.325,1.2229,-0.40763,-1.8358,1.6305,6.1884e-13,-0.91788,0,0,0.25,-0,-0,0.66667
0.055072,0.75775,0.22029,0.38662,8.0574,57.563,-0.22712,0.075706,-1.468,-0.30282,7.8933e-09,-0.73398,0,0,0.25,-0,-0,0.66667
0.6201,0.41456,2.4804,-0.12816,-1.6102,12.927,0.8477,-0.28257,-1.9412,1.1303,4.205e-13,-0.97058,0,0,0.25,-0,-0,0.66667
0.58118,0.29494,2.3247,-0.30758,-4.1962,15.35,1.9068,-0.63559,-1.6631,2.5424,1.7071e-12,-0.83156,0,0,0.25,-0,-0,0.66667
0.5456,0.18404,2.1824,-0.47394,-6.9349,17.744,2.7582,-0.91939,-1.2023,3.6776,6.3483e-13,-0.60115,0,0,0.25,9.0168e-16,0,0.66667
0.84328,0.86172,3.3731,0.54257,3.1929,3.3158,-4.8805,1.6268,-0.95348,-6.5073,8.9047e-10,-0.47674,0,0,0.25,-0,-0,0.66667
0.44739,0.99378,1.7895,0.74067,12.628,24.827,-3.5346,1.1782,-0.04914,-4.7128,1.0081e-13,-0.02457,0,0,0.25,-2.9606e-16,0,0.66667
0.60357,0.14087,2.4143,-0.5387,-7.1536,14.197,3.4682,-1.1561,-0.96727,4.6242,1.3984e-12,-0.48364,0,0,0.25,-7.1477e-16,0,0.66667
0.12361,0.31378,0.49445,-0.27933,-5.7276,51.378,0.36831,-0.12277,-1.7239,0.49108,-1.3915e-09,-0.86195,0,0,0.25,-0,-0,0.66667
0.25238,0.80233,1.0095,0.45349,8.8905,40.139,-1.2208,0.40694,-1.2686,-1.6278,-5.8869e-11,-0.63431,0,0,0.25,-0,-0,0.66667
0.85035,0.95624,3.4014,0.68436,3.9758,3.3716,-6.2074,2.0691,-0.33387,-8.2766,4.9705e-10,-0.16694,0,0,0.25,-1.1842e-15,0,0.66667
0.016224,0.75945,0.064897,0.38918,8.1344,61.084,-0.067351,0.02245,-1.4619,-0.089801,-8.7835e-10,-0.73093,0,0,0.25,-0,-0,0.66667
0.15625,0.92654,0.625,0.63981,13.214,48.559,-1.0663,0.35545,-0.54498,-1.4218,-5.0999e-10,-0.27249,0,0,0.25,-0,-0,0.66667
0.82338,0.089286,3.2935,-0.61607,-4.1156,4.0615,5.4108,-1.8036,-0.65058,7.2144,-2.093e-10,-0.32529,0,0,0.25,1.4803e-15,0,0.66667
0.22934,0.86686,0.91735,0.55029,10.974,42.152,-1.3461,0.44871,-0.92288,-1.7949,-5.914e-11,-0.46144,0,0,0.25,-1.4803e-16,0,0.66667
0.25919,0.98398,1.0368,0.72597,14.42,39.707,-2.0071,0.66904,-0.12517,-2.6761,1.7322e-12,-0.062585,0,0,0.25,-0,-0,0.66667
0.70079,0.54162,2.8032,0.062433,0.64163,8.578,-0.4667,0.15557,-1.986,-0.62226,6.3559e-12,-0.99299,0,0,0.25,-1.1842e-15,0,0.66667
0.96653,0.84862,3.8661,0.52293,0.57762,0.75412,-5.3912,1.7971,-1.0282,-7.1883,-6.7198e-08,-0.51409,0,0,0.25,-0,-0,0.66667
0.19828,0.3819,0.79312,-0.17715,-3.533,44.745,0.37467,-0.12489,-1.8881,0.49956,2.243e-10,-0.94407,0,0,0.25,5.9212e-16,0,0.66667
0.7475,0.68045,2.99,0.27068,2.4106,6.5109,-2.1582,0.7194,-1.7396,-2.8776,7.4098e-11,-0.86981,0,0,0.25,4.4261e-16,0,0.66667
0.14051,0.45118,0.56202,-0.073233,-1.4891,49.85,0.10976,-0.036585,-1.9812,0.14634,9.1878e-10,-0.99061,0,0,0.25,-0,-0,0.66667
0.3825,0.61937,1.53,0.17905,3.1624,29.362,-0.73052,0.24351,-1.8857,-0.97403,7.7643e-13,-0.94286,0,0,0.25,5.9212e-16,0,0.66667
0.32329,0.091756,1.2932,-0.61237,-11.579,34.313,2.1117,-0.7039,-0.66718,2.8156,-4.2477e-13,-0.33359,0,0,0.25,7.4015e-17,0,0.66667
0.88379,0.90346,3.5351,0.60519,2.7033,2.3418,-5.7051,1.9017,-0.69794,-7.6068,-7.8095e-09,-0.34897,0,0,0.25,5.9212e-16,0,0.66667
0.65538,0.015257,2.6215,-0.72711,-8.8236,11.539,5.0831,-1.6944,-0.12022,6.7774,8.6597e-14,-0.060111,0,0,0.25,-0,2.959e-16,0.66667
0.33358,0.55525,1.3343,0.082877,1.5236,33.26,-0.29489,0.098295,-1.9752,-0.39318,-2.4122e-12,-0.98759,0,0,0.25,-0,-0,0.66667
0.021608,0.10227,0.086432,-0.5966,-12.594,60.603,0.13751,-0.045836,-0.7339,0.18334,-7.4743e-07,-0.36695,0,0,0.25,-0,-0,0.66667
0.36901,0.96566,1.476,0.69848,12.818,30.725,-2.7493,0.91643,-0.26548,-3.6657,3.7925e-13,-0.13274,0,0,0.25,9.9743e-16,0,0.66667
0.97218,0.49908,3.8887,-0.001382,-0.00080997,0.22307,0.014332,-0.0047709,-2.0009,0.019112,9.3912e-06,-1.0005,0,0,0.25,4.4409e-16,0,0.66667
0.5291,0.98487,2.1164,0.7273,11.147,19.118,-4.1047,1.3682,-0.11889,-5.4729,1.0436e-13,-0.059447,0,0,0.25,-1.1842e-15,0,0.66667
0.74214,0.58376,2.9686,0.12564,1.1328,6.6681,-0.9946,0.33153,-1.9431,-1.3261,3.7647e-11,-0.97155,0,0,0.25,-5.9212e-16,0,0.66667
0.34539,0.49914,1.3816,-0.0012893,-0.023471,32.297,0.0047501,-0.0015834,-2.0013,0.0063335,-4.06e-13,-1.0007,0,0,0.25,1.1102e-15,0,0.66667
0.46059,0.39488,1.8424,-0.15769,-2.5624,23.442,0.77471,-0.25824,-1.9107,1.0329,-8.4494e-13,-0.95536,0,0,0.25,-0,-0,0.66667
0.21164,0.86318,0.84654,0.54477,10.951,43.678,-1.2298,0.40993,-0.94389,-1.6397,-1.4494e-10,-0.47195,0,0,0.25,-2.9606e-16,0,0.66667
0.83696,0.33704,3.3478,-0.24444,-1.4344,3.1579,2.1823,-0.72743,-1.7871,2.9097,-9.8689e-11,-0.89356,0,0,0.25,-5.9212e-16,0,0.66667
0.35981,0.72877,1.4392,0.34316,6.2146,31.213,-1.317,0.43901,-1.5817,-1.756,1.0081e-12,-0.79085,0,0,0.25,-5.9212e-16,0,0.66667
0.037088,0.10915,0.14835,-0.58628,-12.357,59.205,0.23193,-0.077311,-0.77697,0.30925,1.528e-07,-0.38848,0,0,0.25,-0,-0,0.66667
0.68899,0.76592,2.756,0.39888,4.3031,9.3557,-2.9315,0.97715,-1.4341,-3.9086,8.1763e-12,-0.71707,0,0,0.25,-0,-0,0.66667
0.15579,0.72701,0.62316,0.34052,6.9305,48.518,-0.56586,0.18862,-1.5882,-0.75448,-6.7145e-10,-0.79412,0,0,0.25,-0,-0,0.66667
0.79875,0.76671,3.195,0.40006,2.9226,4.5919,-3.4085,1.1362,-1.4307,-4.5447,2.991e-10,-0.71534,0,0,0.25,-0,-0,0.66667
0.015262,0.94685,0.06105,0.67028,14.217,61.179,-0.10912,0.036373,-0.40302,-0.14549,5.3042e-07,-0.20151,0,0,0.25,3.7007e-17,0,0.66667
0.58562,0.11333,2.3425,-0.58001,-7.994,15.327,3.6231,-1.2077,-0.80299,4.8308,8.8085e-13,-0.40149,0,0,0.25,-5.9212e-16,0,0.66667
0.49552,0.19856,1.9821,-0.45216,-7.1097,21.104,2.3899,-0.79663,-1.2725,3.1865,-1.4833e-13,-0.63623,0,0,0.25,-0,-0,0.66667
0.99746,0.078256,3.9898,-0.63262,0.038051,0.7246,6.7308,-2.2436,-0.57665,8.9744,-1.4468e-06,-0.28832,0,0,0.25,-0,1.0386e-15,0.66667
0.13437,0.36215,0.53748,-0.20677,-4.22,50.407,0.29636,-0.098786,-1.8471,0.39514,1.3612e-09,-0.92355,0,0,0.25,-1.4803e-16,0,0.66667
0.67255,0.46955,2.6902,-0.045674,-0.5071,10.009,0.32766,-0.10922,-1.9942,0.43688,-1.7178e-12,-0.9971,0,0,0.25,-0,-0,0.66667
0.094945,0.52203,0.37978,0.033039,0.67924,53.94,-0.03346,0.011153,-1.9963,-0.044613,-1.6256e-08,-0.99817,0,0,0.25,-0,-0,0.66667
0.16177,0.3222,0.64707,-0.2667,-5.4048,47.975,0.46019,-0.1534,-1.7465,0.61359,3.4258e-10,-0.87323,0,0,0.25,-0,-0,0.66667
0.98833,0.90904,3.9533,0.61356,0.18531,0.73914,-6.4683,2.1561,-0.66194,-8.6244,5.5143e-07,-0.33097,0,0,0.25,-0,-0,0.66667
0.80667,0.64011,3.2267,0.21017,1.4531,4.143,-1.8084,0.60278,-1.842,-2.4111,2.368e-10,-0.92102,0,0,0.25,-0,-0,0.66667
0.24464,0.76145,0.97856,0.39217,7.6994,40.777,-1.0234,0.34112,-1.4524,-1.3645,-8.8739e-11,-0.72621,0,0,0.25,-0,-0,0.66667
0.8463,0.39634,3.3852,-0.1555,-0.85455,2.8199,1.4037,-0.4679,-1.9138,1.8716,-9.1375e-10,-0.95692,0,0,0.25,-0,-0,0.66667
0.0356,0.97938,0.1424,0.71907,15.287,59.35,-0.27306,0.091019,-0.16097,-0.36408,-2.5848e-09,-0.080485,0,0,0.25,7.4015e-17,0,0.66667
0.53561,0.24299,2.1424,-0.38551,-5.6995,18.327,2.2025,-0.73417,-1.4713,2.9367,7.3341e-13,-0.73567,0,0,0.25,-8.8818e-16,0,0.66667
0.091475,0.94102,0.3659,0.66153,13.909,54.324,-0.64548,0.21516,-0.44468,-0.86064,-1.0686e-07,-0.22234,0,0,0.25,-0,1.184e-16,0.66667
0.97091,0.67899,3.8836,0.26848,0.19189,0.36081,-2.7805,0.92683,-1.7437,-3.7073,-3.882e-09,-0.87187,0,0,0.25,1.1842e-15,0,0.66667
0.5831,0.53256,2.3324,0.048841,0.6593,15.135,-0.30378,0.10126,-1.9921,-0.40504,-3.707e-13,-0.99606,0,0,0.25,-0,-0,0.66667
0.55574,0.45343,2.223,-0.069854,-0.98957,16.87,0.41409,-0.13803,-1.9817,0.55212,2.5666e-13,-0.99084,0,0,0.25,-0,-0,0.66667
0.31797,0.3328,1.2719,-0.2508,-4.6795,34.57,0.85064,-0.28355,-1.7756,1.1342,8.2795e-12,-0.88781,0,0,0.25,2.9606e-16,0,0.66667
0.8499,0.65138,3.3996,0.22708,1.2248,2.7547,-2.0586,0.68619,-1.8165,-2.7448,8.3768e-10,-0.90826,0,0,0.25,-0,-0,0.66667
0.53015,0.10532,2.1206,-0.59202,-8.9498,18.88,3.3478,-1.1159,-0.75391,4.4638,3.0198e-14,-0.37695,0,0,0.25,-0,-0,0.66667
0.017098,0.25339,0.068393,-0.36991,-7.7259,61.004,0.067465,-0.022488,-1.5144,0.089954,6.1361e-09,-0.75719,0,0,0.25,-0,-0,0.66667
0.18489,0.92979,0.73958,0.64469,13.185,46.047,-1.2715,0.42382,-0.52225,-1.6953,-2.1398e-10,-0.26113,0,0,0.25,1.4803e-16,0,0.66667
0.43347,0.2063,1.7339,-0.44055,-7.4641,25.576,2.0369,-0.67898,-1.3093,2.7159,-1.5712e-12,-0.65465,0,0,0.25,5.9212e-16,0,0.66667
0.079976,0.81745,0.31991,0.47618,9.9277,55.324,-0.40622,0.13541,-1.1943,-0.54162,3.21e-09,-0.59717,0,0,0.25,2.9606e-16,0,0.66667
0.28066,0.34975,1.1226,-0.22538,-4.3098,37.67,0.67471,-0.2249,-1.8202,0.89961,3.1665e-11,-0.91008,0,0,0.25,-0,-0,0.66667
0.2504,0.73175,1.0016,0.34762,6.7918,40.27,-0.92846,0.30949,-1.5706,-1.2379,-8.0487e-11,-0.78528,0,0,0.25,-5.9212e-16,0,0.66667
0.00060864,0.017586,0.0024346,-0.72362,-15.408,62.501,0.0046974,-0.0015513,-0.13834,0.0062704,2.1796e-05,-0.069169,0,0,0.25,2.313e-18,1.1656e-15,0.66667
0.69289,0.69241,2.7715,0.28862,3.0577,9.0676,-2.1331,0.71104,-1.7037,-2.8441,1.3215e-11,-0.85187,0,0,0.25,-0,-0,0.66667
0.77389,0.37919,3.0956,-0.18121,-1.4511,5.3604,1.4959,-0.49863,-1.8832,1.9945,-1.1456e-10,-0.94158,0,0,0.25,-2.3685e-15,0,0.66667
0.82035,0.78334,3.2814,0.425,2.7968,3.8706,-3.7189,1.2396,-1.358,-4.9586,4.2705e-10,-0.67902,0,0,0.25,2.3685e-15,0,0.66667
0.85163,0.53326,3.4065,0.049896,0.26345,2.6301,-0.45326,0.15109,-1.9914,-0.60435,1.9196e-09,-0.99572,0,0,0.25,-0,-0,0.66667
0.15152,0.91505,0.6061,0.62257,12.864,48.97,-1.0062,0.33541,-0.6214,-1.3417,7.1243e-10,-0.3107,0,0,0.25,-0,-0,0.66667
0.89004,0.09805,3.5601,-0.60292,-2.5488,2.1923,5.724,-1.908,-0.7085,7.632,-1.818e-08,-0.35425,0,0,0.25,-2.3685e-15,0,0.66667
0.65821,0.5231,2.6329,0.034645,0.39873,10.771,-0.24324,0.08108,-1.9958,-0.32432,5.3441e-13,-0.99792,0,0,0.25,-0,-0,0.66667
0.69613,0.44381,2.7845,-0.084278,-0.87811,8.8119,0.6258,-0.2086,-1.9744,0.8344,-7.2615e-12,-0.98718,0,0,0.25,-0,-0,0.66667
0.56407,0.79889,2.2563,0.44834,6.3533,16.532,-2.6975,0.89918,-1.2852,-3.5967,-1.3065e-12,-0.64258,0,0,0.25,-0,-0,0.66667
0.93968,0.71298,3.7587,0.31947,0.64484,0.81651,-3.2021,1.0674,-1.6375,-4.2695,-1.5776e-09,-0.81874,0,0,0.25,-1.7764e-15,0,0.66667
0.25185,0.58609,1.0074,0.12913,2.507,40.099,-0.34689,0.11563,-1.9409,-0.46253,-4.7319e-11,-0.97046,0,0,0.25,-2.9606e-16,0,0.66667
0.78688,0.73576,3.1475,0.35364,2.7126,4.983,-2.9683,0.98943,-1.5544,-3.9577,2.2229e-10,-0.77722,0,0,0.25,-0,-0,0.66667
0.49526,0.56889,1.981,0.10334,1.6047,20.952,-0.54593,0.18198,-1.9618,-0.7279,2.599e-13,-0.98091,0,0,0.25,-1.1842e-15,0,0.66667
0.8909,0.55864,3.5636,0.087958,0.3365,1.6092,-0.83586,0.27862,-1.9737,-1.1145,1.8282e-08,-0.98683,0,0,0.25,-1.1842e-15,0,0.66667
0.2762,0.55276,1.1048,0.079134,1.5138,38.024,-0.23314,0.077713,-1.9771,-0.31085,-1.5295e-11,-0.98857,0,0,0.25,-0,-0,0.66667
0.015247,0.94548,0.060988,0.66822,14.172,61.18,-0.10867,0.036224,-0.41296,-0.1449,8.8535e-07,-0.20648,0,0,0.25,-0,-0,0.66667
0.064891,0.3386,0.25956,-0.24211,-5.0167,56.665,0.16758,-0.05586,-1.792,0.22344,-3.3029e-09,-0.89599,0,0,0.25,-0,-0,0.66667
0.89964,0.49255,3.5985,-0.01117,-0.038913,1.3997,0.10719,-0.03573,-1.9991,0.14292,-3.2942e-08,-0.99953,0,0,0.25,4.1448e-15,0,0.66667
0.64115,0.15504,2.5646,-0.51744,-6.3428,12.013,3.5387,-1.1796,-1.0496,4.7183,1.4575e-12,-0.52481,0,0,0.25,1.7023e-15,0,0.66667
0.73027,0.016781,2.9211,-0.72483,-7.1888,7.8608,5.6461,-1.882,-0.1313,7.5281,-3.8636e-13,-0.065649,0,0,0.25,-0,2.9444e-16,0.66667
0.50436,0.53648,2.0174,0.054718,0.83862,20.311,-0.29438,0.098125,-1.9894,-0.3925,-6.9889e-14,-0.99468,0,0,0.25,-0,-0,0.66667
0.55757,0.76151,2.2303,0.39226,5.6004,16.899,-2.3329,0.77765,-1.4522,-3.1106,-1.3831e-12,-0.72611,0,0,0.25,-0,-0,0.66667
0.36389,0.93027,1.4556,0.6454,11.848,31.081,-2.5051,0.83505,-0.5187,-3.3402,7.2764e-13,-0.25935,0,0,0.25,-0,-0,0.66667
0.78264,0.24378,3.1305,-0.38433,-3.0116,5.1769,3.2084,-1.0695,-1.4753,4.2779,-1.9745e-10,-0.73766,0,0,0.25,-1.1842e-15,0,0.66667
0.75687,0.73244,3.0275,0.34866,3.0178,6.1769,-2.8148,0.93827,-1.5668,-3.7531,1.0005e-10,-0.78341,0,0,0.25,1.1842e-15,0,0.66667
0.70001,0.70832,2.8,0.31249,3.2491,8.7332,-2.3332,0.77775,-1.6525,-3.111,1.6987e-11,-0.82623,0,0,0.25,-0,-0,0.66667
0.96189,0.49649,3.8476,-0.0052605,-0.0053176,0.33834,0.053974,-0.017993,-1.9999,0.071964,-2.1186e-06,-0.99997,0,0,0.25,2.9606e-16,0,0.66667
0.76884,0.29903,3.0754,-0.30145,-2.4821,5.6426,2.4722,-0.82406,-1.6764,3.2962,-1.3579e-10,-0.83819,0,0,0.25,-0,-0,0.66667
0.97792,0.91334,3.9117,0.62001,0.46307,0.8347,-6.4674,2.1558,-0.63276,-8.6232,-2.593e-07,-0.31638,0,0,0.25,-0,-0,0.66667
0.59028,0.93306,2.3611,0.64958,8.9347,15.133,-4.09,1.3633,-0.49997,-5.4533,-2.5313e-13,-0.24999,0,0,0.25,-1.4803e-15,2.1785e-16,0.66667
0.61926,0.066769,2.477,-0.64985,-8.4526,13.423,4.2925,-1.4308,-0.49848,5.7234,7.6739e-13,-0.24924,0,0,0.25,-2.3685e-15,0,0.66667
0.63905,0.57359,2.5562,0.11038,1.3301,11.839,-0.75243,0.25081,-1.9566,-1.0032,1.8274e-13,-0.97832,0,0,0.25,-0,-0,0.66667
0.32637,0.88039,1.3055,0.57059,10.736,34.034,-1.9864,0.66213,-0.84293,-2.6485,4.0024e-13,-0.42146,0,0,0.25,-0,-0,0.66667
0.033029,0.97528,0.13212,0.71291,15.152,59.581,-0.25116,0.083723,-0.19326,-0.33489,1.4558e-06,-0.09663,0,0,0.25,-0,-0,0.66667
0.78818,0.97779,3.1527,0.71668,5.7549,5.4785,-6.0253,2.0084,-0.17308,-8.0337,1.2963e-11,-0.086542,0,0,0.25,-0,-0,0.66667
0.71019,0.37933,2.8408,-0.18101,-1.8145,8.1585,1.3712,-0.45707,-1.8834,1.8283,-2.1249e-11,-0.9417,0,0,0.25,-2.3685e-15,0,0.66667
0.079032,0.91686,0.31613,0.62529,13.145,55.433,-0.52713,0.17571,-0.60999,-0.70284,-5.3859e-08,-0.305,0,0,0.25,-0,-0,0.66667
0.14858,0.17761,0.59433,-0.48359,-9.9239,49.19,0.76642,-0.25547,-1.1677,1.0219,1.1872e-09,-0.58387,0,0,0.25,1.4803e-16,0,0.66667
0.68634,0.1682,2.7454,-0.4977,-5.4536,9.5972,3.6437,-1.2146,-1.1193,4.8582,-3.1573e-12,-0.55965,0,0,0.25,-0,-0,0.66667
0.53504,0.36214,2.1401,-0.2068,-3.0373,18.264,1.1802,-0.3934,-1.8473,1.5736,6.3094e-13,-0.92367,0,0,0.25,-0,-0,0.66667
0.19121,0.097002,0.76486,-0.6045,-12.301,45.478,1.2329,-0.41098,-0.70117,1.6439,1.3824e-10,-0.35058,0,0,0.25,-5.9212e-16,0,0.66667
0.055953,0.99093,0.22381,0.7364,15.645,57.523,-0.43951,0.1465,-0.071216,-0.58601,-6.4404e-07,-0.035608,0,0,0.25,6.6262e-17,0,0.66667
0.61141,0.67982,2.4456,0.26973,3.4662,13.497,-1.7591,0.58637,-1.7415,-2.3455,-1.8542e-12,-0.87073,0,0,0.25,5.9212e-16,0,0.66667
0.053612,0.54387,0.21445,0.065798,1.3616,57.682,-0.037627,0.012542,-1.9837,-0.05017,-2.1357e-07,-0.99185,0,0,0.25,-0,-0,0.66667
0.21358,0.92977,0.8543,0.64465,13.027,43.555,-1.4686,0.48953,-0.52198,-1.9581,-5.4096e-11,-0.26099,0,0,0.25,-2.1568e-17,0,0.66667
0.50266,0.99747,2.0107,0.74621,11.892,20.924,-4.001,1.3337,-0.020918,-5.3347,-3.9169e-13,-0.010459,0,0,0.25,-0,-0,0.66667
0.094031,0.81147,0.37612,0.46721,9.7122,54.059,-0.46861,0.1562,-1.2256,-0.62481,-8.3853e-09,-0.61279,0,0,0.25,-1.9429e-16,0,0.66667
0.40891,0.10233,1.6356,-0.5965,-10.47,27.549,2.6017,-0.86725,-0.73479,3.469,-7.514e-13,-0.3674,0,0,0.25,-0,-0,0.66667
0.020116,0.081173,0.080463,-0.62824,-13.288,60.739,0.1348,-0.044934,-0.59597,0.17974,2.4156e-07,-0.29798,0,0,0.25,-3.7007e-17,0,0.66667
0.11946,0.41425,0.47785,-0.12863,-2.6321,51.736,0.16391,-0.054636,-1.9407,0.21854,4.1103e-09,-0.97034,0,0,0.25,-0,-0,0.66667
0.94006,0.55475,3.7603,0.082129,0.15641,0.65135,-0.82353,0.27451,-1.976,-1.098,-1.366e-07,-0.98802,0,0,0.25,1.1842e-15,0,0.66667
0.55886,0.66696,2.2354,0.25044,3.5443,16.726,-1.4929,0.49764,-1.7765,-1.9906,-1.3619e-12,-0.88827,0,0,0.25,-0,-0,0.66667
0.68646,0.79412,2.7458,0.44118,4.8084,9.5263,-3.2304,1.0768,-1.308,-4.3072,5.3146e-12,-0.65399,0,0,0.25,1.1842e-15,0,0.66667
0.37777,0.65512,1.5111,0.23268,4.1329,29.748,-0.93761,0.31254,-1.8085,-1.2502,1.379e-12,-0.90425,0,0,0.25,7.0314e-16,0,0.66667
0.76312,0.33171,3.0525,-0.25244,-2.1186,5.8389,2.0548,-0.68495,-1.7731,2.7398,-1.0789e-10,-0.88655,0,0,0.25,1.1842e-15,0,0.66667
0.89639,0.78723,3.5856,0.43084,1.6376,1.7674,-4.1195,1.3732,-1.3397,-5.4926,2.8733e-09,-0.66987,0,0,0.25,-2.3685e-15,0,0.66667
0.91019,0.22406,3.6408,-0.41391,-1.3469,1.4538,4.0186,-1.3395,-1.3909,5.3581,3.2859e-09,-0.69546,0,0,0.25,2.3685e-15,0,0.66667
0.49649,0.25482,1.9859,-0.36778,-5.7489,20.976,1.9477,-0.64923,-1.5193,2.5969,-2.5424e-13,-0.75964,0,0,0.25,-0,-0,0.66667
0.76261,0.35026,3.0504,-0.22461,-1.8857,5.8419,1.8271,-0.60903,-1.8207,2.4361,-9.6369e-11,-0.91035,0,0,0.25,-0,-0,0.66667
0.70896,0.44553,2.8358,-0.081707,-0.81987,8.1844,0.61789,-0.20596,-1.9757,0.82385,-1.0862e-11,-0.98787,0,0,0.25,-0,-0,0.66667
0.9513,0.46996,3.8052,-0.045058,-0.065163,0.47854,0.45721,-0.1524,-1.994,0.60961,4.0512e-07,-0.997,0,0,0.25,-0,-0,0.66667
0.24155,0.90823,0.96622,0.61234,12.182,41.136,-1.5778,0.52592,-0.6671,-2.1037,-1.8063e-11,-0.33355,0,0,0.25,-5.9212e-16,0,0.66667
0.56134,0.021485,2.2454,-0.71777,-10.452,17.019,4.2978,-1.4326,-0.16837,5.7303,1.3189e-13,-0.084183,0,0,0.25,-0,-0,0.66667
0.043773,0.8784,0.17509,0.56761,11.944,58.6,-0.26502,0.088341,-0.855,-0.35336,1.8387e-07,-0.4275,0,0,0.25,-0,-0,0.66667
0.92318,0.64989,3.6927,0.22484,0.58929,1.009,-2.214,0.73801,-1.8208,-2.9521,-1.2859e-08,-0.91038,0,0,0.25,-5.9212e-16,0,0.66667
0.94526,0.42456,3.781,-0.11316,-0.19257,0.58279,1.141,-0.38033,-1.9535,1.5213,1.3793e-07,-0.97676,0,0,0.25,-2.3036e-15,0,0.66667
0.50091,0.2533,2.0036,-0.37005,-5.7504,20.67,1.9772,-0.65907,-1.5142,2.6363,-1.5965e-13,-0.75709,0,0,0.25,-0,-0,0.66667
0.58612,0.86306,2.3445,0.5446,7.4767,15.255,-3.4048,1.1349,-0.94457,-4.5397,-1.0785e-12,-0.47228,0,0,0.25,-5.9212e-16,0,0.66667
0.77194,0.98008,3.0878,0.72013,6.1753,6.1048,-5.9295,1.9765,-0.15533,-7.9061,-4.1513e-12,-0.077666,0,0,0.25,-0,-0,0.66667
0.24933,0.27881,0.99732,-0.33178,-6.4824,40.356,0.88239,-0.29413,-1.6099,1.1765,8.458e-11,-0.80495,0,0,0.25,1.4803e-16,0,0.66667
0.37899,0.96089,1.516,0.69133,12.569,29.938,-2.7948,0.93159,-0.30038,-3.7264,5.167e-13,-0.15019,0,0,0.25,-2.9606e-16,0,0.66667
0.28861,0.30959,1.1544,-0.28561,-5.4431,37.018,0.87925,-0.29308,-1.7101,1.1723,2.5771e-11,-0.85504,0,0,0.25,2.9606e-16,0,0.66667
0.5388,0.6625,2.1552,0.24375,3.5632,18.031,-1.4009,0.46696,-1.7884,-1.8678,-7.6583e-13,-0.89418,0,0,0.25,-1.1842e-15,0,0.66667
0.94896,0.80237,3.7958,0.45355,0.79474,0.85483,-4.5909,1.5303,-1.2681,-6.1212,-1.8423e-09,-0.63404,0,0,0.25,1.1842e-15,0,0.66667
0.3854,0.40379,1.5416,-0.14431,-2.5403,29.127,0.59326,-0.19775,-1.9263,0.79102,-9.0777e-13,-0.96315,0,0,0.25,8.5425e-16,0,0.66667
0.04501,0.98117,0.18004,0.72176,15.335,58.504,-0.34652,0.11551,-0.14761,-0.46203,-6.5812e-07,-0.073804,0,0,0.25,7.4015e-17,2.8362e-16,0.66667
0.68252,0.34293,2.7301,-0.2356,-2.5609,9.5573,1.7152,-0.57173,-1.8033,2.2869,-9.0052e-12,-0.90167,0,0,0.25,1.1842e-15,0,0.66667
0.49503,0.10967,1.9801,-0.5855,-9.2963,21.26,3.0916,-1.0305,-0.7803,4.1222,-1.2923e-13,-0.39015,0,0,0.25,-5.9212e-16,0,0.66667
0.29651,0.15754,1.186,-0.51369,-9.8362,36.454,1.6247,-0.54157,-1.0634,2.1663,6.8059e-12,-0.53169,0,0,0.25,1.1842e-15,0,0.66667
0.41589,0.082411,1.6636,-0.62638,-10.941,27.046,2.7787,-0.92624,-0.60415,3.705,-3.2285e-13,-0.30208,0,0,0.25,-5.9212e-16,0,0.66667
0.86251,0.61661,3.45,0.17492,0.8591,2.3652,-1.6093,0.53643,-1.891,-2.1457,1.4223e-09,-0.94552,0,0,0.25,-0,-0,0.66667
0.82102,0.6035,3.2841,0.15525,0.99278,3.6199,-1.3596,0.45319,-1.9136,-1.8128,3.0662e-10,-0.95678,0,0,0.25,-0,-0,0.66667
0.17085,0.34657,0.68339,-0.23014,-4.6448,47.166,0.4194,-0.1398,-1.8128,0.5592,2.2408e-12,-0.9064,0,0,0.25,5.9212e-16,0,0.66667
0.68513,0.38797,2.7405,-0.16805,-1.8091,9.3908,1.2281,-0.40937,-1.8993,1.6375,-8.5445e-12,-0.94963,0,0,0.25,-0,-0,0.66667
0.99766,0.59578,3.9907,0.14367,-0.066427,0.050318,-1.5289,0.50962,-1.9275,-2.0385,1.108e-06,-0.96377,0,0,0.25,2.3685e-15,0,0.66667
0.78436,0.50897,3.1374,0.013454,0.10259,4.9051,-0.11257,0.037522,-1.9991,-0.15009,-5.2058e-11,-0.99957,0,0,0.25,-0,-0,0.66667
0.72505,0.71931,2.9002,0.32896,3.1736,7.5575,-2.5441,0.84804,-1.6159,-3.3922,3.9899e-11,-0.80794,0,0,0.25,-0,-0,0.66667
0.31002,0.56698,1.2401,0.10047,1.8798,35.197,-0.33224,0.11075,-1.9646,-0.44298,-6.9093e-12,-0.98229,0,0,0.25,-0,-0,0.66667
0.15947,0.76608,0.63788,0.39912,8.1311,48.204,-0.67891,0.2263,-1.4331,-0.90521,-8.4177e-10,-0.71653,0,0,0.25,2.9606e-16,0,0.66667
0.86432,0.86753,3.4573,0.55129,2.827,2.7356,-5.0826,1.6942,-0.91903,-6.7768,-1.7873e-09,-0.45952,0,0,0.25,-5.9212e-16,0,0.66667
0.61035,0.2493,2.4414,-0.37605,-4.8697,13.635,2.4482,-0.81607,-1.4988,3.2643,2.1274e-12,-0.74938,0,0,0.25,-1.7393e-15,0,0.66667
0.39009,0.15794,1.5604,-0.51309,-9.1211,28.928,2.135,-0.71165,-1.0654,2.8466,-1.956e-12,-0.53272,0,0,0.25,1.1842e-15,2.6494e-16,0.66667
0.75559,0.31295,3.0224,-0.28057,-2.4275,6.1729,2.2613,-0.75377,-1.7208,3.0151,-9.0552e-11,-0.86041,0,0,0.25,2.3685e-15,0,0.66667
0.71863,0.3892,2.8745,-0.16619,-1.6223,7.752,1.2739,-0.42465,-1.9021,1.6986,-2.5848e-11,-0.95103,0,0,0.25,1.1842e-15,0,0.66667
0.64733,0.20474,2.5893,-0.44288,-5.3207,11.59,3.0581,-1.0194,-1.3016,4.0774,1.0518e-12,-0.65082,0,0,0.25,-0,-0,0.66667
0.20726,0.57026,0.82905,0.10539,2.0915,43.952,-0.233,0.077665,-1.9602,-0.31066,-8.0198e-11,-0.98011,0,0,0.25,-5.9212e-16,0,0.66667
0.88553,0.62153,3.5421,0.18229,0.73934,1.7765,-1.7219,0.57396,-1.882,-2.2958,-1.3629e-09,-0.94102,0,0,0.25,-1.7764e-15,0,0.66667
0.71901,0.40706,2.876,-0.1394,-1.358,7.7238,1.0691,-0.35638,-1.9327,1.4255,-2.4039e-11,-0.96633,0,0,0.25,2.3685e-15,0,0.66667
0.30263,0.44428,1.2105,-0.08358,-1.5716,35.808,0.2698,-0.089934,-1.9748,0.35974,7.3505e-12,-0.9874,0,0,0.25,-0,-0,0.66667
0.063598,0.012423,0.25439,-0.73136,-15.518,56.836,0.49615,-0.16538,-0.098182,0.66153,9.0121e-08,-0.049091,0,0,0.25,-0,-0,0.66667
0.9128,0.36657,3.6512,-0.20015,-0.60377,1.1892,1.9487,-0.64958,-1.857,2.5983,1.8589e-08,-0.92848,0,0,0.25,1.1842e-15,0,0.66667
0.79385,0.23741,3.1754,-0.39389,-2.941,4.7644,3.3353,-1.1118,-1.4479,4.4471,-2.4733e-10,-0.72396,0,0,0.25,1.1842e-15,0,0.66667
0.49858,0.0023419,1.9943,-0.74649,-11.962,21.204,3.97,-1.3233,-0.019796,5.2933,-5.2869e-13,-0.0098978,0,0,0.25,-0,8.2097e-17,0.66667
0.41393,0.8369,1.6557,0.50535,8.7728,27.094,-2.2312,0.74375,-1.0915,-2.975,1.5914e-12,-0.54575,0,0,0.25,-5.0967e-17,0,0.66667
0.61556,0.5883,2.4622,0.13245,1.6801,13.193,-0.86965,0.28988,-1.9374,-1.1595,-9.5568e-13,-0.9687,0,0,0.25,2.9606e-16,0,0.66667
0.39852,0.85424,1.5941,0.53135,9.3809,28.291,-2.2587,0.7529,-0.99532,-3.0116,1.4386e-12,-0.49766,0,0,0.25,1.1842e-15,0,0.66667
0.038918,0.58008,0.15567,0.12013,2.4906,59.017,-0.049868,0.016623,-1.9477,-0.066491,-1.5213e-07,-0.97386,0,0,0.25,2.7927e-17,0,0.66667
0.30197,0.0025177,1.2079,-0.74622,-14.463,36.159,2.4036,-0.80119,-0.020447,3.2048,3.6615e-13,-0.010224,0,0,0.25,2.3685e-15,0,0.66667
0.24628,0.56327,0.98511,0.0949,1.8473,40.573,-0.2493,0.0831,-1.9689,-0.3324,-3.1028e-11,-0.98444,0,0,0.25,-5.9212e-16,0,0.66667
0.9723,0.88177,3.8892,0.57265,0.52805,0.78864,-5.9391,1.9797,-0.83397,-7.9188,-3.5014e-08,-0.41699,0,0,0.25,2.3685e-15,0,0.66667
0.7675,0.027742,3.07,-0.70839,-6.1657,6.2576,5.7993,-1.9331,-0.21656,7.7324,-1.2017e-11,-0.10828,0,0,0.25,1.1842e-15,0,0.66667
0.4037,0.24004,1.6148,-0.38994,-6.797,27.8,1.6791,-0.55971,-1.4592,2.2388,-1.7587e-12,-0.72959,0,0,0.25,-5.9212e-16,0,0.66667
0.73663,0.078431,2.9465,-0.63235,-6.0635,7.4156,4.9686,-1.6562,-0.57789,6.6248,-6.4486e-12,-0.28895,0,0,0.25,-0,-0,0.66667
0.30266,0.2965,1.2106,-0.30525,-5.7669,35.853,0.98544,-0.32848,-1.6678,1.3139,1.5114e-11,-0.83389,0,0,0.25,-0,-0,0.66667
0.5273,0.84864,2.1092,0.52296,7.8977,18.998,-2.9414,0.98046,-1.0277,-3.9218,-6.5015e-13,-0.51387,0,0,0.25,-0,-0,0.66667
0.20714,0.25413,0.82857,-0.36881,-7.3672,44.008,0.81489,-0.27163,-1.5166,1.0865,2.5396e-10,-0.7583,0,0,0.25,-5.9212e-16,0,0.66667
0.25426,0.56078,1.017,0.091172,1.7669,39.889,-0.24727,0.082423,-1.9711,-0.32969,-3.1448e-11,-0.98553,0,0,0.25,1.1102e-16,0,0.66667
0.43402,0.37209,1.7361,-0.19187,-3.2176,25.413,0.88829,-0.2961,-1.8696,1.1844,-8.466e-13,-0.93482,0,0,0.25,-8.8818e-16,0,0.66667
0.082426,0.85079,0.3297,0.52618,10.993,55.111,-0.46262,0.15421,-1.0154,-0.61683,-9.7838e-09,-0.50768,0,0,0.25,-0,-0,0.66667
0.85329,0.51655,3.4132,0.024825,0.12953,2.5792,-0.22595,0.075318,-1.9969,-0.30127,-6.1182e-10,-0.99844,0,0,0.25,-0,-0,0.66667
0.91633,0.15595,3.6653,-0.51608,-1.6068,1.4888,5.0443,-1.6814,-1.0538,6.7257,8.3803e-09,-0.52688,0,0,0.25,-4.4409e-16,0,0.66667
0.21311,0.096913,0.85243,-0.60463,-12.19,43.577,1.3744,-0.45814,-0.70035,1.8326,3.2177e-11,-0.35018,0,0,0.25,5.9212e-16,0,0.66667
0.47372,0.06042,1.8949,-0.65937,-10.822,22.837,3.3318,-1.1106,-0.45461,4.4424,1.5565e-13,-0.2273,0,0,0.25,-1.4803e-16,0,0.66667
0.84146,0.25392,3.3658,-0.36912,-2.1358,3.1337,3.3131,-1.1044,-1.5162,4.4175,-6.8704e-10,-0.75808,0,0,0.25,-0,-0,0.66667
0.28828,0.099731,1.1531,-0.6004,-11.618,37.188,1.8462,-0.61541,-0.71794,2.4616,3.2749e-12,-0.35897,0,0,0.25,-0,-0,0.66667
0.61071,0.38536,2.4428,-0.17196,-2.2052,13.492,1.1202,-0.37339,-1.8949,1.4936,9.9964e-13,-0.94747,0,0,0.25,-0,-0,0.66667
0.44205,0.65647,1.7682,0.2347,3.9051,24.829,-1.1067,0.36889,-1.805,-1.4756,9.1638e-13,-0.90251,0,0,0.25,-0,-0,0.66667
0.39749,0.19711,1.59,-0.45433,-7.9933,28.316,1.9263,-0.64211,-1.2653,2.5684,-1.7076e-12,-0.63267,0,0,0.25,-0,-0,0.66667
0.78937,0.74594,3.1575,0.36891,2.803,4.9044,-3.1062,1.0354,-1.516,-4.1417,2.3764e-10,-0.75802,0,0,0.25,1.1842e-15,0,0.66667
0.46451,0.95143,1.8581,0.67715,11.256,23.515,-3.3552,1.1184,-0.36894,-4.4735,1.148e-13,-0.18447,0,0,0.25,-0,-0,0.66667
0.4648,0.77752,1.8592,0.41628,6.794,23.258,-2.0639,0.68796,-1.3842,-2.7518,4.5142e-13,-0.69208,0,0,0.25,-2.9606e-16,0,0.66667
0.99203,0.85349,3.9681,0.53023,0.02491,0.54641,-5.6107,1.8702,-0.9996,-7.481,2.0927e-08,-0.4998,0,0,0.25,-0,-0,0.66667
0.96223,0.57661,3.8489,0.11491,0.11623,0.35682,-1.1795,0.39315,-1.9521,-1.5726,2.2858e-07,-0.97605,0,0,0.25,-0,-0,0.66667
0.23508,0.043853,0.94032,-0.68422,-13.723,41.728,1.7157,-0.5719,-0.33558,2.2876,8.4752e-12,-0.16779,0,0,0.25,-0,-0,0.66667
0.22695,0.52679,0.90782,0.040185,0.78976,42.236,-0.097283,0.032428,-1.9941,-0.12971,-1.248e-11,-0.99707,0,0,0.25,2.9606e-16,0,0.66667
0.66274,0.60061,2.651,0.15091,1.721,10.553,-1.0668,0.35562,-1.9186,-1.4225,2.7082e-12,-0.9593,0,0,0.25,-0,-0,0.66667
0.41195,0.8053,1.6478,0.45795,7.9442,27.21,-2.0123,0.67077,-1.2539,-2.6831,1.6631e-12,-0.62695,0,0,0.25,-2.9606e-16,0,0.66667
0.71875,0.53795,2.875,0.056932,0.55408,7.7149,-0.43648,0.14549,-1.9893,-0.58198,1.0493e-11,-0.99466,0,0,0.25,-0,-0,0.66667
0.73345,0.72526,2.9338,0.33788,3.1734,7.1833,-2.6434,0.88115,-1.5947,-3.5246,5.1141e-11,-0.79733,0,0,0.25,-0,-0,0.66667
0.78329,0.81524,3.1332,0.47286,3.7322,5.2572,-3.9508,1.3169,-1.2058,-5.2678,1.9366e-10,-0.60292,0,0,0.25,-0,-0,0.66667
0.26331,0.57555,1.0533,0.11333,2.1854,39.119,-0.3183,0.1061,-1.954,-0.42439,-3.1135e-11,-0.97701,0,0,0.25,-0,-0,0.66667
0.99836,0.56466,3.9934,0.096997,-0.048849,0.026235,-1.0329,0.34431,-1.9676,-1.3773,-6.6058e-06,-0.98381,0,0,0.25,-2.3685e-15,0,0.66667
0.4937,0.89602,1.9748,0.59403,9.4547,21.361,-3.1283,1.0428,-0.74458,-4.171,-3.2641e-14,-0.37229,0,0,0.25,-0,-0,0.66667
0.083927,0.55091,0.33571,0.076359,1.5734,54.936,-0.068358,0.022786,-1.9785,-0.091144,-1.046e-08,-0.98923,0,0,0.25,-0,-0,0.66667
0.11202,0.027984,0.44806,-0.70802,-14.87,52.502,0.84597,-0.28199,-0.21824,1.128,8.8448e-09,-0.10912,0,0,0.25,-7.4015e-17,0,0.66667
0.5615,0.33473,2.246,-0.2479,-3.4923,16.556,1.4847,-0.49491,-1.7818,1.9797,1.1707e-12,-0.8909,0,0,0.25,-0,-0,0.66667
0.51011,0.7499,2.0404,0.37486,5.752,20.039,-2.0397,0.67989,-1.5012,-2.7195,-4.8717e-13,-0.75059,0,0,0.25,-1.5728e-16,0,0.66667
0.93484,0.86543,3.7393,0.54814,1.3254,1.2231,-5.4658,1.8219,-0.93152,-7.2878,-3.6001e-09,-0.46576,0,0,0.25,-1.1842e-15,0,0.66667
0.90083,0.76864,3.6033,0.40295,1.4533,1.6336,-3.8719,1.2906,-1.4219,-5.1626,2.2813e-09,-0.71093,0,0,0.25,-0,-0,0.66667
0.4654,0.73271,1.8616,0.34907,5.6743,23.172,-1.7329,0.57763,-1.5662,-2.3105,6.376e-13,-0.7831,0,0,0.25,-0,-0,0.66667
0.20648,0.32326,0.82591,-0.26511,-5.2793,44.042,0.58389,-0.19463,-1.7497,0.77852,2.2019e-10,-0.87484,0,0,0.25,-0,-0,0.66667
0.56442,0.76085,2.2577,0.39128,5.522,16.462,-2.3557,0.78523,-1.4555,-3.1409,-1.6886e-12,-0.72777,0,0,0.25,1.1842e-15,0,0.66667
0.30873,0.30805,1.2349,-0.28792,-5.4137,35.343,0.94817,-0.31606,-1.7055,1.2642,1.2633e-11,-0.85273,0,0,0.25,-1.4803e-16,0,0.66667
0.65059,0.52348,2.6023,0.035213,0.41276,11.186,-0.24436,0.081454,-1.9951,-0.32582,2.5427e-13,-0.99756,0,0,0.25,-0,-0,0.66667
0.5151,0.81459,2.0604,0.47188,7.2295,19.773,-2.5927,0.86424,-1.2097,-3.457,-3.1597e-13,-0.60484,0,0,0.25,-0,-1.3224e-18,0.66667
0.84318,0.79205,3.3727,0.43807,2.5329,3.1652,-3.94,1.3133,-1.3179,-5.2533,7.529e-10,-0.65897,0,0,0.25,-0,-0,0.66667
0.13174,0.20217,0.52696,-0.44674,-9.1969,50.679,0.62777,-0.20926,-1.2894,0.83703,9.1075e-10,-0.64471,0,0,0.25,-0,-0,0.66667
0.25101,0.6546,1.004,0.2319,4.5132,40.188,-0.6209,0.20697,-1.8101,-0.82786,-7.5608e-11,-0.90507,0,0,0.25,1.4803e-16,0,0.66667
0.59753,0.81349,2.3901,0.47023,6.2834,14.484,-2.9971,0.99903,-1.2146,-3.9961,-2.1594e-12,-0.60732,0,0,0.25,2.3685e-15,0,0.66667
0.62521,0.40775,2.5009,-0.13838,-1.7202,12.634,0.92285,-0.30762,-1.9335,1.2305,5.2869e-13,-0.96677,0,0,0.25,-2.3685e-15,0,0.66667
0.41259,0.43677,1.6504,-0.09485,-1.6246,27.014,0.41744,-0.13915,-1.9686,0.55658,-8.2889e-13,-0.9843,0,0,0.25,2.2204e-16,0,0.66667
0.90059,0.93606,3.6024,0.65409,2.545,2.0636,-6.2834,2.0945,-0.47931,-8.3779,-1.5856e-08,-0.23966,0,0,0.25,1.6283e-15,0,0.66667
0.81028,0.22525,3.2411,-0.41213,-2.8519,4.1971,3.562,-1.1873,-1.3963,4.7493,-3.856e-10,-0.69817,0,0,0.25,-0,-0,0.66667
0.54085,0.42281,2.1634,-0.11579,-1.6816,17.851,0.66798,-0.22266,-1.9514,0.89064,1.9112e-13,-0.9757,0,0,0.25,1.1842e-15,0,0.66667
0.40503,0.63919,1.6201,0.20879,3.6111,27.619,-0.90204,0.30068,-1.8449,-1.2027,1.5656e-12,-0.92247,0,0,0.25,-5.9212e-16,0,0.66667
0.39718,0.33766,1.5887,-0.24351,-4.2483,28.236,1.0317,-0.34388,-1.7888,1.3755,-1.9048e-12,-0.89442,0,0,0.25,2.9606e-16,0,0.66667
0.11399,0.36409,0.45596,-0.20387,-4.1826,52.233,0.24788,-0.082627,-1.8516,0.33051,-2.1245e-09,-0.9258,0,0,0.25,1.4803e-16,0,0.66667
0.93724,0.14245,3.749,-0.53632,-1.2381,1.1639,5.3618,-1.7873,-0.97751,7.149,7.1664e-09,-0.48875,0,0,0.25,-1.1099e-15,3.8434e-16,0.66667
0.23454,0.40188,0.93814,-0.14717,-2.8845,41.589,0.36819,-0.12273,-1.9241,0.49092,6.6749e-11,-0.96206,0,0,0.25,-0,-0,0.66667
0.15282,0.067395,0.61127,-0.64891,-13.425,48.865,1.0577,-0.35258,-0.50304,1.4103,1.9508e-09,-0.25152,0,0,0.25,-0,-0,0.66667
0.51002,0.8732,2.0401,0.55979,8.6913,20.202,-3.0454,1.0151,-0.88624,-4.0605,-1.1124e-13,-0.44312,0,0,0.25,-2.2204e-16,0,0.66667
0.45504,0.037538,1.8202,-0.69369,-11.676,24.216,3.3671,-1.1224,-0.28938,4.4894,-1.0281e-13,-0.14469,0,0,0.25,1.1842e-15,0,0.66667
0.074027,0.29194,0.29611,-0.31208,-6.4708,55.843,0.24643,-0.082143,-1.6532,0.32857,-1.8478e-09,-0.82658,0,0,0.25,-0,-0,0.66667
0.57557,0.92189,2.3023,0.63284,8.9217,16.012,-3.8853,1.2951,-0.57564,-5.1804,-4.4897e-13,-0.28782,0,0,0.25,-0,-0,0.66667
0.69854,0.76841,2.7941,0.40261,4.2309,8.8855,-2.9999,0.99997,-1.4229,-3.9999,1.2497e-11,-0.71146,0,0,0.25,-1.1842e-15,0,0.66667
0.49055,0.93834,1.9622,0.65751,10.563,21.65,-3.4404,1.1468,-0.46346,-4.5872,1.2368e-13,-0.23173,0,0,0.25,-1.1842e-15,0,0.66667
0.072894,0.054061,0.29157,-0.66891,-14.114,55.991,0.5201,-0.17337,-0.4086,0.69346,-7.4034e-08,-0.2043,0,0,0.25,-0,-0,0.66667
0.17966,0.54278,0.71866,0.064163,1.2875,46.372,-0.12296,0.040987,-1.9845,-0.16395,-1.8749e-10,-0.99224,0,0,0.25,-0,-0,0.66667
0.11594,0.24126,0.46374,-0.38811,-8.0027,52.081,0.47996,-0.15999,-1.4638,0.63995,7.2672e-10,-0.73189,0,0,0.25,-0,-0,0.66667
0.58346,0.72576,2.3339,0.33864,4.6076,15.229,-2.1075,0.70251,-1.5919,-2.81,-2.0217e-12,-0.79596,0,0,0.25,-0,-0,0.66667
0.085088,0.97073,0.34035,0.70609,14.907,54.905,-0.64085,0.21362,-0.22766,-0.85446,8.0807e-08,-0.11383,0,0,0.25,-0,-0,0.66667
0.38405,0.75733,1.5362,0.386,6.8546,29.32,-1.5813,0.5271,-1.4697,-2.1084,1.802e-12,-0.73487,0,0,0.25,-0,-0,0.66667
0.14716,0.11936,0.58863,-0.57095,-11.777,49.34,0.89621,-0.29874,-0.84066,1.1949,1.6729e-09,-0.42033,0,0,0.25,-2.2204e-16,0,0.66667
0.41149,0.61001,1.6459,0.16502,2.8327,27.112,-0.7243,0.24143,-1.9023,-0.96573,1.1951e-12,-0.95116,0,0,0.25,-0,-0,0.66667
0.62527,0.24428,2.5011,-0.38358,-4.8185,12.773,2.5583,-0.85278,-1.4778,3.4111,1.9662e-12,-0.73888,0,0,0.25,-1.4803e-15,0,0.66667
0.35954,0.71342,1.4382,0.32013,5.7939,31.225,-1.2277,0.40925,-1.6366,-1.637,4.6296e-13,-0.8183,0,0,0.25,7.4015e-16,0,0.66667
0.89598,0.84621,3.5839,0.51932,2.0272,1.9102,-4.9632,1.6544,-1.0414,-6.6176,1.569e-08,-0.52071,0,0,0.25,-0,-0,0.66667
0.41748,0.10465,1.6699,-0.59303,-10.317,26.896,2.6408,-0.88028,-0.74897,3.5211,-7.5029e-13,-0.37449,0,0,0.25,-0,-0,0.66667
0.93366,0.26282,3.7346,-0.35578,-0.81286,0.95335,3.5432,-1.1811,-1.5493,4.7242,5.9564e-09,-0.77467,0,0,0.25,-0,-0,0.66667
0.82046,0.32313,3.2818,-0.2653,-1.7145,3.7062,2.3218,-0.77394,-1.7489,3.0958,-3.3981e-10,-0.87446,0,0,0.25,-0,-0,0.66667
0.11664,0.87196,0.46657,0.55794,11.595,52.051,-0.69418,0.23139,-0.89329,-0.92557,-1.1525e-08,-0.44664,0,0,0.25,1.8504e-16,0,0.66667
0.10397,0.85778,0.41586,0.53667,11.172,53.18,-0.59514,0.19838,-0.9751,-0.79353,-6.0072e-10,-0.48755,0,0,0.25,-0,-0,0.66667
0.13281,0.066259,0.53124,-0.65061,-13.541,50.636,0.92168,-0.30723,-0.49493,1.2289,-3.6177e-09,-0.24747,0,0,0.25,2.9606e-16,0,0.66667
0.63847,0.46753,2.5539,-0.048698,-0.58711,11.861,0.33165,-0.11055,-1.9927,0.4422,-2.6409e-13,-0.99635,0,0,0.25,-4.4409e-16,0,0.66667
0.68459,0.35949,2.7384,-0.21077,-2.2759,9.438,1.5391,-0.51304,-1.8416,2.0522,-9.2477e-12,-0.92078,0,0,0.25,-8.1072e-16,0,0.66667
0.79001,0.30871,3.16,-0.28694,-2.158,4.805,2.418,-0.80599,-1.7073,3.224,-1.9516e-10,-0.85363,0,0,0.25,-2.9606e-16,0,0.66667
0.54233,0.58307,2.1693,0.1246,1.8057,17.756,-0.7208,0.24027,-1.9442,-0.96106,-6.3483e-13,-0.9721,0,0,0.25,-5.9212e-16,0,0.66667
0.67536,0.50057,2.7014,0.00085322,0.0094013,9.8599,-0.0061464,0.0020488,-2.001,-0.0081952,4.3158e-13,-1.0005,0,0,0.25,-0,-0,0.66667
0.68675,0.048312,2.747,-0.67753,-7.5644,9.8345,4.9632,-1.6544,-0.3679,6.6175,2.9976e-13,-0.18395,0,0,0.25,-1.1842e-15,-2.9355e-16,0.66667
0.33823,0.9943,1.3529,0.74145,13.998,33.208,-2.675,0.89166,-0.045139,-3.5667,1.8674e-13,-0.02257,0,0,0.25,-5.9212e-16,0,0.66667
0.65052,0.79776,2.6021,0.44664,5.3281,11.419,-3.0992,1.0331,-1.2898,-4.1322,-8.8285e-13,-0.6449,0,0,0.25,-1.1842e-15,0,0.66667
0.4041,0.4784,1.6164,-0.032399,-0.55946,27.661,0.13965,-0.046551,-1.9962,0.1862,-7.2581e-14,-0.9981,0,0,0.25,-0,-0,0.66667
0.64016,0.85952,2.5607,0.53929,6.6381,12.094,-3.6825,1.2275,-0.96609,-4.91,-1.5767e-12,-0.48305,0,0,0.25,-0,-3.6864e-16,0.66667
0.93462,0.99731,3.7385,0.74597,2.0082,1.6519,-7.4368,2.4789,-0.022115,-9.9157,2.1201e-07,-0.011057,0,0,0.25,-2.9606e-16,-9.3028e-17,0.66667
0.42997,0.85972,1.7199,0.53958,9.2311,25.912,-2.4747,0.8249,-0.96381,-3.2996,8.4155e-13,-0.4819,0,0,0.25,5.9212e-16,0,0.66667
0.50617,0.36276,2.0247,-0.20586,-3.1555,20.221,1.1115,-0.37049,-1.8485,1.482,7.8937e-14,-0.92423,0,0,0.25,-5.9212e-16,0,0.66667
0.33206,0.37787,1.3283,-0.18319,-3.3766,33.399,0.64886,-0.21629,-1.8811,0.86515,4.0495e-12,-0.94057,0,0,0.25,-0,-0,0.66667
0.57872,0.95167,2.3149,0.67751,9.5401,15.877,-4.1823,1.3941,-0.36806,-5.5764,-2.5491e-13,-0.18403,0,0,0.25,1.1842e-15,0,0.66667
0.86342,0.55627,3.4537,0.084402,0.40965,2.3042,-0.77733,0.25911,-1.9746,-1.0364,3.4855e-09,-0.98729,0,0,0.25,-1.7764e-15,0,0.66667
0.28365,0.12436,1.1346,-0.56347,-10.91,37.553,1.7048,-0.56827,-0.87232,2.2731,7.2504e-12,-0.43616,0,0,0.25,-6.4763e-16,0,0.66667
0.83439,0.1727,3.3376,-0.49095,-3.0181,3.5072,4.3695,-1.4565,-1.1421,5.826,-8.3263e-10,-0.57103,0,0,0.25,-0,-0,0.66667
0.51948,0.46244,2.0779,-0.056345,-0.84496,19.274,0.31221,-0.10407,-1.9886,0.41628,-7.6966e-14,-0.99432,0,0,0.25,-2.9606e-16,0,0.66667
0.22608,0.7184,0.90431,0.3276,6.477,42.354,-0.79,0.26333,-1.619,-1.0533,-1.5296e-10,-0.80952,0,0,0.25,3.7007e-17,0,0.66667
0.41945,0.52088,1.6778,0.031315,0.53229,26.486,-0.14011,0.046702,-1.9963,-0.18681,-8.446e-14,-0.99816,0,0,0.25,-0,-0,0.66667
0.16699,0.77954,0.66798,0.4193,8.5276,47.544,-0.7469,0.24897,-1.3754,-0.99586,-9.2641e-10,-0.6877,0,0,0.25,-3.7007e-17,0,0.66667
0.91239,0.74393,3.6496,0.3659,1.1451,1.3494,-3.561,1.187,-1.5237,-4.748,2.0931e-10,-0.76184,0,0,0.25,-0,-0,0.66667
0.057947,0.30546,0.23179,-0.29181,-6.0599,57.297,0.18037,-0.060123,-1.697,0.24049,-1.2229e-08,-0.84849,0,0,0.25,-0,-0,0.66667
0.604,0.14348,2.416,-0.53478,-7.0932,14.166,3.4455,-1.1485,-0.98231,4.5939,1.3394e-12,-0.49116,0,0,0.25,-0,-0,0.66667
0.10395,0.11858,0.41581,-0.57213,-11.934,53.188,0.63438,-0.21146,-0.83588,0.84584,-6.4253e-09,-0.41794,0,0,0.25,-1.4803e-16,0,0.66667
0.31348,0.43915,1.2539,-0.09127,-1.7033,34.91,0.30519,-0.10173,-1.9717,0.40691,5.2775e-12,-0.98587,0,0,0.25,-1.1842e-15,0,0.66667
0.14294,0.17127,0.57177,-0.49309,-10.141,49.693,0.75182,-0.25061,-1.1351,1.0024,1.1475e-09,-0.56757,0,0,0.25,-0,-0,0.66667
0.49951,0.23049,1.998,-0.40427,-6.3052,20.79,2.154,-0.71799,-1.4192,2.872,-8.3045e-14,-0.70958,0,0,0.25,-0,-0,0.66667
0.6361,0.97022,2.5444,0.70532,8.9111,12.554,-4.7856,1.5952,-0.23181,-6.3809,-4.0323e-13,-0.1159,0,0,0.25,-0,-3.2187e-16,0.66667
0.82926,0.41907,3.317,-0.1214,-0.73992,3.3355,1.0738,-0.35793,-1.9476,1.4317,1.4056e-11,-0.9738,0,0,0.25,-0,-0,0.66667
0.45001,0.058475,1.8001,-0.66229,-11.182,24.548,3.1791,-1.0597,-0.44085,4.2388,-2.5357e-13,-0.22043,0,0,0.25,5.9212e-16,-1.3288e-16,0.66667
0.76945,0.51411,3.0778,0.021163,0.17184,5.4943,-0.17369,0.057898,-1.9978,-0.23159,2.6449e-11,-0.99888,0,0,0.25,-0,-0,0.66667
0.59534,0.24004,2.3814,-0.38995,-5.2045,14.543,2.4763,-0.82542,-1.4594,3.3017,1.9305e-12,-0.7297,0,0,0.25,-0,-0,0.66667
0.97226,0.218,3.8891,-0.42299,-0.32536,0.53146,4.3868,-1.4623,-1.3648,5.8491,1.315e-08,-0.68238,0,0,0.25,1.3323e-15,0,0.66667
0.11972,0.99152,0.47886,0.73728,15.489,51.826,-0.94149,0.31383,-0.066739,-1.2553,-1.9633e-08,-0.03337,0,0,0.25,-6.2578e-18,0,0.66667
0.81632,0.66953,3.2653,0.25429,1.6786,3.8375,-2.2142,0.73807,-1.7695,-2.9523,3.5455e-10,-0.88473,0,0,0.25,-1.1842e-15,0,0.66667
0.83516,0.099316,3.3406,-0.60103,-3.7534,3.6618,5.3541,-1.7847,-0.71534,7.1389,-1.0335e-09,-0.35767,0,0,0.25,-2.3685e-15,0,0.66667
0.79157,0.72079,3.1663,0.33118,2.4827,4.785,-2.7963,0.93209,-1.6105,-3.7284,2.3989e-10,-0.80523,0,0,0.25,-2.3685e-15,0,0.66667
0.45482,0.51049,1.8193,0.015738,0.25711,23.843,-0.076354,0.025451,-1.9991,-0.1018,7.9048e-14,-0.99955,0,0,0.25,-0,-0,0.66667
0.52721,0.28593,2.1088,-0.3211,-4.7932,18.844,1.8057,-0.60191,-1.6335,2.4077,6.003e-13,-0.81677,0,0,0.25,-0,-0,0.66667
0.98538,0.67792,3.9415,0.26688,0.029243,0.22572,-2.8051,0.93502,-1.747,-3.7401,1.9101e-08,-0.8735,0,0,0.25,1.1842e-15,0,0.66667
0.94464,0.25478,3.7785,-0.36782,-0.68187,0.79767,3.7062,-1.2354,-1.5188,4.9417,3.5973e-09,-0.75939,0,0,0.25,2.3685e-15,0,0.66667
0.763,0.89419,3.052,0.59128,5.1399,6.2316,-4.8122,1.6041,-0.75659,-6.4163,3.4388e-11,-0.3783,0,0,0.25,-1.1842e-15,1.1161e-16,0.66667
0.46026,0.91705,1.841,0.62558,10.407,23.765,-3.0713,1.0238,-0.60771,-4.095,2.2116e-13,-0.30385,0,0,0.25,-0,-0,0.66667
0.54024,0.41633,2.1609,-0.12551,-1.8249,17.894,0.72325,-0.24108,-1.9432,0.96434,4.5602e-13,-0.97162,0,0,0.25,-0,-0,0.66667
0.80456,0.51223,3.2182,0.018348,0.12735,4.1551,-0.15746,0.052487,-1.9979,-0.20995,1.1365e-10,-0.99894,0,0,0.25,2.3685e-15,0,0.66667
0.27687,0.64853,1.1075,0.22279,4.2701,37.989,-0.65797,0.21932,-1.8232,-0.87729,-3.5805e-11,-0.9116,0,0,0.25,-0,-0,0.66667
0.25653,0.92592,1.0261,0.63888,12.63,39.877,-1.7482,0.58274,-0.54787,-2.3309,-6.9154e-12,-0.27394,0,0,0.25,-0,-0,0.66667
0.21386,0.90675,0.85545,0.61013,12.3,43.514,-1.3918,0.46394,-0.67718,-1.8558,-1.6947e-11,-0.33859,0,0,0.25,-0,-0,0.66667
0.55121,0.32995,2.2048,-0.25507,-3.6566,17.223,1.4997,-0.49989,-1.768,1.9996,8.8007e-13,-0.88398,0,0,0.25,5.9212e-16,0,0.66667
0.9514,0.80414,3.8056,0.45621,0.75543,0.82577,-4.6297,1.5432,-1.2602,-6.1729,-1.0746e-08,-0.63008,0,0,0.25,1.1842e-15,0,0.66667
0.23774,0.12669,0.95095,-0.55996,-11.126,41.436,1.42,-0.47333,-0.88592,1.8933,4.4537e-11,-0.44296,0,0,0.25,-0,-0,0.66667
0.8016,0.91246,3.2064,0.61869,4.6024,4.8066,-5.29,1.7633,-0.63885,-7.0534,1.7847e-10,-0.31942,0,0,0.25,-0,-0,0.66667
0.03041,0.58781,0.12164,0.13171,2.7327,59.79,-0.042723,0.014241,-1.939,-0.056964,-2.2339e-07,-0.96951,0,0,0.25,-5.5511e-17,0,0.66667
0.50622,0.39804,2.0249,-0.15295,-2.3412,20.2,0.82586,-0.27529,-1.9163,1.1011,2.1655e-13,-0.95813,0,0,0.25,-5.9212e-16,0,0.66667
0.28403,0.33822,1.1361,-0.24266,-4.6325,37.391,0.73517,-0.24506,-1.7909,0.98023,2.9561e-11,-0.89544,0,0,0.25,-2.9606e-16,0,0.66667
0.28272,0.82166,1.1309,0.48249,9.3055,37.588,-1.4551,0.48502,-1.1724,-1.9401,-1.7542e-11,-0.58621,0,0,0.25,5.9212e-16,0,0.66667
0.39197,0.10458,1.5679,-0.59314,-10.58,28.844,2.4799,-0.82664,-0.74917,3.3066,-1.1091e-12,-0.37459,0,0,0.25,-0,-0,0.66667
0.53546,0.88598,2.1418,0.57897,8.6736,18.515,-3.3068,1.1023,-0.80758,-4.4091,-3.757e-13,-0.40379,0,0,0.25,-0,-0,0.66667
0.77289,0.018424,3.0915,-0.72236,-6.1745,6.0723,5.9552,-1.9851,-0.14374,7.9403,6.7653e-12,-0.071869,0,0,0.25,-0,-0,0.66667
0.96166,0.024513,3.8466,-0.71323,-1.1046,1.2108,7.3161,-2.4387,-0.19086,9.7548,-1.3393e-06,-0.09543,0,0,0.25,-0,-0,0.66667
0.15039,0.88174,0.60154,0.57261,11.8,49.055,-0.91853,0.30618,-0.83382,-1.2247,-2.037e-09,-0.41691,0,0,0.25,-0,-0,0.66667
0.39479,0.2005,1.5792,-0.44925,-7.9222,28.522,1.8918,-0.63061,-1.2817,2.5224,-2.0661e-12,-0.64087,0,0,0.25,-0,-0,0.66667
0.16274,0.45097,0.65096,-0.073544,-1.4849,47.87,0.12766,-0.042555,-1.9798,0.17022,2.7099e-11,-0.98992,0,0,0.25,-2.9606e-16,0,0.66667
0.83664,0.37561,3.3466,-0.18659,-1.0922,3.1307,1.6652,-0.55506,-1.8768,2.2202,-6.5987e-10,-0.9384,0,0,0.25,2.3685e-15,0,0.66667
0.084802,0.22377,0.33921,-0.41435,-8.6079,54.882,0.3748,-0.12493,-1.3894,0.49973,-3.8061e-09,-0.69469,0,0,0.25,-0,-0,0.66667
0.85629,0.9379,3.4251,0.65685,3.649,3.1492,-5.9995,1.9998,-0.46702,-7.9994,-6.1829e-10,-0.23351,0,0,0.25,-0,1.5081e-17,0.66667
0.74085,0.74376,2.9634,0.36563,3.3564,6.8806,-2.8894,0.96312,-1.5243,-3.8525,6.0468e-11,-0.76216,0,0,0.25,1.0308e-15,0,0.66667
0.85834,0.24122,3.4333,-0.38816,-2.0142,2.6643,3.5539,-1.1846,-1.4646,4.7385,-8.4498e-10,-0.73229,0,0,0.25,1.1842e-15,0,0.66667
0.88992,0.0033146,3.5597,-0.74503,-3.3009,2.498,7.0722,-2.3574,-0.027564,9.4296,2.0349e-08,-0.013782,0,0,0.25,-0,-0,0.66667
0.15078,0.44213,0.60311,-0.086804,-1.7598,48.934,0.1396,-0.046535,-1.9732,0.18614,-1.5198e-09,-0.98658,0,0,0.25,-0,-0,0.66667
0.55669,0.51067,2.2267,0.016011,0.22638,16.805,-0.095073,0.031691,-1.9983,-0.12676,-2.2619e-13,-0.99917,0,0,0.25,2.3685e-15,0,0.66667
0.30252,0.76637,1.2101,0.39955,7.5767,35.9,-1.2893,0.42976,-1.4315,-1.719,-1.2204e-11,-0.71575,0,0,0.25,5.9212e-16,0,0.66667
0.27122,0.35213,1.0849,-0.22181,-4.2658,38.465,0.6417,-0.2139,-1.8245,0.8556,4.0932e-11,-0.91227,0,0,0.25,-5.9212e-16,0,0.66667
0.016434,0.18353,0.065738,-0.47471,-9.9584,61.067,0.083216,-0.027739,-1.1998,0.11095,-1.5169e-09,-0.59988,0,0,0.25,-2.7756e-17,0,0.66667
0.51518,0.65322,2.0607,0.22982,3.4802,19.612,-1.2629,0.42098,-1.8135,-1.6839,-3.3207e-13,-0.90673,0,0,0.25,-1.4803e-16,0,0.66667
0.019049,0.48891,0.076198,-0.016638,-0.34512,60.822,0.0033783,-0.0011248,-1.9986,0.004505,1.9274e-06,-0.99928,0,0,0.25,1.8504e-17,0,0.66667
0.89823,0.79698,3.5929,0.44547,1.6677,1.7474,-4.2681,1.4227,-1.2934,-5.6908,-1.3792e-10,-0.64671,0,0,0.25,1.1842e-15,0,0.66667
0.26698,0.79501,1.0679,0.44252,8.5993,38.894,-1.2602,0.42007,-1.3036,-1.6803,-3.8825e-11,-0.65182,0,0,0.25,-0,-0,0.66667
0.49337,0.90514,1.9735,0.60771,9.687,21.399,-3.1982,1.0661,-0.68739,-4.2642,-1.5765e-14,-0.34369,0,0,0.25,1.4803e-16,0,0.66667
0.63642,0.033281,2.5457,-0.70008,-8.8334,12.528,4.7525,-1.5842,-0.25795,6.3366,1.0569e-13,-0.12898,0,0,0.25,-0,-0,0.66667
0.0014998,0.75922,0.005999,0.38883,8.1292,62.419,-0.0062203,0.0020734,-1.4626,-0.0082938,-2.3915e-08,-0.73128,0,0,0.25,-4.6259e-18,4.9268e-16,0.66667
0.11324,0.90119,0.45296,0.60179,12.548,52.365,-0.72689,0.2423,-0.71247,-0.96918,-1.9035e-09,-0.35624,0,0,0.25,2.2204e-16,0,0.66667
0.46654,0.28062,1.8662,-0.32907,-5.3371,23.079,1.6376,-0.54586,-1.6162,2.1835,-9.4935e-13,-0.80811,0,0,0.25,8.1416e-16,0,0.66667
0.62328,0.50271,2.4931,0.0040617,0.050615,12.724,-0.027003,0.009001,-2.0009,-0.036004,-3.424e-13,-1.0004,0,0,0.25,-0,-0,0.66667
0.81967,0.030365,3.2787,-0.70445,-4.883,4.3531,6.1591,-2.053,-0.23607,8.2122,8.2268e-11,-0.11803,0,0,0.25,5.6542e-16,0,0.66667
0.41481,0.35281,1.6592,-0.22079,-3.7821,26.874,0.9769,-0.32563,-1.826,1.3025,-1.3047e-12,-0.91299,0,0,0.25,-1.1842e-15,0,0.66667
0.92685,0.49431,3.7074,-0.0085361,-0.020682,0.86004,0.084392,-0.028131,-1.9996,0.11252,-4.2187e-07,-0.9998,0,0,0.25,-2.3685e-15,0,0.66667
0.59738,0.84056,2.3895,0.51085,6.8491,14.535,-3.2552,1.0851,-1.0726,-4.3402,-1.6029e-12,-0.53629,0,0,0.25,1.4803e-16,0,0.66667
0.0018308,0.99116,0.0073232,0.73673,15.702,62.391,-0.014418,0.004766,-0.070186,-0.019244,-6.0012e-05,-0.035093,0,0,0.25,2.313e-18,9.6125e-16,0.66667
0.68004,0.8623,2.7202,0.54345,6.0815,9.9745,-3.942,1.314,-0.94898,-5.256,5.6044e-13,-0.47449,0,0,0.25,1.1842e-15,0,0.66667
0.21277,0.50727,0.85109,0.010899,0.21562,43.467,-0.024736,0.0082452,-1.9991,-0.032981,6.3374e-11,-0.99957,0,0,0.25,1.1842e-15,0,0.66667
0.015256,0.051402,0.061023,-0.6729,-14.275,61.18,0.1095,-0.036499,-0.3904,0.14599,-2.1308e-08,-0.1952,0,0,0.25,1.8504e-17,0,0.66667
0.73575,0.59022,2.943,0.13533,1.2479,6.9552,-1.0621,0.35403,-1.9358,-1.4161,3.306e-11,-0.96789,0,0,0.25,5.9212e-16,0,0.66667
0.55191,0.4465,2.2076,-0.080252,-1.1443,17.12,0.47245,-0.15748,-1.9766,0.62993,3.4653e-13,-0.98828,0,0,0.25,-0,-0,0.66667
0.78362,0.30711,3.1345,-0.28934,-2.2385,5.0499,2.4185,-0.80615,-1.7027,3.2246,-1.7003e-10,-0.85135,0,0,0.25,-5.9212e-16,0,0.66667
0.088169,0.094568,0.35268,-0.60815,-12.751,54.61,0.57195,-0.19065,-0.68564,0.76259,-8.0805e-08,-0.34282,0,0,0.25,-0,-0,0.66667
0.3557,0.075972,1.4228,-0.63604,-11.748,31.723,2.4132,-0.80441,-0.561,3.2176,-1.2554e-12,-0.2805,0,0,0.25,5.9212e-16,9.5812e-17,0.66667
0.2997,0.58124,1.1988,0.12186,2.297,36.056,-0.38957,0.12986,-1.9468,-0.51942,-1.1535e-11,-0.9734,0,0,0.25,-0,-0,0.66667
0.569,0.62994,2.276,0.19491,2.7058,16.055,-1.183,0.39432,-1.8648,-1.5773,-1.2277e-12,-0.93238,0,0,0.25,-0,-0,0.66667
0.51015,0.34994,2.0406,-0.22509,-3.4327,19.954,1.2248,-0.40828,-1.8196,1.6331,1.5898e-13,-0.9098,0,0,0.25,-0,-0,0.66667
0.78213,0.84185,3.1285,0.51278,4.0882,5.3567,-4.278,1.426,-1.0664,-5.7039,9.8774e-11,-0.53322,0,0,0.25,-2.9606e-16,0,0.66667
0.18706,0.10068,0.74823,-0.59898,-12.205,45.839,1.1951,-0.39838,-0.72503,1.5935,7.3184e-11,-0.36251,0,0,0.25,-0,-0,0.66667
0.5765,0.95686,2.306,0.68529,9.6948,16.026,-4.2141,1.4047,-0.33013,-5.6187,3.153e-14,-0.16507,0,0,0.25,-1.2748e-15,0,0.66667
0.64438,0.26259,2.5775,-0.35611,-4.2816,11.673,2.4477,-0.81589,-1.5485,3.2635,6.4682e-13,-0.77426,0,0,0.25,-1.1842e-15,0,0.66667
0.45987,0.40907,1.8395,-0.13639,-2.2174,23.489,0.66904,-0.22301,-1.934,0.89205,-5.4906e-13,-0.96701,0,0,0.25,-1.1842e-15,0,0.66667
0.55798,0.56017,2.2319,0.09025,1.274,16.729,-0.53715,0.17905,-1.9715,-0.7162,-6.4021e-13,-0.98575,0,0,0.25,1.4803e-15,0,0.66667
0.97433,0.008785,3.8973,-0.73682,-0.7818,1.1416,7.6577,-2.5526,-0.069085,10.21,-3.9562e-06,-0.034543,0,0,0.25,-0,-0,0.66667
0.75167,0.15333,3.0067,-0.52,-4.6679,6.5951,4.1693,-1.3898,-1.0395,5.559,-4.054e-11,-0.51976,0,0,0.25,-2.9606e-16,0,0.66667
0.38099,0.49936,1.5239,-0.00095643,-0.016883,29.459,0.0038868,-0.0012956,-2.0006,0.0051824,-6.3289e-13,-1.0003,0,0,0.25,9.0668e-16,0,0.66667
0.43402,0.37278,1.7361,-0.19082,-3.2,25.414,0.88342,-0.29447,-1.8712,1.1779,-1.0154e-12,-0.93559,0,0,0.25,-6.6613e-16,0,0.66667
0.71283,0.58404,2.8513,0.12605,1.2513,8.0109,-0.95846,0.31949,-1.9428,-1.278,1.741e-11,-0.97141,0,0,0.25,-0,-0,0.66667
0.093712,0.91135,0.37485,0.61703,12.931,54.115,-0.61678,0.20559,-0.64738,-0.82237,3.6601e-08,-0.32369,0,0,0.25,-2.9606e-16,1.6175e-16,0.66667
0.63781,0.83104,2.5512,0.49657,6.1213,12.175,-3.3783,1.1261,-1.1229,-4.5044,-1.6454e-12,-0.56143,0,0,0.25,-7.5532e-16,0,0.66667
0.11436,0.68526,0.45743,0.27789,5.711,52.207,-0.33898,0.11299,-1.7258,-0.45197,5.5007e-10,-0.86292,0,0,0.25,1.8189e-16,0,0.66667
0.10185,0.1612,0.40739,-0.5082,-10.569,53.364,0.5521,-0.18403,-1.0815,0.73613,1.4519e-08,-0.54075,0,0,0.25,-0,-0,0.66667
0.66667,0.38966,2.6667,-0.16551,-1.8698,10.349,1.177,-0.39233,-1.9017,1.5693,-3.5915e-12,-0.95087,0,0,0.25,-1.1842e-15,0,0.66667
0.1671,0.48798,0.6684,-0.018033,-0.36345,47.482,0.032143,-0.010714,-1.9981,0.042857,7.4563e-10,-0.99906,0,0,0.25,3.9423e-16,0,0.66667
0.76472,0.57545,3.0589,0.11317,0.9379,5.704,-0.92312,0.30771,-1.9545,-1.2308,5.8014e-11,-0.97726,0,0,0.25,-0,-0,0.66667
0.75059,0.76309,3.0024,0.39463,3.5093,6.488,-3.1596,1.0532,-1.4464,-4.2127,7.8222e-11,-0.72321,0,0,0.25,-0,-0,0.66667
0.31202,0.34367,1.2481,-0.2345,-4.3922,35.056,0.78047,-0.26016,-1.8063,1.0406,1.1117e-11,-0.90315,0,0,0.25,9.4832e-17,0,0.66667
0.57086,0.56405,2.2835,0.096081,1.3266,15.908,-0.58506,0.19502,-1.9676,-0.78008,-6.2478e-13,-0.98378,0,0,0.25,-2.3685e-15,0,0.66667
0.64514,0.68013,2.5806,0.2702,3.228,11.569,-1.8594,0.6198,-1.7401,-2.4792,5.2847e-14,-0.87006,0,0,0.25,5.9212e-16,0,0.66667
0.81146,0.63461,3.2459,0.20191,1.3619,3.9698,-1.7477,0.58256,-1.8553,-2.3303,1.8918e-10,-0.92764,0,0,0.25,-0,-0,0.66667
0.20147,0.54579,0.80587,0.068685,1.3661,44.456,-0.1476,0.0492,-1.983,-0.1968,-5.2086e-11,-0.99152,0,0,0.25,2.9606e-16,0,0.66667
0.67624,0.97175,2.705,0.70763,8.1473,10.416,-5.1043,1.7014,-0.21995,-6.8058,-1.8519e-13,-0.10997,0,0,0.25,-0,-0,0.66667
0.82289,0.74368,3.2916,0.36552,2.3549,3.7178,-3.2083,1.0694,-1.5247,-4.2778,5.2359e-10,-0.76235,0,0,0.25,-1.1842e-15,0,0.66667
0.41439,0.62937,1.6575,0.19406,3.3234,26.898,-0.85775,0.28592,-1.866,-1.1437,1.1374e-12,-0.933,0,0,0.25,1.1842e-15,0,0.66667
0.4937,0.79912,1.9748,0.44868,7.0707,21.229,-2.3628,0.78759,-1.2833,-3.1504,1.4211e-14,-0.64165,0,0,0.25,-5.9212e-16,0,0.66667
0.51425,0.092599,2.057,-0.6111,-9.4694,19.969,3.3521,-1.1174,-0.67354,4.4695,-1.3767e-14,-0.33677,0,0,0.25,7.6124e-17,0,0.66667
0.93933,0.20945,3.7573,-0.43583,-0.9256,0.96876,4.3668,-1.4556,-1.3247,5.8224,9.7318e-09,-0.66233,0,0,0.25,-0,-0,0.66667
0.051651,0.18478,0.2066,-0.47283,-9.894,57.88,0.2605,-0.086835,-1.2054,0.34734,-6.4587e-09,-0.60272,0,0,0.25,-0,-0,0.66667
0.57155,0.32931,2.2862,-0.25603,-3.5458,15.922,1.5609,-0.52031,-1.766,2.0812,1.4936e-12,-0.88298,0,0,0.25,-1.1842e-15,0,0.66667
0.48976,0.46441,1.959,-0.05338,-0.83463,21.331,0.27886,-0.092954,-1.9899,0.37181,-5.2514e-14,-0.99494,0,0,0.25,-5.9818e-16,0,0.66667
0.34383,0.10821,1.3753,-0.58769,-10.923,32.634,2.1554,-0.71845,-0.77226,2.8738,-1.4828e-12,-0.38613,0,0,0.25,5.9212e-16,0,0.66667
0.66992,0.35388,2.6797,-0.21918,-2.4604,10.202,1.5662,-0.52206,-1.8291,2.0883,-4.8245e-12,-0.91457,0,0,0.25,-0,-0,0.66667
0.76944,0.22449,3.0778,-0.41327,-3.4289,5.7276,3.3918,-1.1306,-1.3928,4.5224,-1.3655e-10,-0.69639,0,0,0.25,-0,-0,0.66667
0.54006,0.79796,2.1602,0.44694,6.5857,18.082,-2.5747,0.85822,-1.2888,-3.4329,-8.6242e-13,-0.64439,0,0,0.25,-0,-0,0.66667
0.041638,0.089342,0.16655,-0.61599,-13.001,58.797,0.27358,-0.091194,-0.6509,0.36478,3.7418e-07,-0.32545,0,0,0.25,-3.7007e-17,0,0.66667
0.23508,0.4534,0.94032,-0.069903,-1.3684,41.535,0.17528,-0.058428,-1.9827,0.23371,3.6353e-11,-0.99135,0,0,0.25,-2.9606e-16,0,0.66667
0.02044,0.65854,0.081759,0.2378,4.9463,60.698,-0.051847,0.017282,-1.7994,-0.06913,-5.8649e-08,-0.89968,0,0,0.25,-0,-0,0.66667
0.32778,0.89207,1.3111,0.58811,11.066,33.931,-2.0562,0.68541,-0.77042,-2.7416,4.9938e-13,-0.38521,0,0,0.25,-5.9212e-16,2.9351e-16,0.66667
0.46806,0.51805,1.8722,0.02708,0.43537,22.88,-0.1352,0.045067,-1.9975,-0.18027,1.6911e-13,-0.99876,0,0,0.25,-0,-0,0.66667
0.78457,0.58986,3.1383,0.13479,1.0294,4.9221,-1.128,0.376,-1.9358,-1.504,1.3762e-10,-0.9679,0,0,0.25,-2.9606e-16,0,0.66667
0.53227,0.86651,2.1291,0.54976,8.2571,18.694,-3.1213,1.0404,-0.92571,-4.1618,-4.2677e-13,-0.46285,0,0,0.25,-0,-0,0.66667
0.47743,0.57581,1.9097,0.11372,1.8082,22.216,-0.57912,0.19304,-1.9531,-0.77216,4.1023e-14,-0.97653,0,0,0.25,1.1842e-15,0,0.66667
0.69795,0.16356,2.7918,-0.50466,-5.3604,9.0291,3.7571,-1.2524,-1.0941,5.0094,-5.8544e-12,-0.54705,0,0,0.25,-0,-0,0.66667
0.017417,0.65799,0.069669,0.23698,4.9297,60.972,-0.044028,0.014676,-1.8014,-0.058703,-5.401e-08,-0.90072,0,0,0.25,-0,-0,0.66667
0.69499,0.7636,2.78,0.3954,4.1943,9.053,-2.9312,0.97706,-1.4432,-3.9082,1.1035e-11,-0.72158,0,0,0.25,-1.1842e-15,0,0.66667
0.31196,0.66653,1.2478,0.24979,4.6807,35.065,-0.83119,0.27706,-1.7785,-1.1082,-1.1141e-11,-0.88924,0,0,0.25,-0,-0,0.66667
0.55979,0.62212,2.2392,0.18318,2.5827,16.638,-1.0938,0.36459,-1.8814,-1.4584,-1.2558e-12,-0.94069,0,0,0.25,4.4409e-16,0,0.66667
0.60681,0.15223,2.4272,-0.52166,-6.8739,13.985,3.3765,-1.1255,-1.033,4.502,1.5761e-12,-0.51648,0,0,0.25,-5.2888e-16,0,0.66667
0.18214,0.49022,0.72857,-0.014664,-0.29389,46.153,0.02849,-0.0094965,-1.9986,0.037986,-3.5314e-10,-0.9993,0,0,0.25,-4.4409e-16,0,0.66667
0.25027,0.47403,1.0011,-0.038954,-0.75631,40.227,0.10399,-0.034663,-1.9956,0.13865,1.7474e-11,-0.99778,0,0,0.25,5.9212e-16,0,0.66667
0.57882,0.25958,2.3153,-0.36063,-4.9542,15.533,2.2266,-0.74219,-1.5379,2.9688,1.6853e-12,-0.76896,0,0,0.25,-0,-0,0.66667
0.26262,0.56729,1.0505,0.10093,1.9469,39.177,-0.28274,0.094247,-1.9641,-0.37699,-3.0209e-11,-0.98205,0,0,0.25,-5.9212e-16,0,0.66667
0.23942,0.14642,0.95767,-0.53036,-10.511,41.279,1.3544,-0.45148,-0.99926,1.8059,5.6971e-11,-0.49963,0,0,0.25,2.9606e-16,0,0.66667
0.35903,0.53876,1.4361,0.058144,1.0468,31.202,-0.22267,0.074224,-1.9886,-0.2969,-3.5114e-13,-0.99431,0,0,0.25,-0,-0,0.66667
0.90441,0.57822,3.6176,0.11734,0.38891,1.3187,-1.1319,0.37731,-1.9508,-1.5093,5.1762e-09,-0.9754,0,0,0.25,-0,-0,0.66667
0.86921,0.8369,3.4768,0.50535,2.4747,2.5318,-4.6854,1.5618,-1.0916,-6.2472,3.5662e-09,-0.54581,0,0,0.25,-0,-0,0.66667
0.51404,0.81544,2.0561,0.47316,7.2607,19.846,-2.5943,0.86478,-1.2049,-3.4591,-1.8097e-13,-0.60247,0,0,0.25,-1.1842e-15,0,0.66667
0.051748,0.067147,0.20699,-0.64928,-13.719,57.889,0.35839,-0.11946,-0.50113,0.47785,2.9491e-07,-0.25056,0,0,0.25,-0,-0,0.66667
0.80034,0.68407,3.2014,0.2761,1.9781,4.4153,-2.3571,0.7857,-1.7294,-3.1428,2.8838e-10,-0.86469,0,0,0.25,2.9606e-16,0,0.66667
0.18119,0.35672,0.72476,-0.21492,-4.3194,46.251,0.41538,-0.13846,-1.8349,0.55384,2.3819e-10,-0.91743,0,0,0.25,-0,-0,0.66667
0.66874,0.1063,2.675,-0.59055,-6.8332,10.622,4.2125,-1.4042,-0.75955,5.6167,5.5422e-13,-0.37978,0,0,0.25,1.1842e-15,-1.0598e-16,0.66667
0.83537,0.12587,3.3415,-0.56119,-3.4734,3.5864,5.0006,-1.6669,-0.88075,6.6675,2.2017e-10,-0.44037,0,0,0.25,-0,-0,0.66667
0.9648,0.024871,3.8592,-0.71269,-1.0113,1.1752,7.3345,-2.4448,-0.19393,9.7793,3.1536e-08,-0.096966,0,0,0.25,1.1842e-15,-1.924e-16,0.66667
0.12685,0.044622,0.50738,-0.68307,-14.27,51.176,0.9242,-0.30807,-0.34084,1.2323,1.7492e-09,-0.17042,0,0,0.25,-0,-0,0.66667
0.52331,0.95731,2.0932,0.68596,10.561,19.448,-3.829,1.2763,-0.32609,-5.1053,-1.4033e-13,-0.16305,0,0,0.25,-5.9212e-16,0,0.66667
0.85061,0.63851,3.4024,0.20777,1.1135,2.7214,-1.8852,0.62838,-1.8456,-2.5135,-2.3527e-10,-0.92278,0,0,0.25,-0,-0,0.66667
0.53761,0.51156,2.1504,0.017343,0.25294,18.053,-0.099456,0.033152,-1.9981,-0.13261,-1.7698e-13,-0.99904,0,0,0.25,-0,-0,0.66667
0.73005,0.98469,2.9202,0.72704,7.2182,7.8748,-5.6616,1.8872,-0.11984,-7.5488,4.8583e-13,-0.059921,0,0,0.25,3.1969e-16,0,0.66667
0.78546,0.66195,3.1418,0.24292,1.8583,4.9449,-2.0353,0.67842,-1.7901,-2.7137,1.9443e-10,-0.89507,0,0,0.25,-0,-0,0.66667
0.8366,0.44765,3.3464,-0.078532,-0.45748,3.0895,0.70079,-0.2336,-1.9773,0.93439,-2.1349e-10,-0.98864,0,0,0.25,2.3685e-15,0,0.66667
0.66653,0.9183,2.6661,0.62745,7.329,10.791,-4.461,1.487,-0.59941,-5.948,-7.9137e-13,-0.2997,0,0,0.25,-0,-0,0.66667
0.89774,0.63682,3.591,0.20523,0.7389,1.5086,-1.9652,0.65508,-1.8494,-2.6203,6.0539e-09,-0.92468,0,0,0.25,-0,-0,0.66667
0.64779,0.7446,2.5912,0.36689,4.3798,11.494,-2.5352,0.84505,-1.5211,-3.3802,-4.7695e-13,-0.76056,0,0,0.25,2.9606e-16,0,0.66667
0.94464,0.42481,3.7785,-0.11278,-0.19472,0.5918,1.1364,-0.37879,-1.9538,1.5152,1.4362e-07,-0.97692,0,0,0.25,-1.1842e-15,0,0.66667
0.6293,0.61683,2.5172,0.17524,2.1614,12.412,-1.1763,0.39211,-1.8905,-1.5684,-6.587e-13,-0.94523,0,0,0.25,-0,-0,0.66667
0.87243,0.7129,3.4897,0.31936,1.4749,2.2108,-2.9719,0.99063,-1.6376,-3.9625,7.4452e-10,-0.81881,0,0,0.25,-5.9212e-16,0,0.66667
0.59566,0.60651,2.3826,0.15977,2.1101,14.389,-1.0151,0.33837,-1.909,-1.3535,-1.3329e-12,-0.95452,0,0,0.25,-0,-0,0.66667
0.34435,0.44667,1.3774,-0.080001,-1.4582,32.385,0.29385,-0.09795,-1.9776,0.3918,1.1127e-12,-0.98882,0,0,0.25,-0,-0,0.66667
0.81346,0.022646,3.2538,-0.71603,-5.1305,4.5833,6.2129,-2.071,-0.17741,8.2839,-6.2919e-11,-0.088705,0,0,0.25,1.1842e-15,0,0.66667
0.43238,0.44689,1.7295,-0.079663,-1.3358,25.513,0.36741,-0.12247,-1.9769,0.48988,-5.7501e-13,-0.98843,0,0,0.25,-0,-0,0.66667
0.12655,0.58318,0.50618,0.12477,2.5483,51.101,-0.16841,0.056138,-1.9447,-0.22455,-2.1878e-09,-0.97233,0,0,0.25,1.4803e-16,0,0.66667
0.96857,0.34168,3.8743,-0.23748,-0.18883,0.35864,2.4535,-0.81784,-1.801,3.2714,-1.5105e-08,-0.9005,0,0,0.25,-5.9212e-16,0,0.66667
0.85256,0.45814,3.4103,-0.062792,-0.32951,2.6052,0.57103,-0.19034,-1.9852,0.76137,-8.9683e-10,-0.99259,0,0,0.25,1.1842e-15,0,0.66667
0.56126,0.38188,2.245,-0.17719,-2.4916,16.541,1.0608,-0.35359,-1.8888,1.4144,9.458e-13,-0.94441,0,0,0.25,-1.1842e-15,0,0.66667
0.67061,0.97878,2.6824,0.71817,8.396,10.723,-5.1372,1.7124,-0.16629,-6.8496,-6.1284e-14,-0.083147,0,0,0.25,-1.1842e-15,2.5809e-16,0.66667
0.99772,0.18062,3.9909,-0.47907,0.11898,0.42042,5.0984,-1.6995,-1.1842,6.7979,-6.6571e-08,-0.59209,0,0,0.25,-1.1842e-15,-2.0326e-16,0.66667
0.16131,0.51522,0.64523,0.02283,0.46107,47.996,-0.039282,0.013094,-1.9973,-0.052376,-2.3779e-10,-0.99865,0,0,0.25,-5.9212e-16,0,0.66667
0.53454,0.58657,2.1382,0.12986,1.9053,18.273,-0.74044,0.24681,-1.94,-0.98725,-6.1129e-13,-0.96999,0,0,0.25,5.9212e-16,0,0.66667
0.39098,0.9898,1.5639,0.73471,13.26,29.052,-3.064,1.0213,-0.081128,-4.0854,-1.4766e-13,-0.040564,0,0,0.25,5.9212e-16,0,0.66667
0.54115,0.97415,2.1646,0.71122,10.688,18.305,-4.1053,1.3684,-0.2013,-5.4738,2.6201e-14,-0.10065,0,0,0.25,-0,-0,0.66667
0.10338,0.37075,0.41351,-0.19387,-3.9862,53.186,0.21378,-0.07126,-1.8663,0.28504,1.1475e-08,-0.93317,0,0,0.25,-3.7007e-17,0,0.66667
0.44074,0.055551,1.763,-0.66667,-11.378,25.232,3.1342,-1.0447,-0.41969,4.1789,-9.1482e-14,-0.20985,0,0,0.25,2.9606e-16,0,0.66667
0.46146,0.5814,1.8459,0.1221,1.9807,23.37,-0.601,0.20033,-1.9461,-0.80133,4.7418e-13,-0.97304,0,0,0.25,4.5636e-17,0,0.66667
0.59589,0.23974,2.3836,-0.39039,-5.205,14.51,2.4814,-0.82713,-1.458,3.3085,1.9402e-12,-0.729,0,0,0.25,-0,-0,0.66667
0.66238,0.4353,2.6495,-0.097048,-1.1063,10.557,0.68568,-0.22856,-1.9668,0.91424,-2.1773e-12,-0.98342,0,0,0.25,2.9606e-16,0,0.66667
0.59015,0.89184,2.3606,0.58776,8.0396,15.061,-3.6999,1.2333,-0.77107,-4.9332,-8.0069e-13,-0.38554,0,0,0.25,-1.1842e-15,0,0.66667
0.72938,0.65646,2.9175,0.23469,2.2196,7.2905,-1.8259,0.60863,-1.805,-2.4345,4.382e-11,-0.9025,0,0,0.25,-2.3685e-15,0,0.66667
0.5809,0.85343,2.3236,0.53015,7.3387,15.559,-3.285,1.095,-1.0005,-4.38,-1.3112e-12,-0.50023,0,0,0.25,1.1842e-15,0,0.66667
0.4431,0.15497,1.7724,-0.51754,-8.715,24.919,2.4461,-0.81537,-1.0482,3.2615,-8.6797e-13,-0.5241,0,0,0.25,2.8764e-16,0,0.66667
0.49679,0.92105,1.9872,0.63158,10.041,21.188,-3.3468,1.1156,-0.58117,-4.4624,-1.0214e-14,-0.29059,0,0,0.25,-0,3.7725e-16,0.66667
0.43009,0.22275,1.7204,-0.41587,-7.0628,25.813,1.9078,-0.63595,-1.385,2.5438,-1.7645e-12,-0.69251,0,0,0.25,-0,-0,0.66667
0.21007,0.5939,0.8403,0.14084,2.7928,43.71,-0.3156,0.1052,-1.9302,-0.4208,-1.4639e-10,-0.96508,0,0,0.25,-5.9212e-16,0,0.66667
0.2268,0.012168,0.9072,-0.73175,-14.787,42.464,1.7703,-0.59009,-0.095237,2.3603,-1.8857e-11,-0.047619,0,0,0.25,-0,-0,0.66667
0.45739,0.63807,1.8296,0.2071,3.3823,23.69,-1.0104,0.3368,-1.8468,-1.3472,8.058e-13,-0.92341,0,0,0.25,-0,-0,0.66667
0.43355,0.32222,1.7342,-0.26667,-4.4837,25.475,1.2332,-0.41108,-1.7467,1.6443,-1.5188e-12,-0.87336,0,0,0.25,-0,-0,0.66667
0.77928,0.45019,3.1171,-0.07471,-0.58277,5.1097,0.62102,-0.20701,-1.9799,0.82803,-4.5288e-11,-0.98997,0,0,0.25,-0,-0,0.66667
0.42086,0.38199,1.6834,-0.17701,-3.0098,26.401,0.79462,-0.26487,-1.8891,1.0595,-1.1313e-12,-0.94455,0,0,0.25,-0,-0,0.66667
0.67337,0.689,2.6935,0.28349,3.1639,10.06,-2.0362,0.67874,-1.7155,-2.715,5.5547e-12,-0.85774,0,0,0.25,-0,-0,0.66667
0.16604,0.71684,0.66415,0.32526,6.5935,47.607,-0.57606,0.19202,-1.6242,-0.76808,-4.5043e-10,-0.81212,0,0,0.25,4.3166e-16,0,0.66667
0.82406,0.98348,3.2962,0.72522,4.9377,4.2541,-6.3746,2.1249,-0.12928,-8.4995,4.4943e-11,-0.064642,0,0,0.25,-1.1842e-15,0,0.66667
0.68541,0.30098,2.7416,-0.29852,-3.2301,9.451,2.1825,-0.7275,-1.683,2.91,-9.7451e-12,-0.84148,0,0,0.25,-0,-0,0.66667
0.78905,0.74114,3.1562,0.36171,2.7503,4.9091,-3.0444,1.0148,-1.5341,-4.0591,2.3579e-10,-0.76706,0,0,0.25,-0,-0,0.66667
0.35948,0.98533,1.4379,0.72799,13.499,31.503,-2.7915,0.93049,-0.11594,-3.722,3.3729e-13,-0.05797,0,0,0.25,-5.9212e-16,0,0.66667
0.66255,0.62731,2.6502,0.19097,2.1814,10.579,-1.3496,0.44987,-1.8706,-1.7995,2.9237e-12,-0.93531,0,0,0.25,-0,-0,0.66667
0.21709,0.49256,0.86836,-0.011164,-0.22043,43.091,0.025852,-0.0086175,-1.9998,0.03447,-5.2642e-11,-0.99991,0,0,0.25,-2.9606e-16,0,0.66667
0.22101,0.67497,0.88402,0.26245,5.1912,42.778,-0.6187,0.20623,-1.7548,-0.82494,-1.5187e-10,-0.87741,0,0,0.25,-2.9606e-16,0,0.66667
0.24246,0.15272,0.96983,-0.52092,-10.302,41.014,1.3472,-0.44907,-1.0352,1.7963,5.0665e-11,-0.5176,0,0,0.25,-7.4015e-17,0,0.66667
0.26459,0.13852,1.0584,-0.54222,-10.607,39.143,1.5303,-0.5101,-0.95468,2.0404,2.0662e-11,-0.47734,0,0,0.25,-0,-0,0.66667
0.40841,0.23231,1.6336,-0.40153,-6.97,27.445,1.7492,-0.58307,-1.4265,2.3323,-1.8794e-12,-0.71323,0,0,0.25,-0,-0,0.66667
0.8287,0.83192,3.3148,0.49789,3.1649,3.6971,-4.401,1.467,-1.1188,-5.868,7.0392e-10,-0.55941,0,0,0.25,-1.1842e-15,0,0.66667
0.94742,0.63041,3.7897,0.19561,0.32095,0.59419,-1.9768,0.65893,-1.8638,-2.6357,-5.225e-08,-0.93189,0,0,0.25,-0,-0,0.66667
0.63246,0.10229,2.5298,-0.59657,-7.5083,12.598,4.0246,-1.3415,-0.73394,5.3661,1.1133e-12,-0.36697,0,0,0.25,1.1842e-15,0,0.66667
0.13474,0.43952,0.53896,-0.090721,-1.8481,50.366,0.13039,-0.043462,-1.9711,0.17385,4.9777e-09,-0.98555,0,0,0.25,-0,-0,0.66667
0.41999,0.4292,1.68,-0.1062,-1.8052,26.452,0.47575,-0.15858,-1.96,0.63433,-7.459e-13,-0.98001,0,0,0.25,-2.9606e-16,0,0.66667
0.93619,0.74681,3.7447,0.37021,0.81249,0.92983,-3.6969,1.2323,-1.5137,-4.9292,-5.0104e-09,-0.75684,0,0,0.25,2.9606e-16,0,0.66667
0.32054,0.37835,1.2822,-0.18248,-3.3928,34.342,0.62392,-0.20797,-1.8817,0.83189,6.9482e-12,-0.94083,0,0,0.25,-0,-0,0.66667
0.61928,0.15504,2.4771,-0.51744,-6.6471,13.251,3.418,-1.1393,-1.0486,4.5574,1.8852e-12,-0.52428,0,0,0.25,-4.4409e-16,0,0.66667
0.93513,0.66733,3.7405,0.25099,0.5421,0.8236,-2.5036,0.83453,-1.7758,-3.3381,-6.0566e-09,-0.88789,0,0,0.25,-0,-0,0.66667
0.46068,0.94583,1.8427,0.66875,11.159,23.781,-3.2862,1.0954,-0.40924,-4.3816,1.9629e-13,-0.20462,0,0,0.25,-0,-0,0.66667
0.5004,0.9102,2.0016,0.61531,9.7223,20.92,-3.2843,1.0948,-0.65498,-4.379,-2.609e-13,-0.32749,0,0,0.25,1.1842e-15,0,0.66667
0.91869,0.20322,3.6748,-0.44518,-1.3134,1.3332,4.3624,-1.4541,-1.2948,5.8166,-3.1946e-09,-0.64741,0,0,0.25,1.1842e-15,0,0.66667
0.92982,0.53804,3.7193,0.057065,0.13177,0.81346,-0.56598,0.18866,-1.988,-0.75464,-1.4281e-07,-0.99398,0,0,0.25,2.3685e-15,0,0.66667
0.90449,0.61406,3.6179,0.1711,0.56935,1.342,-1.6507,0.55024,-1.8958,-2.201,-6.3118e-09,-0.94792,0,0,0.25,-1.1842e-15,0,0.66667
0.51363,0.47578,2.0545,-0.036323,-0.54932,19.67,0.199,-0.066335,-1.9955,0.26534,-1.1635e-13,-0.99777,0,0,0.25,-0,-0,0.66667
0.63981,0.044453,2.5592,-0.68332,-8.5424,12.314,4.6634,-1.5545,-0.33989,6.2179,4.4187e-13,-0.16995,0,0,0.25,-1.1842e-15,0,0.66667
0.58901,0.51044,2.356,0.015665,0.20911,14.769,-0.098418,0.032806,-1.9985,-0.13122,-2.2151e-13,-0.99926,0,0,0.25,-0,-0,0.66667
0.15849,0.46472,0.63398,-0.052914,-1.0698,48.247,0.089457,-0.029819,-1.9906,0.11928,4.6002e-10,-0.99532,0,0,0.25,-3.7007e-16,0,0.66667
0.62345,0.88361,2.4938,0.57541,7.366,13.082,-3.8266,1.2755,-0.82294,-5.1021,-1.4797e-12,-0.41147,0,0,0.25,-0,-0,0.66667
0.31914,0.89431,1.2766,0.59146,11.202,34.637,-2.0135,0.67115,-0.7553,-2.6846,1.45e-13,-0.37765,0,0,0.25,-2.9606e-16,0,0.66667
0.13074,0.89931,0.52294,0.59896,12.433,50.806,-0.83526,0.27842,-0.72404,-1.1137,-4.1354e-09,-0.36202,0,0,0.25,7.4015e-17,0,0.66667
0.215,0.12075,0.86001,-0.56888,-11.434,43.397,1.3047,-0.43489,-0.84958,1.7395,1.3373e-10,-0.42479,0,0,0.25,1.4803e-16,0,0.66667
0.31366,0.18441,1.2546,-0.47338,-8.9391,35.015,1.5838,-0.52793,-1.2043,2.1117,3.7392e-12,-0.60214,0,0,0.25,1.4803e-16,0,0.66667
0.95145,0.24594,3.8058,-0.38108,-0.6053,0.71862,3.8676,-1.2892,-1.4844,5.1567,8.1174e-09,-0.74219,0,0,0.25,-0,-0,0.66667
0.99077,0.53119,3.9631,0.046786,-0.0088401,0.063423,-0.49444,0.16481,-1.9929,-0.65926,-3.5866e-06,-0.99647,0,0,0.25,1.1195e-15,0,0.66667
0.86689,0.43779,3.4675,-0.093308,-0.44109,2.2127,0.8628,-0.2876,-1.9697,1.1504,-4.8822e-09,-0.98484,0,0,0.25,-2.3685e-15,0,0.66667
0.46186,0.90018,1.8474,0.60027,9.9482,23.624,-2.9572,0.98574,-0.71851,-3.943,4.4298e-13,-0.35925,0,0,0.25,-2.9606e-16,0,0.66667
0.46562,0.73428,1.8625,0.35141,5.7115,23.158,-1.7453,0.58178,-1.5604,-2.3271,5.9397e-13,-0.78019,0,0,0.25,5.9212e-16,0,0.66667
0.76473,0.7609,3.0589,0.39135,3.3002,5.8944,-3.1923,1.0641,-1.4556,-4.2564,1.1613e-10,-0.72781,0,0,0.25,-1.1842e-15,0,0.66667
0.098408,0.80443,0.39363,0.45664,9.4798,53.664,-0.47933,0.15978,-1.2582,-0.63911,2.2164e-10,-0.62909,0,0,0.25,-7.4015e-17,0,0.66667
0.99404,0.64014,3.9761,0.21021,-0.059671,0.1149,-2.2288,0.74294,-1.842,-2.9718,-2.3794e-08,-0.92098,0,0,0.25,-0,-0,0.66667
0.69221,0.81168,2.7689,0.46752,5.0279,9.2675,-3.452,1.1507,-1.2236,-4.6026,6.1453e-12,-0.6118,0,0,0.25,-2.9606e-16,0,0.66667
0.29929,0.62281,1.1971,0.18422,3.477,36.101,-0.58809,0.19603,-1.8802,-0.78412,-1.5833e-11,-0.94011,0,0,0.25,-1.4803e-16,0,0.66667
0.90885,0.68066,3.6354,0.27099,0.86845,1.3226,-2.6271,0.8757,-1.739,-3.5028,-3.7894e-09,-0.86951,0,0,0.25,1.1842e-15,0,0.66667
0.55258,0.61331,2.2103,0.16997,2.4248,17.099,-1.0018,0.33394,-1.8965,-1.3358,-1.06e-12,-0.94824,0,0,0.25,5.9212e-16,0,0.66667
0.08519,0.40236,0.34076,-0.14646,-3.0195,54.824,0.13308,-0.044361,-1.9237,0.17744,3.2506e-08,-0.96185,0,0,0.25,3.7007e-17,0,0.66667
0.10825,0.20183,0.43298,-0.44725,-9.2615,52.78,0.51641,-0.17214,-1.2887,0.68854,1.4128e-09,-0.64436,0,0,0.25,1.4803e-16,0,0.66667
0.031665,0.03733,0.12666,-0.694,-14.732,59.702,0.23441,-0.078137,-0.2883,0.31254,-2.4001e-06,-0.14415,0,0,0.25,7.4015e-17,0,0.66667
0.21619,0.15132,0.86478,-0.52302,-10.48,43.274,1.2061,-0.40204,-1.0278,1.6082,9.6007e-11,-0.51388,0,0,0.25,-2.0017e-17,0,0.66667
0.051414,0.59795,0.20566,0.14693,3.0438,57.883,-0.080579,0.02686,-1.9234,-0.10744,-6.4943e-08,-0.96169,0,0,0.25,-0,-0,0.66667
0.51027,0.037254,2.0411,-0.69412,-10.894,20.337,3.778,-1.2593,-0.2867,5.0374,-1.5765e-13,-0.14335,0,0,0.25,-0,-0,0.66667
0.08294,0.12949,0.33176,-0.55576,-11.629,55.07,0.49168,-0.16389,-0.90185,0.65557,2.7901e-08,-0.45092,0,0,0.25,-0,-0,0.66667
0.44312,0.93707,1.7725,0.6556,11.15,25.045,-3.0988,1.0329,-0.47249,-4.1317,3.9146e-13,-0.23625,0,0,0.25,-1.2953e-16,0,0.66667
0.2362,0.86588,0.9448,0.54883,10.906,41.563,-1.3828,0.46092,-0.92909,-1.8437,-5.3981e-11,-0.46455,0,0,0.25,-2.9606e-16,0,0.66667
0.55972,0.38976,2.2389,-0.16536,-2.3308,16.636,0.98727,-0.32909,-1.9023,1.3164,7.8493e-13,-0.95116,0,0,0.25,-0,-0,0.66667
0.43897,0.0036207,1.7559,-0.74457,-12.817,25.448,3.4863,-1.1621,-0.029724,4.6484,1.2212e-13,-0.014862,0,0,0.25,-0,-0,0.66667
0.83754,0.77516,3.3502,0.41273,2.4607,3.3045,-3.6873,1.2291,-1.394,-4.9164,8.9458e-10,-0.697,0,0,0.25,1.1842e-15,0,0.66667
0.33654,0.45015,1.3462,-0.074772,-1.3713,33.018,0.26842,-0.089473,-1.9792,0.35789,1.5224e-12,-0.98959,0,0,0.25,5.9212e-16,0,0.66667
0.23023,0.54214,0.92093,0.063215,1.2405,41.953,-0.15524,0.051748,-1.9852,-0.20699,-2.7636e-11,-0.99262,0,0,0.25,-0,-0,0.66667
0.94012,0.40432,3.7605,-0.14353,-0.27508,0.67367,1.4393,-0.47976,-1.9276,1.919,-1.5999e-07,-0.96382,0,0,0.25,2.9606e-16,0,0.66667
0.46636,0.43249,1.8655,-0.10127,-1.6325,23.01,0.50377,-0.16792,-1.9639,0.67169,-4.7767e-13,-0.98197,0,0,0.25,-2.9606e-16,0,0.66667
0.028158,0.27018,0.11263,-0.34473,-7.1899,60,0.10354,-0.034514,-1.5771,0.13805,4.0412e-10,-0.78853,0,0,0.25,-3.7007e-17,0,0.66667
0.079436,0.52244,0.31775,0.03366,0.69396,55.341,-0.028521,0.009507,-1.9962,-0.038028,3.8857e-08,-0.9981,0,0,0.25,-0,-0,0.66667
0.55557,0.05728,2.2223,-0.66408,-9.7106,17.312,3.9354,-1.3118,-0.43176,5.2472,9.5923e-14,-0.21588,0,0,0.25,-2.9606e-16,0,0.66667
0.21077,0.24305,0.84309,-0.38543,-7.6918,43.697,0.86654,-0.28885,-1.4713,1.1554,2.2504e-10,-0.73566,0,0,0.25,-2.9606e-16,0,0.66667
0.14824,0.15645,0.59294,-0.51533,-10.593,49.229,0.81483,-0.27161,-1.0564,1.0864,-1.2963e-10,-0.52822,0,0,0.25,-5.9212e-16,0,0.66667
0.19553,0.38159,0.78213,-0.17762,-3.5465,44.986,0.37046,-0.12349,-1.8874,0.49394,2.1532e-10,-0.9437,0,0,0.25,-0,-0,0.66667
0.74475,0.91589,2.979,0.62384,5.8148,7.0484,-4.9558,1.6519,-0.61566,-6.6077,1.0846e-11,-0.30783,0,0,0.25,-0,-0,0.66667
0.94901,0.069248,3.7961,-0.64613,-1.2726,1.2113,6.5406,-2.1802,-0.51546,8.7208,-2.1798e-07,-0.25773,0,0,0.25,-2.3685e-15,-1.82e-16,0.66667
0.12938,0.50742,0.51751,0.01113,0.22696,50.844,-0.015359,0.0051197,-1.9993,-0.020479,-1.0088e-09,-0.99964,0,0,0.25,-0,-0,0.66667
0.87978,0.84159,3.5191,0.51239,2.3109,2.2757,-4.8084,1.6028,-1.067,-6.4112,-3.9669e-09,-0.53349,0,0,0.25,-1.4803e-16,0,0.66667
0.71192,0.8544,2.8477,0.5316,5.4387,8.3919,-4.0369,1.3456,-0.99439,-5.3825,8.9448e-12,-0.49719,0,0,0.25,-0,-0,0.66667
0.55684,0.51423,2.2274,0.021348,0.30176,16.795,-0.1268,0.042266,-1.9975,-0.16906,-1.4207e-13,-0.99874,0,0,0.25,-2.3685e-15,0,0.66667
0.067019,0.071265,0.26807,-0.6431,-13.559,56.515,0.45973,-0.15324,-0.52904,0.61298,-5.2393e-08,-0.26452,0,0,0.25,-0,-0,0.66667
0.78774,0.15648,3.151,-0.51528,-4.0126,5.1472,4.3297,-1.4432,-1.0566,5.7729,-1.0804e-10,-0.52832,0,0,0.25,-0,-0,0.66667
0.81228,0.093668,3.2491,-0.6095,-4.3028,4.4191,5.2809,-1.7603,-0.68107,7.0412,4.0938e-11,-0.34054,0,0,0.25,1.4416e-15,0,0.66667
0.75458,0.67652,3.0183,0.26479,2.2972,6.2039,-2.1312,0.71041,-1.7501,-2.8416,8.8414e-11,-0.87504,0,0,0.25,-0,-0,0.66667
0.55049,0.64035,2.202,0.21052,3.017,17.249,-1.2362,0.41205,-1.8418,-1.6482,-1.1745e-12,-0.9209,0,0,0.25,-0,-0,0.66667
0.6316,0.10491,2.5264,-0.59263,-7.4694,12.641,3.9926,-1.3309,-0.75041,5.3235,1.1877e-12,-0.37521,0,0,0.25,-0,-0,0.66667
0.43666,0.89167,1.7467,0.58751,10.011,25.455,-2.7365,0.91216,-0.77277,-3.6486,5.5067e-13,-0.38638,0,0,0.25,-0,2.9472e-16,0.66667
0.30785,0.48799,1.2314,-0.018015,-0.3374,35.372,0.059157,-0.019719,-1.9981,0.078876,1.1363e-12,-0.99907,0,0,0.25,-2.9606e-16,0,0.66667
0.20771,0.44408,0.83085,-0.083885,-1.664,43.911,0.18585,-0.061951,-1.9748,0.2478,6.7859e-11,-0.98739,0,0,0.25,-0,-0,0.66667
0.77076,0.66046,3.083,0.24068,1.9583,5.52,-1.9788,0.65959,-1.7941,-2.6384,1.1236e-10,-0.89705,0,0,0.25,-2.3685e-15,0,0.66667
0.93478,0.97998,3.7391,0.71997,1.9053,1.5862,-7.1788,2.3929,-0.15662,-9.5718,-1.3335e-07,-0.07831,0,0,0.25,-0,-2.7266e-16,0.66667
0.62152,0.31795,2.4861,-0.27308,-3.4372,12.909,1.8104,-0.60346,-1.735,2.4138,1.3626e-12,-0.86749,0,0,0.25,-0,-0,0.66667
0.53425,0.80619,2.137,0.45928,6.8341,18.477,-2.6173,0.87243,-1.2501,-3.4897,-6.89e-13,-0.62504,0,0,0.25,-8.8818e-16,0,0.66667
0.88327,0.24692,3.5331,-0.37962,-1.6156,2.0052,3.5766,-1.1922,-1.4877,4.7688,-1.0665e-09,-0.74385,0,0,0.25,1.4457e-15,0,0.66667
0.044803,0.12335,0.17921,-0.56497,-11.886,58.506,0.27,-0.09,-0.86616,0.36,-2.063e-07,-0.43308,0,0,0.25,8.3267e-17,-3.248e-16,0.66667
0.30268,0.98015,1.2107,0.72022,13.924,36.08,-2.3253,0.77509,-0.15486,-3.1004,-1.9162e-13,-0.077432,0,0,0.25,-0,-0,0.66667
0.38247,0.83569,1.5299,0.50353,9.0093,29.515,-2.0542,0.68475,-1.0979,-2.739,2.0408e-12,-0.54896,0,0,0.25,2.9606e-16,0,0.66667
0.031099,0.038127,0.1244,-0.69281,-14.706,59.753,0.22982,-0.07661,-0.29418,0.30643,-2.8197e-06,-0.14709,0,0,0.25,-0,2.0326e-16,0.66667
0.51993,0.45172,2.0797,-0.072419,-1.0854,19.244,0.40163,-0.13388,-1.9806,0.53551,1.702e-13,-0.99031,0,0,0.25,-0,-0,0.66667
0.94058,0.87963,3.7623,0.56945,1.2602,1.1743,-5.7131,1.9044,-0.84737,-7.6175,1.0428e-07,-0.42368,0,0,0.25,-0,-0,0.66667
0.79725,0.31631,3.189,-0.27554,-2.003,4.5275,2.3432,-0.78106,-1.7312,3.1242,-2.6568e-10,-0.86561,0,0,0.25,2.3685e-15,0,0.66667
0.53509,0.91167,2.1404,0.6175,9.2854,18.583,-3.5245,1.1748,-0.64431,-4.6993,-4.4054e-13,-0.32215,0,0,0.25,1.1842e-15,0,0.66667
0.67654,0.87204,2.7062,0.55806,6.3108,10.173,-4.0272,1.3424,-0.89303,-5.3696,-2.0028e-13,-0.44651,0,0,0.25,1.7764e-15,0,0.66667
0.78523,0.42885,3.1409,-0.10673,-0.81198,4.8871,0.89396,-0.29799,-1.9591,1.1919,-5.2554e-11,-0.97957,0,0,0.25,-5.9212e-16,0,0.66667
0.26109,0.27632,1.0444,-0.33552,-6.5132,39.355,0.93442,-0.31147,-1.5998,1.2459,5.9189e-11,-0.79988,0,0,0.25,4.4409e-16,0,0.66667
0.27566,0.85734,1.1027,0.53601,10.413,38.207,-1.5761,0.52536,-0.97761,-2.1014,-1.4615e-11,-0.48881,0,0,0.25,-0,-0,0.66667
0.60522,0.35685,2.4209,-0.21473,-2.7879,13.836,1.3862,-0.46207,-1.8354,1.8483,1.1915e-12,-0.91769,0,0,0.25,1.1842e-15,0,0.66667
0.67418,0.58495,2.6967,0.12743,1.4107,9.9407,-0.9164,0.30547,-1.9422,-1.2219,4.3202e-12,-0.97112,0,0,0.25,5.9212e-16,0,0.66667
0.0036135,0.87296,0.014454,0.55944,11.79,62.229,-0.021563,0.0071876,-0.88788,-0.028751,-9.1991e-08,-0.44394,0,0,0.25,-5.2042e-18,-1.4464e-16,0.66667
0.8557,0.026302,3.4228,-0.71055,-4.0166,3.2771,6.4855,-2.1618,-0.20504,8.6473,-3.0163e-10,-0.10252,0,0,0.25,-0,-0,0.66667
0.14491,0.82087,0.57965,0.48131,9.8872,49.515,-0.74397,0.24799,-1.176,-0.99197,-1.1092e-09,-0.58798,0,0,0.25,-0,-0,0.66667
0.51235,0.27029,2.0494,-0.34457,-5.2626,19.865,1.8831,-0.6277,-1.5774,2.5108,2.4314e-13,-0.78872,0,0,0.25,-0,-0,0.66667
0.56218,0.13851,2.2487,-0.54223,-7.7608,16.745,3.2516,-1.0839,-0.95483,4.3354,5.8487e-13,-0.47741,0,0,0.25,-0,3.4597e-16,0.66667
0.0071911,0.63552,0.028765,0.20328,4.2266,61.902,-0.015593,0.0051977,-1.8523,-0.020791,4.049e-08,-0.92613,0,0,0.25,-0,-0,0.66667
0.42885,0.29313,1.7154,-0.31031,-5.2524,25.847,1.4195,-0.47316,-1.6567,1.8926,-1.546e-12,-0.82837,0,0,0.25,-0,-0,0.66667
0.53374,0.97323,2.135,0.70985,10.786,18.788,-4.0413,1.3471,-0.20888,-5.3885,5.4179e-14,-0.10444,0,0,0.25,1.1842e-15,0,0.66667
0.69071,0.66443,2.7628,0.24665,2.6232,9.1489,-1.8172,0.60573,-1.7835,-2.4229,1.2314e-11,-0.89177,0,0,0.25,-0,-0,0.66667
0.90317,0.71305,3.6127,0.31957,1.1037,1.4869,-3.0787,1.0262,-1.637,-4.1049,-7.0173e-11,-0.81852,0,0,0.25,1.7764e-15,0,0.66667
0.068561,0.3189,0.27424,-0.27165,-5.6302,56.335,0.19866,-0.06622,-1.7373,0.26488,-1.9992e-09,-0.86864,0,0,0.25,1.4803e-16,0,0.66667
0.2831,0.42108,1.1324,-0.11838,-2.2557,37.446,0.35748,-0.11916,-1.9499,0.47664,1.8491e-11,-0.97497,0,0,0.25,-0,-0,0.66667
0.52793,0.72903,2.1117,0.34355,5.128,18.81,-1.9346,0.64487,-1.58,-2.5795,-6.5559e-13,-0.78999,0,0,0.25,-1.1842e-15,0,0.66667
0.29023,0.95158,1.1609,0.67737,13.16,37.076,-2.097,0.69901,-0.36766,-2.796,-4.1234e-13,-0.18383,0,0,0.25,-0,-0,0.66667
0.42013,0.45016,1.6805,-0.074766,-1.2703,26.437,0.33506,-0.11169,-1.98,0.44674,-5.0746e-13,-0.98998,0,0,0.25,-0,-0,0.66667
0.98205,0.077172,3.9282,-0.63424,-0.37591,0.83133,6.6438,-2.2146,-0.56937,8.8584,-2.0719e-07,-0.28469,0,0,0.25,-0,-0,0.66667
0.056933,0.4301,0.22773,-0.10486,-2.1697,57.381,0.063678,-0.021226,-1.9605,0.084904,-2.3153e-07,-0.98024,0,0,0.25,-0,-0,0.66667
0.92891,0.067207,3.7157,-0.64919,-1.8041,1.5198,6.4324,-2.1441,-0.50136,8.5766,2.1387e-07,-0.25068,0,0,0.25,-0,-0,0.66667
0.66798,0.90439,2.6719,0.60659,7.0442,10.684,-4.322,1.4407,-0.69239,-5.7627,-8.0203e-13,-0.34619,0,0,0.25,-1.6283e-15,0,0.66667
0.49858,0.99958,1.9943,0.74937,12.012,21.208,-3.9853,1.3284,-0.0048655,-5.3137,-5.8797e-13,-0.0024328,0,0,0.25,8.5117e-16,-1.5799e-17,0.66667
0.4647,0.30432,1.8588,-0.29352,-4.7646,23.194,1.4549,-0.48497,-1.6934,1.9399,-7.2875e-13,-0.84668,0,0,0.25,-2.9606e-16,0,0.66667
0.55893,0.45056,2.2357,-0.074165,-1.0451,16.665,0.44217,-0.14739,-1.9799,0.58956,3.8536e-13,-0.98993,0,0,0.25,-0,-0,0.66667
0.29159,0.22546,1.1663,-0.41181,-7.8706,36.814,1.2808,-0.42695,-1.3967,1.7078,1.769e-11,-0.69835,0,0,0.25,5.9212e-16,0,0.66667
0.1718,0.26951,0.6872,-0.34574,-6.9993,47.102,0.63358,-0.21119,-1.5754,0.84477,5.1064e-10,-0.78768,0,0,0.25,-0,-0,0.66667
0.61974,0.038283,2.479,-0.69258,-9.0407,13.458,4.5783,-1.5261,-0.29419,6.1044,1.2701e-13,-0.1471,0,0,0.25,1.1842e-15,0,0.66667
0.98848,0.44304,3.9539,-0.085442,0.0074251,0.089404,0.90088,-0.30029,-1.974,1.2012,-6.4348e-07,-0.98702,0,0,0.25,-0,-0,0.66667
0.51622,0.018567,2.0649,-0.72215,-11.27,19.971,3.9764,-1.3255,-0.14595,5.3019,4.13e-14,-0.072975,0,0,0.25,-1.1842e-15,0,0.66667
0.67101,0.84887,2.684,0.5233,5.9806,10.414,-3.7455,1.2485,-1.0271,-4.994,1.7319e-14,-0.51356,0,0,0.25,-0,-3.6922e-16,0.66667
0.51953,0.52528,2.0781,0.03792,0.56855,19.268,-0.21014,0.070046,-1.9949,-0.28018,-3.3439e-13,-0.99743,0,0,0.25,-0,-0,0.66667
0.20003,0.51937,0.80012,0.029061,0.57823,44.581,-0.062005,0.020668,-1.9966,-0.082674,-3.3434e-11,-0.99828,0,0,0.25,-5.9212e-16,0,0.66667
0.5787,0.99398,2.3148,0.74097,10.503,15.972,-4.5739,1.5246,-0.04861,-6.0985,9.3259e-14,-0.024305,0,0,0.25,2.9606e-16,0,0.66667
0.95788,0.89281,3.8315,0.58922,0.90503,0.97915,-6.0202,2.0067,-0.76483,-8.027,2.214e-07,-0.38241,0,0,0.25,-0,-0,0.66667
0.69242,0.21137,2.7697,-0.43295,-4.6395,9.2188,3.1977,-1.0659,-1.3332,4.2636,-7.9345e-12,-0.66659,0,0,0.25,5.9212e-16,0,0.66667
0.027337,0.20901,0.10935,-0.43649,-9.1363,60.078,0.12728,-0.042425,-1.3222,0.1697,-8.8284e-09,-0.66108,0,0,0.25,-3.7007e-17,0,0.66667
0.36312,0.53918,1.4525,0.058775,1.0545,30.876,-0.22765,0.075884,-1.9875,-0.30354,-3.335e-13,-0.99374,0,0,0.25,-0,-0,0.66667
0.63389,0.62693,2.5355,0.19039,2.3258,12.158,-1.2873,0.42911,-1.8714,-1.7164,-4.009e-13,-0.93572,0,0,0.25,-0,-0,0.66667
0.56707,0.87729,2.2683,0.56594,8.0488,16.462,-3.4233,1.1411,-0.86166,-4.5643,-7.2387e-13,-0.43083,0,0,0.25,-0,-0,0.66667
0.12133,0.2166,0.48533,-0.4251,-8.767,51.604,0.55018,-0.18339,-1.3581,0.73357,1.7857e-10,-0.67905,0,0,0.25,1.4803e-16,0,0.66667
0.93647,0.038718,3.7459,-0.69192,-1.7558,1.4941,6.9117,-2.3039,-0.2982,9.2155,2.9663e-07,-0.1491,0,0,0.25,-0,-2.1538e-16,0.66667
0.39384,0.036604,1.5754,-0.69509,-12.471,28.792,2.9201,-0.97335,-0.2823,3.8934,-3.0576e-13,-0.14115,0,0,0.25,-0,-0,0.66667
0.72926,0.50845,2.9171,0.01267,0.11915,7.2247,-0.098554,0.032851,-1.9989,-0.13141,2.4131e-12,-0.99947,0,0,0.25,-0,-0,0.66667
0.78569,0.071463,3.1427,-0.64281,-5.1484,5.4309,5.3871,-1.7957,-0.5304,7.1828,-5.1323e-11,-0.2652,0,0,0.25,2.3685e-15,0,0.66667
0.21299,0.19504,0.85197,-0.45744,-9.1484,43.527,1.0393,-0.34642,-1.2555,1.3857,2.156e-10,-0.62777,0,0,0.25,-0,-0,0.66667
0.66262,0.018374,2.6505,-0.72244,-8.6147,11.147,5.1062,-1.7021,-0.14338,6.8083,6.7502e-14,-0.071691,0,0,0.25,-0,-0,0.66667
0.52337,0.35384,2.0935,-0.21923,-3.2789,19.052,1.2239,-0.40796,-1.8283,1.6319,2.9565e-13,-0.91416,0,0,0.25,-0,-0,0.66667
0.1783,0.75623,0.71319,0.38435,7.7735,46.539,-0.73097,0.24366,-1.4744,-0.97463,-4.8283e-10,-0.7372,0,0,0.25,5.9212e-16,0,0.66667
0.71844,0.8444,2.8738,0.5166,5.174,8.0663,-3.9589,1.3196,-1.0529,-5.2786,1.2995e-11,-0.52643,0,0,0.25,-0,3.0804e-16,0.66667
0.54058,0.53153,2.1623,0.047298,0.68668,17.859,-0.27273,0.090909,-1.9927,-0.36364,-6.713e-13,-0.99637,0,0,0.25,2.3685e-15,0,0.66667
0.21409,0.65289,0.85638,0.22933,4.5469,43.372,-0.52372,0.17457,-1.8133,-0.69829,-1.9014e-10,-0.90663,0,0,0.25,7.4015e-17,0,0.66667
0.41806,0.52392,1.6722,0.035881,0.6108,26.591,-0.16001,0.053335,-1.9952,-0.21334,-1.7958e-14,-0.99762,0,0,0.25,-0,-0,0.66667
0.68076,0.60811,2.723,0.16216,1.7661,9.612,-1.1775,0.39251,-1.9055,-1.5701,6.8376e-12,-0.95277,0,0,0.25,-0,-0,0.66667
0.99376,0.70561,3.975,0.30842,-0.067648,0.20671,-3.2692,1.0897,-1.6609,-4.359,6.9851e-09,-0.83044,0,0,0.25,-1.1842e-15,0,0.66667
0.54844,0.24087,2.1938,-0.38869,-5.6321,17.487,2.2738,-0.75794,-1.463,3.0318,1.0203e-12,-0.73148,0,0,0.25,-5.9212e-16,0,0.66667
0.79392,0.92846,3.1757,0.64269,4.9691,5.1258,-5.4426,1.8142,-0.53119,-7.2568,4.8671e-11,-0.2656,0,0,0.25,-0,-2.6829e-16,0.66667
0.33058,0.39259,1.3223,-0.16111,-2.9718,33.516,0.56811,-0.18937,-1.9073,0.75748,4.2044e-12,-0.95367,0,0,0.25,-5.9212e-16,0,0.66667
0.51156,0.74819,2.0462,0.37228,5.7,19.937,-2.0314,0.67714,-1.5078,-2.7086,-4.1789e-13,-0.75392,0,0,0.25,6.6613e-16,0,0.66667
0.83503,0.060414,3.3401,-0.65938,-4.1711,3.7751,5.873,-1.9577,-0.45441,7.8307,4.7881e-10,-0.22721,0,0,0.25,-1.5291e-15,0,0.66667
0.97046,0.96762,3.8818,0.70143,0.81979,1.09,-7.2609,2.4203,-0.25191,-9.6812,-6.0688e-06,-0.12596,0,0,0.25,1.4803e-16,0,0.66667
0.17847,0.99939,0.71389,0.74909,15.47,46.654,-1.426,0.47535,-0.0054687,-1.9014,-4.9816e-10,-0.0027343,0,0,0.25,4.3484e-16,0,0.66667
0.85131,0.80829,3.4052,0.46244,2.5485,2.9594,-4.1993,1.3998,-1.2395,-5.599,1.8874e-09,-0.61977,0,0,0.25,-1.2723e-15,0,0.66667
0.9884,0.29136,3.9536,-0.31297,-0.0032682,0.2493,3.2996,-1.0999,-1.6513,4.3994,-6.2623e-10,-0.82563,0,0,0.25,-0,-0,0.66667
0.45046,0.0052165,1.8018,-0.74218,-12.611,24.605,3.5661,-1.1887,-0.041835,4.7548,1.843e-14,-0.020917,0,0,0.25,-0,-0,0.66667
0.30796,0.75736,1.2318,0.38604,7.2889,35.444,-1.2681,0.4227,-1.4698,-1.6908,-1.0504e-11,-0.73492,0,0,0.25,5.9212e-16,0,0.66667
0.91246,0.27683,3.6498,-0.33475,-1.0392,1.3127,3.2581,-1.086,-1.6015,4.3441,-6.0462e-10,-0.80075,0,0,0.25,-1.1842e-15,0,0.66667
0.21986,0.012547,0.87943,-0.73118,-14.823,43.06,1.7147,-0.57157,-0.099137,2.2863,1.8102e-11,-0.049568,0,0,0.25,-0,-0,0.66667
0.98826,0.78533,3.9531,0.42799,0.044692,0.40003,-4.5116,1.5039,-1.349,-6.0155,1.6057e-08,-0.67448,0,0,0.25,-0,-0,0.66667
0.40154,0.51792,1.6062,0.026887,0.46545,27.857,-0.11516,0.038387,-1.9967,-0.15355,2.0321e-13,-0.99833,0,0,0.25,-0,-0,0.66667
0.092234,0.92904,0.36893,0.64356,13.513,54.253,-0.63315,0.21105,-0.5276,-0.8442,-6.3545e-08,-0.2638,0,0,0.25,7.4015e-17,-2.3381e-16,0.66667
0.13677,0.28011,0.5471,-0.32983,-6.7495,50.208,0.4812,-0.1604,-1.614,0.6416,2.8081e-10,-0.807,0,0,0.25,1.2953e-16,0,0.66667
0.47707,0.18478,1.9083,-0.47283,-7.6251,22.42,2.4061,-0.80205,-1.2052,3.2082,-5.4579e-13,-0.60262,0,0,0.25,1.4803e-16,0,0.66667
0.060948,0.26878,0.24379,-0.34683,-7.2124,57.029,0.22547,-0.075158,-1.5722,0.30063,-3.7117e-09,-0.78611,0,0,0.25,-0,-0,0.66667
0.25189,0.04275,1.0075,-0.68588,-13.638,40.299,1.8428,-0.61426,-0.32724,2.4571,1.7329e-12,-0.16362,0,0,0.25,-0,-0,0.66667
0.795,0.45099,3.18,-0.073516,-0.53463,4.5103,0.62341,-0.2078,-1.9806,0.83122,-7.5098e-11,-0.99028,0,0,0.25,-0,-0,0.66667
0.78533,0.226,3.1413,-0.411,-3.1926,5.1033,3.4429,-1.1476,-1.3992,4.5905,-1.8504e-10,-0.69959,0,0,0.25,-0,-0,0.66667
0.81082,0.44991,3.2433,-0.075141,-0.50575,3.9416,0.64987,-0.21662,-1.9798,0.8665,-3.127e-11,-0.9899,0,0,0.25,1.1842e-15,0,0.66667
0.046263,0.14681,0.18505,-0.52978,-11.123,58.372,0.26143,-0.087143,-1.0025,0.34857,7.9387e-09,-0.50123,0,0,0.25,7.4015e-17,3.9387e-16,0.66667
0.76645,0.18365,3.0658,-0.47452,-4.0103,5.9225,3.8794,-1.2931,-1.2004,5.1726,-8.7829e-11,-0.6002,0,0,0.25,-1.7764e-15,0,0.66667
0.80685,0.25212,3.2274,-0.37181,-2.6047,4.2715,3.2,-1.0667,-1.5088,4.2666,-3.383e-10,-0.75442,0,0,0.25,-0,-0,0.66667
0.01605,0.0094212,0.064199,-0.73587,-15.678,61.111,0.12597,-0.041998,-0.075096,0.16796,-1.149e-05,-0.037548,0,0,0.25,7.4015e-17,0,0.66667
0.39133,0.044415,1.5653,-0.68338,-12.279,28.974,2.8525,-0.95084,-0.33965,3.8034,-2.5246e-13,-0.16983,0,0,0.25,-0,-0,0.66667
0.86558,0.98975,3.4623,0.73463,3.9128,3.065,-6.7827,2.2609,-0.080382,-9.0436,-6.7984e-09,-0.040191,0,0,0.25,1.1842e-15,0,0.66667
0.95847,0.019304,3.8339,-0.72104,-1.2191,1.2663,7.3718,-2.4573,-0.15067,9.829,-6.9832e-07,-0.075336,0,0,0.25,-0,-0,0.66667
0.91959,0.75894,3.6784,0.38841,1.1131,1.2392,-3.8099,1.27,-1.4636,-5.0799,-2.9036e-09,-0.73178,0,0,0.25,-2.3685e-15,0,0.66667
0.54699,0.71422,2.188,0.32134,4.6511,17.535,-1.8748,0.62495,-1.634,-2.4998,-1.1833e-12,-0.81699,0,0,0.25,-2.9606e-16,0,0.66667
0.30992,0.40668,1.2397,-0.13998,-2.6206,35.21,0.46275,-0.15425,-1.9315,0.617,8.8459e-12,-0.96576,0,0,0.25,1.1842e-15,0,0.66667
0.58926,0.18277,2.3571,-0.47585,-6.4607,14.99,2.991,-0.99699,-1.195,3.988,1.4251e-12,-0.59748,0,0,0.25,-0,-0,0.66667
0.59599,0.35697,2.384,-0.21455,-2.8363,14.391,1.3639,-0.45465,-1.836,1.8186,1.481e-12,-0.91802,0,0,0.25,-1.1842e-15,0,0.66667
0.66455,0.17444,2.6582,-0.48834,-5.6529,10.711,3.4616,-1.1539,-1.1511,4.6155,2.3737e-13,-0.57557,0,0,0.25,-7.8699e-16,0,0.66667
0.59082,0.61068,2.3633,0.16602,2.2134,14.686,-1.0463,0.34875,-1.9015,-1.395,-1.2249e-12,-0.95076,0,0,0.25,-1.1842e-15,0,0.66667
0.86806,0.053434,3.4722,-0.66985,-3.4432,2.8604,6.2023,-2.0674,-0.40395,8.2697,1.5423e-09,-0.20197,0,0,0.25,-1.1842e-15,0,0.66667
0.37398,0.44872,1.4959,-0.076926,-1.3672,30.015,0.30686,-0.10229,-1.9791,0.40915,-2.9826e-13,-0.98954,0,0,0.25,-0,-0,0.66667
0.24402,0.73298,0.97607,0.34947,6.8519,40.816,-0.90962,0.30321,-1.5648,-1.2128,-9.7496e-11,-0.78242,0,0,0.25,-0,-0,0.66667
0.020487,0.25432,0.081946,-0.36852,-7.6955,60.696,0.080531,-0.026844,-1.5172,0.10737,5.1909e-09,-0.7586,0,0,0.25,-0,-0,0.66667
0.23269,0.16672,0.93075,-0.49991,-9.9253,41.843,1.2408,-0.4136,-1.1114,1.6544,9.1859e-11,-0.5557,0,0,0.25,5.9212e-16,0,0.66667
0.1616,0.25634,0.64641,-0.36549,-7.431,48.008,0.63002,-0.21001,-1.5248,0.84003,5.817e-10,-0.76238,0,0,0.25,-0,-0,0.66667
0.23816,0.78434,0.95264,0.42651,8.4144,41.344,-1.0835,0.36116,-1.3537,-1.4447,-1.0156e-10,-0.67683,0,0,0.25,-0,-0,0.66667
0.88096,0.085815,3.5239,-0.62128,-2.8539,2.4402,5.8381,-1.946,-0.62709,7.7841,5.0615e-09,-0.31354,0,0,0.25,-5.9212e-16,0,0.66667
0.7316,0.53757,2.9264,0.05635,0.52601,7.1224,-0.43974,0.14658,-1.9889,-0.58632,1.3577e-11,-0.99443,0,0,0.25,-0,-0,0.66667
0.24339,0.12656,0.97356,-0.56017,-11.098,40.953,1.4543,-0.48476,-0.88472,1.939,4.3146e-11,-0.44236,0,0,0.25,-5.9212e-16,0,0.66667
0.79305,0.58087,3.1722,0.12131,0.89137,4.5959,-1.0262,0.34206,-1.9471,-1.3682,9.1619e-11,-0.97353,0,0,0.25,-0,-0,0.66667
0.54412,0.8354,2.1765,0.5031,7.3937,17.868,-2.92,0.97332,-1.1,-3.8933,-8.189e-13,-0.54999,0,0,0.25,-0,-0,0.66667
0.40649,0.91017,1.6259,0.61526,10.839,27.749,-2.6677,0.88922,-0.65526,-3.5569,4.5608e-13,-0.32763,0,0,0.25,1.1842e-15,0,0.66667
0.2058,0.52327,0.82321,0.034898,0.69265,44.076,-0.076609,0.025536,-1.9956,-0.10215,-1.6302e-11,-0.99782,0,0,0.25,-0,-0,0.66667
0.31073,0.31513,1.2429,-0.27731,-5.2051,35.175,0.91913,-0.30638,-1.7275,1.2255,1.1788e-11,-0.86377,0,0,0.25,-1.1842e-15,0,0.66667
0.079247,0.64631,0.31699,0.21946,4.5354,55.365,-0.18551,0.061837,-1.8289,-0.24735,8.0825e-09,-0.91446,0,0,0.25,-7.4015e-17,0,0.66667
0.23362,0.88911,0.93449,0.58366,11.638,41.8,-1.4545,0.48482,-0.78884,-1.9393,-3.9701e-11,-0.39442,0,0,0.25,-0,-0,0.66667
0.66575,0.39219,2.663,-0.16172,-1.8309,10.396,1.1484,-0.3828,-1.9061,1.5312,-3.5172e-12,-0.95304,0,0,0.25,3.9583e-16,0,0.66667
0.35102,0.56818,1.4041,0.10227,1.8543,31.849,-0.3829,0.12763,-1.9625,-0.51054,-1.1264e-12,-0.98126,0,0,0.25,-0,-0,0.66667
0.81972,0.0065887,3.2789,-0.74012,-5.1685,4.4266,6.4713,-2.1571,-0.051937,8.6285,-5.033e-10,-0.025969,0,0,0.25,-0,-0,0.66667
0.66115,0.79381,2.6446,0.44072,5.1238,10.839,-3.1081,1.036,-1.3086,-4.1441,6.1284e-14,-0.65432,0,0,0.25,1.1842e-15,0,0.66667
0.62435,0.5208,2.4974,0.031199,0.38796,12.664,-0.20778,0.069258,-1.9968,-0.27703,-1.7769e-13,-0.99841,0,0,0.25,-0,-0,0.66667
0.42028,0.53119,1.6811,0.046788,0.79465,26.423,-0.20975,0.069916,-1.9937,-0.27967,-4.2355e-14,-0.99687,0,0,0.25,-3.0069e-16,0,0.66667
0.645,0.33561,2.58,-0.24658,-2.9437,11.563,1.6965,-0.5655,-1.7834,2.262,-5.4268e-13,-0.89172,0,0,0.25,-0,-0,0.66667
0.87483,0.76858,3.4993,0.40287,1.8497,2.2429,-3.7594,1.2531,-1.4232,-5.0125,1.242e-09,-0.71161,0,0,0.25,1.1842e-15,0,0.66667
0.31127,0.97505,1.2451,0.71258,13.688,35.369,-2.3659,0.78864,-0.19514,-3.1546,1.4411e-13,-0.09757,0,0,0.25,-0,-0,0.66667
0.34275,0.71128,1.371,0.31692,5.8149,32.572,-1.1587,0.38623,-1.6433,-1.5449,-1.5205e-12,-0.82167,0,0,0.25,-0,-0,0.66667
0.84868,0.79629,3.3947,0.44443,2.4841,3.0109,-4.0232,1.3411,-1.2969,-5.3643,1.246e-09,-0.64844,0,0,0.25,1.1842e-15,0,0.66667
0.52989,0.1128,2.1196,-0.5808,-8.7758,18.885,3.2828,-1.0943,-0.80056,4.3771,1.0525e-13,-0.40028,0,0,0.25,-0,-0,0.66667
0.92369,0.83095,3.6948,0.49643,1.392,1.3214,-4.8912,1.6304,-1.1236,-6.5216,1.3339e-08,-0.56179,0,0,0.25,-0,-0,0.66667
0.18755,0.012216,0.75021,-0.73168,-15.039,45.854,1.4638,-0.48792,-0.096898,1.9517,1.9767e-10,-0.048449,0,0,0.25,-0,-0,0.66667
0.21487,0.29796,0.85949,-0.30305,-6.0187,43.319,0.69459,-0.23153,-1.6728,0.92613,1.8613e-10,-0.83639,0,0,0.25,-0,-0,0.66667
0.86246,0.77279,3.4498,0.40918,2.0685,2.5764,-3.7643,1.2548,-1.4045,-5.019,1.7367e-09,-0.70227,0,0,0.25,-5.9212e-16,0,0.66667
0.09949,0.38882,0.39796,-0.16676,-3.4299,53.535,0.17697,-0.058992,-1.9002,0.23597,-4.8086e-09,-0.95011,0,0,0.25,-0,-0,0.66667
0.47166,0.6585,1.8866,0.23775,3.8188,22.666,-1.1961,0.39871,-1.7998,-1.5948,5.3801e-13,-0.8999,0,0,0.25,-1.1842e-15,0,0.66667
0.8394,0.98559,3.3576,0.72838,4.566,3.7848,-6.5216,2.1739,-0.11291,-8.6955,-1.5302e-10,-0.056455,0,0,0.25,2.3685e-15,0,0.66667
0.69374,0.010883,2.7749,-0.73368,-8.1006,9.5863,5.4291,-1.8097,-0.08532,7.2388,8.0824e-14,-0.04266,0,0,0.25,-2.3685e-15,0,0.66667
0.46224,0.52394,1.849,0.035911,0.58152,23.302,-0.17706,0.059021,-1.9949,-0.23609,1.0336e-13,-0.99747,0,0,0.25,-5.9212e-16,0,0.66667
0.1652,0.88897,0.66079,0.58345,11.973,47.751,-1.0281,0.3427,-0.78869,-1.3708,-4.7015e-10,-0.39435,0,0,0.25,-2.9606e-16,0,0.66667
0.55082,0.30946,2.2033,-0.28581,-4.1049,17.265,1.6793,-0.55975,-1.71,2.239,8.5698e-13,-0.85499,0,0,0.25,-0,-0,0.66667
0.98798,0.64704,3.9519,0.22056,-0.0050818,0.16584,-2.3243,0.77478,-1.8267,-3.0991,-1.1687e-08,-0.91335,0,0,0.25,-0,-0,0.66667
0.80516,0.56896,3.2206,0.10344,0.71693,4.1486,-0.88836,0.29612,-1.9615,-1.1845,1.7123e-10,-0.98077,0,0,0.25,-0,-0,0.66667
0.054929,0.72349,0.21972,0.33524,6.9737,57.573,-0.19642,0.065473,-1.6002,-0.26189,5.0425e-10,-0.80012,0,0,0.25,-0,-0,0.66667
0.71093,0.90805,2.8437,0.61207,6.3388,8.5551,-4.6415,1.5472,-0.66831,-6.1887,2.5313e-12,-0.33415,0,0,0.25,2.3685e-15,0,0.66667
0.97662,0.88206,3.9065,0.57309,0.42597,0.74902,-5.97,1.99,-0.83176,-7.96,-1.3553e-07,-0.41588,0,0,0.25,-2.3685e-15,0,0.66667
0.19337,0.9309,0.7735,0.64634,13.176,45.308,-1.3332,0.4444,-0.51427,-1.7776,-4.4884e-11,-0.25714,0,0,0.25,-1.4803e-16,0,0.66667
0.95641,0.80361,3.8256,0.45541,0.66087,0.75945,-4.6459,1.5486,-1.2623,-6.1946,-3.1949e-08,-0.63117,0,0,0.25,1.1842e-15,0,0.66667
0.23335,0.53065,0.93338,0.045981,0.9008,41.683,-0.11445,0.038149,-1.994,-0.1526,-6.4947e-12,-0.99702,0,0,0.25,7.155e-17,0,0.66667
0.8194,0.5339,3.2776,0.050845,0.32689,3.6429,-0.4444,0.14813,-1.991,-0.59253,3.6631e-10,-0.9955,0,0,0.25,2.3685e-15,0,0.66667
0.14942,0.38342,0.59767,-0.17487,-3.5508,49.061,0.27871,-0.092902,-1.8907,0.37161,-2.2829e-10,-0.94533,0,0,0.25,-0,-0,0.66667
0.5141,0.23897,2.0564,-0.39154,-5.979,19.777,2.1471,-0.71571,-1.4549,2.8628,1.5365e-13,-0.72745,0,0,0.25,-0,-0,0.66667
0.36401,0.67803,1.4561,0.26705,4.8062,30.848,-1.0369,0.34564,-1.7459,-1.3825,7.1498e-13,-0.87295,0,0,0.25,2.9606e-16,0,0.66667
0.67069,0.36763,2.6828,-0.19855,-2.2228,10.151,1.4205,-0.47349,-1.8602,1.8939,-4.9064e-12,-0.93012,0,0,0.25,-5.9212e-16,0,0.66667
0.17912,0.55688,0.71647,0.085316,1.7126,46.422,-0.163,0.054335,-1.9738,-0.21734,5.5401e-11,-0.98691,0,0,0.25,-0,-0,0.66667
0.57975,0.60444,2.319,0.15665,2.1313,15.366,-0.96874,0.32291,-1.9127,-1.2917,-1.1391e-12,-0.95636,0,0,0.25,-1.1842e-15,0,0.66667
0.0024237,0.43417,0.0096948,-0.098743,-2.0499,62.335,0.0025526,-0.00085432,-1.966,0.0034017,-5.1784e-06,-0.983,0,0,0.25,3.4694e-18,0,0.66667
0.42565,0.52367,1.7026,0.03551,0.59962,26.016,-0.16122,0.053741,-1.9953,-0.21497,1.228e-13,-0.99766,0,0,0.25,-0,-0,0.66667
0.51579,0.38209,2.0632,-0.17687,-2.672,19.55,0.97311,-0.32437,-1.8895,1.2975,1.9146e-13,-0.94476,0,0,0.25,-0,-0,0.66667
0.8378,0.85272,3.3512,0.52908,3.2096,3.4598,-4.7281,1.576,-1.0041,-6.3042,7.4002e-10,-0.50204,0,0,0.25,-0,-0,0.66667
0.75764,0.89539,3.0306,0.59309,5.2602,6.4547,-4.793,1.5977,-0.74849,-6.3907,2.6352e-11,-0.37424,0,0,0.25,-0,-0,0.66667
0.091892,0.55444,0.36757,0.081655,1.6802,54.217,-0.080037,0.026679,-1.9764,-0.10672,3.2249e-08,-0.98822,0,0,0.25,7.4015e-17,0,0.66667
0.62503,0.90707,2.5001,0.61061,7.8172,13.037,-4.0709,1.357,-0.67616,-5.4279,-1.3669e-12,-0.33808,0,0,0.25,2.3685e-15,0,0.66667
0.66,0.063188,2.64,-0.65522,-7.7986,11.177,4.6128,-1.5376,-0.47447,6.1503,4.9738e-13,-0.23724,0,0,0.25,-0,-0,0.66667
0.73403,0.095351,2.9361,-0.60697,-5.8498,7.4893,4.7524,-1.5841,-0.69163,6.3365,-9.6194e-12,-0.34582,0,0,0.25,-0,5.7558e-17,0.66667
0.55486,0.55218,2.2194,0.078266,1.1105,16.928,-0.46322,0.15441,-1.9774,-0.61763,-5.6594e-13,-0.98871,0,0,0.25,5.9212e-16,0,0.66667
0.10736,0.98554,0.42942,0.72831,15.334,52.923,-0.83401,0.278,-0.11372,-1.112,1.664e-08,-0.05686,0,0,0.25,2.9606e-16,0,0.66667
0.64035,0.87877,2.5614,0.56816,7.0095,12.12,-3.8808,1.2936,-0.85343,-5.1743,-1.5339e-12,-0.42672,0,0,0.25,-0,-0,0.66667
0.67053,0.61891,2.6821,0.17837,1.9961,10.151,-1.2757,0.42524,-1.8874,-1.701,4.491e-12,-0.9437,0,0,0.25,5.9212e-16,0,0.66667
0.25011,0.43582,1.0004,-0.096267,-1.87,40.245,0.25682,-0.085607,-1.9687,0.34243,3.1732e-11,-0.98434,0,0,0.25,-2.9606e-16,0,0.66667
0.94828,0.49218,3.7931,-0.011734,-0.018378,0.51771,0.11869,-0.039562,-1.9991,0.15825,2.4489e-07,-0.99956,0,0,0.25,-5.9212e-16,0,0.66667
0.45265,0.40322,1.8106,-0.14518,-2.381,24.019,0.70095,-0.23365,-1.9263,0.93459,-1.0452e-12,-0.96316,0,0,0.25,7.4015e-16,0,0.66667
0.86672,0.87647,3.4669,0.5647,2.8546,2.6952,-5.2206,1.7402,-0.8666,-6.9608,-2.4124e-09,-0.4333,0,0,0.25,-0,-0,0.66667
0.65308,0.72567,2.6123,0.3385,3.9841,11.181,-2.3581,0.78602,-1.5926,-3.1441,3.0886e-13,-0.79629,0,0,0.25,2.3685e-15,0,0.66667
0.61654,0.038218,2.4661,-0.69267,-9.1006,13.643,4.5553,-1.5184,-0.29359,6.0737,3.0109e-13,-0.1468,0,0,0.25,-0,-0,0.66667
0.5494,0.91583,2.1976,0.62375,9.1779,17.657,-3.6553,1.2184,-0.61652,-4.8738,-4.2766e-13,-0.30826,0,0,0.25,1.1842e-15,0,0.66667
0.64757,0.21319,2.5903,-0.43022,-5.1609,11.564,2.9717,-0.99056,-1.3416,3.9622,1.0811e-12,-0.67082,0,0,0.25,-1.4803e-15,0,0.66667
0.84434,0.22515,3.3773,-0.41228,-2.3573,3.0977,3.7131,-1.2377,-1.3964,4.9507,-6.7507e-10,-0.69818,0,0,0.25,2.3685e-15,0,0.66667
0.77688,0.73211,3.1075,0.34816,2.7853,5.364,-2.8851,0.9617,-1.5683,-3.8468,1.6285e-10,-0.78415,0,0,0.25,-0,-0,0.66667
0.67263,0.83184,2.6905,0.49777,5.6522,10.299,-3.5713,1.1904,-1.1192,-4.7618,7.403e-13,-0.5596,0,0,0.25,-1.1842e-15,0,0.66667
0.031845,0.21756,0.12738,-0.42366,-8.8606,59.669,0.14391,-0.04797,-1.3634,0.19188,-1.065e-08,-0.6817,0,0,0.25,1.3878e-17,0,0.66667
0.0086948,0.86808,0.034779,0.55212,11.63,61.769,-0.051206,0.017069,-0.91566,-0.068275,3.7136e-08,-0.45783,0,0,0.25,-0,-0,0.66667
0.35854,0.070706,1.4342,-0.64394,-11.873,31.504,2.4627,-0.8209,-0.52607,3.2836,-9.9565e-13,-0.26304,0,0,0.25,-0,-0,0.66667
0.030634,0.46881,0.12254,-0.046782,-0.96989,59.769,0.015287,-0.0050939,-1.994,0.020383,2.5517e-06,-0.99701,0,0,0.25,-0,-0,0.66667
0.51785,0.3809,2.0714,-0.17865,-2.6909,19.411,0.98681,-0.32894,-1.8868,1.3157,1.8524e-13,-0.94342,0,0,0.25,-0,-0,0.66667
0.0035539,0.40624,0.014216,-0.14064,-2.9211,62.232,0.0053316,-0.0017766,-1.9308,0.0071091,9.084e-07,-0.96538,0,0,0.25,5.8362e-18,0,0.66667
0.48073,0.65258,1.9229,0.22887,3.6332,22.014,-1.1736,0.39121,-1.8141,-1.5648,3.1786e-13,-0.90706,0,0,0.25,-0,-0,0.66667
0.37761,0.94904,1.5104,0.67356,12.244,30.029,-2.713,0.90432,-0.38661,-3.6173,5.8376e-13,-0.19331,0,0,0.25,-5.9212e-16,0,0.66667
0.95746,0.5817,3.8299,0.12255,0.14811,0.4188,-1.2516,0.41721,-1.9459,-1.6688,4.8995e-08,-0.97297,0,0,0.25,-0,-0,0.66667
0.055854,0.24063,0.22341,-0.38906,-8.1081,57.493,0.23179,-0.077263,-1.4611,0.30905,-8.2841e-09,-0.73056,0,0,0.25,-7.4015e-17,0,0.66667
0.065191,0.52445,0.26076,0.03667,0.75763,56.631,-0.025499,0.0084997,-1.9953,-0.033999,-8.2516e-08,-0.99766,0,0,0.25,-0,-0,0.66667
0.84927,0.61228,3.3971,0.16841,0.9082,2.7384,-1.5256,0.50854,-1.8983,-2.0342,1.6077e-10,-0.94916,0,0,0.25,1.1842e-15,0,0.66667
0.79526,0.36054,3.181,-0.2092,-1.5279,4.5551,1.7746,-0.59152,-1.8442,2.3661,-1.7153e-10,-0.92211,0,0,0.25,-0,-0,0.66667
0.93585,0.3409,3.7434,-0.23865,-0.50716,0.80199,2.3823,-0.79409,-1.7984,3.1764,-2.6686e-09,-0.89922,0,0,0.25,-2.9606e-16,0,0.66667
0.078237,0.9913,0.31295,0.73695,15.611,55.525,-0.61501,0.205,-0.069566,-0.82001,1.2647e-07,-0.034783,0,0,0.25,-0,-0,0.66667
0.6201,0.32638,2.4804,-0.26043,-3.2858,12.984,1.7226,-0.57419,-1.7581,2.2968,1.2758e-12,-0.87903,0,0,0.25,-0,-0,0.66667
0.5144,0.72858,2.0576,0.34286,5.2207,19.724,-1.8813,0.62709,-1.5822,-2.5084,-5.3668e-13,-0.79109,0,0,0.25,1.1842e-15,0,0.66667
0.32157,0.92545,1.2863,0.63817,12.104,34.471,-2.189,0.72967,-0.55107,-2.9187,4.7962e-13,-0.27553,0,0,0.25,2.9606e-16,0,0.66667
0.61081,0.55516,2.4432,0.082735,1.0588,13.461,-0.53904,0.17968,-1.976,-0.71873,-6.5264e-13,-0.988,0,0,0.25,-5.9212e-16,0,0.66667
0.91808,0.6612,3.6723,0.2418,0.68417,1.1167,-2.3679,0.78931,-1.7923,-3.1572,2.1864e-09,-0.89613,0,0,0.25,-0,-0,0.66667
0.062566,0.96324,0.25026,0.69486,14.708,56.923,-0.46373,0.15458,-0.28424,-0.6183,5.3514e-07,-0.14212,0,0,0.25,7.4015e-17,0,0.66667
0.65973,0.050748,2.6389,-0.67388,-8.0433,11.221,4.7421,-1.5807,-0.38489,6.3228,4.7118e-13,-0.19244,0,0,0.25,-5.9212e-16,0,0.66667
0.28517,0.9244,1.1407,0.63661,12.373,37.47,-1.9364,0.64548,-0.55841,-2.5819,-2.0727e-12,-0.27921,0,0,0.25,2.9606e-16,0,0.66667
0.40545,0.76995,1.6218,0.40493,7.051,27.674,-1.7512,0.58374,-1.4172,-2.335,1.9136e-12,-0.70859,0,0,0.25,5.9212e-16,0,0.66667
0.84969,0.68059,3.3988,0.27088,1.4692,2.7938,-2.4551,0.81838,-1.7387,-3.2735,2.2831e-10,-0.86935,0,0,0.25,-0,-0,0.66667
0.12173,0.018045,0.48692,-0.72293,-15.164,51.643,0.93869,-0.3129,-0.14123,1.2516,5.128e-09,-0.070615,0,0,0.25,-0,2.8896e-16,0.66667
0.84297,0.3251,3.3719,-0.26235,-1.4854,2.987,2.359,-0.78634,-1.7554,3.1453,-2.7425e-10,-0.87769,0,0,0.25,-0,-0,0.66667
0.40424,0.59201,1.617,0.13801,2.3854,27.662,-0.5951,0.19837,-1.9333,-0.79347,1.1734e-12,-0.96667,0,0,0.25,-8.8818e-16,0,0.66667
0.98389,0.60256,3.9355,0.15384,0.018938,0.15473,-1.6145,0.53817,-1.9163,-2.1527,1.0041e-07,-0.95816,0,0,0.25,-0,-0,0.66667
0.91802,0.68206,3.6721,0.27309,0.77793,1.1442,-2.6741,0.89138,-1.7349,-3.5655,-8.3781e-10,-0.86745,0,0,0.25,-1.7764e-15,0,0.66667
0.40767,0.91421,1.6307,0.62132,10.938,27.664,-2.7018,0.90061,-0.6277,-3.6024,6.9811e-13,-0.31385,0,0,0.25,-0,-0,0.66667
0.29792,0.17841,1.1917,-0.48238,-9.2125,36.32,1.5329,-0.51098,-1.1729,2.0439,8.5607e-12,-0.58646,0,0,0.25,-2.9606e-16,0,0.66667
0.22095,0.13257,0.88379,-0.55114,-11.036,42.876,1.2989,-0.43297,-0.9201,1.7319,9.3759e-11,-0.46005,0,0,0.25,-0,-0,0.66667
0.21774,0.65951,0.87094,0.23926,4.7369,43.057,-0.55569,0.18523,-1.7975,-0.74093,-1.786e-10,-0.89875,0,0,0.25,5.9212e-16,0,0.66667
0.76874,0.63348,3.075,0.20022,1.6387,5.5773,-1.6418,0.54726,-1.8573,-2.1891,1.1228e-10,-0.92864,0,0,0.25,-2.3685e-15,0,0.66667
0.75544,0.15447,3.0218,-0.51829,-4.5888,6.4342,4.1764,-1.3921,-1.0453,5.5685,-4.6275e-11,-0.52267,0,0,0.25,1.7764e-15,0,0.66667
0.97825,0.53983,3.913,0.059749,0.020199,0.16951,-0.62347,0.20782,-1.9867,-0.83129,1.2368e-06,-0.99336,0,0,0.25,-0,-0,0.66667
0.08331,0.51249,0.33324,0.01873,0.38587,54.991,-0.016644,0.0055479,-1.998,-0.022192,3.9284e-08,-0.99898,0,0,0.25,2.9606e-16,0,0.66667
0.22018,0.77882,0.88073,0.41823,8.3216,42.891,-0.98226,0.32742,-1.3792,-1.3097,-1.6646e-10,-0.68958,0,0,0.25,3.7007e-16,0,0.66667
0.98371,0.51229,3.9348,0.018433,0.0019577,0.11542,-0.19342,0.064478,-1.999,-0.25789,7.0582e-06,-0.99948,0,0,0.25,-0,-0,0.66667
0.54637,0.6823,2.1855,0.27346,3.9539,17.548,-1.5937,0.53124,-1.735,-2.1249,-1.2083e-12,-0.86751,0,0,0.25,-2.686e-16,0,0.66667
0.55367,0.87998,2.2147,0.56998,8.2915,17.319,-3.3662,1.1221,-0.84471,-4.4882,-3.1086e-13,-0.42235,0,0,0.25,-1.1842e-15,0,0.66667
0.34877,0.58031,1.3951,0.12047,2.1889,32.033,-0.44817,0.14939,-1.9476,-0.59756,-1.2312e-12,-0.9738,0,0,0.25,-0,-0,0.66667
0.70379,0.51064,2.8151,0.015955,0.16247,8.4269,-0.11977,0.039925,-1.9994,-0.1597,2.1781e-12,-0.99968,0,0,0.25,-0,-0,0.66667
0.49976,0.33378,1.9991,-0.24933,-3.8612,20.683,1.3291,-0.44305,-1.7794,1.7722,-1.9695e-13,-0.8897,0,0,0.25,5.9212e-16,0,0.66667
0.46949,0.67239,1.878,0.25858,4.1676,22.831,-1.295,0.43166,-1.7623,-1.7266,6.3649e-13,-0.88116,0,0,0.25,-0,-0,0.66667
0.54977,0.23752,2.1991,-0.39371,-5.6942,17.404,2.3088,-0.76961,-1.4484,3.0784,9.3481e-13,-0.72422,0,0,0.25,-0,-0,0.66667
0.02518,0.33842,0.10072,-0.24237,-5.0408,60.267,0.065099,-0.0217,-1.7909,0.086799,4.4483e-08,-0.89546,0,0,0.25,-5.5511e-17,0,0.66667
0.53126,0.33415,2.125,-0.24877,-3.6801,18.534,1.4098,-0.46992,-1.7805,1.8797,6.0485e-13,-0.89025,0,0,0.25,-5.9212e-16,0,0.66667
0.13296,0.9488,0.53186,0.67321,14.032,50.63,-0.9548,0.31827,-0.38773,-1.2731,1.7058e-09,-0.19386,0,0,0.25,-0,-0,0.66667
0.45893,0.75295,1.8357,0.37943,6.2249,23.66,-1.8574,0.61913,-1.4883,-2.4765,8.7896e-13,-0.74417,0,0,0.25,-0,-0,0.66667
0.082271,0.356,0.32908,-0.21601,-4.4614,55.092,0.18956,-0.063186,-1.8335,0.25274,-6.5709e-09,-0.91673,0,0,0.25,-0,-0,0.66667
0.88896,0.7388,3.5558,0.35819,1.4415,1.8452,-3.3965,1.1322,-1.5438,-4.5286,8.3186e-10,-0.77188,0,0,0.25,1.1842e-15,0,0.66667
0.37843,0.63,1.5137,0.19501,3.4583,29.686,-0.78715,0.26238,-1.865,-1.0495,1.0286e-12,-0.93249,0,0,0.25,-0,-0,0.66667
0.43035,0.13911,1.7214,-0.54134,-9.2584,25.885,2.485,-0.82833,-0.95708,3.3133,-8.4954e-13,-0.47854,0,0,0.25,5.9212e-16,0,0.66667
0.74206,0.6167,2.9682,0.17505,1.5815,6.6914,-1.3856,0.46186,-1.8904,-1.8474,5.1129e-11,-0.94521,0,0,0.25,-5.9212e-16,0,0.66667
0.15577,0.78972,0.6231,0.43458,8.8776,48.54,-0.72209,0.2407,-1.329,-0.96279,-7.1715e-10,-0.66451,0,0,0.25,-0,-0,0.66667
0.57502,0.93349,2.3001,0.65024,9.1908,16.069,-3.9883,1.3294,-0.49709,-5.3177,-3.3151e-13,-0.24855,0,0,0.25,-2.9606e-16,0,0.66667
0.51105,0.038345,2.0442,-0.69248,-10.855,20.282,3.7748,-1.2583,-0.29473,5.0331,-1.0369e-13,-0.14736,0,0,0.25,-0,-0,0.66667
0.3683,0.76622,1.4732,0.39933,7.1965,30.565,-1.5688,0.52293,-1.432,-2.0917,1.9698e-12,-0.71602,0,0,0.25,-1.0283e-15,0,0.66667
0.68334,0.18924,2.7333,-0.46614,-5.134,9.7121,3.3977,-1.1326,-1.228,4.5302,-3.5814e-12,-0.61402,0,0,0.25,-0,-0,0.66667
0.79449,0.57925,3.1779,0.11887,0.86765,4.5418,-1.0074,0.3358,-1.9494,-1.3432,8.9197e-11,-0.97469,0,0,0.25,1.1842e-15,0,0.66667
0.46768,0.60175,1.8707,0.15263,2.4586,22.925,-0.76142,0.25381,-1.9175,-1.0152,4.8039e-13,-0.95877,0,0,0.25,-0,-0,0.66667
0.62735,0.076552,2.5094,-0.63517,-8.1126,12.94,4.2504,-1.4168,-0.56518,5.6672,7.3586e-13,-0.28259,0,0,0.25,-0,-0,0.66667
0.91254,0.74859,3.6502,0.37289,1.1669,1.3549,-3.6296,1.2099,-1.5061,-4.8395,8.9027e-11,-0.75304,0,0,0.25,1.3323e-15,0,0.66667
0.45697,0.46272,1.8279,-0.05592,-0.9114,23.688,0.27257,-0.090858,-1.9889,0.36343,-4.7268e-13,-0.99443,0,0,0.25,8.8818e-16,0,0.66667
0.13502,0.97472,0.54008,0.71208,14.873,50.46,-1.0256,0.34185,-0.19686,-1.3674,-7.4868e-10,-0.098429,0,0,0.25,-0,-0,0.66667
0.54323,0.79162,2.1729,0.43743,6.4096,17.866,-2.5347,0.84489,-1.3192,-3.3796,-1.1682e-12,-0.65961,0,0,0.25,1.1842e-15,0,0.66667
0.43003,0.1151,1.7201,-0.57736,-9.902,25.94,2.6483,-0.88277,-0.81402,3.5311,-5.6199e-13,-0.40701,0,0,0.25,-0,-0,0.66667
0.76831,0.21489,3.0733,-0.42767,-3.5695,5.7895,3.5049,-1.1683,-1.3502,4.6732,-1.2861e-10,-0.67511,0,0,0.25,1.4803e-15,0,0.66667
0.79767,0.15509,3.1907,-0.51737,-3.8562,4.7837,4.402,-1.4673,-1.0498,5.8694,-3.0032e-10,-0.5249,0,0,0.25,1.1842e-15,0,0.66667
0.17185,0.48559,0.68738,-0.021612,-0.43485,47.062,0.039616,-0.013205,-1.9986,0.052822,2.5619e-10,-0.99932,0,0,0.25,2.9606e-16,0,0.66667
0.43794,0.82676,1.7518,0.49014,8.2872,25.279,-2.2896,0.76321,-1.146,-3.0528,9.1038e-13,-0.57299,0,0,0.25,5.9212e-16,0,0.66667
0.26682,0.55991,1.0673,0.089865,1.729,38.819,-0.25576,0.085254,-1.9724,-0.34102,-2.4071e-11,-0.9862,0,0,0.25,7.4015e-17,0,0.66667
0.95469,0.45745,3.8188,-0.063826,-0.08363,0.43622,0.64996,-0.21665,-1.9855,0.86661,4.2715e-07,-0.99274,0,0,0.25,1.1842e-15,0,0.66667
0.93687,0.26601,3.7475,-0.35098,-0.75561,0.89581,3.5075,-1.1692,-1.5621,4.6766,5.2866e-09,-0.78105,0,0,0.25,-0,-0,0.66667
0.43435,0.096443,1.7374,-0.60534,-10.354,25.644,2.8046,-0.93485,-0.69777,3.7394,-7.041e-13,-0.34888,0,0,0.25,-0,2.4723e-16,0.66667
0.43101,0.131,1.724,-0.5535,-9.4674,25.846,2.5447,-0.84823,-0.9104,3.3929,-6.1418e-13,-0.4552,0,0,0.25,-0,-0,0.66667
0.74648,0.33578,2.9859,-0.24633,-2.1986,6.5384,1.9614,-0.65379,-1.7841,2.6152,-6.9809e-11,-0.89203,0,0,0.25,-0,-0,0.66667
0.59598,0.24476,2.3839,-0.38286,-5.1014,14.498,2.4338,-0.81128,-1.4793,3.2451,1.8494e-12,-0.73963,0,0,0.25,5.9212e-16,0,0.66667
0.25907,0.45586,1.0363,-0.06621,-1.2793,39.477,0.18297,-0.060989,-1.9835,0.24395,1.9436e-11,-0.99175,0,0,0.25,-1.0742e-17,0,0.66667
0.48317,0.59661,1.9327,0.14491,2.2884,21.814,-0.74686,0.24895,-1.9264,-0.99582,1.6859e-13,-0.9632,0,0,0.25,-0,-0,0.66667
0.89011,0.55187,3.5604,0.077807,0.29987,1.6251,-0.73874,0.24625,-1.9788,-0.98498,8.4656e-09,-0.98939,0,0,0.25,-0,-0,0.66667
0.68155,0.04317,2.7262,-0.68525,-7.762,10.108,4.9817,-1.6606,-0.32962,6.6422,1.3456e-13,-0.16481,0,0,0.25,1.1842e-15,0,0.66667
0.56313,0.22848,2.2525,-0.40727,-5.7658,16.557,2.4464,-0.81546,-1.4106,3.2618,1.3098e-12,-0.70529,0,0,0.25,-0,-0,0.66667
0.87675,0.15357,3.507,-0.51965,-2.4066,2.3622,4.8598,-1.6199,-1.0408,6.4797,2.6581e-09,-0.52042,0,0,0.25,5.9212e-16,0,0.66667
0.27628,0.88114,1.1051,0.57171,11.126,38.175,-1.6848,0.5616,-0.83766,-2.2464,-1.0032e-11,-0.41883,0,0,0.25,-0,-0,0.66667
0.99685,0.59528,3.9874,0.14292,-0.061153,0.054915,-1.5197,0.50657,-1.9282,-2.0263,9.3454e-07,-0.96411,0,0,0.25,2.3685e-15,0,0.66667
0.19984,0.7393,0.79936,0.35895,7.1903,44.643,-0.76514,0.25505,-1.5415,-1.0202,-2.8048e-10,-0.77075,0,0,0.25,-0,-0,0.66667
0.83979,0.75664,3.3592,0.38496,2.2552,3.2023,-3.4484,1.1495,-1.473,-4.5978,7.7078e-10,-0.73648,0,0,0.25,-0,-0,0.66667
0.74234,0.41112,2.9694,-0.13332,-1.2015,6.662,1.0556,-0.35188,-1.9366,1.4075,-3.9376e-11,-0.96831,0,0,0.25,2.3685e-15,0,0.66667
0.86405,0.17985,3.4562,-0.48022,-2.4309,2.6302,4.426,-1.4753,-1.1797,5.9014,-9.349e-10,-0.58984,0,0,0.25,1.1842e-15,0,0.66667
0.58492,0.37206,2.3397,-0.19191,-2.5888,15.059,1.1974,-0.39913,-1.8692,1.5965,1.2652e-12,-0.93459,0,0,0.25,-1.4803e-16,0,0.66667
0.23238,0.27996,0.92953,-0.33006,-6.5058,41.811,0.81814,-0.27271,-1.6138,1.0908,1.2944e-10,-0.80691,0,0,0.25,-3.3307e-16,0,0.66667
0.48352,0.030188,1.9341,-0.70472,-11.471,22.198,3.6346,-1.2115,-0.23573,4.8462,1.2168e-13,-0.11786,0,0,0.25,-1.5291e-16,3.8876e-17,0.66667
0.86238,0.081894,3.4495,-0.62716,-3.3192,2.925,5.769,-1.923,-0.60109,7.692,-2.7673e-09,-0.30054,0,0,0.25,1.1842e-15,0,0.66667
0.7978,0.10732,3.1912,-0.58902,-4.4361,4.8914,5.0125,-1.6708,-0.76646,6.6833,-1.2107e-10,-0.38323,0,0,0.25,1.1842e-15,0,0.66667
0.17351,0.08388,0.69404,-0.62418,-12.803,47.035,1.1552,-0.38507,-0.6148,1.5403,4.1948e-10,-0.3074,0,0,0.25,-0,-0,0.66667
0.99221,0.37599,3.9688,-0.18602,0.040247,0.11034,1.9687,-0.65623,-1.8775,2.6249,6.8545e-08,-0.93873,0,0,0.25,2.3685e-15,0,0.66667
0.030412,0.98132,0.12165,0.72197,15.357,59.817,-0.23421,0.078069,-0.14678,-0.31227,7.7696e-07,-0.073389,0,0,0.25,-7.4015e-17,0,0.66667
0.39265,0.79194,1.5706,0.43791,7.7335,28.68,-1.8341,0.61137,-1.318,-2.4455,2.2835e-12,-0.65902,0,0,0.25,-0,-0,0.66667
0.7544,0.023561,3.0176,-0.71466,-6.5308,6.8025,5.7508,-1.9169,-0.18373,7.6678,3.8325e-13,-0.091867,0,0,0.25,1.1842e-15,0,0.66667
0.97374,0.77146,3.895,0.40719,0.28273,0.49415,-4.2293,1.4098,-1.4099,-5.6391,-7.4725e-09,-0.70494,0,0,0.25,1.1842e-15,0,0.66667
0.14213,0.77632,0.56851,0.41448,8.4957,49.747,-0.62836,0.20945,-1.3898,-0.83782,-1.2672e-09,-0.69491,0,0,0.25,-7.4015e-17,0,0.66667
0.92404,0.439,3.6962,-0.091506,-0.23272,0.92408,0.90193,-0.30064,-1.9713,1.2026,-1.4052e-07,-0.98565,0,0,0.25,-0,-0,0.66667
0.21902,0.22511,0.8761,-0.41234,-8.2068,42.989,0.96333,-0.32111,-1.3963,1.2844,1.7315e-10,-0.69814,0,0,0.25,-0,-0,0.66667
0.55264,0.50474,2.2106,0.0071117,0.10123,17.066,-0.041922,0.013974,-1.9997,-0.055897,-3.8899e-13,-0.99987,0,0,0.25,2.3685e-15,0,0.66667
0.43281,0.30191,1.7312,-0.29714,-5.0054,25.544,1.3718,-0.45725,-1.6855,1.829,-1.5511e-12,-0.84273,0,0,0.25,5.9212e-16,0,0.66667
0.80806,0.51426,3.2322,0.021389,0.14589,4.0311,-0.18436,0.061453,-1.9976,-0.24581,4.3519e-11,-0.99881,0,0,0.25,2.3685e-15,0,0.66667
0.13857,0.33453,0.55428,-0.24821,-5.0645,50.037,0.36687,-0.12229,-1.7809,0.48917,-5.5727e-10,-0.89047,0,0,0.25,-0,-0,0.66667
0.19087,0.099821,0.76348,-0.60027,-12.213,45.506,1.2221,-0.40737,-0.71891,1.6295,1.5002e-10,-0.35946,0,0,0.25,-5.9212e-16,0,0.66667
0.56751,0.683,2.2701,0.2745,3.8313,16.187,-1.6617,0.55389,-1.7321,-2.2156,-1.4945e-12,-0.86606,0,0,0.25,-8.8818e-16,0,0.66667
0.20995,0.5164,0.83981,0.024601,0.48735,43.713,-0.055093,0.018364,-1.9969,-0.073458,-2.5077e-12,-0.99843,0,0,0.25,-0,-0,0.66667
0.87999,0.035636,3.52,-0.69655,-3.2967,2.6188,6.5382,-2.1794,-0.27498,8.7176,8.743e-09,-0.13749,0,0,0.25,2.3685e-15,0,0.66667
0.57835,0.11715,2.3134,-0.57427,-8.0146,15.767,3.5427,-1.1809,-0.82808,4.7236,6.95e-13,-0.41404,0,0,0.25,-5.9212e-16,0,0.66667
0.91176,0.10797,3.647,-0.58805,-1.9842,1.7055,5.719,-1.9063,-0.7696,7.6253,2.0501e-08,-0.3848,0,0,0.25,-0,-0,0.66667
0.76434,0.49026,3.0574,-0.014611,-0.12107,5.7024,0.11912,-0.039707,-1.9994,0.15883,-1.6164e-11,-0.99969,0,0,0.25,1.1842e-15,0,0.66667
0.47494,0.59457,1.8998,0.14186,2.2639,22.4,-0.71868,0.23956,-1.929,-0.95824,3.0936e-13,-0.96452,0,0,0.25,-0,-0,0.66667
0.69241,0.60405,2.7696,0.15608,1.6462,9.0188,-1.1527,0.38425,-1.9128,-1.537,1.0535e-11,-0.95638,0,0,0.25,-0,-0,0.66667
0.059802,0.57533,0.23921,0.11299,2.3375,57.121,-0.072077,0.024026,-1.9542,-0.096103,9.8683e-08,-0.97711,0,0,0.25,-0,-0,0.66667
0.63126,0.33956,2.525,-0.24066,-2.9622,12.331,1.6204,-0.54015,-1.794,2.1606,6.7613e-13,-0.89702,0,0,0.25,-5.9212e-16,0,0.66667
0.98405,0.019628,3.9362,-0.72056,-0.45418,1.0203,7.5633,-2.5211,-0.15424,10.084,-1.8725e-07,-0.07712,0,0,0.25,-0,2.7663e-16,0.66667
0.11938,0.074443,0.47754,-0.63834,-13.321,51.826,0.81288,-0.27096,-0.5504,1.0838,8.2711e-09,-0.2752,0,0,0.25,-0,-0,0.66667
0.45157,0.058123,1.8063,-0.66282,-11.172,24.435,3.1926,-1.0642,-0.43867,4.2568,-2.5069e-13,-0.21934,0,0,0.25,-0,-1.4264e-16,0.66667
0.018534,0.92438,0.074136,0.63657,13.472,60.882,-0.12585,0.041949,-0.55876,-0.1678,-2.5692e-07,-0.27938,0,0,0.25,-1.8504e-17,0,0.66667
0.68813,0.68056,2.7525,0.27084,2.9046,9.2941,-1.988,0.66266,-1.7398,-2.6506,1.1057e-11,-0.8699,0,0,0.25,5.9212e-16,0,0.66667
0.019423,0.87546,0.077691,0.56319,11.867,60.799,-0.11668,0.038893,-0.87317,-0.15557,-1.0434e-07,-0.43658,0,0,0.25,-0,-0,0.66667
0.45527,0.64893,1.8211,0.2234,3.6593,23.85,-1.0849,0.36163,-1.8227,-1.4465,8.6176e-13,-0.91136,0,0,0.25,2.9606e-16,0,0.66667
0.21915,0.61545,0.8766,0.17318,3.4214,42.924,-0.40482,0.13494,-1.8938,-0.53976,-1.0303e-10,-0.9469,0,0,0.25,2.9606e-16,0,0.66667
0.80722,0.053099,3.2289,-0.67035,-4.9038,4.705,5.7719,-1.924,-0.40164,7.6959,-3.0487e-11,-0.20082,0,0,0.25,-0,-0,0.66667
0.64564,0.84299,2.5825,0.51448,6.2416,11.762,-3.5431,1.181,-1.0596,-4.7242,-1.5687e-12,-0.52979,0,0,0.25,-3.7007e-16,0,0.66667
0.66627,0.77702,2.6651,0.41553,4.7615,10.543,-2.9531,0.98437,-1.3861,-3.9375,1.3427e-12,-0.69305,0,0,0.25,-1.9761e-16,0,0.66667
0.54989,0.81526,2.1996,0.47289,6.8716,17.464,-2.7737,0.92458,-1.2055,-3.6983,-1.2004e-12,-0.60276,0,0,0.25,-0,-0,0.66667
0.25045,0.29479,1.0018,-0.30782,-6.0056,40.254,0.82231,-0.2741,-1.6633,1.0964,8.1606e-11,-0.83165,0,0,0.25,5.9212e-16,0,0.66667
0.81569,0.9147,3.2628,0.62205,4.3277,4.3262,-5.4123,1.8041,-0.624,-7.2164,-2.8916e-11,-0.312,0,0,0.25,-0,-0,0.66667
0.88012,0.77327,3.5205,0.40991,1.8033,2.1196,-3.8482,1.2827,-1.4021,-5.131,2.1794e-10,-0.70106,0,0,0.25,-1.1842e-15,0,0.66667
0.43832,0.8791,1.7533,0.56865,9.6595,25.316,-2.6587,0.88622,-0.85124,-3.5449,4.7495e-13,-0.42562,0,0,0.25,-0,-0,0.66667
0.58633,0.74113,2.3453,0.3617,4.9016,15.069,-2.2621,0.75405,-1.5342,-3.0162,-1.9862e-12,-0.76708,0,0,0.25,-0,-0,0.66667
0.6243,0.18345,2.4972,-0.47483,-6.0157,12.916,3.162,-1.054,-1.1994,4.216,2.0099e-12,-0.59968,0,0,0.25,-1.1842e-15,-4.9831e-18,0.66667
0.72761,0.10077,2.9104,-0.59884,-5.8853,7.7642,4.6477,-1.5492,-0.72447,6.1969,-7.3657e-12,-0.36224,0,0,0.25,-0,-0,0.66667
0.5909,0.60245,2.3636,0.15368,2.0478,14.677,-0.96861,0.32287,-1.9159,-1.2915,-1.267e-12,-0.95795,0,0,0.25,-0,-0,0.66667
0.8066,0.035633,3.2264,-0.69655,-5.1362,4.7778,5.9929,-1.9976,-0.27486,7.9906,-3.97e-11,-0.13743,0,0,0.25,-0,-0,0.66667
0.82409,0.10417,3.2964,-0.59375,-3.9352,3.9991,5.2192,-1.7397,-0.74603,6.9589,-2.5319e-10,-0.37301,0,0,0.25,-0,-0,0.66667
0.55655,0.97893,2.2262,0.71839,10.544,17.324,-4.2648,1.4216,-0.16429,-5.6864,-2.6823e-13,-0.082145,0,0,0.25,-0,-0,0.66667
0.88295,0.62833,3.5318,0.1925,0.80017,1.8449,-1.813,0.60433,-1.8683,-2.4173,-5.2287e-09,-0.93415,0,0,0.25,2.3685e-15,0,0.66667
0.20294,0.6236,0.81175,0.18541,3.6909,44.338,-0.40134,0.13378,-1.8794,-0.53513,-2.3114e-10,-0.93972,0,0,0.25,-2.9606e-16,0,0.66667
0.41362,0.76532,1.6545,0.39798,6.8709,27.046,-1.7558,0.58528,-1.4359,-2.3411,1.8502e-12,-0.71793,0,0,0.25,-5.9212e-16,0,0.66667
0.63011,0.75902,2.5204,0.38853,4.8319,12.501,-2.6114,0.87046,-1.4627,-3.4818,-1.8034e-12,-0.73136,0,0,0.25,-0,-0,0.66667
0.10257,0.91683,0.41029,0.62525,13.087,53.323,-0.68409,0.22803,-0.60921,-0.91212,-9.7775e-09,-0.30461,0,0,0.25,-2.9606e-16,0,0.66667
0.71864,0.8183,2.8746,0.47745,4.7596,8.0072,-3.6599,1.22,-1.1904,-4.8799,1.9033e-11,-0.59521,0,0,0.25,-0,1.0198e-17,0.66667
0.47968,0.89464,1.9187,0.59196,9.5925,22.343,-3.0288,1.0096,-0.75339,-4.0384,-1.3323e-14,-0.3767,0,0,0.25,5.9212e-16,0,0.66667
0.37899,0.21618,1.516,-0.42573,-7.6094,29.738,1.7211,-0.57369,-1.3561,2.2948,-2.2706e-12,-0.67803,0,0,0.25,5.9212e-16,0,0.66667
0.45185,0.012101,1.8074,-0.73185,-12.405,24.492,3.5273,-1.1758,-0.095631,4.7031,1.0281e-13,-0.047816,0,0,0.25,-0,2.81e-16,0.66667
0.36759,0.15763,1.4703,-0.51356,-9.3164,30.69,2.0136,-0.67121,-1.0627,2.6848,-1.8003e-12,-0.53134,0,0,0.25,-0,-0,0.66667
0.23954,0.15483,0.95815,-0.51776,-10.254,41.263,1.3229,-0.44097,-1.0474,1.7639,6.0438e-11,-0.5237,0,0,0.25,-3.7162e-16,0,0.66667
0.91587,0.59212,3.6635,0.13818,0.39727,1.0948,-1.35,0.44999,-1.9325,-1.8,2.2573e-08,-0.96627,0,0,0.25,-1.1842e-15,0,0.66667
0.79936,0.081268,3.1974,-0.6281,-4.728,4.903,5.3555,-1.7852,-0.59698,7.1407,-1.1321e-10,-0.29849,0,0,0.25,-0,-0,0.66667
0.33394,0.58875,1.3358,0.13313,2.4482,33.237,-0.47421,0.15807,-1.9369,-0.63228,-3.104e-12,-0.96843,0,0,0.25,2.9606e-16,0,0.66667
0.16905,0.84906,0.67621,0.52359,10.694,47.392,-0.94414,0.31471,-1.0255,-1.2589,-1.046e-09,-0.51277,0,0,0.25,-0,-0,0.66667
0.11663,0.21968,0.4665,-0.42048,-8.6801,52.024,0.52309,-0.17436,-1.3719,0.69745,1.6744e-10,-0.68594,0,0,0.25,-2.9606e-16,0,0.66667
0.79533,0.52872,3.1813,0.043074,0.31261,4.493,-0.36542,0.12181,-1.9944,-0.48723,-7.7357e-12,-0.99722,0,0,0.25,1.1842e-15,0,0.66667
0.70203,0.63458,2.8081,0.20186,2.0748,8.5633,-1.5116,0.50387,-1.8553,-2.0155,1.7351e-11,-0.92766,0,0,0.25,-0,-0,0.66667
0.075233,0.23456,0.30093,-0.39815,-8.279,55.743,0.31951,-0.1065,-1.4359,0.42601,-1.0745e-09,-0.71793,0,0,0.25,-0,-0,0.66667
0.11659,0.94458,0.46638,0.66687,13.952,52.083,-0.82937,0.27646,-0.4183,-1.1058,-8.7307e-09,-0.20915,0,0,0.25,-0,-0,0.66667
0.9138,0.083089,3.6552,-0.62537,-2.0896,1.7396,6.0956,-2.0319,-0.60865,8.1275,-7.3069e-09,-0.30432,0,0,0.25,-0,-0,0.66667
0.86977,0.14118,3.4791,-0.53824,-2.6437,2.5703,4.9935,-1.6645,-0.9691,6.658,-9.0433e-10,-0.48455,0,0,0.25,1.1842e-15,0,0.66667
0.29195,0.079273,1.1678,-0.63109,-12.208,36.902,1.9653,-0.65511,-0.5831,2.6204,1.2043e-12,-0.29155,0,0,0.25,-0,-0,0.66667
0.102,0.12575,0.408,-0.56138,-11.707,53.361,0.61078,-0.20359,-0.88004,0.81437,-1.678e-08,-0.44002,0,0,0.25,2.9606e-16,0,0.66667
0.80889,0.6429,3.2356,0.21435,1.4659,4.0671,-1.8494,0.61647,-1.8361,-2.4659,2.4606e-10,-0.91803,0,0,0.25,1.1842e-15,0,0.66667
0.026174,0.61649,0.10469,0.17474,3.6289,60.176,-0.048785,0.016262,-1.8909,-0.065047,-1.5701e-08,-0.94547,0,0,0.25,-1.8504e-17,0,0.66667
0.63635,0.81808,2.5454,0.47713,5.8912,12.235,-3.2386,1.0795,-1.1906,-4.3181,-1.7339e-12,-0.59528,0,0,0.25,-0,-0,0.66667
0.16009,0.3699,0.64035,-0.19515,-3.9504,48.115,0.33324,-0.11108,-1.8647,0.44431,3.0394e-10,-0.93235,0,0,0.25,7.4015e-17,0,0.66667
0.69162,0.84504,2.7665,0.51757,5.6017,9.3575,-3.8183,1.2728,-1.0483,-5.091,3.1637e-12,-0.52414,0,0,0.25,-0,-0,0.66667
0.16802,0.53761,0.67208,0.056421,1.1369,47.402,-0.10112,0.033706,-1.9886,-0.13482,5.8472e-10,-0.99431,0,0,0.25,-0,-0,0.66667
0.34905,0.76668,1.3962,0.40002,7.327,32.101,-1.4893,0.49645,-1.4302,-1.9858,2.7922e-13,-0.7151,0,0,0.25,-0,-0,0.66667
0.12209,0.43894,0.48835,-0.091597,-1.8723,51.499,0.11928,-0.039761,-1.9711,0.15904,-1.2558e-08,-0.98554,0,0,0.25,2.9606e-16,0,0.66667
0.28709,0.0035861,1.1483,-0.74462,-14.57,37.387,2.2802,-0.76007,-0.02868,3.0403,-1.2279e-12,-0.01434,0,0,0.25,-0,-0,0.66667
0.1291,0.82795,0.51639,0.49192,10.156,50.924,-0.67739,0.2258,-1.1389,-0.90319,-2.7881e-09,-0.56945,0,0,0.25,-0,-0,0.66667
0.46339,0.60416,1.8535,0.15624,2.5303,23.238,-0.77228,0.25743,-1.9125,-1.0297,4.8272e-13,-0.95626,0,0,0.25,-0,-0,0.66667
0.64941,0.9215,2.5976,0.63225,7.693,11.711,-4.3796,1.4599,-0.57771,-5.8395,-9.8233e-13,-0.28885,0,0,0.25,-0,-0,0.66667
0.39451,0.77,1.578,0.40499,7.1278,28.517,-1.7043,0.56809,-1.4163,-2.2723,2.0355e-12,-0.70814,0,0,0.25,5.9212e-16,0,0.66667
0.95296,0.16314,3.8118,-0.50529,-0.82935,0.88498,5.1362,-1.7121,-1.093,6.8483,4.3498e-09,-0.54649,0,0,0.25,-0,-0,0.66667
0.75487,0.80105,3.0195,0.45157,3.9762,6.3715,-3.636,1.212,-1.2743,-4.848,7.6564e-11,-0.63714,0,0,0.25,1.1842e-15,0,0.66667
0.54438,0.34144,2.1775,-0.23784,-3.4455,17.661,1.3811,-0.46036,-1.7997,1.8414,6.6958e-13,-0.89985,0,0,0.25,7.4015e-16,0,0.66667
0.56352,0.57896,2.2541,0.11844,1.657,16.379,-0.71193,0.23731,-1.9501,-0.94925,-8.4488e-13,-0.97505,0,0,0.25,-0,-0,0.66667
0.3206,0.8383,1.2824,0.50745,9.5524,34.465,-1.7354,0.57846,-1.0841,-2.3138,-1.4795e-12,-0.54207,0,0,0.25,7.8195e-16,0,0.66667
0.51252,0.96563,2.0501,0.69845,10.932,20.19,-3.8184,1.2728,-0.26604,-5.0911,-1.6565e-13,-0.13302,0,0,0.25,1.4803e-16,-1.0628e-16,0.66667
0.75781,0.73982,3.0312,0.35973,3.1055,6.1479,-2.9078,0.96927,-1.5391,-3.8771,1.0216e-10,-0.76955,0,0,0.25,-0,-0,0.66667
0.0018096,0.16617,0.0072385,-0.50075,-10.521,62.392,0.0096658,-0.0032218,-1.1084,0.012888,1.4767e-07,-0.55422,0,0,0.25,-0,5.1313e-16,0.66667
0.48059,0.64674,1.9224,0.22011,3.4938,22.02,-1.1283,0.37612,-1.8273,-1.5045,4.0079e-13,-0.91367,0,0,0.25,-5.9212e-16,0,0.66667
0.90416,0.62556,3.6166,0.18833,0.63032,1.359,-1.8164,0.60545,-1.8752,-2.4218,-6.4507e-09,-0.93758,0,0,0.25,-0,-0,0.66667
0.8495,0.90819,3.398,0.61228,3.5167,3.2548,-5.5481,1.8494,-0.66746,-7.3975,-1.7202e-09,-0.33373,0,0,0.25,-0,-0,0.66667
0.221,0.75037,0.88398,0.37556,7.4565,42.807,-0.8853,0.2951,-1.4998,-1.1804,-1.7972e-10,-0.7499,0,0,0.25,-0,-0,0.66667
0.73624,0.14126,2.9449,-0.53811,-5.1049,7.2884,4.2259,-1.4086,-0.9702,5.6345,-2.2898e-11,-0.4851,0,0,0.25,-1.1842e-15,0,0.66667
0.58487,0.63432,2.3395,0.20148,2.7189,15.065,-1.257,0.41899,-1.855,-1.676,-1.6162e-12,-0.92748,0,0,0.25,-0,-0,0.66667
0.52554,0.11453,2.1021,-0.57821,-8.7915,19.173,3.2413,-1.0804,-0.81057,4.3217,1.2745e-13,-0.40528,0,0,0.25,-0,-0,0.66667
0.66144,0.4526,2.6458,-0.071098,-0.81206,10.602,0.50163,-0.16721,-1.9812,0.66883,-1.542e-12,-0.99059,0,0,0.25,-0,-0,0.66667
0.63207,0.60237,2.5283,0.15356,1.8814,12.247,-1.0353,0.34511,-1.9155,-1.3804,-3.515e-13,-0.95775,0,0,0.25,-0,-0,0.66667
0.071417,0.045138,0.28567,-0.68229,-14.413,56.126,0.51976,-0.17325,-0.34385,0.69302,1.7228e-07,-0.17192,0,0,0.25,-1.4803e-16,0,0.66667
0.41684,0.78662,1.6674,0.42994,7.4099,26.82,-1.9116,0.63721,-1.3427,-2.5488,1.4355e-12,-0.67134,0,0,0.25,1.1842e-15,0,0.66667
0.1993,0.095559,0.79719,-0.60666,-12.306,44.775,1.2897,-0.42989,-0.69209,1.7196,2.1982e-10,-0.34605,0,0,0.25,-5.9212e-16,0,0.66667
0.70058,0.52862,2.8023,0.042923,0.44131,8.5856,-0.32076,0.10692,-1.9942,-0.42768,4.3649e-12,-0.99711,0,0,0.25,2.9606e-16,0,0.66667
0.27331,0.28183,1.0932,-0.32726,-6.3054,38.317,0.95406,-0.31802,-1.6198,1.2721,4.1896e-11,-0.80989,0,0,0.25,-0,-0,0.66667
0.43642,0.72147,1.7457,0.33221,5.5815,25.291,-1.5465,0.5155,-1.6087,-2.062,1.6145e-12,-0.80436,0,0,0.25,-1.1842e-15,0,0.66667
0.82163,0.66364,3.2865,0.24545,1.5736,3.6524,-2.1512,0.71705,-1.7853,-2.8682,3.9995e-10,-0.89265,0,0,0.25,-2.3685e-15,0,0.66667
0.78306,0.18049,3.1323,-0.47927,-3.7895,5.2746,4.0032,-1.3344,-1.1836,5.3376,-1.7809e-10,-0.59178,0,0,0.25,-1.1842e-15,0,0.66667
0.85416,0.57525,3.4166,0.11288,0.58682,2.5725,-1.0285,0.34282,-1.9539,-1.3713,-4.3565e-10,-0.97695,0,0,0.25,-0,-0,0.66667
0.47905,0.26242,1.9162,-0.35636,-5.6968,22.197,1.821,-0.607,-1.5477,2.428,-5.4401e-13,-0.77383,0,0,0.25,-0,-0,0.66667
0.92649,0.15387,3.706,-0.5192,-1.4108,1.3103,5.131,-1.7103,-1.042,6.8414,-4.039e-08,-0.52099,0,0,0.25,-0,-0,0.66667
0.031555,0.93274,0.12622,0.64911,13.739,59.709,-0.21848,0.072826,-0.50293,-0.29131,-6.2659e-07,-0.25147,0,0,0.25,-1.8504e-17,0,0.66667
0.93828,0.7027,3.7531,0.30404,0.62771,0.82227,-3.043,1.0143,-1.6714,-4.0573,-3.4685e-09,-0.83568,0,0,0.25,-1.1842e-15,0,0.66667
0.34863,0.066985,1.3945,-0.64952,-12.078,32.297,2.4154,-0.80513,-0.50003,3.2205,-6.4593e-13,-0.25002,0,0,0.25,-1.1842e-15,0,0.66667
0.81282,0.82677,3.2513,0.49016,3.3843,4.211,-4.2497,1.4166,-1.146,-5.6663,3.98e-10,-0.57299,0,0,0.25,1.1842e-15,0,0.66667
0.94832,0.039593,3.7933,-0.69061,-1.4222,1.3209,6.9858,-2.3286,-0.30376,9.3144,2.8713e-07,-0.15188,0,0,0.25,2.3685e-15,-1.5909e-16,0.66667
0.89181,0.40842,3.5673,-0.13737,-0.52236,1.6057,1.3068,-0.43559,-1.9341,1.7424,1.7005e-08,-0.96705,0,0,0.25,-2.3685e-15,0,0.66667
0.69802,0.9162,2.7921,0.62431,6.7175,9.1933,-4.6483,1.5494,-0.61357,-6.1977,6.3682e-13,-0.30679,0,0,0.25,-0,-0,0.66667
0.67018,0.22221,2.6807,-0.41668,-4.7286,10.338,2.9787,-0.99289,-1.3835,3.9716,-2.1438e-12,-0.69176,0,0,0.25,-0,-0,0.66667
0.97358,0.6843,3.8943,0.27645,0.16819,0.34105,-2.8709,0.95698,-1.7285,-3.8279,-6.825e-09,-0.86426,0,0,0.25,5.843e-16,0,0.66667
0.46511,0.43215,1.8604,-0.10177,-1.6432,23.101,0.5049,-0.1683,-1.9633,0.6732,-3.6565e-13,-0.98164,0,0,0.25,-5.9212e-16,0,0.66667
0.10402,0.46534,0.41607,-0.051992,-1.067,53.123,0.057686,-0.019229,-1.9906,0.076915,-3.52e-08,-0.99528,0,0,0.25,-0,-0,0.66667
0.024147,0.41298,0.09659,-0.13053,-2.7092,60.359,0.033622,-0.011207,-1.939,0.044829,3.7311e-08,-0.96949,0,0,0.25,-0,-0,0.66667
0.8813,0.92694,3.5252,0.64042,2.9497,2.47,-6.0203,2.0068,-0.54097,-8.027,9.8774e-09,-0.27048,0,0,0.25,1.1842e-15,0,0.66667
0.026191,0.433,0.10476,-0.1005,-2.0849,60.173,0.028076,-0.0093593,-1.9641,0.037434,-1.1732e-06,-0.98206,0,0,0.25,4.6259e-17,0,0.66667
0.95083,0.058909,3.8033,-0.66164,-1.2684,1.2216,6.7104,-2.2368,-0.44417,8.9472,1.6863e-07,-0.22209,0,0,0.25,1.7764e-15,0,0.66667
0.56992,0.88755,2.2797,0.58133,8.2382,16.301,-3.534,1.178,-0.79748,-4.712,-5.6732e-13,-0.39874,0,0,0.25,-1.1842e-15,0,0.66667
0.65757,0.77338,2.6303,0.41007,4.7978,11.001,-2.8762,0.95875,-1.4024,-3.835,1.3411e-13,-0.70121,0,0,0.25,5.9212e-16,0,0.66667
0.90917,0.27292,3.6367,-0.34062,-1.1024,1.3849,3.3033,-1.1011,-1.5874,4.4044,-2.6285e-10,-0.79368,0,0,0.25,-5.9212e-16,0,0.66667
0.90195,0.84431,3.6078,0.51647,1.8963,1.7768,-4.9689,1.6563,-1.0524,-6.6252,8.0855e-09,-0.52622,0,0,0.25,-2.3685e-15,0,0.66667
0.39086,0.59887,1.5634,0.1483,2.5974,28.701,-0.6183,0.2061,-1.9228,-0.8244,9.806e-13,-0.9614,0,0,0.25,-0,-0,0.66667
0.61254,0.039673,2.4502,-0.69049,-9.1421,13.871,4.5115,-1.5038,-0.30462,6.0153,3.1886e-13,-0.15231,0,0,0.25,-0,-0,0.66667
0.52184,0.63292,2.0873,0.19938,2.9871,19.147,-1.1098,0.36994,-1.8581,-1.4798,-5.5789e-13,-0.92906,0,0,0.25,-0,-0,0.66667
0.81704,0.11365,3.2682,-0.57953,-3.9739,4.2068,5.0507,-1.6836,-0.80519,6.7342,-3.661e-10,-0.4026,0,0,0.25,-1.1842e-15,0,0.66667
0.056183,0.87675,0.22473,0.56513,11.876,57.48,-0.33867,0.11289,-0.86484,-0.45156,-1.3468e-07,-0.43242,0,0,0.25,-1.4803e-16,0,0.66667
0.62698,0.98826,2.5079,0.73239,9.4627,13.109,-4.8981,1.6327,-0.092624,-6.5307,-3.6859e-14,-0.046312,0,0,0.25,-0,-0,0.66667
0.42974,0.92015,1.719,0.63022,10.854,26.01,-2.8889,0.96296,-0.58681,-3.8518,4.4253e-13,-0.2934,0,0,0.25,5.9212e-16,0,0.66667
0.86093,0.77428,3.4437,0.41142,2.1037,2.621,-3.7782,1.2594,-1.3985,-5.0375,1.6453e-09,-0.69926,0,0,0.25,-0,-0,0.66667
0.68787,0.75936,2.7515,0.38905,4.2067,9.4026,-2.8545,0.95151,-1.4623,-3.806,8.205e-12,-0.73115,0,0,0.25,-0,-0,0.66667
0.26102,0.80646,1.0441,0.45969,8.9711,39.406,-1.2799,0.42663,-1.2485,-1.7065,-4.165e-11,-0.62426,0,0,0.25,1.4803e-16,0,0.66667
0.13424,0.024918,0.53696,-0.71262,-14.888,50.53,1.0204,-0.34013,-0.19402,1.3605,5.061e-10,-0.097012,0,0,0.25,-1.4803e-16,0,0.66667
0.54134,0.32024,2.1654,-0.26964,-3.9297,17.876,1.557,-0.519,-1.741,2.076,7.3752e-13,-0.87051,0,0,0.25,-0,-0,0.66667
0.9819,0.96711,3.9276,0.70066,0.48421,0.98732,-7.3384,2.4461,-0.25546,-9.7846,1.2837e-06,-0.12773,0,0,0.25,1.3296e-15,0,0.66667
0.34991,0.32517,1.3996,-0.26224,-4.7752,31.975,0.97877,-0.32626,-1.7546,1.305,8.5032e-13,-0.8773,0,0,0.25,5.9212e-16,0,0.66667
0.99541,0.68646,3.9816,0.27969,-0.085835,0.16623,-2.9697,0.98991,-1.7226,-3.9596,2.5784e-09,-0.86128,0,0,0.25,2.9606e-16,0,0.66667
0.51808,0.83483,2.0723,0.50225,7.6772,19.598,-2.7755,0.92516,-1.103,-3.7006,-4.301e-13,-0.55152,0,0,0.25,-5.9212e-16,0,0.66667
0.19034,0.60302,0.76135,0.15453,3.0908,45.439,-0.31373,0.10458,-1.9149,-0.41831,-1.5717e-10,-0.95745,0,0,0.25,-0,-0,0.66667
0.030616,0.62382,0.12246,0.18574,3.8569,59.772,-0.060655,0.020218,-1.8789,-0.080873,9.8618e-08,-0.93945,0,0,0.25,3.7007e-17,0,0.66667
0.30302,0.21196,1.2121,-0.43206,-8.2025,35.872,1.3965,-0.46551,-1.3359,1.862,9.3857e-12,-0.66793,0,0,0.25,2.9606e-16,0,0.66667
0.035078,0.79402,0.14031,0.44102,9.2286,59.377,-0.16502,0.055005,-1.3078,-0.22002,2.25e-08,-0.65392,0,0,0.25,-0,-0,0.66667
0.59005,0.69449,2.3602,0.29174,3.9124,14.794,-1.8361,0.61205,-1.6973,-2.4482,-1.9862e-12,-0.84863,0,0,0.25,1.1842e-15,0,0.66667
0.70162,0.70425,2.8065,0.30638,3.1697,8.6495,-2.2929,0.76431,-1.6661,-3.0572,1.8261e-11,-0.83305,0,0,0.25,-0,-0,0.66667
0.66999,0.56748,2.68,0.10121,1.132,10.153,-0.72334,0.24111,-1.9641,-0.96445,3.2151e-12,-0.98206,0,0,0.25,-2.3685e-15,0,0.66667
0.35621,0.52222,1.4248,0.033323,0.60129,31.427,-0.12661,0.042204,-1.9958,-0.16882,-1.6477e-13,-0.99791,0,0,0.25,-5.9212e-16,0,0.66667
0.11164,0.33141,0.44658,-0.25288,-5.1967,52.448,0.30115,-0.10038,-1.7724,0.40153,2.2213e-10,-0.88618,0,0,0.25,-0,-0,0.66667
0.64132,0.80213,2.5653,0.4532,5.524,11.932,-3.1002,1.0334,-1.27,-4.1337,-1.5623e-12,-0.63499,0,0,0.25,5.9212e-16,0,0.66667
0.063197,0.15304,0.25279,-0.52045,-10.901,56.842,0.35083,-0.11694,-1.0381,0.46778,-2.8668e-08,-0.51904,0,0,0.25,-9.2519e-17,0,0.66667
0.64436,0.39764,2.5775,-0.15354,-1.8297,11.556,1.0553,-0.35177,-1.9159,1.4071,-5.7832e-13,-0.95794,0,0,0.25,-5.9212e-16,0,0.66667
0.83529,0.12214,3.3412,-0.56679,-3.5134,3.5984,5.0499,-1.6833,-0.85793,6.7333,9.9912e-11,-0.42896,0,0,0.25,-0,-0,0.66667
0.057159,0.43351,0.22864,-0.099729,-2.0635,57.36,0.060805,-0.020268,-1.9647,0.081073,-2.9066e-07,-0.98236,0,0,0.25,1.5341e-17,0,0.66667
0.35587,0.93599,1.4235,0.65399,12.093,31.724,-2.4825,0.8275,-0.48008,-3.31,9.2593e-13,-0.24004,0,0,0.25,8.1416e-16,2.6817e-16,0.66667
0.61872,0.37724,2.4749,-0.18414,-2.3236,13.027,1.2153,-0.4051,-1.8797,1.6204,9.9742e-13,-0.93987,0,0,0.25,-2.3685e-15,0,0.66667
0.6386,0.96193,2.5544,0.6929,8.6944,12.396,-4.7198,1.5733,-0.2932,-6.2931,-3.1752e-13,-0.1466,0,0,0.25,-5.9212e-16,0,0.66667
0.19794,0.37041,0.79175,-0.19438,-3.8785,44.777,0.4104,-0.1368,-1.8657,0.5472,2.6896e-10,-0.93283,0,0,0.25,-2.5287e-16,0,0.66667
0.62336,0.9519,2.4935,0.67785,8.7692,13.229,-4.5072,1.5024,-0.36611,-6.0096,-3.8547e-13,-0.18305,0,0,0.25,-0,-0,0.66667
0.55754,0.80246,2.2302,0.45369,6.5023,16.953,-2.6982,0.89939,-1.2675,-3.5975,-1.209e-12,-0.63376,0,0,0.25,-0,-0,0.66667
0.88572,0.99214,3.5429,0.73821,3.3804,2.5777,-6.9743,2.3248,-0.062006,-9.2991,9.586e-09,-0.031003,0,0,0.25,-1.7764e-15,0,0.66667
0.69703,0.2449,2.7881,-0.38265,-4.0321,8.9403,2.845,-0.94833,-1.4792,3.7933,-1.2734e-11,-0.73961,0,0,0.25,-5.9212e-16,0,0.66667
0.36426,0.31484,1.4571,-0.27775,-4.9992,30.832,1.0792,-0.35972,-1.7261,1.4389,-7.3508e-13,-0.86306,0,0,0.25,-0,-0,0.66667
0.22535,0.15108,0.90139,-0.52338,-10.442,42.484,1.258,-0.41935,-1.0258,1.6774,1.0202e-10,-0.51292,0,0,0.25,-1.6263e-16,0,0.66667
0.61091,0.73881,2.4436,0.35821,4.6285,13.587,-2.3342,0.77807,-1.5438,-3.1123,-2.1885e-12,-0.77188,0,0,0.25,5.9212e-16,0,0.66667
0.25557,0.89698,1.0223,0.59547,11.745,39.935,-1.6233,0.54109,-0.73864,-2.1644,-1.6664e-11,-0.36932,0,0,0.25,-0,-0,0.66667
0.075813,0.71899,0.30325,0.32849,6.8126,55.683,-0.26564,0.088547,-1.6176,-0.35419,5.1912e-09,-0.80882,0,0,0.25,-2.9606e-16,0,0.66667
0.8227,0.6044,3.2908,0.1566,0.99226,3.5644,-1.3743,0.45809,-1.9121,-1.8323,2.6935e-10,-0.95605,0,0,0.25,-0,-0,0.66667
0.22795,0.71192,0.91181,0.31788,6.277,42.19,-0.77293,0.25764,-1.6403,-1.0306,-1.461e-10,-0.82014,0,0,0.25,-4.4409e-16,0,0.66667
0.37955,0.3177,1.5182,-0.27345,-4.8548,29.622,1.1071,-0.36902,-1.7341,1.4761,-1.7246e-12,-0.86706,0,0,0.25,1.1842e-15,0,0.66667
0.84649,0.95893,3.3859,0.68839,4.0995,3.4911,-6.2156,2.0719,-0.31487,-8.2875,2.0085e-10,-0.15744,0,0,0.25,1.1842e-15,0,0.66667
0.10315,0.53457,0.4126,0.051858,1.0644,53.201,-0.057058,0.019019,-1.9905,-0.076077,3.4093e-08,-0.99527,0,0,0.25,-0,-0,0.66667
0.96939,0.034086,3.8776,-0.69887,-0.84509,1.0943,7.2264,-2.4088,-0.26464,9.6353,4.4604e-06,-0.13232,0,0,0.25,-0,-0,0.66667
0.52282,0.72581,2.0913,0.33872,5.0935,19.15,-1.889,0.62966,-1.5916,-2.5186,-6.587e-13,-0.79579,0,0,0.25,-0,-0,0.66667
0.67334,0.94224,2.6933,0.66336,7.6513,10.492,-4.7644,1.5881,-0.43607,-6.3526,-5.409e-13,-0.21804,0,0,0.25,-0,-0,0.66667
0.73153,0.051846,2.9261,-0.67223,-6.5895,7.7091,5.2454,-1.7485,-0.39296,6.9939,-1.9065e-12,-0.19648,0,0,0.25,-0,-0,0.66667
0.98098,0.20338,3.9239,-0.44493,-0.18946,0.48371,4.6557,-1.5519,-1.2955,6.2076,-1.8225e-08,-0.64777,0,0,0.25,-1.1617e-15,0,0.66667
0.55276,0.046745,2.211,-0.67988,-10.002,17.513,4.0086,-1.3362,-0.35555,5.3449,1.3056e-13,-0.17778,0,0,0.25,-0,-0,0.66667
0.69972,0.90663,2.7989,0.60995,6.5208,9.0884,-4.5525,1.5175,-0.67823,-6.07,7.6295e-13,-0.33912,0,0,0.25,2.3685e-15,0,0.66667
0.68269,0.78343,2.7307,0.42514,4.6743,9.7007,-3.0959,1.032,-1.3578,-4.1278,5.0189e-12,-0.6789,0,0,0.25,-2.3685e-15,0,0.66667
0.63023,0.75449,2.5209,0.38173,4.744,12.488,-2.5662,0.85539,-1.4819,-3.4216,-1.7781e-12,-0.74095,0,0,0.25,-0,-0,0.66667
0.79934,0.48237,3.1974,-0.026446,-0.18829,4.344,0.22548,-0.075161,-1.9971,0.30064,-5.2711e-11,-0.99857,0,0,0.25,1.1842e-15,0,0.66667
0.34565,0.64796,1.3826,0.22194,4.0509,32.306,-0.81828,0.27276,-1.825,-1.091,-1.7313e-12,-0.91249,0,0,0.25,5.9212e-16,0,0.66667
0.48189,0.93812,1.9276,0.65718,10.675,22.256,-3.378,1.126,-0.46559,-4.504,-1.7319e-14,-0.23279,0,0,0.25,-0,2.3005e-17,0.66667
0.078123,0.46139,0.31249,-0.057908,-1.1942,55.46,0.048255,-0.016085,-1.9889,0.06434,-7.2363e-08,-0.99443,0,0,0.25,-7.4015e-17,0,0.66667
0.91011,0.19459,3.6404,-0.45811,-1.5106,1.5179,4.4473,-1.4824,-1.2536,5.9297,-9.7454e-09,-0.62682,0,0,0.25,2.3685e-15,0,0.66667
0.55923,0.050662,2.2369,-0.67401,-9.8064,17.092,4.0205,-1.3402,-0.3843,5.3607,1.9007e-13,-0.19215,0,0,0.25,-6.6226e-16,-2.7867e-16,0.66667
0.52499,0.16856,2.0999,-0.49716,-7.5203,19.128,2.784,-0.928,-1.1203,3.712,2.78e-13,-0.56016,0,0,0.25,-0,-0,0.66667
0.26695,0.35196,1.0678,-0.22206,-4.2816,38.827,0.63233,-0.21078,-1.8249,0.8431,4.5693e-11,-0.91247,0,0,0.25,-0,-0,0.66667
0.89999,0.16742,3.6,-0.49887,-1.86,1.7899,4.7892,-1.5964,-1.1143,6.3855,-9.9553e-09,-0.55715,0,0,0.25,-0,-0,0.66667
0.013914,0.98328,0.055654,0.72492,15.434,61.302,-0.10759,0.035865,-0.13132,-0.14345,3.433e-06,-0.065659,0,0,0.25,-0,2.9461e-16,0.66667
0.097001,0.59699,0.388,0.14549,2.9928,53.758,-0.15053,0.050178,-1.9253,-0.20071,-5.2458e-10,-0.96263,0,0,0.25,-2.9606e-16,0,0.66667
0.060075,0.82778,0.2403,0.49167,10.287,57.121,-0.31506,0.10502,-1.1401,-0.42008,1.5317e-08,-0.57006,0,0,0.25,-0,-0,0.66667
0.24092,0.83077,0.96369,0.49615,9.8074,41.135,-1.275,0.42501,-1.1238,-1.7,-6.6293e-11,-0.56192,0,0,0.25,2.9606e-16,0,0.66667
0.49685,0.89628,1.9874,0.59442,9.4217,21.143,-3.1503,1.0501,-0.74336,-4.2004,-1.1213e-13,-0.37168,0,0,0.25,-5.9212e-16,0,0.66667
0.46352,0.045407,1.8541,-0.68189,-11.353,23.591,3.3714,-1.1238,-0.34592,4.4952,-2.1982e-14,-0.17296,0,0,0.25,-0,-0,0.66667
0.27055,0.65899,1.0822,0.23849,4.5903,38.526,-0.68823,0.22941,-1.7981,-0.91764,-4.4187e-11,-0.89906,0,0,0.25,-0,-0,0.66667
0.55511,0.72119,2.2204,0.33179,4.7414,17.015,-1.9646,0.65486,-1.6088,-2.6195,-1.4058e-12,-0.8044,0,0,0.25,-0,-0,0.66667
0.22734,0.9578,0.90934,0.6867,13.828,42.393,-1.6652,0.55506,-0.32251,-2.2202,-1.3267e-11,-0.16126,0,0,0.25,2.9606e-16,0,0.66667
0.3657,0.53423,1.4628,0.051345,0.91905,30.67,-0.20028,0.066761,-1.9908,-0.26704,-2.873e-13,-0.99539,0,0,0.25,-0,-0,0.66667
0.16996,0.63352,0.67985,0.20028,4.0407,47.241,-0.36309,0.12103,-1.8575,-0.48413,-5.1477e-10,-0.92874,0,0,0.25,-0,-0,0.66667
0.66427,0.8092,2.6571,0.46379,5.3612,10.698,-3.2862,1.0954,-1.2352,-4.3817,1.6831e-13,-0.61762,0,0,0.25,-1.4803e-15,0,0.66667
0.081667,0.11209,0.32667,-0.58187,-12.195,55.188,0.50688,-0.16896,-0.79561,0.67584,-5.7492e-09,-0.39781,0,0,0.25,1.4803e-16,0,0.66667
0.34329,0.38553,1.3732,-0.1717,-3.1364,32.485,0.62874,-0.20958,-1.8955,0.83831,1.8619e-12,-0.94775,0,0,0.25,5.9212e-16,0,0.66667
0.53103,0.68641,2.1241,0.27962,4.1426,18.565,-1.5838,0.52794,-1.7237,-2.1118,-5.862e-13,-0.86185,0,0,0.25,4.4409e-16,0,0.66667
0.54953,0.13679,2.1981,-0.54482,-7.9628,17.559,3.1935,-1.0645,-0.94427,4.2581,5.6977e-13,-0.47214,0,0,0.25,-1.1842e-15,0,0.66667
0.36765,0.89809,1.4706,0.59714,10.89,30.746,-2.3418,0.78059,-0.73157,-3.1224,1.2277e-12,-0.36578,0,0,0.25,-2.9606e-16,0,0.66667
0.64375,0.6384,2.575,0.2076,2.4816,11.612,-1.4255,0.47518,-1.8463,-1.9007,3.1186e-13,-0.92313,0,0,0.25,-0,-0,0.66667
0.16445,0.23775,0.65779,-0.39338,-7.9989,47.763,0.69004,-0.23001,-1.4489,0.92005,7.5049e-10,-0.72443,0,0,0.25,-4.9081e-16,0,0.66667
0.7243,0.38051,2.8972,-0.17923,-1.7192,7.4939,1.3847,-0.46158,-1.8856,1.8463,-3.1428e-11,-0.9428,0,0,0.25,-0,-0,0.66667
0.92525,0.66774,3.701,0.25161,0.64223,0.99264,-2.4832,0.82774,-1.7744,-3.311,-1.1693e-08,-0.88722,0,0,0.25,-0,-0,0.66667
0.98983,0.045843,3.9593,-0.68124,-0.22469,0.88309,7.1926,-2.3975,-0.34905,9.5901,-4.5584e-06,-0.17452,0,0,0.25,-0,-0,0.66667
0.87848,0.077268,3.5139,-0.6341,-2.9824,2.5256,5.9418,-1.9806,-0.56978,7.9224,-3.7563e-09,-0.28489,0,0,0.25,-0,-0,0.66667
0.26092,0.73009,1.0437,0.34514,6.703,39.372,-0.96057,0.32019,-1.5758,-1.2808,-5.9066e-11,-0.7879,0,0,0.25,-5.9212e-16,0,0.66667
0.038093,0.33015,0.15237,-0.25478,-5.2959,59.095,0.10352,-0.034508,-1.7682,0.13803,-2.2059e-08,-0.88412,0,0,0.25,-7.4015e-17,0,0.66667
0.97403,0.18866,3.8961,-0.46701,-0.34404,0.58191,4.852,-1.6173,-1.2251,6.4694,-1.7841e-08,-0.61257,0,0,0.25,2.3685e-15,0,0.66667
0.55712,0.2772,2.2285,-0.3342,-4.7604,16.887,1.986,-0.662,-1.603,2.648,1.3102e-12,-0.80148,0,0,0.25,-8.8818e-16,0,0.66667
0.53971,0.13165,2.1588,-0.55252,-8.2063,18.207,3.1808,-1.0603,-0.91413,4.2411,1.39e-13,-0.45706,0,0,0.25,-0,-0,0.66667
0.14646,0.18103,0.58584,-0.47846,-9.8226,49.377,0.74747,-0.24916,-1.1857,0.99663,1.3246e-09,-0.59286,0,0,0.25,-0,-0,0.66667
0.91249,0.54032,3.65,0.060483,0.18089,1.1362,-0.5887,0.19623,-1.9863,-0.78493,5.5475e-08,-0.99317,0,0,0.25,-0,-0,0.66667
0.95761,0.19209,3.8304,-0.46187,-0.65041,0.75454,4.7178,-1.5726,-1.2416,6.2903,4.3011e-08,-0.6208,0,0,0.25,-0,-0,0.66667
0.85963,0.29768,3.4385,-0.30348,-1.542,2.5389,2.7827,-0.92757,-1.6728,3.7103,-5.3755e-10,-0.83638,0,0,0.25,-0,-0,0.66667
0.69276,0.072768,2.771,-0.64085,-7.0094,9.477,4.7355,-1.5785,-0.53912,6.314,-2.1494e-13,-0.26956,0,0,0.25,-0,-0,0.66667
0.3859,0.10849,1.5436,-0.58727,-10.53,29.31,2.4174,-0.80579,-0.77295,3.2231,-1.1535e-12,-0.38648,0,0,0.25,-0,-0,0.66667
0.92673,0.36692,3.7069,-0.19962,-0.49299,0.9278,1.9732,-0.65774,-1.8579,2.631,-3.2155e-08,-0.92895,0,0,0.25,1.1842e-15,0,0.66667
0.85447,0.47745,3.4179,-0.033828,-0.17508,2.5461,0.30832,-0.10277,-1.9954,0.41109,1.1633e-10,-0.99772,0,0,0.25,-2.3685e-15,0,0.66667
0.83789,0.0019632,3.3515,-0.74706,-4.745,3.8714,6.6768,-2.2256,-0.016059,8.9024,1.0524e-09,-0.0080295,0,0,0.25,-4.737e-15,0,0.66667
0.58406,0.01764,2.3362,-0.72354,-10.141,15.617,4.5076,-1.5025,-0.13773,6.0101,8.3489e-14,-0.068867,0,0,0.25,-2.3685e-15,0,0.66667
0.069977,0.02375,0.27991,-0.71437,-15.127,56.261,0.53323,-0.17774,-0.18495,0.71097,1.5499e-07,-0.092474,0,0,0.25,-0,-0,0.66667
0.025655,0.76683,0.10262,0.40025,8.366,60.229,-0.10953,0.036509,-1.4295,-0.14604,5.1389e-09,-0.71476,0,0,0.25,-0,-0,0.66667
0.2256,0.52562,0.90241,0.038427,0.7557,42.353,-0.092471,0.030824,-1.9945,-0.1233,-1.6996e-11,-0.99723,0,0,0.25,-0,-0,0.66667
0.092302,0.687,0.36921,0.28049,5.7921,54.191,-0.27616,0.092054,-1.7217,-0.36822,6.1451e-09,-0.86086,0,0,0.25,-0,-0,0.66667
0.74511,0.67919,2.9804,0.26878,2.4139,6.6133,-2.1362,0.71207,-1.7427,-2.8483,6.9733e-11,-0.87134,0,0,0.25,-5.9212e-16,0,0.66667
0.85106,0.74144,3.4042,0.36216,1.9681,2.8415,-3.2876,1.0959,-1.533,-4.3835,9.4704e-10,-0.76651,0,0,0.25,-1.1842e-15,0,0.66667
0.54047,0.17388,2.1619,-0.48918,-7.2234,18.093,2.8201,-0.94004,-1.1482,3.7601,4.9605e-13,-0.57412,0,0,0.25,5.9212e-16,0,0.66667
0.61127,0.96831,2.4451,0.70246,9.336,13.963,-4.5802,1.5267,-0.24686,-6.1069,-9.015e-14,-0.12343,0,0,0.25,5.5511e-16,0,0.66667
0.47314,0.62937,1.8926,0.19405,3.1074,22.544,-0.97933,0.32644,-1.8662,-1.3058,4.4076e-13,-0.93312,0,0,0.25,-0,-0,0.66667
0.93519,0.83149,3.7408,0.49723,1.1679,1.129,-4.96,1.6533,-1.1207,-6.6134,5.2354e-09,-0.56033,0,0,0.25,-1.1075e-15,0,0.66667
0.61281,0.19283,2.4513,-0.46075,-5.9707,13.567,3.0118,-1.0039,-1.2453,4.0157,1.9016e-12,-0.62267,0,0,0.25,-0,-0,0.66667
0.62036,0.7915,2.4814,0.43725,5.5698,13.105,-2.8934,0.96446,-1.3196,-3.8578,-2.1163e-12,-0.65982,0,0,0.25,-0,-0,0.66667
0.85801,0.91771,3.432,0.62657,3.4161,3.0425,-5.7344,1.9115,-0.60412,-7.6459,2.0977e-09,-0.30206,0,0,0.25,-0,2.7507e-16,0.66667
0.38374,0.13184,1.535,-0.55224,-9.8989,29.451,2.2604,-0.75348,-0.91521,3.0139,-1.5818e-12,-0.4576,0,0,0.25,-0,-0,0.66667
0.06411,0.67409,0.25644,0.26114,5.4143,56.737,-0.17858,0.059526,-1.7574,-0.2381,6.7088e-09,-0.87869,0,0,0.25,-0,-0,0.66667
0.74015,0.34466,2.9606,-0.23301,-2.1249,6.8068,1.8396,-0.61319,-1.8076,2.4527,-5.6219e-11,-0.90378,0,0,0.25,2.3685e-15,0,0.66667
0.84419,0.26199,3.3768,-0.35702,-2.0275,3.0383,3.2148,-1.0716,-1.547,4.2865,-6.9873e-10,-0.77352,0,0,0.25,-2.3685e-15,0,0.66667
0.52023,0.13977,2.0809,-0.54035,-8.256,19.489,2.9985,-0.99949,-0.96109,3.998,1.0281e-13,-0.48055,0,0,0.25,-0,-0,0.66667
0.46764,0.72691,1.8706,0.34036,5.5155,23.005,-1.6978,0.56593,-1.5884,-2.2637,6.195e-13,-0.79422,0,0,0.25,-0,-0,0.66667
0.098624,0.57044,0.3945,0.10566,2.1718,53.61,-0.11116,0.037052,-1.9599,-0.14821,-9.3759e-09,-0.97995,0,0,0.25,-0,-0,0.66667
0.31326,0.64746,1.253,0.22118,4.1378,34.951,-0.73907,0.24636,-1.8264,-0.98543,-1.0466e-11,-0.91322,0,0,0.25,2.9606e-16,0,0.66667
0.18739,0.077767,0.74954,-0.63335,-12.931,45.824,1.2659,-0.42198,-0.57402,1.6879,8.0455e-11,-0.28701,0,0,0.25,2.9606e-16,0,0.66667
0.74742,0.024789,2.9897,-0.71282,-6.6714,7.0919,5.683,-1.8943,-0.19356,7.5773,3.9346e-13,-0.096781,0,0,0.25,-1.1842e-15,-1.9423e-16,0.66667
0.16037,0.77034,0.64147,0.40551,8.261,48.126,-0.69366,0.23122,-1.4148,-0.92487,-8.5527e-10,-0.70739,0,0,0.25,1.4803e-16,0,0.66667
0.68463,0.69572,2.7385,0.29358,3.1825,9.4869,-2.144,0.71465,-1.6934,-2.8586,9.6363e-12,-0.84672,0,0,0.25,-2.3685e-15,0,0.66667
0.44067,0.24092,1.7627,-0.38862,-6.5147,25.007,1.8267,-0.6089,-1.4628,2.4356,-1.3648e-12,-0.73139,0,0,0.25,-0,-0,0.66667
0.0042513,0.93655,0.017005,0.65482,13.878,62.172,-0.029696,0.0098967,-0.4762,-0.039595,-2.7159e-06,-0.2381,0,0,0.25,-1.3878e-17,7.0102e-17,0.66667
0.70234,0.12995,2.8094,-0.55508,-5.854,8.882,4.1585,-1.3862,-0.90533,5.5446,-3.7041e-12,-0.45266,0,0,0.25,-2.3685e-15,-1.6517e-16,0.66667
0.79289,0.32764,3.1716,-0.25855,-1.9152,4.6754,2.1867,-0.72889,-1.7616,2.9155,-2.1408e-10,-0.88082,0,0,0.25,1.1842e-15,0,0.66667
0.33849,0.31614,1.354,-0.27579,-5.0703,32.902,0.99575,-0.33192,-1.7297,1.3277,2.833e-12,-0.86485,0,0,0.25,-0,-0,0.66667
0.47734,0.20532,1.9093,-0.44202,-7.1129,22.377,2.2506,-0.75019,-1.3044,3.0008,-3.8924e-13,-0.65218,0,0,0.25,-1.1574e-15,0,0.66667
0.048717,0.11058,0.19487,-0.58413,-12.298,58.155,0.30354,-0.10118,-0.78658,0.40472,-5.3041e-08,-0.39329,0,0,0.25,-0,-0,0.66667
0.22657,0.15863,0.90628,-0.51205,-10.204,42.374,1.2375,-0.4125,-1.068,1.65,1.1216e-10,-0.53399,0,0,0.25,5.9212e-16,0,0.66667
0.69626,0.28613,2.785,-0.3208,-3.3732,8.9243,2.3825,-0.79416,-1.6339,3.1766,-1.4572e-11,-0.81696,0,0,0.25,-0,-0,0.66667
0.14114,0.030166,0.56455,-0.70475,-14.687,49.917,1.061,-0.35366,-0.23566,1.4146,1.6107e-09,-0.11783,0,0,0.25,3.7007e-16,0,0.66667
0.23059,0.78913,0.92236,0.43369,8.5917,41.998,-1.0667,0.35557,-1.331,-1.4223,-1.2668e-10,-0.6655,0,0,0.25,-5.9212e-16,0,0.66667
0.69479,0.574,2.7792,0.11099,1.1615,8.8852,-0.82258,0.27419,-1.9553,-1.0968,8.563e-12,-0.97766,0,0,0.25,1.1842e-15,0,0.66667
0.068365,0.09101,0.27346,-0.61349,-12.908,56.389,0.44737,-0.14912,-0.66206,0.5965,9.164e-08,-0.33103,0,0,0.25,9.2519e-17,0,0.66667
0.72933,0.67694,2.9173,0.2654,2.5148,7.3127,-2.0647,0.68824,-1.7489,-2.753,4.5127e-11,-0.87444,0,0,0.25,-0,-0,0.66667
0.62746,0.66786,2.5098,0.25179,3.1264,12.554,-1.6852,0.56174,-1.7743,-2.247,-1.1131e-12,-0.88715,0,0,0.25,-0,-0,0.66667
0.65207,0.26076,2.6083,-0.35886,-4.2391,11.253,2.496,-0.832,-1.5416,3.328,-2.2538e-13,-0.77078,0,0,0.25,-0,-0,0.66667
0.32147,0.049843,1.2859,-0.67524,-12.842,34.508,2.3154,-0.77179,-0.37795,3.0872,-3.3129e-13,-0.18898,0,0,0.25,-0,-0,0.66667
0.53844,0.55079,2.1538,0.076179,1.11,18.003,-0.43752,0.14584,-1.9785,-0.58337,-4.8561e-13,-0.98924,0,0,0.25,5.9212e-16,0,0.66667
0.078783,0.4845,0.31513,-0.023243,-0.47922,55.4,0.019532,-0.0065106,-1.9982,0.026043,4.1874e-08,-0.99908,0,0,0.25,1.4803e-16,0,0.66667
0.28452,0.3005,1.1381,-0.29925,-5.7204,37.365,0.90816,-0.30272,-1.6811,1.2109,2.95e-11,-0.84057,0,0,0.25,-0,-0,0.66667
0.20287,0.72393,0.81146,0.33589,6.7141,44.373,-0.72683,0.24228,-1.5998,-0.96911,-2.6394e-10,-0.79992,0,0,0.25,-0,-0,0.66667
0.51135,0.74782,2.0454,0.37173,5.6931,19.952,-2.0276,0.67585,-1.5092,-2.7034,-3.9191e-13,-0.75461,0,0,0.25,-0,-0,0.66667
0.65221,0.47814,2.6088,-0.032787,-0.38283,11.097,0.22809,-0.076031,-1.9957,0.30412,-5.2722e-13,-0.99787,0,0,0.25,-0,-0,0.66667
0.61509,0.40338,2.4603,-0.14493,-1.8407,13.225,0.95088,-0.31696,-1.9255,1.2678,4.8894e-13,-0.96277,0,0,0.25,1.6283e-15,0,0.66667
0.13364,0.5529,0.53455,0.079344,1.6167,50.464,-0.1131,0.0377,-1.9769,-0.1508,-1.4414e-09,-0.98844,0,0,0.25,-0,-0,0.66667
0.18016,0.45509,0.72062,-0.067359,-1.3514,46.329,0.12944,-0.043147,-1.9829,0.17259,1.5052e-10,-0.99145,0,0,0.25,2.9606e-16,0,0.66667
0.49726,0.89243,1.989,0.58865,9.3208,21.109,-3.1222,1.0407,-0.76755,-4.163,-5.7954e-14,-0.38378,0,0,0.25,-5.9212e-16,0,0.66667
0.020049,0.61707,0.080196,0.1756,3.6479,60.732,-0.037554,0.012518,-1.89,-0.050072,-7.1743e-08,-0.94501,0,0,0.25,1.8504e-17,0,0.66667
0.73614,0.27412,2.9446,-0.33883,-3.154,7.0641,2.6605,-0.88684,-1.5921,3.5473,-5.5027e-11,-0.79605,0,0,0.25,-5.9212e-16,0,0.66667
0.59242,0.081343,2.3697,-0.62799,-8.5856,14.974,3.9684,-1.3228,-0.59778,5.2911,5.4956e-13,-0.29889,0,0,0.25,5.9212e-16,0,0.66667
0.15883,0.34742,0.63533,-0.22888,-4.6384,48.23,0.38777,-0.12926,-1.8143,0.51702,4.815e-10,-0.90716,0,0,0.25,-0,-0,0.66667
0.91731,0.97515,3.6692,0.71273,2.3703,1.8643,-6.9738,2.3246,-0.19366,-9.2984,1.6195e-08,-0.096832,0,0,0.25,-0,-3.8008e-16,0.66667
0.54373,0.84745,2.1749,0.52117,7.6741,17.911,-3.0227,1.0076,-1.0347,-4.0302,-8.4199e-13,-0.51735,0,0,0.25,1.1842e-15,0,0.66667
0.99776,0.065581,3.9911,-0.65163,0.031038,0.7663,6.9351,-2.3117,-0.491,9.2469,-4.9525e-06,-0.2455,0,0,0.25,2.3685e-15,3.1576e-16,0.66667
0.042324,0.2771,0.1693,-0.33435,-6.9636,58.715,0.15094,-0.050314,-1.6027,0.20126,-6.4086e-09,-0.80134,0,0,0.25,7.4015e-17,0,0.66667
0.81295,0.48425,3.2518,-0.023619,-0.15711,3.8603,0.20481,-0.06827,-1.9982,0.27308,5.7803e-11,-0.99909,0,0,0.25,-1.1842e-15,0,0.66667
0.077381,0.34908,0.30952,-0.22638,-4.6806,55.534,0.18686,-0.062285,-1.8186,0.24914,-1.3972e-08,-0.90929,0,0,0.25,-0,-0,0.66667
0.94025,0.052189,3.761,-0.67172,-1.5838,1.3914,6.7368,-2.2456,-0.39546,8.9825,-5.8039e-08,-0.19773,0,0,0.25,-1.1842e-15,0,0.66667
0.36144,0.74681,1.4457,0.37022,6.7029,31.096,-1.4273,0.47577,-1.5134,-1.9031,1.3021e-12,-0.75672,0,0,0.25,-1.4803e-16,0,0.66667
0.66661,0.32439,2.6664,-0.26341,-2.9876,10.402,1.873,-0.62433,-1.7525,2.4973,-4.0625e-12,-0.87626,0,0,0.25,1.1842e-15,0,0.66667
0.71461,0.3643,2.8584,-0.20355,-2.0149,7.959,1.5516,-0.51719,-1.8521,2.0688,-2.6137e-11,-0.92607,0,0,0.25,5.9212e-16,0,0.66667
0.7131,0.18449,2.8524,-0.47327,-4.7961,8.262,3.5999,-1.2,-1.2038,4.7998,-1.5401e-11,-0.60191,0,0,0.25,1.4803e-15,0,0.66667
0.69395,0.019381,2.7758,-0.72093,-7.9414,9.5529,5.3364,-1.7788,-0.15118,7.1152,2.5002e-13,-0.07559,0,0,0.25,-2.3685e-15,0,0.66667
0.01165,0.79441,0.046599,0.44162,9.2517,61.5,-0.054877,0.018292,-1.3059,-0.07317,-2.0691e-08,-0.65296,0,0,0.25,-1.8504e-17,0,0.66667
0.22048,0.35625,0.8819,-0.21562,-4.261,42.815,0.50709,-0.16903,-1.8345,0.67613,1.423e-10,-0.91727,0,0,0.25,-0,-0,0.66667
0.79727,0.76274,3.1891,0.39411,2.897,4.639,-3.3516,1.1172,-1.448,-4.4688,2.7524e-10,-0.72398,0,0,0.25,-0,-0,0.66667
0.78697,0.43065,3.1479,-0.10403,-0.7853,4.8199,0.87324,-0.29108,-1.9612,1.1643,-4.5788e-11,-0.98058,0,0,0.25,5.9212e-16,0,0.66667
0.80166,0.25381,3.2066,-0.36928,-2.6519,4.4532,3.1578,-1.0526,-1.5153,4.2104,-2.9104e-10,-0.75765,0,0,0.25,-0,-0,0.66667
0.0078286,0.73778,0.031314,0.35666,7.4474,61.845,-0.029783,0.0099278,-1.5468,-0.039711,-6.4042e-09,-0.77339,0,0,0.25,9.2519e-18,0,0.66667
0.041346,0.66354,0.16538,0.2453,5.0964,58.799,-0.10819,0.036062,-1.7856,-0.14425,3.3687e-08,-0.89282,0,0,0.25,-0,-0,0.66667
0.073826,0.71318,0.2953,0.31977,6.6319,55.862,-0.25181,0.083936,-1.6364,-0.33574,3.8078e-09,-0.81821,0,0,0.25,-0,-0,0.66667
0.87375,0.85433,3.495,0.53149,2.528,2.4572,-4.9535,1.6512,-0.9957,-6.6047,7.4243e-10,-0.49785,0,0,0.25,-0,-3.3934e-17,0.66667
0.47744,0.18345,1.9098,-0.47483,-7.6547,22.396,2.4181,-0.80605,-1.1983,3.2242,-3.8058e-13,-0.59915,0,0,0.25,-1.4803e-16,0,0.66667
0.73172,0.38486,2.9269,-0.17272,-1.6164,7.1515,1.3481,-0.44935,-1.8937,1.7974,-3.8672e-11,-0.94687,0,0,0.25,-0,-0,0.66667
0.21832,0.011827,0.87327,-0.73226,-14.857,43.193,1.7052,-0.56841,-0.093754,2.2736,3.4925e-11,-0.046877,0,0,0.25,-0,-0,0.66667
0.66983,0.74717,2.6793,0.37076,4.1973,10.313,-2.649,0.883,-1.5121,-3.532,3.1675e-12,-0.75605,0,0,0.25,-1.1842e-15,0,0.66667
0.44403,0.31563,1.7761,-0.27655,-4.5972,24.7,1.3098,-0.43661,-1.7282,1.7465,-1.5259e-12,-0.86409,0,0,0.25,1.1842e-15,0,0.66667
0.98864,0.26339,3.9546,-0.35492,-0.010376,0.29673,3.7428,-1.2476,-1.5514,4.9904,-9.5687e-09,-0.77571,0,0,0.25,-0,-0,0.66667
0.28625,0.46239,1.145,-0.05642,-1.0723,37.176,0.17227,-0.057423,-1.9884,0.22969,8.3586e-12,-0.99422,0,0,0.25,1.4803e-16,0,0.66667
0.10849,0.67679,0.43397,0.26519,5.4554,52.733,-0.30689,0.1023,-1.7501,-0.40919,-5.7059e-10,-0.87507,0,0,0.25,-0,-0,0.66667
0.5469,0.11601,2.1876,-0.57598,-8.4745,17.763,3.3601,-1.12,-0.82103,4.4801,3.1597e-13,-0.41051,0,0,0.25,-0,-0,0.66667
0.68117,0.99277,2.7247,0.73916,8.4397,10.221,-5.3706,1.7902,-0.056939,-7.1608,3.2419e-14,-0.028469,0,0,0.25,-1.7764e-15,0,0.66667
0.13472,0.42222,0.53888,-0.11667,-2.3774,50.369,0.16766,-0.055885,-1.9507,0.22354,9.8865e-10,-0.97534,0,0,0.25,-4.556e-16,0,0.66667
0.53924,0.84777,2.157,0.52165,7.7355,18.205,-3.0005,1.0002,-1.0324,-4.0007,-5.6266e-13,-0.5162,0,0,0.25,-1.1842e-15,0,0.66667
0.74439,0.19068,2.9776,-0.46399,-4.2464,6.8336,3.6841,-1.228,-1.2347,4.9122,-4.9424e-11,-0.61737,0,0,0.25,-0,-0,0.66667
0.11184,0.55352,0.44737,0.080277,1.6449,52.419,-0.09577,0.031923,-1.977,-0.12769,-5.6109e-09,-0.9885,0,0,0.25,-1.4803e-16,0,0.66667
0.78567,0.93562,3.1427,0.65343,5.2432,5.4508,-5.4761,1.8254,-0.48245,-7.3014,6.101e-11,-0.24122,0,0,0.25,4.4409e-16,0,0.66667
0.54416,0.41552,2.1766,-0.12671,-1.831,17.636,0.73549,-0.24516,-1.9427,0.98066,5.1514e-13,-0.97137,0,0,0.25,-0,-0,0.66667
0.010525,0.60215,0.042098,0.15322,3.1827,61.598,-0.017201,0.0057336,-1.916,-0.022934,6.0703e-08,-0.95802,0,0,0.25,-0,-0,0.66667
0.5891,0.8754,2.3564,0.5631,7.7005,15.095,-3.5383,1.1794,-0.87345,-4.7178,-1.3238e-12,-0.43673,0,0,0.25,2.3685e-15,0,0.66667
0.80467,0.79198,3.2187,0.43798,3.1253,4.4251,-3.7592,1.2531,-1.3171,-5.0123,3.2216e-10,-0.65856,0,0,0.25,-0,-0,0.66667
0.99094,0.46195,3.9638,-0.05707,0.01115,0.064035,0.60323,-0.20108,-1.988,0.80431,2.0766e-06,-0.994,0,0,0.25,1.771e-15,0,0.66667
0.99131,0.64842,3.9652,0.22264,-0.03623,0.14302,-2.3541,0.78471,-1.8232,-3.1389,8.6352e-09,-0.9116,0,0,0.25,-5.9212e-16,0,0.66667
0.41395,0.13027,1.6558,-0.55459,-9.6574,27.13,2.4488,-0.81627,-0.90615,3.2651,-8.8685e-13,-0.45307,0,0,0.25,-1.1842e-15,0,0.66667
0.037335,0.10977,0.14934,-0.58534,-12.336,59.182,0.23311,-0.077702,-0.78085,0.31081,1.4571e-07,-0.39042,0,0,0.25,-1.1823e-16,0,0.66667
0.97041,0.53089,3.8816,0.04634,0.030707,0.24533,-0.47966,0.15989,-1.9938,-0.63955,2.8939e-06,-0.9969,0,0,0.25,7.4015e-17,0,0.66667
0.22054,0.39546,0.88216,-0.15682,-3.0952,42.801,0.3689,-0.12297,-1.9125,0.49186,1.0418e-10,-0.95625,0,0,0.25,-0,-0,0.66667
0.95501,0.65072,3.82,0.22608,0.30431,0.51183,-2.303,0.76768,-1.8187,-3.0707,-2.5653e-08,-0.90936,0,0,0.25,-0,-0,0.66667
0.96537,0.38426,3.8615,-0.17361,-0.15621,0.34909,1.7877,-0.59589,-1.8925,2.3836,5.3054e-08,-0.94627,0,0,0.25,-0,-0,0.66667
0.32834,0.055942,1.3133,-0.66609,-12.596,33.943,2.3328,-0.7776,-0.42331,3.1104,-5.7976e-13,-0.21165,0,0,0.25,-0,-0,0.66667
0.76276,0.99924,3.051,0.74887,6.6798,6.5279,-6.0928,2.0309,-0.0071105,-8.1238,-5.9903e-12,-0.0035552,0,0,0.25,7.4015e-17,-2.7963e-17,0.66667
0.63192,0.10669,2.5277,-0.58996,-7.4288,12.619,3.9766,-1.3255,-0.76153,5.3022,1.2881e-12,-0.38076,0,0,0.25,-1.1842e-15,0,0.66667
0.84643,0.89218,3.3857,0.58827,3.4265,3.3004,-5.3112,1.7704,-0.76914,-7.0817,3.731e-10,-0.38457,0,0,0.25,-0,-0,0.66667
0.9544,0.37234,3.8176,-0.19148,-0.25964,0.49536,1.9494,-0.64979,-1.8707,2.5992,-8.059e-08,-0.93536,0,0,0.25,2.9606e-16,0,0.66667
0.2058,0.9087,0.82322,0.61306,12.406,44.213,-1.3458,0.4486,-0.66446,-1.7944,-9.9686e-11,-0.33223,0,0,0.25,-5.9212e-16,0,0.66667
0.40934,0.34792,1.6374,-0.22812,-3.9304,27.294,0.99606,-0.33202,-1.8154,1.3281,-1.5715e-12,-0.90768,0,0,0.25,-0,-0,0.66667
0.72856,0.051773,2.9142,-0.67234,-6.6529,7.8422,5.2249,-1.7416,-0.39199,6.9666,-1.8252e-12,-0.19599,0,0,0.25,-1.1842e-15,0,0.66667
0.58992,0.70393,2.3597,0.30589,4.106,14.811,-1.9248,0.6416,-1.6666,-2.5664,-1.859e-12,-0.83332,0,0,0.25,-1.1842e-15,0,0.66667
0.9412,0.40722,3.7648,-0.13917,-0.26051,0.65491,1.3972,-0.46572,-1.932,1.8629,-1.7738e-07,-0.966,0,0,0.25,-0,-0,0.66667
0.44689,0.077457,1.7875,-0.63381,-10.715,24.747,3.0213,-1.0071,-0.57071,4.0284,-1.4877e-13,-0.28536,0,0,0.25,-0,-0,0.66667
0.61758,0.92022,2.4703,0.63033,8.2102,13.492,-4.1523,1.3841,-0.58634,-5.5365,-7.9625e-13,-0.29317,0,0,0.25,-0,-0,0.66667
0.082488,0.1309,0.32995,-0.55365,-11.584,55.11,0.48714,-0.16238,-0.91002,0.64953,2.4171e-08,-0.45501,0,0,0.25,-2.9606e-16,0,0.66667
0.23041,0.76424,0.92165,0.39636,7.8401,42,-0.97414,0.32471,-1.4408,-1.2989,-1.3518e-10,-0.72038,0,0,0.25,-0,-0,0.66667
0.12199,0.112,0.48795,-0.582,-12.096,51.58,0.75729,-0.25243,-0.79519,1.0097,2.8646e-09,-0.39759,0,0,0.25,-0,-5.1228e-17,0.66667
0.76669,0.71463,3.0668,0.32194,2.6777,5.7471,-2.6328,0.87761,-1.6324,-3.5104,1.2705e-10,-0.81619,0,0,0.25,-1.4803e-15,0,0.66667
0.019268,0.29361,0.077074,-0.30959,-6.4523,60.806,0.06363,-0.02121,-1.6587,0.08484,-5.5991e-09,-0.82933,0,0,0.25,-0,-0,0.66667
0.941,0.45598,3.764,-0.066025,-0.12309,0.63285,0.66271,-0.2209,-1.984,0.88361,-2.0084e-07,-0.99198,0,0,0.25,-1.1842e-15,0,0.66667
0.83589,0.039249,3.3436,-0.69113,-4.3814,3.8123,6.1622,-2.0541,-0.30107,8.2163,-1.1134e-10,-0.15053,0,0,0.25,-0,-0,0.66667
0.67901,0.97084,2.716,0.70627,8.0737,10.273,-5.1153,1.7051,-0.22673,-6.8204,-1.7719e-13,-0.11337,0,0,0.25,-0,-0,0.66667
0.02865,0.93276,0.1146,0.64913,13.742,59.971,-0.19838,0.066124,-0.50219,-0.2645,-1.2437e-06,-0.25109,0,0,0.25,-0,-0,0.66667
0.2579,0.43741,1.0316,-0.093888,-1.8158,39.579,0.25828,-0.086092,-1.9693,0.34437,3.1931e-11,-0.98467,0,0,0.25,1.8041e-16,0,0.66667
0.13628,0.84959,0.54513,0.52439,10.823,50.293,-0.76229,0.2541,-1.0222,-1.0164,-3.6599e-09,-0.5111,0,0,0.25,-0,-0,0.66667
0.7107,0.32717,2.8428,-0.25925,-2.604,8.1775,1.9653,-0.6551,-1.76,2.6204,-2.5149e-11,-0.88002,0,0,0.25,1.1842e-15,0,0.66667
0.069466,0.086263,0.27786,-0.62061,-13.062,56.291,0.45985,-0.15328,-0.63005,0.61313,4.6957e-08,-0.31502,0,0,0.25,-0,-0,0.66667
0.88989,0.4529,3.5596,-0.070649,-0.27279,1.6285,0.67061,-0.22354,-1.9823,0.89414,-2.8573e-09,-0.99116,0,0,0.25,1.1842e-15,0,0.66667
0.55437,0.26041,2.2175,-0.35939,-5.1492,17.081,2.1252,-0.70839,-1.54,2.8336,1.1533e-12,-0.76998,0,0,0.25,-0,-0,0.66667
0.10339,0.14302,0.41356,-0.53547,-11.148,53.231,0.59053,-0.19684,-0.97962,0.78737,1.3394e-09,-0.48981,0,0,0.25,-0,-0,0.66667
0.46053,0.62673,1.8421,0.1901,3.0916,23.455,-0.93381,0.31127,-1.8719,-1.2451,5.5334e-13,-0.93593,0,0,0.25,1.1842e-15,0,0.66667
0.14199,0.44494,0.56794,-0.082593,-1.6789,49.718,0.12509,-0.041696,-1.9761,0.16678,1.5721e-09,-0.98805,0,0,0.25,-0,-0,0.66667
0.42314,0.39424,1.6926,-0.15863,-2.6899,26.223,0.716,-0.23867,-1.9105,0.95467,-1.1472e-12,-0.95526,0,0,0.25,-0,-0,0.66667
0.71387,0.435,2.8555,-0.097497,-0.96405,7.9533,0.7424,-0.24747,-1.9666,0.98987,-1.4766e-11,-0.98329,0,0,0.25,1.4803e-15,0,0.66667
0.69629,0.95678,2.7852,0.68517,7.4642,9.3762,-5.0889,1.6963,-0.32992,-6.7851,-3.0642e-14,-0.16496,0,0,0.25,1.1842e-15,0,0.66667
0.34815,0.67045,1.3926,0.25567,4.6614,32.115,-0.94945,0.31648,-1.7668,-1.2659,-1.274e-12,-0.88342,0,0,0.25,5.9212e-16,0,0.66667
0.34876,0.60419,1.395,0.15629,2.8414,32.04,-0.58141,0.1938,-1.9125,-0.77521,-1.4377e-12,-0.95625,0,0,0.25,5.9212e-16,0,0.66667
0.076125,0.95097,0.3045,0.67645,14.274,55.703,-0.54927,0.18309,-0.37279,-0.73236,-1.6449e-08,-0.1864,0,0,0.25,-1.4803e-16,0,0.66667
0.087513,0.65898,0.35005,0.23848,4.9235,54.62,-0.22261,0.074203,-1.798,-0.29681,-1.1657e-08,-0.899,0,0,0.25,-0,-0,0.66667
0.049881,0.17337,0.19952,-0.48995,-10.262,58.041,0.26069,-0.086895,-1.146,0.34758,-3.1907e-08,-0.57299,0,0,0.25,-0,-0,0.66667
0.074476,0.088519,0.2979,-0.61722,-12.978,55.84,0.49033,-0.16344,-0.64559,0.65377,1.2663e-07,-0.32279,0,0,0.25,3.7007e-17,8.2969e-18,0.66667
0.38509,0.84141,1.5404,0.51212,9.1457,29.316,-2.1036,0.7012,-1.0678,-2.8048,2.0577e-12,-0.53391,0,0,0.25,-7.4015e-17,0,0.66667
0.81637,0.95834,3.2655,0.68751,4.8279,4.4278,-5.9868,1.9956,-0.31893,-7.9824,3.5163e-11,-0.15947,0,0,0.25,-1.1842e-15,0,0.66667
0.34118,0.49237,1.3647,-0.01145,-0.20916,32.638,0.041671,-0.01389,-1.9996,0.055561,-4.8703e-13,-0.99978,0,0,0.25,8.8818e-16,0,0.66667
0.50612,0.15198,2.0245,-0.52203,-8.1269,20.432,2.8182,-0.9394,-1.031,3.7576,-4.8161e-13,-0.51551,0,0,0.25,1.1879e-15,0,0.66667
0.62349,0.73148,2.4939,0.34721,4.3686,12.846,-2.3092,0.76972,-1.5713,-3.0789,-1.8874e-12,-0.78563,0,0,0.25,1.1842e-15,0,0.66667
0.58529,0.71946,2.3412,0.3292,4.462,15.11,-2.0552,0.68507,-1.6152,-2.7403,-2.0275e-12,-0.80762,0,0,0.25,-0,-0,0.66667
0.13388,0.96206,0.5355,0.69309,14.462,50.555,-0.98974,0.32991,-0.29157,-1.3197,-1.5589e-09,-0.14578,0,0,0.25,-7.4015e-17,0,0.66667
0.61941,0.69096,2.4777,0.28644,3.6234,13.039,-1.8925,0.63084,-1.7084,-2.5234,-1.8501e-12,-0.85421,0,0,0.25,2.3685e-15,0,0.66667
0.52236,0.29755,2.0894,-0.30367,-4.5625,19.161,1.692,-0.564,-1.6711,2.256,5.9019e-13,-0.83557,0,0,0.25,-6.1859e-16,0,0.66667
0.75148,0.084566,3.0059,-0.62315,-5.674,6.7609,4.995,-1.665,-0.61946,6.66,-1.2047e-11,-0.30973,0,0,0.25,-5.9212e-16,0,0.66667
0.67568,0.23686,2.7027,-0.39471,-4.4098,10.03,2.8448,-0.94827,-1.4454,3.7931,-4.0552e-12,-0.72271,0,0,0.25,1.1842e-15,0,0.66667
0.47896,0.36711,1.9158,-0.19933,-3.1688,22.13,1.0184,-0.33945,-1.8583,1.3578,-5.3202e-13,-0.92913,0,0,0.25,-2.9606e-16,0,0.66667
0.95613,0.64978,3.8245,0.22466,0.29197,0.49616,-2.2913,0.76376,-1.8206,-3.055,-2.0461e-08,-0.91031,0,0,0.25,1.1842e-15,0,0.66667
0.26092,0.3591,1.0437,-0.21135,-4.0884,39.338,0.58822,-0.19607,-1.8404,0.7843,5.3089e-11,-0.92019,0,0,0.25,-5.9212e-16,0,0.66667
0.71065,0.80208,2.8426,0.45312,4.6169,8.3545,-3.4348,1.1449,-1.2692,-4.5797,1.5627e-11,-0.63458,0,0,0.25,-0,-0,0.66667
0.20164,0.60542,0.80657,0.15812,3.148,44.448,-0.3401,0.11337,-1.9111,-0.45346,-1.1573e-10,-0.95553,0,0,0.25,-0,-0,0.66667
0.66362,0.81815,2.6545,0.47722,5.5316,10.748,-3.3781,1.126,-1.1899,-4.5041,-1.2657e-13,-0.59497,0,0,0.25,-0,-0,0.66667
0.24952,0.23314,0.99806,-0.4003,-7.841,40.363,1.0654,-0.35513,-1.4304,1.4205,7.627e-11,-0.71521,0,0,0.25,-0,-0,0.66667
0.20625,0.31008,0.82499,-0.28489,-5.6768,44.066,0.62674,-0.20891,-1.7121,0.83566,2.2696e-10,-0.85606,0,0,0.25,-3.7007e-16,0,0.66667
0.37017,0.025093,1.4807,-0.71236,-13.074,30.647,2.8128,-0.93758,-0.19552,3.7503,-1.0658e-13,-0.097759,0,0,0.25,-0,-0,0.66667
0.50886,0.39287,2.0354,-0.16069,-2.451,20.021,0.8722,-0.29073,-1.9072,1.1629,8.0269e-14,-0.95362,0,0,0.25,5.9212e-16,0,0.66667
0.68093,0.94056,2.7237,0.66084,7.4751,10.1,-4.7998,1.5999,-0.44737,-6.3998,-4.1966e-13,-0.22369,0,0,0.25,-0,-0,0.66667
0.3096,0.69843,1.2384,0.29764,5.5948,35.275,-0.98292,0.32764,-1.6847,-1.3106,-1.1931e-11,-0.84234,0,0,0.25,-0,-0,0.66667
0.38234,0.014758,1.5293,-0.72786,-13.233,29.713,2.9684,-0.98947,-0.11533,3.9579,3.2285e-13,-0.057663,0,0,0.25,-0,-0,0.66667
0.76093,0.98273,3.0437,0.7241,6.4745,6.5526,-5.8772,1.9591,-0.13499,-7.8362,2.9727e-12,-0.067496,0,0,0.25,-1.1842e-15,0,0.66667
0.33003,0.69773,1.3201,0.29659,5.4922,33.597,-1.0441,0.34803,-1.6872,-1.3921,-4.7666e-12,-0.84359,0,0,0.25,-0,-0,0.66667
0.063799,0.90406,0.2552,0.60609,12.755,56.799,-0.41246,0.13749,-0.69506,-0.54994,6.9818e-08,-0.34753,0,0,0.25,-9.2519e-17,0,0.66667
0.046104,0.46968,0.18442,-0.045476,-0.94167,58.363,0.022364,-0.0074554,-1.9942,0.029819,-9.8012e-07,-0.99711,0,0,0.25,-0,-0,0.66667
0.13493,0.090602,0.5397,-0.6141,-12.744,50.438,0.88381,-0.2946,-0.65932,1.1784,6.7729e-09,-0.32966,0,0,0.25,1.8504e-16,0,0.66667
0.46952,0.8339,1.8781,0.50085,8.1674,22.983,-2.5083,0.83611,-1.1084,-3.3444,4.2144e-13,-0.5542,0,0,0.25,-0,-0,0.66667
0.3841,0.41569,1.5364,-0.12647,-2.2283,29.225,0.51815,-0.17272,-1.9424,0.69087,-7.5562e-13,-0.97122,0,0,0.25,-0,-0,0.66667
0.6752,0.17222,2.7008,-0.49167,-5.5436,10.158,3.5411,-1.1804,-1.1399,4.7215,-1.1624e-12,-0.56995,0,0,0.25,-0,-0,0.66667
0.095395,0.35155,0.38158,-0.22268,-4.5888,53.908,0.22658,-0.075528,-1.8239,0.30211,3.1017e-09,-0.91197,0,0,0.25,-0,-0,0.66667
0.1618,0.388,0.64722,-0.168,-3.397,47.96,0.28995,-0.096649,-1.8988,0.3866,9.26e-11,-0.9494,0,0,0.25,2.9606e-16,0,0.66667
0.96914,0.34178,3.8766,-0.23733,-0.18304,0.3523,2.4534,-0.81779,-1.8012,3.2712,-2.0876e-08,-0.90061,0,0,0.25,-4.4409e-16,0,0.66667
0.42449,0.22941,1.6979,-0.40589,-6.9314,26.227,1.8378,-0.6126,-1.414,2.4504,-1.8402e-12,-0.70699,0,0,0.25,-0,-0,0.66667
0.91605,0.32726,3.6642,-0.25911,-0.75602,1.1696,2.5319,-0.84396,-1.7604,3.3758,-2.5458e-09,-0.88018,0,0,0.25,-0,-0,0.66667
0.23435,0.3619,0.93738,-0.20714,-4.0648,41.614,0.5178,-0.1726,-1.8478,0.6904,9.9342e-11,-0.92388,0,0,0.25,2.9606e-16,0,0.66667
0.98255,0.069165,3.9302,-0.64625,-0.37995,0.85426,6.7731,-2.2577,-0.51537,9.0307,3.2195e-07,-0.25769,0,0,0.25,2.3685e-15,0,0.66667
0.12649,0.55562,0.50595,0.083424,1.7032,51.104,-0.11256,0.037519,-1.9756,-0.15008,3.7055e-09,-0.98782,0,0,0.25,-0,-0,0.66667
0.77992,0.33681,3.1197,-0.24479,-1.9181,5.16,2.0365,-0.67882,-1.7874,2.7153,-1.5729e-10,-0.89368,0,0,0.25,-0,-0,0.66667
0.98063,0.98689,3.9225,0.73033,0.57563,1.0714,-7.6393,2.5464,-0.10293,-10.186,-2.364e-06,-0.051466,0,0,0.25,-1.1842e-15,0,0.66667
0.48703,0.91383,1.9481,0.62075,9.9875,21.856,-3.2247,1.0749,-0.62997,-4.2997,6.1284e-14,-0.31498,0,0,0.25,-0,-0,0.66667
0.48989,0.0087591,1.9595,-0.73686,-11.932,21.793,3.8504,-1.2835,-0.068899,5.1339,-1.9096e-14,-0.034449,0,0,0.25,-0,-0,0.66667
0.17515,0.1629,0.70058,-0.50564,-10.295,46.85,0.94466,-0.31489,-1.0909,1.2595,5.1144e-10,-0.54546,0,0,0.25,-0,-0,0.66667
0.60894,0.28507,2.4358,-0.32239,-4.1741,13.677,2.0941,-0.69802,-1.6316,2.7921,1.8681e-12,-0.81579,0,0,0.25,-0,-0,0.66667
0.24288,0.012775,0.97153,-0.73084,-14.65,41.091,1.8934,-0.63114,-0.099961,2.5245,7.7165e-12,-0.049981,0,0,0.25,-0,-0,0.66667
0.7168,0.099254,2.8672,-0.60112,-6.1096,8.2633,4.5961,-1.532,-0.71567,6.1281,-4.1136e-12,-0.35783,0,0,0.25,-0,1.8104e-16,0.66667
0.47407,0.30264,1.8963,-0.29604,-4.7503,22.52,1.497,-0.49899,-1.6878,1.996,-8.1612e-13,-0.84388,0,0,0.25,-0,-0,0.66667
0.23239,0.26393,0.92955,-0.35411,-6.9858,41.817,0.87777,-0.29259,-1.5539,1.1704,1.296e-10,-0.77695,0,0,0.25,-0,-0,0.66667
0.46068,0.37624,1.8427,-0.18563,-3.0181,23.443,0.91219,-0.30406,-1.8779,1.2163,-6.6125e-13,-0.93896,0,0,0.25,-1.1842e-15,0,0.66667
0.024607,0.50149,0.098429,0.002233,0.046304,60.317,-0.00058596,0.00020054,-2.0004,-0.00077867,7.8337e-06,-1.0002,0,0,0.25,-0,-0,0.66667
0.097131,0.43378,0.38853,-0.099325,-2.042,53.744,0.10291,-0.034302,-1.9653,0.13721,-1.0591e-09,-0.98267,0,0,0.25,-1.8504e-16,0,0.66667
0.10145,0.42528,0.40582,-0.11208,-2.3024,53.355,0.12129,-0.040429,-1.9544,0.16172,1.1898e-08,-0.97721,0,0,0.25,-1.4803e-16,0,0.66667
0.38922,0.12442,1.5569,-0.56338,-10.055,29.033,2.339,-0.77965,-0.87295,3.1186,-1.342e-12,-0.43648,0,0,0.25,-1.8504e-16,0,0.66667
0.71597,0.010907,2.8639,-0.73364,-7.6097,8.5271,5.6028,-1.8676,-0.085996,7.4704,3.9968e-15,-0.042998,0,0,0.25,-0,2.6907e-16,0.66667
0.052882,0.3437,0.21153,-0.23445,-4.8642,57.753,0.13225,-0.044082,-1.8053,0.17633,2.5876e-08,-0.90266,0,0,0.25,-9.1651e-17,0,0.66667
0.012488,0.55875,0.049952,0.088124,1.829,61.419,-0.01174,0.0039125,-1.9728,-0.015654,-1.1368e-06,-0.98642,0,0,0.25,4.6259e-18,0,0.66667
0.14747,0.85479,0.58988,0.53219,10.952,49.301,-0.83714,0.27905,-0.99214,-1.1162,-1.2298e-09,-0.49607,0,0,0.25,-0,-0,0.66667
0.93668,0.72859,3.7467,0.34288,0.73887,0.88958,-3.4258,1.1419,-1.5823,-4.5677,-4.7095e-09,-0.79113,0,0,0.25,2.3685e-15,0,0.66667
0.86574,0.22478,3.4629,-0.41283,-2.0383,2.4926,3.8122,-1.2707,-1.3937,5.083,-2.0373e-09,-0.69687,0,0,0.25,-2.3685e-15,0,0.66667
0.40252,0.88777,1.6101,0.58166,10.263,28.023,-2.4974,0.83246,-0.79647,-3.3298,9.9298e-13,-0.39823,0,0,0.25,5.9212e-16,0,0.66667
0.16129,0.76328,0.64518,0.39492,8.0394,48.042,-0.67946,0.22649,-1.4447,-0.90594,-8.1332e-10,-0.72233,0,0,0.25,-0,-0,0.66667
0.35482,0.79219,1.4193,0.43828,8.0044,31.658,-1.6588,0.55293,-1.3164,-2.2117,1.1343e-12,-0.6582,0,0,0.25,-0,-0,0.66667
0.93483,0.33782,3.7393,-0.24327,-0.52738,0.82216,2.4258,-0.80858,-1.7898,3.2343,4.9993e-09,-0.8949,0,0,0.25,5.9212e-16,0,0.66667
0.64355,0.88129,2.5742,0.57194,7.0085,11.948,-3.9261,1.3087,-0.83704,-5.2348,-1.4351e-12,-0.41852,0,0,0.25,-0,-0,0.66667
0.47107,0.8897,1.8843,0.58454,9.5692,22.948,-2.9372,0.97906,-0.78474,-3.9162,1.8896e-13,-0.39237,0,0,0.25,-0,-0,0.66667
0.40237,0.24072,1.6095,-0.38892,-6.7877,27.901,1.6692,-0.5564,-1.4618,2.2256,-1.9154e-12,-0.73091,0,0,0.25,-2.9606e-16,0,0.66667
0.89655,0.85186,3.5862,0.52779,2.0536,1.9118,-5.0473,1.6824,-1.009,-6.7298,7.9677e-09,-0.50452,0,0,0.25,-0,-0,0.66667
0.97347,0.04841,3.8939,-0.67739,-0.6837,1.0039,7.0338,-2.3446,-0.36775,9.3784,2.5519e-06,-0.18387,0,0,0.25,-0,-0,0.66667
0.77868,0.38502,3.1147,-0.17247,-1.3532,5.167,1.4325,-0.47751,-1.894,1.91,-1.0459e-10,-0.94702,0,0,0.25,-0,-0,0.66667
0.83334,0.52676,3.3334,0.040142,0.23831,3.1852,-0.35682,0.11894,-1.9943,-0.47576,-5.8836e-10,-0.99714,0,0,0.25,-1.1842e-15,0,0.66667
0.30709,0.11486,1.2284,-0.57771,-11.025,35.616,1.8924,-0.63079,-0.81265,2.5232,1.1879e-12,-0.40632,0,0,0.25,2.9606e-16,0,0.66667
0.93952,0.32229,3.7581,-0.26656,-0.53124,0.76727,2.6714,-0.89045,-1.7473,3.5618,5.0198e-09,-0.87365,0,0,0.25,-0,-0,0.66667
0.4527,0.30996,1.8108,-0.28506,-4.6927,24.064,1.3765,-0.45883,-1.7124,1.8353,-1.1104e-12,-0.85622,0,0,0.25,-1.6203e-16,0,0.66667
0.17931,0.46583,0.71722,-0.05126,-1.0286,46.404,0.09804,-0.03268,-1.9908,0.13072,3.0862e-10,-0.99539,0,0,0.25,-7.4015e-17,0,0.66667
0.5963,0.74654,2.3852,0.36981,4.9208,14.468,-2.3522,0.78407,-1.5144,-3.1363,-2.1463e-12,-0.75718,0,0,0.25,-0,-0,0.66667
0.6841,0.58017,2.7364,0.12026,1.2965,9.4265,-0.87752,0.29251,-1.948,-1.17,6.2665e-12,-0.97401,0,0,0.25,1.1842e-15,0,0.66667
0.43734,0.13403,1.7494,-0.54895,-9.3223,25.371,2.5608,-0.85361,-0.92911,3.4145,-7.3697e-13,-0.46455,0,0,0.25,-0,2.6814e-16,0.66667
0.37334,0.74478,1.4934,0.36716,6.5782,30.151,-1.4622,0.48739,-1.5212,-1.9496,1.7467e-12,-0.76062,0,0,0.25,-2.9606e-16,0,0.66667
0.70431,0.47125,2.8173,-0.04312,-0.43851,8.4032,0.32395,-0.10798,-1.9945,0.43193,-4.6821e-12,-0.99726,0,0,0.25,-0,-0,0.66667
0.25974,0.13312,1.039,-0.55031,-10.8,39.557,1.5247,-0.50823,-0.92269,2.0329,2.1556e-11,-0.46134,0,0,0.25,-0,-0,0.66667
0.68635,0.86072,2.7454,0.54109,5.9542,9.6518,-3.9613,1.3204,-0.95898,-5.2818,1.4768e-12,-0.47949,0,0,0.25,1.1842e-15,-8.7355e-17,0.66667
0.57492,0.71539,2.2997,0.32308,4.4607,15.75,-1.9813,0.66043,-1.6294,-2.6417,-1.9822e-12,-0.81468,0,0,0.25,1.4803e-15,0,0.66667
0.33501,0.38039,1.34,-0.17942,-3.2993,33.159,0.64113,-0.21371,-1.8853,0.85484,3.4147e-12,-0.94265,0,0,0.25,-0,-0,0.66667
0.67669,0.88759,2.7068,0.58139,6.5881,10.197,-4.1965,1.3988,-0.79744,-5.5953,-3.2685e-13,-0.39872,0,0,0.25,1.1842e-15,0,0.66667
0.042896,0.13669,0.17158,-0.54496,-11.454,58.677,0.24935,-0.083117,-0.94347,0.33247,-1.2916e-07,-0.47174,0,0,0.25,-0,-0,0.66667
0.54883,0.72644,2.1953,0.33966,4.906,17.427,-1.9884,0.66281,-1.59,-2.6513,-1.1514e-12,-0.79498,0,0,0.25,-1.1842e-15,0,0.66667
0.5956,0.042348,2.3824,-0.68648,-9.3848,14.865,4.3612,-1.4537,-0.32434,5.815,3.1308e-13,-0.16217,0,0,0.25,-0,-0,0.66667
0.28722,0.63992,1.1489,0.20988,3.9952,37.115,-0.64299,0.21433,-1.8425,-0.85732,-2.4919e-11,-0.92123,0,0,0.25,-0,-0,0.66667
0.35628,0.8629,1.4251,0.54435,9.9885,31.608,-2.0687,0.68958,-0.94597,-2.7583,1.6458e-12,-0.47299,0,0,0.25,-5.9212e-16,0,0.66667
0.86302,0.97445,3.4521,0.71167,3.8332,3.0814,-6.5513,2.1838,-0.19925,-8.7351,9.3532e-10,-0.099623,0,0,0.25,-0,-0,0.66667
0.61937,0.28437,2.4775,-0.32345,-4.0996,13.066,2.1369,-0.7123,-1.6282,2.8492,1.3942e-12,-0.81411,0,0,0.25,2.3685e-15,0,0.66667
0.63994,0.61974,2.5598,0.17961,2.1638,11.812,-1.2261,0.40869,-1.8861,-1.6347,4.0301e-14,-0.94306,0,0,0.25,5.9212e-16,0,0.66667
0.10461,0.96779,0.41844,0.70168,14.754,53.16,-0.78297,0.26099,-0.25011,-1.044,-4.823e-08,-0.12506,0,0,0.25,5.5511e-17,0,0.66667
0.23792,0.6579,0.95167,0.23685,4.6424,41.312,-0.60108,0.20036,-1.8013,-0.80144,-1.0047e-10,-0.90064,0,0,0.25,-0,-0,0.66667
0.71928,0.009716,2.8771,-0.73543,-7.5556,8.3777,5.6424,-1.8808,-0.077345,7.5232,-1.0774e-12,-0.038672,0,0,0.25,2.3685e-15,0,0.66667
0.69947,0.16882,2.7979,-0.49677,-5.2501,8.945,3.7064,-1.2355,-1.122,4.9419,-6.8092e-12,-0.561,0,0,0.25,-1.1842e-15,0,0.66667
0.44662,0.39028,1.7865,-0.16458,-2.7193,24.469,0.78404,-0.26135,-1.9027,1.0454,-1.0145e-12,-0.95136,0,0,0.25,5.9212e-16,0,0.66667
0.039252,0.45917,0.15701,-0.06124,-1.269,58.986,0.02564,-0.0085473,-1.9859,0.034187,-7.01e-07,-0.99296,0,0,0.25,-0,-0,0.66667
0.050396,0.52244,0.20159,0.033667,0.69681,57.973,-0.018098,0.0060326,-1.9957,-0.02413,1.0882e-07,-0.99784,0,0,0.25,-7.4015e-17,0,0.66667
0.088504,0.63435,0.35401,0.20153,4.1565,54.528,-0.19025,0.063416,-1.855,-0.25366,1.7251e-08,-0.92751,0,0,0.25,-0,-0,0.66667
0.86433,0.31429,3.4573,-0.27857,-1.3631,2.3878,2.5683,-0.85609,-1.7246,3.4243,-1.3054e-09,-0.8623,0,0,0.25,-0,-0,0.66667
0.13609,0.1409,0.54438,-0.53865,-11.126,50.313,0.78195,-0.26065,-0.96759,1.0426,7.7494e-10,-0.48379,0,0,0.25,-0,-0,0.66667
0.65826,0.20135,2.633,-0.44797,-5.2476,11.002,3.1454,-1.0485,-1.2862,4.1939,2.4203e-13,-0.6431,0,0,0.25,-0,-0,0.66667
0.57697,0.18307,2.3079,-0.47539,-6.5997,15.747,2.9257,-0.97524,-1.1973,3.9009,1.2523e-12,-0.59863,0,0,0.25,-0,-0,0.66667
0.7266,0.93175,2.9064,0.64763,6.4259,7.8884,-5.0194,1.6731,-0.50839,-6.6925,3.4972e-12,-0.2542,0,0,0.25,-0,-0,0.66667
0.58257,0.65481,2.3303,0.23222,3.1502,15.222,-1.443,0.48101,-1.8089,-1.924,-1.669e-12,-0.90445,0,0,0.25,3.7007e-16,0,0.66667
0.17942,0.46234,0.71767,-0.056495,-1.1337,46.394,0.10812,-0.03604,-1.9882,0.14416,2.6349e-10,-0.99412,0,0,0.25,-0,-0,0.66667
0.73408,0.64469,2.9363,0.21704,2.0191,7.0675,-1.6995,0.5665,-1.8328,-2.266,4.6875e-11,-0.91641,0,0,0.25,-1.1842e-15,0,0.66667
0.59544,0.12312,2.3818,-0.56531,-7.6417,14.714,3.5905,-1.1968,-0.86483,4.7874,1.0056e-12,-0.43242,0,0,0.25,5.9212e-16,0,0.66667
0.54618,0.031394,2.1847,-0.70291,-10.472,17.967,4.0951,-1.365,-0.24503,5.4602,-3.7792e-13,-0.12251,0,0,0.25,2.3685e-15,-5.4426e-18,0.66667
0.72712,0.81886,2.9085,0.47829,4.6433,7.6181,-3.7096,1.2365,-1.1862,-4.9461,2.5742e-11,-0.59312,0,0,0.25,-0,-0,0.66667
0.31395,0.7762,1.2558,0.4143,7.7993,34.962,-1.3874,0.46246,-1.3904,-1.8499,-6.3757e-12,-0.69518,0,0,0.25,-5.9212e-16,0,0.66667
0.070608,0.36837,0.28243,-0.19745,-4.0841,56.145,0.14871,-0.04957,-1.8609,0.19828,3.4353e-08,-0.93047,0,0,0.25,-0,-0,0.66667
0.088214,0.24035,0.35286,-0.38947,-8.0781,54.571,0.36647,-0.12216,-1.46,0.48863,-1.1819e-09,-0.73001,0,0,0.25,-0,-0,0.66667
0.32773,0.16596,1.3109,-0.50106,-9.3794,33.88,1.7516,-0.58386,-1.1078,2.3354,4.7817e-13,-0.55388,0,0,0.25,-0,-1.4066e-16,0.66667
0.23168,0.27243,0.92673,-0.34135,-6.7334,41.874,0.84358,-0.28119,-1.5856,1.1248,1.3149e-10,-0.79279,0,0,0.25,-0,-0,0.66667
0.74822,0.79584,2.9929,0.44375,3.9988,6.6444,-3.5416,1.1805,-1.2996,-4.7221,6.1771e-11,-0.64981,0,0,0.25,-1.1842e-15,0,0.66667
0.60764,0.93684,2.4306,0.65527,8.7271,14.106,-4.2471,1.4157,-0.4747,-5.6628,-6.8345e-13,-0.23735,0,0,0.25,1.4803e-15,-2.4359e-17,0.66667
0.095431,0.94941,0.38173,0.67411,14.175,53.973,-0.6862,0.22873,-0.38415,-0.91494,-2.4869e-08,-0.19207,0,0,0.25,-0,-0,0.66667
0.71985,0.45678,2.8794,-0.064827,-0.6288,7.6646,0.49777,-0.16592,-1.9851,0.6637,-1.1972e-11,-0.99255,0,0,0.25,-1.1842e-15,0,0.66667
0.9161,0.98994,3.6644,0.73492,2.5034,1.939,-7.1814,2.3938,-0.078936,-9.5752,6.42e-08,-0.039468,0,0,0.25,2.3685e-15,0,0.66667
0.82438,0.18212,3.2975,-0.47682,-3.0934,3.8062,4.1929,-1.3976,-1.1917,5.5905,-5.064e-10,-0.59585,0,0,0.25,1.7764e-15,0,0.66667
0.67331,0.43523,2.6932,-0.097159,-1.0773,9.9781,0.69779,-0.2326,-1.9675,0.93039,-3.6314e-12,-0.98377,0,0,0.25,2.9606e-16,0,0.66667
0.77664,0.41129,3.1066,-0.13306,-1.0513,5.2304,1.1023,-0.36744,-1.937,1.4697,-8.4026e-11,-0.96852,0,0,0.25,-0,-0,0.66667
0.15012,0.97693,0.6005,0.71539,14.88,49.127,-1.1456,0.38186,-0.17978,-1.5274,-5.1545e-10,-0.08989,0,0,0.25,2.9606e-16,0,0.66667
0.065513,0.43656,0.26205,-0.095165,-1.9668,56.603,0.066501,-0.022167,-1.9688,0.088668,-2.9093e-08,-0.9844,0,0,0.25,3.7007e-17,0,0.66667
0.74798,0.59705,2.9919,0.14558,1.2864,6.4209,-1.1615,0.38717,-1.9254,-1.5487,5.203e-11,-0.96271,0,0,0.25,-2.3685e-15,0,0.66667
0.98478,0.3791,3.9391,-0.18135,-0.017256,0.16347,1.9049,-0.63497,-1.8842,2.5399,-3.7698e-08,-0.94208,0,0,0.25,-0,-0,0.66667
0.24024,0.34967,0.96097,-0.22549,-4.4132,41.11,0.57785,-0.19262,-1.8189,0.77046,9.3076e-11,-0.90947,0,0,0.25,-0,-0,0.66667
0.56194,0.65792,2.2477,0.23687,3.3332,16.523,-1.4198,0.47327,-1.802,-1.8931,-1.4752e-12,-0.90099,0,0,0.25,-0,-0,0.66667
0.080826,0.021624,0.3233,-0.71756,-15.173,55.289,0.61864,-0.20621,-0.16905,0.82486,5.9476e-08,-0.084527,0,0,0.25,-0,-0,0.66667
0.56119,0.93798,2.2447,0.65697,9.5123,16.945,-3.9326,1.3109,-0.46689,-5.2435,-5.449e-13,-0.23344,0,0,0.25,2.3685e-15,-1.7929e-17,0.66667
0.45044,0.053266,1.8017,-0.6701,-11.316,24.525,3.2196,-1.0732,-0.40327,4.2928,-1.8274e-13,-0.20164,0,0,0.25,5.9212e-16,-2.4653e-16,0.66667
0.24055,0.17723,0.96221,-0.48416,-9.5664,41.161,1.2423,-0.4141,-1.1658,1.6564,7.3508e-11,-0.58289,0,0,0.25,-0,-0,0.66667
0.56538,0.38539,2.2615,-0.17191,-2.4001,16.276,1.0368,-0.34558,-1.8946,1.3823,9.3159e-13,-0.94731,0,0,0.25,-1.1842e-15,0,0.66667
0.65399,0.91808,2.616,0.62713,7.5465,11.456,-4.3748,1.4583,-0.6014,-5.8331,-8.3489e-13,-0.3007,0,0,0.25,-1.1842e-15,0,0.66667
0.91167,0.98864,3.6467,0.73297,2.6211,2.0174,-7.1277,2.3759,-0.089059,-9.5036,8.6377e-08,-0.04453,0,0,0.25,-1.1842e-15,0,0.66667
0.78264,0.47761,3.1306,-0.03358,-0.25803,4.9726,0.28033,-0.093445,-1.9962,0.37378,-3.5665e-11,-0.99809,0,0,0.25,-0,-0,0.66667
0.97683,0.18807,3.9073,-0.46789,-0.29051,0.55694,4.8752,-1.6251,-1.2222,6.5002,-2.4561e-08,-0.6111,0,0,0.25,2.3685e-15,0,0.66667
0.44272,0.24631,1.7709,-0.38053,-6.362,24.85,1.797,-0.59899,-1.4853,2.396,-1.6258e-12,-0.74264,0,0,0.25,5.9212e-16,0,0.66667
0.14102,0.98614,0.56409,0.72921,15.224,49.936,-1.0969,0.36563,-0.10953,-1.4625,2.1146e-09,-0.054766,0,0,0.25,-2.9606e-16,0,0.66667
0.40997,0.3371,1.6399,-0.24435,-4.2093,27.252,1.0686,-0.35618,-1.7876,1.4247,-1.5911e-12,-0.89381,0,0,0.25,-2.9606e-16,0,0.66667
0.7923,0.71937,3.1692,0.32906,2.4583,4.7559,-2.7809,0.92698,-1.6158,-3.7079,2.4093e-10,-0.8079,0,0,0.25,2.3685e-15,0,0.66667
0.21104,0.72377,0.84415,0.33566,6.6852,43.661,-0.75558,0.25186,-1.5992,-1.0074,-2.3035e-10,-0.7996,0,0,0.25,5.9212e-16,0,0.66667
0.17738,0.11632,0.70953,-0.57552,-11.753,46.677,1.0889,-0.36297,-0.82176,1.4519,3.5119e-10,-0.41088,0,0,0.25,1.4803e-16,0,0.66667
0.6451,0.96021,2.5804,0.69032,8.5366,12.034,-4.7502,1.5834,-0.30521,-6.3336,-3.8991e-13,-0.1526,0,0,0.25,5.9212e-16,0,0.66667
0.94704,0.0022828,3.7881,-0.74658,-1.6384,1.4737,7.5417,-2.5139,-0.018526,10.056,-4.1178e-07,-0.0092632,0,0,0.25,-0,-0,0.66667
0.40926,0.65573,1.6371,0.2336,4.0257,27.302,-1.0198,0.33992,-1.8071,-1.3597,1.502e-12,-0.90353,0,0,0.25,-2.4055e-16,0,0.66667
0.69687,0.18304,2.7875,-0.47544,-5.0512,9.0465,3.5341,-1.178,-1.1962,4.7121,-7.3563e-12,-0.5981,0,0,0.25,5.9212e-16,0,0.66667
0.40397,0.80808,1.6159,0.46212,8.0825,27.823,-1.9913,0.66377,-1.2412,-2.6551,2.1353e-12,-0.62061,0,0,0.25,-8.8818e-16,0,0.66667
0.34982,0.86577,1.3993,0.54866,10.124,32.127,-2.0472,0.68241,-0.92904,-2.7297,1.5199e-12,-0.46452,0,0,0.25,-2.9606e-16,0,0.66667
0.13297,0.8846,0.53188,0.57689,11.952,50.601,-0.81823,0.27274,-0.81594,-1.091,-8.5209e-10,-0.40797,0,0,0.25,-0,-0,0.66667
0.019913,0.9709,0.07965,0.70634,15.016,60.761,-0.15003,0.050011,-0.22658,-0.20004,1.4412e-06,-0.11329,0,0,0.25,-0,-0,0.66667
0.11967,0.35455,0.47868,-0.21818,-4.4713,51.724,0.2785,-0.092834,-1.83,0.37133,1.4987e-10,-0.91502,0,0,0.25,-0,-0,0.66667
0.44424,0.55486,1.777,0.082295,1.3617,24.629,-0.38996,0.12999,-1.9754,-0.51995,6.8651e-13,-0.98769,0,0,0.25,-2.9606e-16,0,0.66667
0.72978,0.088672,2.9191,-0.61699,-6.036,7.6946,4.8029,-1.601,-0.64647,6.4039,-6.1742e-12,-0.32323,0,0,0.25,-2.9606e-16,0,0.66667
0.05369,0.22257,0.21476,-0.41615,-8.6843,57.691,0.23833,-0.079443,-1.3842,0.31777,-1.6194e-08,-0.69212,0,0,0.25,1.4803e-16,0,0.66667
0.22167,0.46032,0.88667,-0.059516,-1.1728,42.695,0.14072,-0.046908,-1.9873,0.18763,4.128e-11,-0.99364,0,0,0.25,-1.4803e-16,0,0.66667
0.031064,0.82726,0.12426,0.49088,10.298,59.743,-0.16266,0.054219,-1.1435,-0.21688,1.6337e-08,-0.57173,0,0,0.25,-0,6.6014e-17,0.66667
0.83332,0.0098636,3.3333,-0.7352,-4.7759,3.9842,6.5351,-2.1784,-0.077505,8.7134,1.1496e-09,-0.038752,0,0,0.25,-0,-0,0.66667
0.38188,0.25125,1.5275,-0.37313,-6.6355,29.483,1.5199,-0.50663,-1.5054,2.0265,-2.3452e-12,-0.75272,0,0,0.25,1.1842e-15,0,0.66667
0.28458,0.86424,1.1383,0.54636,10.562,37.465,-1.6585,0.55283,-0.93821,-2.2113,-8.8414e-12,-0.4691,0,0,0.25,-0,-0,0.66667
0.78367,0.70085,3.1347,0.30128,2.3327,5.0578,-2.5185,0.83949,-1.6769,-3.3579,1.818e-10,-0.83846,0,0,0.25,-0,-0,0.66667
0.2789,0.33684,1.1156,-0.24474,-4.6875,37.822,0.72811,-0.2427,-1.7872,0.97081,3.4614e-11,-0.89359,0,0,0.25,1.4803e-16,0,0.66667
0.28082,0.65141,1.1233,0.22712,4.3428,37.657,-0.68031,0.22677,-1.8176,-0.90708,-3.2585e-11,-0.90878,0,0,0.25,-0,-0,0.66667
0.935,0.29637,3.74,-0.30545,-0.67094,0.87612,3.0464,-1.0155,-1.6679,4.0618,4.0145e-10,-0.83393,0,0,0.25,-0,-0,0.66667
0.16421,0.064978,0.65686,-0.65253,-13.453,47.862,1.143,-0.381,-0.48625,1.524,-3.4798e-10,-0.24313,0,0,0.25,-5.9212e-16,0,0.66667
0.03791,0.5235,0.15164,0.035257,0.73055,59.107,-0.014257,0.0047524,-1.995,-0.01901,-9.6149e-08,-0.99752,0,0,0.25,-0,-0,0.66667
0.95604,0.13779,3.8242,-0.54331,-0.84599,0.91327,5.5406,-1.8469,-0.95,7.3875,9.9555e-08,-0.475,0,0,0.25,-0,-0,0.66667
0.30613,0.047756,1.2245,-0.67837,-13.044,35.764,2.2152,-0.73839,-0.36285,2.9536,-1.1591e-13,-0.18142,0,0,0.25,-0,-0,0.66667
0.41408,0.38982,1.6563,-0.16527,-2.8296,26.914,0.72999,-0.24333,-1.9019,0.97332,-1.2532e-12,-0.95094,0,0,0.25,-0,-0,0.66667
0.79679,0.41034,3.1872,-0.13448,-0.9716,4.4621,1.143,-0.381,-1.9369,1.524,-5.421e-11,-0.96845,0,0,0.25,-0,-0,0.66667
0.35618,0.37755,1.4247,-0.18367,-3.3205,31.449,0.69782,-0.23261,-1.8807,0.93042,5.1525e-13,-0.94035,0,0,0.25,-0,-0,0.66667
0.10486,0.91812,0.41943,0.62719,13.123,53.12,-0.7015,0.23383,-0.6007,-0.93533,-8.7893e-09,-0.30035,0,0,0.25,-0,-0,0.66667
0.7889,0.46697,3.1556,-0.049539,-0.37032,4.7348,0.41687,-0.13896,-1.9916,0.55582,-8.5095e-11,-0.99581,0,0,0.25,2.9606e-16,0,0.66667
0.12962,0.49695,0.51846,-0.0045743,-0.093274,50.822,0.0063243,-0.0021081,-2.0002,0.0084324,1.3009e-09,-1.0001,0,0,0.25,1.8504e-16,0,0.66667
0.19804,0.53091,0.79216,0.046363,0.92335,44.756,-0.097938,0.032646,-1.9931,-0.13058,1.1326e-10,-0.99657,0,0,0.25,7.0169e-17,0,0.66667
0.13971,0.60177,0.55883,0.15265,3.1076,49.926,-0.22748,0.075828,-1.9176,-0.30331,1.5352e-09,-0.95878,0,0,0.25,-0,-0,0.66667
0.22166,0.88614,0.88664,0.57921,11.613,42.826,-1.3695,0.45649,-0.80683,-1.8259,-7.3518e-11,-0.40341,0,0,0.25,-0,-0,0.66667
0.23535,0.57571,0.94139,0.11356,2.2238,41.515,-0.28509,0.095029,-1.9542,-0.38012,-5.8017e-11,-0.97709,0,0,0.25,-0,-0,0.66667
0.7264,0.42413,2.9056,-0.11381,-1.082,7.3722,0.88184,-0.29395,-1.953,1.1758,-2.3207e-11,-0.97649,0,0,0.25,-0,-0,0.66667
0.095244,0.43219,0.38098,-0.10171,-2.0919,53.915,0.10333,-0.034444,-1.9638,0.13778,-1.4072e-08,-0.98191,0,0,0.25,2.2204e-16,0,0.66667
0.66824,0.85493,2.673,0.53239,6.1319,10.57,-3.7949,1.265,-0.99171,-5.0598,-3.7081e-13,-0.49586,0,0,0.25,-0,-0,0.66667
0.91093,0.42093,3.6437,-0.11861,-0.36321,1.1844,1.1525,-0.38416,-1.9492,1.5367,9.3584e-09,-0.9746,0,0,0.25,-0,-0,0.66667
0.63,0.97624,2.52,0.71437,9.1525,12.91,-4.8005,1.6002,-0.18516,-6.4007,-2.7711e-13,-0.092582,0,0,0.25,-0,-0,0.66667
0.33688,0.39549,1.3475,-0.15677,-2.8774,33.001,0.56335,-0.18778,-1.9118,0.75113,2.7157e-12,-0.9559,0,0,0.25,-0,-0,0.66667
0.83945,0.86837,3.3578,0.55256,3.3339,3.4473,-4.9477,1.6492,-0.91424,-6.5969,5.3802e-10,-0.45712,0,0,0.25,-5.9212e-16,0,0.66667
0.89856,0.29002,3.5943,-0.31498,-1.1427,1.5816,3.0189,-1.0063,-1.6466,4.0253,-4.3194e-11,-0.82329,0,0,0.25,-0,-0,0.66667
0.49346,0.18092,1.9738,-0.47861,-7.5587,21.27,2.5192,-0.83974,-1.1851,3.359,-1.9185e-13,-0.59256,0,0,0.25,-8.8818e-16,0,0.66667
0.56348,0.58696,2.2539,0.13044,1.8254,16.385,-0.78399,0.26133,-1.94,-1.0453,-9.7095e-13,-0.97002,0,0,0.25,5.9212e-16,0,0.66667
0.58066,0.28307,2.3227,-0.32539,-4.4471,15.393,2.0154,-0.6718,-1.6245,2.6872,1.749e-12,-0.81223,0,0,0.25,-0,-0,0.66667
0.13276,0.87756,0.53103,0.56633,11.727,50.617,-0.80197,0.26732,-0.85981,-1.0693,1.6253e-09,-0.4299,0,0,0.25,-0,-0,0.66667
0.37306,0.47912,1.4922,-0.031325,-0.55702,30.085,0.12465,-0.041551,-1.9964,0.1662,-2.1675e-13,-0.99822,0,0,0.25,-0,-0,0.66667
0.81161,0.54168,3.2465,0.06252,0.41897,3.9114,-0.54125,0.18042,-1.9863,-0.72166,1.0528e-10,-0.99316,0,0,0.25,-0,-0,0.66667
0.5196,0.27096,2.0784,-0.34356,-5.1921,19.371,1.9042,-0.63472,-1.5798,2.5389,4.2766e-13,-0.78992,0,0,0.25,-5.9212e-16,0,0.66667
0.93958,0.2099,3.7583,-0.43515,-0.91943,0.96384,4.3612,-1.4537,-1.3267,5.815,9.9321e-09,-0.66337,0,0,0.25,-0,-0,0.66667
0.61582,0.15283,2.4633,-0.52076,-6.7391,13.456,3.4207,-1.1402,-1.0359,4.561,1.571e-12,-0.51793,0,0,0.25,1.8232e-16,0,0.66667
0.77945,0.17475,3.1178,-0.48788,-3.9205,5.4251,4.0563,-1.3521,-1.1535,5.4084,-1.4308e-10,-0.57676,0,0,0.25,1.1842e-15,0,0.66667
0.24803,0.048347,0.99212,-0.67748,-13.491,40.621,1.7924,-0.59746,-0.36782,2.3898,4.0981e-12,-0.18391,0,0,0.25,-2.9606e-16,2.9343e-16,0.66667
0.55931,0.99284,2.2372,0.73926,10.825,17.179,-4.4104,1.4701,-0.056801,-5.8805,-7.4607e-14,-0.0284,0,0,0.25,-5.9212e-16,2.0911e-16,0.66667
0.81064,0.55802,3.2426,0.087028,0.58648,3.9507,-0.75251,0.25084,-1.9737,-1.0034,-1.8782e-12,-0.98685,0,0,0.25,2.2564e-15,0,0.66667
0.15271,0.51122,0.61084,0.016834,0.34094,48.76,-0.027422,0.0091405,-1.9985,-0.036562,1.9439e-09,-0.99926,0,0,0.25,-5.9212e-16,0,0.66667
0.54016,0.65967,2.1606,0.23951,3.4932,17.939,-1.38,0.45999,-1.7961,-1.84,-9.0195e-13,-0.89805,0,0,0.25,-0,-0,0.66667
0.6103,0.37096,2.4412,-0.19356,-2.4858,13.525,1.26,-0.42001,-1.8677,1.6801,1.1701e-12,-0.93387,0,0,0.25,-5.9212e-16,0,0.66667
0.18706,0.859,0.74823,0.5385,10.934,45.816,-1.0745,0.35815,-0.96911,-1.4326,-2.8255e-10,-0.48455,0,0,0.25,-0,-0,0.66667
0.63689,0.4807,2.5476,-0.028956,-0.3503,11.948,0.19671,-0.065571,-1.9965,0.26228,-2.0318e-13,-0.99823,0,0,0.25,-0,-0,0.66667
0.067575,0.33906,0.2703,-0.24141,-5.0002,56.422,0.17401,-0.058002,-1.7928,0.23201,-1.4022e-08,-0.89639,0,0,0.25,-1.1102e-16,0,0.66667
0.77954,0.66646,3.1182,0.24969,1.9603,5.1783,-2.0762,0.69207,-1.7783,-2.7683,1.539e-10,-0.88916,0,0,0.25,-0,-0,0.66667
0.32597,0.81993,1.3039,0.47989,8.9845,34.011,-1.6686,0.5562,-1.1813,-2.2248,-1.2507e-12,-0.59066,0,0,0.25,-5.9212e-16,0,0.66667
0.48278,0.54781,1.9311,0.07171,1.1318,21.827,-0.36928,0.12309,-1.9815,-0.49238,-5.7732e-15,-0.99077,0,0,0.25,5.9212e-16,0,0.66667
0.38231,0.48385,1.5292,-0.024218,-0.42703,29.355,0.098762,-0.032921,-1.9969,0.13168,-2.9439e-13,-0.99846,0,0,0.25,5.9212e-16,0,0.66667
0.32698,0.33176,1.3079,-0.25236,-4.6775,33.832,0.88016,-0.29339,-1.7736,1.1735,5.498e-12,-0.8868,0,0,0.25,-0,-0,0.66667
0.98768,0.060623,3.9507,-0.65907,-0.25673,0.8454,6.9434,-2.3145,-0.45634,9.2579,2.1748e-06,-0.22817,0,0,0.25,-1.7764e-15,0,0.66667
0.879,0.40083,3.516,-0.14876,-0.63817,1.9193,1.3947,-0.46492,-1.9214,1.8597,-7.7227e-09,-0.96068,0,0,0.25,-1.1842e-15,0,0.66667
0.30229,0.1537,1.2092,-0.51946,-9.9114,35.978,1.675,-0.55832,-1.0409,2.2333,4.7123e-12,-0.52045,0,0,0.25,8.8818e-16,0,0.66667
0.16065,0.60063,0.64259,0.15094,3.0525,48.061,-0.25865,0.086216,-1.9188,-0.34486,-1.0406e-11,-0.95939,0,0,0.25,-5.9212e-16,0,0.66667
0.52931,0.88366,2.1173,0.57549,8.6993,18.918,-3.2492,1.0831,-0.82252,-4.3323,-5.1781e-13,-0.41126,0,0,0.25,-0,-0,0.66667
0.13806,0.40359,0.55224,-0.14461,-2.945,50.072,0.21296,-0.070985,-1.9264,0.28394,-3.6474e-09,-0.9632,0,0,0.25,2.2204e-16,0,0.66667
0.64979,0.46835,2.5992,-0.047474,-0.55757,11.231,0.32904,-0.10968,-1.9926,0.43873,-3.9016e-13,-0.99632,0,0,0.25,-1.5303e-15,0,0.66667
0.23295,0.057651,0.93182,-0.66352,-13.303,41.899,1.6487,-0.54958,-0.4353,2.1983,2.4147e-12,-0.21765,0,0,0.25,-2.9606e-16,0,0.66667
0.096557,0.62341,0.38623,0.18512,3.811,53.8,-0.19066,0.063555,-1.8791,-0.25422,4.1261e-09,-0.93953,0,0,0.25,-1.6653e-16,0,0.66667
0.021993,0.20103,0.08797,-0.44846,-9.3944,60.562,0.1052,-0.035068,-1.284,0.14027,1.3697e-08,-0.642,0,0,0.25,-3.7007e-17,0,0.66667
0.85906,0.79039,3.4363,0.43559,2.2664,2.7038,-3.9915,1.3305,-1.3259,-5.3219,1.6154e-09,-0.66293,0,0,0.25,-0,-0,0.66667
0.14271,0.339,0.57084,-0.2415,-4.9208,49.666,0.36762,-0.12254,-1.7932,0.49016,5.7681e-11,-0.89658,0,0,0.25,-0,-0,0.66667
0.40293,0.079167,1.6117,-0.63125,-11.173,28.035,2.7131,-0.90435,-0.58263,3.6174,-3.0065e-13,-0.29132,0,0,0.25,-1.0693e-15,0,0.66667
0.093564,0.2088,0.37426,-0.43681,-9.0686,54.096,0.43594,-0.14531,-1.3221,0.58125,-2.4051e-10,-0.66103,0,0,0.25,-1.4803e-16,0,0.66667
0.11789,0.31406,0.47157,-0.27891,-5.7271,51.89,0.35073,-0.11691,-1.7238,0.46764,-1.5586e-09,-0.86191,0,0,0.25,2.9606e-16,0,0.66667
0.37482,0.21334,1.4993,-0.42999,-7.7159,30.068,1.7191,-0.57303,-1.3436,2.2921,-2.0156e-12,-0.67179,0,0,0.25,-2.9606e-16,0,0.66667
0.16539,0.71545,0.66154,0.32318,6.5524,47.665,-0.57013,0.19004,-1.6287,-0.76017,-4.7149e-10,-0.81437,0,0,0.25,-7.4015e-17,0,0.66667
0.71895,0.96239,2.8758,0.69359,7.0897,8.3163,-5.319,1.773,-0.29039,-7.092,-2.2293e-13,-0.14519,0,0,0.25,-1.1842e-15,0,0.66667
0.12585,0.32394,0.50341,-0.26409,-5.4098,51.175,0.35452,-0.11817,-1.7522,0.4727,-3.351e-10,-0.87608,0,0,0.25,-0,-0,0.66667
0.73883,0.90311,2.9553,0.60467,5.7346,7.2739,-4.7653,1.5884,-0.70033,-6.3538,1.2812e-11,-0.35017,0,0,0.25,1.1842e-15,0,0.66667
0.84138,0.72815,3.3655,0.34223,1.9743,3.1074,-3.0714,1.0238,-1.5835,-4.0952,5.7333e-10,-0.79174,0,0,0.25,-0,-0,0.66667
0.082681,0.18035,0.33072,-0.47948,-9.9936,55.081,0.42287,-0.14096,-1.1823,0.56382,9.0854e-10,-0.59115,0,0,0.25,-1.4803e-16,0,0.66667
0.040078,0.45357,0.16031,-0.069646,-1.4431,58.911,0.029774,-0.0099248,-1.9818,0.039698,-4.1511e-07,-0.99089,0,0,0.25,-1.2148e-16,0,0.66667
0.49353,0.80391,1.9741,0.45587,7.1888,21.246,-2.3999,0.79996,-1.2605,-3.1998,-7.3941e-14,-0.63024,0,0,0.25,-0,-0,0.66667
0.60076,0.72083,2.403,0.33125,4.3606,14.171,-2.1227,0.70755,-1.6102,-2.8302,-2.0588e-12,-0.80508,0,0,0.25,-0,-0,0.66667
0.684,0.14666,2.736,-0.53002,-5.8622,9.7558,3.867,-1.289,-1.0008,5.156,-1.4968e-12,-0.50041,0,0,0.25,-5.9212e-16,0,0.66667
0.47827,0.095442,1.9131,-0.60684,-9.8623,22.458,3.0958,-1.0319,-0.69108,4.1278,-3.0043e-13,-0.34554,0,0,0.25,-0,-0,0.66667
0.54316,0.93769,2.1726,0.65654,9.7845,18.102,-3.8038,1.2679,-0.46844,-5.0717,-1.1702e-13,-0.23422,0,0,0.25,-0,-0,0.66667
0.54961,0.036507,2.1984,-0.69524,-10.294,17.736,4.0758,-1.3586,-0.28169,5.4345,5.6843e-14,-0.14085,0,0,0.25,-0,-0,0.66667
0.71378,0.61642,2.8551,0.17463,1.7311,7.9842,-1.3296,0.4432,-1.8911,-1.7728,2.2947e-11,-0.94554,0,0,0.25,1.1842e-15,0,0.66667
0.15616,0.46235,0.62464,-0.056475,-1.1427,48.454,0.094072,-0.031357,-1.9895,0.12543,9.2408e-10,-0.99476,0,0,0.25,-1.4803e-16,0,0.66667
0.021742,0.16427,0.08697,-0.50359,-10.577,60.587,0.11679,-0.038931,-1.0978,0.15572,-1.0027e-07,-0.54888,0,0,0.25,-0,-0,0.66667
0.50805,0.38281,2.0322,-0.17579,-2.6853,20.081,0.95265,-0.31755,-1.8896,1.2702,3.4861e-14,-0.94478,0,0,0.25,-0,-0,0.66667
0.95369,0.26879,3.8148,-0.34681,-0.51038,0.64656,3.528,-1.176,-1.5725,4.704,3.6444e-09,-0.78626,0,0,0.25,-0,-0,0.66667
0.025153,0.49148,0.10061,-0.012773,-0.26487,60.267,0.0034265,-0.0011461,-1.9988,0.0045667,-5.8381e-06,-0.99942,0,0,0.25,-0,-0,0.66667
0.6128,0.036919,2.4512,-0.69462,-9.1962,13.862,4.5404,-1.5135,-0.28455,6.0539,8.9262e-14,-0.14227,0,0,0.25,2.3685e-15,0,0.66667
0.49388,0.50072,1.9755,0.0010843,0.016856,21.039,-0.0057122,0.0019041,-2.0006,-0.0076163,-3.6182e-13,-1.0003,0,0,0.25,-0,-0,0.66667
0.9002,0.24539,3.6008,-0.38191,-1.3801,1.6207,3.6671,-1.2224,-1.4813,4.8895,-5.2609e-10,-0.74066,0,0,0.25,-5.9212e-16,0,0.66667
0.023607,0.37281,0.094429,-0.19078,-3.9636,60.409,0.04804,-0.016014,-1.8708,0.064054,-1.5965e-07,-0.93542,0,0,0.25,4.1633e-17,0,0.66667
0.65951,0.43161,2.638,-0.10258,-1.1779,10.712,0.72165,-0.24055,-1.9627,0.96221,-2.052e-12,-0.98134,0,0,0.25,1.1842e-15,0,0.66667
0.65622,0.57281,2.6249,0.10921,1.2642,10.891,-0.76446,0.25482,-1.9581,-1.0193,1.475e-12,-0.97904,0,0,0.25,-0,-0,0.66667
0.88375,0.049455,3.535,-0.67582,-3.083,2.4848,6.3707,-2.1236,-0.37513,8.4943,-3.4118e-09,-0.18757,0,0,0.25,-0,-0,0.66667
0.53642,0.59916,2.1457,0.14874,2.1767,18.153,-0.85108,0.28369,-1.9212,-1.1348,-8.3045e-13,-0.96061,0,0,0.25,1.1842e-15,0,0.66667
0.69065,0.99089,2.7626,0.73634,8.2002,9.7429,-5.4246,1.8082,-0.071936,-7.2327,2.0428e-13,-0.035968,0,0,0.25,-0,-0,0.66667
0.41267,0.89755,1.6507,0.59633,10.427,27.263,-2.6249,0.87497,-0.735,-3.4999,8.5087e-13,-0.3675,0,0,0.25,-2.9606e-16,0,0.66667
0.82659,0.28181,3.3064,-0.32729,-2.057,3.5578,2.8857,-0.96189,-1.6206,3.8476,-4.3542e-10,-0.81028,0,0,0.25,-0,-0,0.66667
0.68501,0.61965,2.74,0.17948,1.9335,9.4018,-1.3114,0.43714,-1.8858,-1.7485,8.6851e-12,-0.9429,0,0,0.25,2.9606e-16,0,0.66667
0.10801,0.71761,0.43205,0.32642,6.728,52.783,-0.37608,0.12536,-1.6225,-0.50144,9.3634e-10,-0.81126,0,0,0.25,-1.8504e-16,0,0.66667
0.13989,0.30359,0.55958,-0.29461,-6.0167,49.925,0.43962,-0.14654,-1.6918,0.58617,7.839e-10,-0.84589,0,0,0.25,-1.4803e-16,0,0.66667
0.15807,0.40868,0.63229,-0.13698,-2.772,48.289,0.23097,-0.076989,-1.9343,0.30796,7.0297e-10,-0.96713,0,0,0.25,-0,-0,0.66667
0.12054,0.52979,0.48216,0.044682,0.91339,51.637,-0.05745,0.01915,-1.9935,-0.076599,-1.5275e-08,-0.99677,0,0,0.25,-1.1234e-16,0,0.66667
0.23028,0.076924,0.92111,-0.63461,-12.715,42.113,1.5588,-0.5196,-0.56736,2.0784,2.2492e-11,-0.28368,0,0,0.25,-0,8.5828e-17,0.66667
0.42336,0.25686,1.6934,-0.36471,-6.2236,26.288,1.647,-0.549,-1.5274,2.196,-1.8295e-12,-0.76372,0,0,0.25,-0,-0,0.66667
0.67076,0.025758,2.683,-0.71136,-8.3062,10.704,5.0896,-1.6965,-0.20143,6.7862,1.692e-13,-0.10072,0,0,0.25,-5.9212e-16,0,0.66667
0.33662,0.78189,1.3465,0.42284,7.8301,33.115,-1.5183,0.50608,-1.3649,-2.0243,-4.2433e-13,-0.68244,0,0,0.25,-0,-0,0.66667
0.51975,0.023978,2.079,-0.71403,-11.079,19.723,3.9586,-1.3195,-0.187,5.2782,-4.5519e-14,-0.093501,0,0,0.25,-0,-0,0.66667
0.82112,0.77866,3.2845,0.41799,2.7367,3.8364,-3.661,1.2203,-1.379,-4.8813,4.2687e-10,-0.6895,0,0,0.25,2.9606e-16,0,0.66667
0.88459,0.13826,3.5384,-0.54262,-2.3669,2.2098,5.1199,-1.7066,-0.95224,6.8266,-7.0609e-09,-0.47612,0,0,0.25,-0,-0,0.66667
0.70449,0.98877,2.818,0.73316,7.8591,9.0654,-5.5094,1.8365,-0.088825,-7.3459,-4.472e-13,-0.044412,0,0,0.25,-0,-0,0.66667
0.83449,0.34166,3.338,-0.2375,-1.4137,3.2302,2.1141,-0.70469,-1.7998,2.8188,7.0856e-11,-0.89988,0,0,0.25,1.7274e-15,0,0.66667
0.30908,0.21261,1.2363,-0.43108,-8.1495,35.372,1.4212,-0.47373,-1.3393,1.8949,6.8212e-12,-0.66965,0,0,0.25,-2.9606e-16,0,0.66667
0.79062,0.10312,3.1625,-0.59532,-4.6331,5.1646,5.0205,-1.6735,-0.73922,6.694,-7.644e-11,-0.36961,0,0,0.25,-0,-0,0.66667
0.91666,0.41763,3.6667,-0.12355,-0.35089,1.0733,1.208,-0.40268,-1.945,1.6107,9.7353e-09,-0.9725,0,0,0.25,-0,-0,0.66667
0.038406,0.24269,0.15362,-0.38596,-8.0561,59.072,0.15811,-0.052704,-1.4698,0.21082,-5.1175e-09,-0.73492,0,0,0.25,-3.7007e-17,0,0.66667
0.44563,0.91675,1.7825,0.62513,10.576,24.83,-2.9715,0.99049,-0.60972,-3.962,3.1042e-13,-0.30486,0,0,0.25,-0,-0,0.66667
0.23993,0.027215,0.95972,-0.70918,-14.214,41.329,1.815,-0.60499,-0.21184,2.4199,-2.4425e-15,-0.10592,0,0,0.25,1.4803e-16,0,0.66667
0.49402,0.38969,1.9761,-0.16547,-2.5767,21.054,0.87195,-0.29065,-1.9017,1.1626,-2.5407e-13,-0.95086,0,0,0.25,-0,-0,0.66667
0.61748,0.3126,2.4699,-0.28111,-3.5695,13.149,1.8515,-0.61716,-1.7197,2.4686,1.7912e-12,-0.85986,0,0,0.25,-2.3685e-15,0,0.66667
0.20905,0.67929,0.83619,0.26893,5.3498,43.819,-0.59968,0.19989,-1.7423,-0.79957,-2.0506e-10,-0.87115,0,0,0.25,-2.9606e-16,0,0.66667
0.87443,0.52237,3.4977,0.033554,0.14896,2.0026,-0.31296,0.10432,-1.9964,-0.41728,3.3047e-09,-0.99821,0,0,0.25,-0,-0,0.66667
0.25589,0.18965,1.0236,-0.46552,-9.1138,39.845,1.2706,-0.42355,-1.2298,1.6942,4.7871e-11,-0.61492,0,0,0.25,-5.9212e-16,0,0.66667
0.71361,0.64632,2.8544,0.21949,2.1809,8.0149,-1.6707,0.5569,-1.8281,-2.2276,2.6101e-11,-0.91404,0,0,0.25,5.9212e-16,0,0.66667
0.85223,0.21904,3.4089,-0.42144,-2.2926,2.878,3.8311,-1.277,-1.3691,5.1081,-6.5957e-10,-0.68457,0,0,0.25,-0,-0,0.66667
0.93241,0.53865,3.7296,0.057971,0.12791,0.76961,-0.57656,0.19219,-1.9877,-0.76875,-7.1786e-08,-0.99384,0,0,0.25,-0,-0,0.66667
0.95573,0.86508,3.8229,0.54762,0.86235,0.92517,-5.5827,1.8609,-0.93354,-7.4435,-1.2449e-07,-0.46677,0,0,0.25,1.1842e-15,0,0.66667
0.6802,0.24168,2.7208,-0.38748,-4.276,9.7906,2.8114,-0.93712,-1.4655,3.7485,-5.5806e-12,-0.73277,0,0,0.25,5.9212e-16,0,0.66667
0.62852,0.37471,2.5141,-0.18793,-2.3226,12.462,1.2599,-0.41997,-1.8755,1.6799,3.6027e-13,-0.93773,0,0,0.25,1.6468e-15,0,0.66667
0.59597,0.96345,2.3839,0.69518,9.506,14.856,-4.4192,1.4731,-0.2821,-5.8923,6.6613e-15,-0.14105,0,0,0.25,-8.8818e-16,0,0.66667
0.48512,0.090965,1.9405,-0.61355,-9.8903,21.982,3.1749,-1.0583,-0.66274,4.2332,-9.7033e-14,-0.33137,0,0,0.25,1.4803e-16,0,0.66667
0.36043,0.40206,1.4417,-0.14692,-2.6446,31.102,0.56484,-0.18828,-1.9241,0.75312,2.6834e-13,-0.96207,0,0,0.25,-8.8818e-16,0,0.66667
0.020765,0.37739,0.083061,-0.18391,-3.821,60.667,0.040736,-0.013579,-1.8801,0.054315,-8.0998e-08,-0.94006,0,0,0.25,7.4015e-17,0,0.66667
0.74867,0.45036,2.9947,-0.074457,-0.65509,6.3701,0.5946,-0.1982,-1.9802,0.7928,-2.6807e-11,-0.99012,0,0,0.25,1.1842e-15,0,0.66667
0.39368,0.29979,1.5747,-0.30031,-5.2667,28.53,1.2611,-0.42036,-1.6789,1.6814,-2.1068e-12,-0.83943,0,0,0.25,-0,-0,0.66667
0.27934,0.72659,1.1174,0.33988,6.5275,37.813,-1.0127,0.33757,-1.5894,-1.3503,-3.4199e-11,-0.79471,0,0,0.25,-0,-0,0.66667
0.77753,0.64453,3.1101,0.2168,1.7131,5.2358,-1.7981,0.59935,-1.8323,-2.3974,1.36e-10,-0.91617,0,0,0.25,-0,-0,0.66667
0.66027,0.65236,2.6411,0.22854,2.6291,10.72,-1.6096,0.53653,-1.8146,-2.1461,2.7138e-12,-0.90728,0,0,0.25,-1.4803e-15,0,0.66667
0.9098,0.65141,3.6392,0.22712,0.71435,1.268,-2.2041,0.73469,-1.8168,-2.9388,7.6067e-09,-0.9084,0,0,0.25,1.7764e-15,0,0.66667
0.12761,0.97485,0.51046,0.71228,14.907,51.117,-0.96957,0.32319,-0.19632,-1.2928,1.1709e-09,-0.098162,0,0,0.25,-0,-0,0.66667
0.38236,0.40878,1.5294,-0.13683,-2.4151,29.364,0.55806,-0.18602,-1.9336,0.74408,-9.0783e-13,-0.96682,0,0,0.25,-0,-0,0.66667
0.57738,0.72787,2.3095,0.34181,4.703,15.609,-2.1051,0.70171,-1.585,-2.8068,-1.988e-12,-0.79248,0,0,0.25,-0,-0,0.66667
0.3545,0.83951,1.418,0.50927,9.3389,31.727,-1.9257,0.6419,-1.0779,-2.5676,1.3899e-12,-0.53897,0,0,0.25,1.4803e-16,0,0.66667
0.34805,0.89432,1.3922,0.59148,10.959,32.299,-2.1959,0.73196,-0.75544,-2.9279,1.0203e-12,-0.37772,0,0,0.25,5.9212e-16,0,0.66667
0.48409,0.52926,1.9364,0.04389,0.6914,21.732,-0.22663,0.075544,-1.9947,-0.30218,6.8237e-14,-0.99733,0,0,0.25,-1.4803e-16,0,0.66667
0.071438,0.10391,0.28575,-0.59414,-12.481,56.11,0.45274,-0.15091,-0.74412,0.60365,1.1832e-07,-0.37206,0,0,0.25,-0,-0,0.66667
0.038686,0.98067,0.15474,0.72101,15.327,59.073,-0.29752,0.099173,-0.15074,-0.39669,-4.5482e-07,-0.075371,0,0,0.25,-7.4015e-17,0,0.66667
0.84061,0.71233,3.3624,0.31849,1.841,3.1075,-2.8557,0.95191,-1.6394,-3.8077,6.0084e-10,-0.8197,0,0,0.25,1.1842e-15,0,0.66667
0.0073689,0.070195,0.029476,-0.64471,-13.655,61.89,0.050675,-0.016892,-0.52159,0.067566,-5.2578e-07,-0.26079,0,0,0.25,-0,-0,0.66667
0.70376,0.67832,2.815,0.26748,2.7439,8.5175,-2.0079,0.66931,-1.746,-2.6772,2.0255e-11,-0.873,0,0,0.25,-5.9212e-16,0,0.66667
0.44556,0.72811,1.7823,0.34217,5.6923,24.618,-1.6262,0.54207,-1.583,-2.1683,1.2546e-12,-0.7915,0,0,0.25,-0,-0,0.66667
0.96951,0.49011,3.878,-0.014832,-0.010349,0.25168,0.15339,-0.051127,-1.9995,0.20452,3.877e-06,-0.99975,0,0,0.25,1.1842e-15,0,0.66667
0.80992,0.38482,3.2397,-0.17278,-1.1726,4.0078,1.4926,-0.49755,-1.8937,1.9902,-1.375e-10,-0.94684,0,0,0.25,-0,-0,0.66667
0.39961,0.44953,1.5984,-0.075708,-1.3135,28.01,0.32271,-0.10757,-1.9787,0.43028,-6.1723e-13,-0.98937,0,0,0.25,-0,-0,0.66667
0.39383,0.58422,1.5753,0.12632,2.2053,28.466,-0.53066,0.17689,-1.943,-0.70755,8.39e-13,-0.97149,0,0,0.25,-0,-0,0.66667
0.12859,0.28239,0.51438,-0.32642,-6.6941,50.938,0.44774,-0.14925,-1.622,0.59698,5.8447e-10,-0.811,0,0,0.25,-0,-0,0.66667
0.36459,0.98041,1.4584,0.72061,13.297,31.093,-2.8024,0.93415,-0.15291,-3.7366,5.2891e-13,-0.076455,0,0,0.25,5.9212e-16,0,0.66667
0.20418,0.83573,0.81672,0.5036,10.134,44.309,-1.0968,0.3656,-1.0987,-1.4624,-2.2974e-10,-0.54933,0,0,0.25,-1.4803e-16,0,0.66667
0.31607,0.38714,1.2643,-0.16929,-3.1571,34.707,0.57076,-0.19025,-1.8976,0.76101,7.8778e-12,-0.94878,0,0,0.25,5.9212e-16,0,0.66667
0.56232,0.38288,2.2493,-0.17569,-2.466,16.473,1.0538,-0.35126,-1.8909,1.405,9.3658e-13,-0.94546,0,0,0.25,-1.1842e-15,0,0.66667
0.86191,0.49465,3.4476,-0.008032,-0.039365,2.3349,0.073844,-0.024615,-2.0001,0.098458,-8.051e-09,-1,0,0,0.25,-2.3685e-15,0,0.66667
0.098202,0.83654,0.39281,0.50481,10.504,53.691,-0.52878,0.17626,-1.0937,-0.70504,-8.9261e-09,-0.54683,0,0,0.25,-7.4015e-17,0,0.66667
0.83006,0.91389,3.3202,0.62084,4.0051,3.8567,-5.4969,1.8323,-0.62971,-7.3292,7.9153e-10,-0.31486,0,0,0.25,-0,-0,0.66667
0.92067,0.33557,3.6827,-0.24664,-0.67342,1.072,2.4221,-0.80737,-1.784,3.2295,3.6324e-09,-0.89201,0,0,0.25,5.9212e-16,0,0.66667
0.22363,0.2116,0.89451,-0.4326,-8.5988,42.598,1.0319,-0.34397,-1.3343,1.3759,1.486e-10,-0.66715,0,0,0.25,1.4803e-16,0,0.66667
0.20085,0.73423,0.80339,0.35135,7.0332,44.553,-0.75273,0.25091,-1.5607,-1.0036,-2.7576e-10,-0.78036,0,0,0.25,2.9606e-16,0,0.66667
0.76844,0.32781,3.0737,-0.25828,-2.1236,5.6259,2.117,-0.70567,-1.7623,2.8227,-1.2108e-10,-0.88117,0,0,0.25,-1.1842e-15,0,0.66667
0.020528,0.78497,0.082113,0.42745,8.9467,60.694,-0.093597,0.031199,-1.3505,-0.1248,8.3845e-10,-0.67526,0,0,0.25,7.4015e-17,0,0.66667
0.48994,0.48942,1.9598,-0.015867,-0.24798,21.316,0.082921,-0.02764,-1.9984,0.11056,2.8873e-14,-0.99919,0,0,0.25,-1.1842e-15,0,0.66667
0.022375,0.65851,0.089502,0.23776,4.9449,60.522,-0.056746,0.018915,-1.7993,-0.075662,-5.7958e-08,-0.89964,0,0,0.25,-0,-0,0.66667
0.8073,0.44005,3.2292,-0.089925,-0.61642,4.0688,0.77436,-0.25812,-1.9716,1.0325,-1.1833e-10,-0.98579,0,0,0.25,-0,-0,0.66667
0.024361,0.43118,0.097445,-0.10322,-2.1417,60.34,0.026823,-0.0089417,-1.9617,0.035764,-1.0338e-06,-0.98087,0,0,0.25,1.8504e-17,0,0.66667
0.16055,0.69774,0.64222,0.29661,6.0185,48.088,-0.50796,0.16932,-1.6867,-0.67728,-5.6103e-10,-0.84333,0,0,0.25,-0,-0,0.66667
0.24613,0.6043,0.98453,0.15645,3.048,40.592,-0.41073,0.13691,-1.9125,-0.54765,-6.3925e-11,-0.95624,0,0,0.25,-0,-0,0.66667
0.99712,0.39689,3.9885,-0.15467,0.067398,0.05945,1.645,-0.54835,-1.9147,2.1934,-6.2088e-07,-0.95737,0,0,0.25,1.1842e-15,0,0.66667
0.42075,0.3075,1.683,-0.28875,-4.9261,26.448,1.2959,-0.43198,-1.7043,1.7279,-1.8064e-12,-0.85214,0,0,0.25,-2.9606e-16,0,0.66667
0.072263,0.15535,0.28905,-0.51697,-10.813,56.025,0.39848,-0.13283,-1.0503,0.53131,4.5278e-08,-0.52517,0,0,0.25,-7.4015e-17,0,0.66667
0.25027,0.67356,1.0011,0.26034,5.0725,40.257,-0.69499,0.23166,-1.7592,-0.92666,-7.769e-11,-0.87962,0,0,0.25,2.9606e-16,0,0.66667
0.41157,0.55579,1.6463,0.083679,1.4346,27.091,-0.36736,0.12245,-1.9748,-0.48981,3.4087e-13,-0.98739,0,0,0.25,2.9606e-16,0,0.66667
0.42026,0.083525,1.681,-0.62471,-10.862,26.715,2.8004,-0.93348,-0.61241,3.7339,-4.8073e-13,-0.3062,0,0,0.25,5.9212e-16,2.607e-16,0.66667
0.12217,0.044824,0.48869,-0.68276,-14.28,51.591,0.88976,-0.29659,-0.34207,1.1863,1.9502e-09,-0.17104,0,0,0.25,-0,-0,0.66667
0.0095038,0.0064081,0.038015,-0.74039,-15.783,61.7,0.075068,-0.025025,-0.05061,0.10009,-3.4811e-06,-0.025305,0,0,0.25,3.7007e-17,0,0.66667
0.81546,0.18651,3.2618,-0.47024,-3.1945,4.0937,4.0902,-1.3634,-1.2148,5.4536,-6.2426e-10,-0.60739,0,0,0.25,-1.6283e-15,0,0.66667
0.24196,0.10642,0.96782,-0.59036,-11.726,41.09,1.5236,-0.50788,-0.75984,2.0315,2.7906e-11,-0.37992,0,0,0.25,-0,-0,0.66667
0.083424,0.34088,0.3337,-0.23868,-4.9313,54.989,0.21239,-0.070798,-1.7977,0.28319,5.8766e-09,-0.89886,0,0,0.25,3.7007e-17,0,0.66667
0.39022,0.95234,1.5609,0.67852,12.199,29.055,-2.8242,0.94142,-0.36324,-3.7657,4.1589e-13,-0.18162,0,0,0.25,-0,-0,0.66667
0.43254,0.22345,1.7302,-0.41482,-7.0259,25.629,1.9139,-0.63796,-1.3882,2.5518,-1.5374e-12,-0.69409,0,0,0.25,-0,-0,0.66667
0.5241,0.48992,2.0964,-0.01512,-0.22513,18.958,0.084523,-0.028174,-1.9984,0.1127,3.8639e-13,-0.9992,0,0,0.25,-5.9212e-16,0,0.66667
0.76031,0.65454,3.0413,0.23181,1.9642,5.9415,-1.88,0.62665,-1.8094,-2.5066,9.7037e-11,-0.90471,0,0,0.25,-1.6283e-15,0,0.66667
0.78814,0.72111,3.1526,0.33166,2.5248,4.9144,-2.7882,0.9294,-1.6091,-3.7176,2.2521e-10,-0.80457,0,0,0.25,-2.3685e-15,0,0.66667
0.46938,0.10204,1.8775,-0.59694,-9.8014,23.081,2.9887,-0.99624,-0.7335,3.9849,-1.7164e-13,-0.36675,0,0,0.25,-1.1842e-15,0,0.66667
0.88477,0.076088,3.5391,-0.63587,-2.8419,2.3785,6.001,-2.0003,-0.56149,8.0014,-6.3718e-09,-0.28075,0,0,0.25,-0,-0,0.66667
0.079143,0.48168,0.31657,-0.027476,-0.56647,55.368,0.023195,-0.0077315,-1.9973,0.030926,1.6111e-09,-0.99867,0,0,0.25,1.4803e-16,0,0.66667
0.35568,0.0088445,1.4227,-0.73673,-13.714,31.812,2.7951,-0.9317,-0.06981,3.7268,-4.5897e-13,-0.034905,0,0,0.25,-0,-0,0.66667
0.35988,0.66214,1.4395,0.24321,4.3896,31.17,-0.93362,0.31121,-1.7905,-1.2448,2.8311e-14,-0.89524,0,0,0.25,-0,-0,0.66667
0.71091,0.88156,2.8436,0.57234,5.8997,8.4966,-4.3401,1.4467,-0.83487,-5.7867,5.0848e-12,-0.41744,0,0,0.25,-2.3685e-15,0,0.66667
0.84544,0.59199,3.3818,0.13799,0.76186,2.8378,-1.2444,0.41479,-1.9334,-1.6592,1.686e-09,-0.96672,0,0,0.25,-1.3323e-15,0,0.66667
0.72322,0.15864,2.8929,-0.51204,-5.0505,7.8394,3.9501,-1.3167,-1.0682,5.2668,-1.6389e-11,-0.53412,0,0,0.25,2.3685e-15,0,0.66667
0.11084,0.96872,0.44336,0.70308,14.765,52.605,-0.83125,0.27708,-0.24398,-1.1083,-1.896e-08,-0.12199,0,0,0.25,1.8822e-16,0,0.66667
0.59935,0.75124,2.3974,0.37687,4.9874,14.29,-2.4093,0.80311,-1.4956,-3.2125,-1.9804e-12,-0.74778,0,0,0.25,-2.3685e-15,0,0.66667
0.50962,0.23845,2.0385,-0.39233,-6.0297,20.084,2.1327,-0.71089,-1.4519,2.8436,5.0626e-14,-0.72595,0,0,0.25,5.9212e-16,0,0.66667
0.60538,0.94861,2.4215,0.67292,9.0179,14.264,-4.3453,1.4484,-0.38941,-5.7938,-4.0457e-13,-0.19471,0,0,0.25,-0,-0,0.66667
0.012168,0.64615,0.048674,0.21922,4.5591,61.449,-0.028454,0.0094848,-1.8287,-0.037939,1.7348e-08,-0.91437,0,0,0.25,1.8504e-17,0,0.66667
0.2884,0.44757,1.1536,-0.078639,-1.4927,36.996,0.24191,-0.080638,-1.9772,0.32255,1.0956e-11,-0.98862,0,0,0.25,-0,-0,0.66667
0.051856,0.0098828,0.20743,-0.73518,-15.625,57.89,0.40665,-0.13555,-0.077678,0.5422,1.4927e-07,-0.038839,0,0,0.25,-0,-0,0.66667
0.38587,0.56979,1.5435,0.10468,1.8408,29.083,-0.43086,0.14362,-1.9607,-0.57449,6.8295e-13,-0.98036,0,0,0.25,-0,-0,0.66667
0.75909,0.45802,3.0363,-0.062976,-0.53287,5.9255,0.50991,-0.16997,-1.9851,0.67988,-3.1738e-11,-0.99255,0,0,0.25,-0,-0,0.66667
0.276,0.27136,1.104,-0.34296,-6.6009,38.095,1.0097,-0.33656,-1.5812,1.3462,3.7414e-11,-0.79058,0,0,0.25,2.9606e-16,0,0.66667
0.61411,0.69529,2.4565,0.29294,3.7477,13.353,-1.9189,0.63964,-1.6945,-2.5585,-1.9315e-12,-0.84726,0,0,0.25,1.1842e-15,0,0.66667
0.62743,0.92974,2.5097,0.64461,8.2398,12.948,-4.3141,1.438,-0.52263,-5.7522,-6.5237e-13,-0.26131,0,0,0.25,-0,-0,0.66667
0.25163,0.18691,1.0065,-0.46963,-9.2179,40.209,1.2605,-0.42017,-1.2172,1.6807,5.7482e-11,-0.6086,0,0,0.25,-3.8858e-16,0,0.66667
0.47504,0.35557,1.9002,-0.21665,-3.4631,22.416,1.0978,-0.36593,-1.8323,1.4637,-5.3257e-13,-0.91613,0,0,0.25,-0,-0,0.66667
0.1435,0.19964,0.57398,-0.45054,-9.2456,49.633,0.6896,-0.22987,-1.2779,0.91947,1.4191e-09,-0.63894,0,0,0.25,-0,-0,0.66667
0.070018,0.21387,0.28007,-0.4292,-8.943,56.217,0.32055,-0.10685,-1.3448,0.42741,-1.2047e-09,-0.67241,0,0,0.25,-0,-0,0.66667
0.79297,0.32549,3.1719,-0.26177,-1.9388,4.675,2.2141,-0.73803,-1.7557,2.9521,-2.1629e-10,-0.87787,0,0,0.25,1.1842e-15,0,0.66667
0.17947,0.57966,0.7179,0.11949,2.3992,46.392,-0.22876,0.076253,-1.9482,-0.30501,-1.1103e-10,-0.97412,0,0,0.25,-0,-0,0.66667
0.12621,0.82112,0.50483,0.48168,9.947,51.18,-0.64844,0.21615,-1.1753,-0.86458,-3.215e-09,-0.58767,0,0,0.25,-0,-0,0.66667
0.96712,0.017,3.8685,-0.7245,-0.97157,1.1801,7.4739,-2.4913,-0.13352,9.9651,6.3698e-08,-0.066759,0,0,0.25,-0,2.9377e-16,0.66667
0.055643,0.21923,0.22257,-0.42116,-8.7887,57.514,0.24997,-0.083322,-1.37,0.33329,-1.7933e-08,-0.68498,0,0,0.25,-0,-0,0.66667
0.68195,0.49211,2.7278,-0.011829,-0.12809,9.5194,0.086046,-0.028682,-1.999,0.11473,-6.5192e-13,-0.99951,0,0,0.25,-0,-0,0.66667
0.37495,0.33703,1.4998,-0.24446,-4.3544,29.974,0.97769,-0.3259,-1.7884,1.3036,-9.8571e-13,-0.89418,0,0,0.25,-0,-0,0.66667
0.17349,0.642,0.69395,0.213,4.293,46.931,-0.39416,0.13139,-1.8385,-0.52555,-2.0496e-10,-0.91926,0,0,0.25,-0,-0,0.66667
0.27286,0.16373,1.0914,-0.50441,-9.7984,38.426,1.4681,-0.48936,-1.0948,1.9575,2.0355e-11,-0.54742,0,0,0.25,-0,-0,0.66667
0.7317,0.81412,2.9268,0.47118,4.5039,7.4027,-3.6775,1.2258,-1.2116,-4.9033,3.1036e-11,-0.60578,0,0,0.25,-0,-0,0.66667
0.85547,0.51122,3.4219,0.016829,0.08646,2.516,-0.15356,0.051188,-1.9985,-0.20475,-1.6311e-10,-0.99923,0,0,0.25,-0,-0,0.66667
0.26883,0.76578,1.0753,0.39867,7.7234,38.721,-1.1432,0.38106,-1.4343,-1.5243,-4.1753e-11,-0.71717,0,0,0.25,-0,-0,0.66667
0.34714,0.13476,1.3886,-0.54785,-10.13,32.341,2.0286,-0.67621,-0.93248,2.7048,-1.289e-12,-0.46624,0,0,0.25,-5.9212e-16,0,0.66667
0.40955,0.22527,1.6382,-0.4121,-7.1491,27.364,1.8003,-0.6001,-1.3962,2.4004,-1.6718e-12,-0.69809,0,0,0.25,-0,-0,0.66667
0.82745,0.94514,3.3098,0.66772,4.411,4.0283,-5.8933,1.9644,-0.4153,-7.8578,-1.2665e-10,-0.20765,0,0,0.25,-0,-0,0.66667
0.74992,0.86114,2.9997,0.54171,4.9062,6.7002,-4.3332,1.4444,-0.95692,-5.7776,3.5966e-11,-0.47846,0,0,0.25,-0,-0,0.66667
0.20942,0.13551,0.83768,-0.54674,-11.003,43.871,1.2213,-0.4071,-0.9364,1.6284,1.5222e-10,-0.4682,0,0,0.25,-0,-0,0.66667
0.54285,0.51185,2.1714,0.01777,0.25701,17.706,-0.1029,0.034299,-1.9983,-0.13719,-1.3544e-13,-0.99914,0,0,0.25,-0,-0,0.66667
0.76674,0.02665,3.067,-0.71003,-6.1993,6.291,5.807,-1.9357,-0.20832,7.7426,-9.4484e-12,-0.10416,0,0,0.25,-0,-0,0.66667
0.47874,0.99297,1.915,0.73945,12.147,22.576,-3.776,1.2587,-0.055496,-5.0347,-7.927e-14,-0.027748,0,0,0.25,-8.8818e-16,0,0.66667
0.5555,0.99862,2.222,0.74793,11.03,17.433,-4.4318,1.4773,-0.011438,-5.909,-1.9229e-13,-0.0057192,0,0,0.25,-2.2204e-16,0,0.66667
0.21251,0.41918,0.85006,-0.12123,-2.4007,43.495,0.27482,-0.091606,-1.9468,0.36642,9.6983e-11,-0.97342,0,0,0.25,-0,-0,0.66667
0.65934,0.47552,2.6373,-0.036724,-0.4215,10.711,0.25828,-0.086093,-1.9952,0.34437,-5.9483e-13,-0.99761,0,0,0.25,-2.3685e-15,0,0.66667
0.072077,0.75977,0.28831,0.38966,8.1035,56.027,-0.29957,0.099858,-1.4595,-0.39943,2.0584e-09,-0.72973,0,0,0.25,-0,-0,0.66667
0.36173,0.15698,1.4469,-0.51453,-9.3815,31.154,1.9853,-0.66177,-1.0599,2.6471,-1.7361e-12,-0.52993,0,0,0.25,-1.1842e-15,0,0.66667
0.4004,0.13142,1.6016,-0.55287,-9.7563,28.162,2.3613,-0.78709,-0.91288,3.1484,-1.2503e-12,-0.45644,0,0,0.25,-0,-0,0.66667
0.60878,0.37436,2.4351,-0.18846,-2.4274,13.613,1.2238,-0.40792,-1.8754,1.6317,1.1242e-12,-0.9377,0,0,0.25,-5.9212e-16,0,0.66667
0.94867,0.29757,3.7947,-0.30364,-0.49984,0.66736,3.0726,-1.0242,-1.6714,4.0968,8.2722e-09,-0.83571,0,0,0.25,-0,-0,0.66667
0.21912,0.78268,0.87649,0.42401,8.443,42.985,-0.99105,0.33035,-1.3623,-1.3214,-1.6336e-10,-0.68117,0,0,0.25,-5.9212e-16,0,0.66667
0.54416,0.02294,2.1766,-0.71559,-10.708,18.116,4.1535,-1.3845,-0.17923,5.538,-1.4433e-13,-0.089616,0,0,0.25,-0,2.3118e-16,0.66667
0.80224,0.70969,3.209,0.31453,2.2403,4.379,-2.6915,0.89718,-1.6477,-3.5887,2.8989e-10,-0.82383,0,0,0.25,-0,-0,0.66667
0.60296,0.95558,2.4118,0.68337,9.2108,14.422,-4.3951,1.465,-0.33863,-5.8602,-2.1227e-13,-0.16932,0,0,0.25,-0,-0,0.66667
0.73883,0.79025,2.9553,0.43538,4.0496,7.0429,-3.4311,1.1437,-1.3256,-4.5749,4.8157e-11,-0.66279,0,0,0.25,-2.3685e-15,0,0.66667
0.11645,0.041796,0.46581,-0.68731,-14.399,52.101,0.85375,-0.28458,-0.31958,1.1383,-1.6186e-09,-0.15979,0,0,0.25,-0,-0,0.66667
0.83579,0.53313,3.3431,0.04969,0.2907,3.1093,-0.44299,0.14766,-1.9915,-0.59065,-7.1244e-10,-0.99577,0,0,0.25,-0,-0,0.66667
0.3113,0.32044,1.2452,-0.26934,-5.0522,35.126,0.89435,-0.29812,-1.7424,1.1925,1.0991e-11,-0.87121,0,0,0.25,-0,-0,0.66667
0.43711,0.48176,1.7484,-0.027365,-0.4563,25.155,0.12759,-0.042529,-1.9976,0.17012,-2.8785e-13,-0.99878,0,0,0.25,-0,-0,0.66667
0.08488,0.3365,0.33952,-0.24524,-5.0664,54.858,0.22204,-0.074014,-1.7857,0.29606,7.0721e-09,-0.89283,0,0,0.25,-7.4015e-17,0,0.66667
0.68718,0.45155,2.7487,-0.072676,-0.77629,9.2589,0.5327,-0.17757,-1.9814,0.71027,-4.6151e-12,-0.99072,0,0,0.25,-1.1842e-15,0,0.66667
0.84731,0.29003,3.3892,-0.31496,-1.744,2.903,2.8466,-0.94887,-1.647,3.7955,-5.7806e-10,-0.8235,0,0,0.25,-0,-0,0.66667
0.48369,0.21661,1.9348,-0.42508,-6.7785,21.914,2.1931,-0.73105,-1.3589,2.9242,-3.3706e-13,-0.67944,0,0,0.25,-0,-0,0.66667
0.10135,0.10131,0.40541,-0.59804,-12.5,53.427,0.64653,-0.21551,-0.72781,0.86204,2.8677e-08,-0.3639,0,0,0.25,-0,-0,0.66667
0.10296,0.97275,0.41183,0.70912,14.924,53.309,-0.77877,0.25959,-0.21206,-1.0384,-3.0011e-08,-0.10603,0,0,0.25,-0,-0,0.66667
0.11563,0.75551,0.46251,0.38327,7.9019,52.108,-0.47271,0.15757,-1.4775,-0.63028,-8.5699e-10,-0.73873,0,0,0.25,-0,-0,0.66667
0.49491,0.68882,1.9796,0.28323,4.4206,21.037,-1.4952,0.4984,-1.7154,-1.9936,4.2488e-13,-0.85768,0,0,0.25,-1.1842e-15,0,0.66667
0.62202,0.1323,2.4881,-0.55155,-7.0661,13.133,3.6595,-1.2198,-0.91834,4.8794,1.5117e-12,-0.45917,0,0,0.25,-0,-0,0.66667
0.033262,0.19542,0.13305,-0.45687,-9.5682,59.542,0.16209,-0.054032,-1.258,0.21613,-2.4398e-08,-0.62899,0,0,0.25,-7.4015e-17,0,0.66667
0.062583,0.89206,0.25033,0.58809,12.365,56.906,-0.39258,0.13086,-0.77062,-0.52344,-6.9982e-09,-0.38531,0,0,0.25,-0,-0,0.66667
0.98655,0.59929,3.9462,0.14894,0.0014411,0.13049,-1.5673,0.52242,-1.9215,-2.0897,-1.0337e-07,-0.96076,0,0,0.25,-0,-0,0.66667
0.2911,0.77304,1.1644,0.40955,7.8291,36.854,-1.2717,0.4239,-1.4031,-1.6956,-1.8645e-11,-0.70154,0,0,0.25,-2.9606e-16,0,0.66667
0.47673,0.10996,1.9069,-0.58506,-9.5111,22.545,2.9751,-0.99171,-0.78194,3.9668,-9.1038e-14,-0.39097,0,0,0.25,-5.6456e-16,0,0.66667
0.63063,0.97467,2.5225,0.712,9.1075,12.87,-4.7895,1.5965,-0.1973,-6.3859,-1.2967e-13,-0.098648,0,0,0.25,-2.3685e-15,0,0.66667
0.7149,0.012412,2.8596,-0.73138,-7.6076,8.5724,5.5772,-1.8591,-0.097465,7.4363,2.0384e-13,-0.048733,0,0,0.25,-0,-2.8354e-16,0.66667
0.10945,0.82384,0.43779,0.48575,10.074,52.679,-0.56708,0.18903,-1.1614,-0.75611,-1.3393e-09,-0.58072,0,0,0.25,-0,-0,0.66667
0.10965,0.56197,0.43862,0.092961,1.9059,52.616,-0.10873,0.036244,-1.9711,-0.14498,-1.8682e-08,-0.98554,0,0,0.25,4.6259e-18,0,0.66667
0.91206,0.57352,3.6483,0.11028,0.33265,1.1586,-1.0729,0.35764,-1.956,-1.4306,-3.3992e-08,-0.97799,0,0,0.25,-0,-0,0.66667
0.32409,0.27996,1.2964,-0.33006,-6.1465,34.094,1.141,-0.38034,-1.6134,1.5214,5.9477e-12,-0.80669,0,0,0.25,-7.4015e-16,0,0.66667
0.72386,0.56461,2.8954,0.09692,0.92865,7.4848,-0.74834,0.24945,-1.967,-0.99778,1.7891e-11,-0.98352,0,0,0.25,-0,-0,0.66667
0.70962,0.68164,2.8385,0.27246,2.7476,8.238,-2.0623,0.68744,-1.7358,-2.7498,2.4542e-11,-0.86788,0,0,0.25,5.9212e-16,0,0.66667
0.46881,0.42504,1.8752,-0.11244,-1.8074,22.835,0.56226,-0.18742,-1.9554,0.74968,-6.0785e-13,-0.9777,0,0,0.25,5.9212e-16,0,0.66667
0.091311,0.92629,0.36524,0.63944,13.426,54.334,-0.6228,0.2076,-0.54596,-0.8304,-5.3243e-08,-0.27298,0,0,0.25,-0,-0,0.66667
0.88983,0.77926,3.5593,0.41888,1.6924,1.8995,-3.9759,1.3253,-1.3775,-5.3011,2.529e-09,-0.68874,0,0,0.25,-1.4803e-15,0,0.66667
0.83452,0.93591,3.3381,0.65387,4.1431,3.7799,-5.8204,1.9401,-0.48028,-7.7605,-4.9661e-10,-0.24014,0,0,0.25,-2.4496e-17,0,0.66667
0.43167,0.451,1.7267,-0.073498,-1.2333,25.565,0.33842,-0.11281,-1.9799,0.45123,-4.9685e-13,-0.98995,0,0,0.25,-0,-0,0.66667
0.4559,0.93917,1.8236,0.65875,11.045,24.116,-3.2034,1.0678,-0.45797,-4.2712,3.5727e-13,-0.22899,0,0,0.25,-1.1842e-15,0,0.66667
0.5459,0.23233,2.1836,-0.40151,-5.8459,17.662,2.338,-0.77933,-1.4268,3.1173,8.4976e-13,-0.71341,0,0,0.25,-0,-0,0.66667
0.3785,0.91044,1.514,0.61566,11.135,29.91,-2.4856,0.82853,-0.65263,-3.3141,1.1104e-12,-0.32631,0,0,0.25,1.1842e-15,0,0.66667
0.50468,0.78521,2.0187,0.42782,6.6338,20.45,-2.3031,0.76769,-1.3494,-3.0707,-4.4453e-13,-0.67469,0,0,0.25,1.1842e-15,0,0.66667
0.47267,0.58678,1.8907,0.13018,2.083,22.56,-0.65632,0.21877,-1.9396,-0.8751,3.2174e-13,-0.9698,0,0,0.25,-5.9212e-16,0,0.66667
0.28587,0.35413,1.1435,-0.2188,-4.1696,37.23,0.66719,-0.2224,-1.8292,0.88959,2.6699e-11,-0.91459,0,0,0.25,-5.9212e-16,0,0.66667
0.87249,0.90205,3.4899,0.60307,2.9476,2.6152,-5.6125,1.8708,-0.70736,-7.4834,-3.1389e-10,-0.35368,0,0,0.25,-2.9606e-16,0,0.66667
0.04716,0.14232,0.18864,-0.53652,-11.268,58.291,0.26989,-0.089965,-0.97673,0.35986,-2.0811e-09,-0.48837,0,0,0.25,-7.4015e-17,0,0.66667
0.36431,0.56984,1.4572,0.10476,1.8783,30.786,-0.40709,0.1357,-1.9606,-0.54279,-1.8341e-13,-0.98032,0,0,0.25,-0,-0,0.66667
0.77404,0.05246,3.0961,-0.67131,-5.6631,5.9295,5.5426,-1.8475,-0.39688,7.3901,-9.1571e-12,-0.19844,0,0,0.25,5.9212e-16,0,0.66667
0.48551,0.055455,1.9421,-0.66682,-10.791,22.013,3.4533,-1.1511,-0.4195,4.6044,-1.4055e-13,-0.20975,0,0,0.25,5.9212e-16,0,0.66667
0.78628,0.75986,3.1451,0.38979,3.0086,5.0435,-3.2692,1.0897,-1.4592,-4.3589,2.0794e-10,-0.72959,0,0,0.25,-0,-0,0.66667
0.48261,0.7558,1.9304,0.3837,6.1138,21.962,-1.9752,0.6584,-1.477,-2.6336,2.6745e-13,-0.73849,0,0,0.25,-0,-0,0.66667
0.98946,0.88287,3.9579,0.5743,0.11822,0.6493,-6.0613,2.0204,-0.82689,-8.0817,8.7723e-08,-0.41344,0,0,0.25,-0,-0,0.66667
0.88404,0.16372,3.5362,-0.50441,-2.1898,2.16,4.7565,-1.5855,-1.0948,6.342,8.2284e-10,-0.54742,0,0,0.25,-0,-0,0.66667
0.007732,0.43667,0.030928,-0.094999,-1.972,61.852,0.0078353,-0.0026117,-1.9684,0.010447,1.2953e-08,-0.98422,0,0,0.25,1.1565e-17,0,0.66667
0.47505,0.46144,1.9002,-0.057837,-0.92186,22.378,0.29307,-0.09769,-1.9876,0.39076,-8.3766e-14,-0.99382,0,0,0.25,-8.8818e-16,0,0.66667
0.85741,0.51545,3.4297,0.02318,0.11746,2.4612,-0.212,0.070666,-1.9978,-0.28266,2.784e-10,-0.99891,0,0,0.25,-0,-0,0.66667
0.34353,0.96147,1.3741,0.69221,12.965,32.74,-2.5364,0.84548,-0.29706,-3.3819,5.0915e-13,-0.14853,0,0,0.25,2.9606e-16,-2.1156e-16,0.66667
0.72899,0.10651,2.916,-0.59024,-5.7691,7.6883,4.5897,-1.5299,-0.76049,6.1195,-9.3201e-12,-0.38024,0,0,0.25,-0,-0,0.66667
0.41832,0.21242,1.6733,-0.43138,-7.4239,26.709,1.9248,-0.6416,-1.3384,2.5664,-1.5736e-12,-0.66918,0,0,0.25,-2.9606e-16,0,0.66667
0.095764,0.39623,0.38305,-0.15565,-3.2032,53.87,0.159,-0.052998,-1.9138,0.21199,7.3433e-10,-0.9569,0,0,0.25,-1.4803e-16,0,0.66667
0.31526,0.041313,1.261,-0.68803,-13.156,35.024,2.3137,-0.77122,-0.31661,3.0849,-2.8022e-13,-0.1583,0,0,0.25,-5.9212e-16,0,0.66667
0.31302,0.27078,1.2521,-0.34382,-6.4578,35.009,1.148,-0.38266,-1.58,1.5306,9.0707e-12,-0.79,0,0,0.25,-0,-0,0.66667
0.65455,0.73351,2.6182,0.35026,4.1111,11.111,-2.4455,0.81516,-1.5636,-3.2606,6.3838e-13,-0.7818,0,0,0.25,-0,-0,0.66667
0.92687,0.083069,3.7075,-0.6254,-1.7688,1.5041,6.1831,-2.061,-0.60868,8.2441,-2.9442e-08,-0.30434,0,0,0.25,-0,-0,0.66667
0.70369,0.96115,2.8148,0.69172,7.3892,9.0299,-5.1921,1.7307,-0.29932,-6.9228,4.7606e-13,-0.14966,0,0,0.25,-1.1842e-15,0,0.66667
0.32303,0.79047,1.2921,0.43571,8.1568,34.227,-1.5013,0.50044,-1.3244,-2.0018,-3.2425e-12,-0.66222,0,0,0.25,-0,-0,0.66667
0.68312,0.04274,2.7325,-0.68589,-7.7386,10.031,4.9978,-1.6659,-0.32667,6.6638,1.2879e-13,-0.16334,0,0,0.25,1.1842e-15,0,0.66667
0.084102,0.61924,0.33641,0.17887,3.6904,54.924,-0.16046,0.053486,-1.886,-0.21395,5.2772e-09,-0.943,0,0,0.25,1.1102e-16,0,0.66667
0.3755,0.39127,1.502,-0.16309,-2.8981,29.909,0.65324,-0.21775,-1.9056,0.87099,-6.7879e-13,-0.95278,0,0,0.25,-0,-0,0.66667
0.19006,0.68785,0.76023,0.28177,5.6528,45.482,-0.57123,0.19041,-1.7189,-0.76164,-2.8121e-10,-0.85946,0,0,0.25,5.9212e-16,0,0.66667
0.69305,0.01768,2.7722,-0.72348,-7.9916,9.6017,5.3483,-1.7828,-0.13808,7.1311,5.107e-14,-0.069039,0,0,0.25,-0,-0,0.66667
0.66211,0.71928,2.6484,0.32893,3.7859,10.687,-2.323,0.77434,-1.616,-3.0974,2.0275e-12,-0.80799,0,0,0.25,2.3685e-15,0,0.66667
0.35307,0.8519,1.4123,0.52785,9.7016,31.853,-1.9879,0.66265,-1.0088,-2.6506,1.6598e-12,-0.50438,0,0,0.25,-0,-0,0.66667
0.1806,0.83313,0.72241,0.49969,10.15,46.368,-0.96263,0.32088,-1.1114,-1.2835,-3.0093e-10,-0.55569,0,0,0.25,1.4803e-16,0,0.66667
0.15666,0.13687,0.62664,-0.5447,-11.185,48.491,0.91022,-0.30341,-0.94534,1.2136,9.9786e-10,-0.47267,0,0,0.25,-0,-0,0.66667
0.23699,0.95886,0.94796,0.68829,13.795,41.568,-1.7399,0.57997,-0.31539,-2.3199,-6.6593e-12,-0.1577,0,0,0.25,-0,-0,0.66667
0.32846,0.11359,1.3138,-0.57961,-10.895,33.87,2.0307,-0.67691,-0.80581,2.7076,-7.212e-13,-0.40291,0,0,0.25,-0,-0,0.66667
0.8696,0.45428,3.4784,-0.068585,-0.31705,2.1343,0.63618,-0.21206,-1.9824,0.84823,1.2203e-09,-0.9912,0,0,0.25,-1.0298e-15,0,0.66667
0.12191,0.96751,0.48766,0.70126,14.686,51.62,-0.91193,0.30398,-0.25243,-1.2159,1.1785e-08,-0.12621,0,0,0.25,5.5511e-17,0,0.66667
0.16814,0.20521,0.67257,-0.44219,-8.9984,47.448,0.79308,-0.26436,-1.3042,1.0574,6.2939e-10,-0.65208,0,0,0.25,-0,-0,0.66667
0.37046,0.67156,1.4818,0.25733,4.604,30.334,-1.0169,0.33895,-1.7638,-1.3558,1.0406e-12,-0.88189,0,0,0.25,-0,-0,0.66667
0.60435,0.0019786,2.4174,-0.74703,-10.113,14.438,4.8156,-1.6052,-0.016263,6.4208,-2.7223e-13,-0.0081314,0,0,0.25,4.737e-15,0,0.66667
0.055815,0.26573,0.22326,-0.35141,-7.3134,57.494,0.20922,-0.069739,-1.56,0.27895,-2.1042e-09,-0.77998,0,0,0.25,-0,-0,0.66667
0.24523,0.82851,0.9809,0.49276,9.7167,40.765,-1.2889,0.42965,-1.1359,-1.7186,-5.9593e-11,-0.56793,0,0,0.25,-2.9606e-16,0,0.66667
0.83397,0.85241,3.3359,0.52862,3.2786,3.5772,-4.7024,1.5675,-1.0059,-6.2699,8.685e-10,-0.50293,0,0,0.25,-0,-0,0.66667
0.66288,0.18898,2.6515,-0.46653,-5.4125,10.775,3.2987,-1.0996,-1.2266,4.3983,1.0925e-13,-0.61328,0,0,0.25,-0,-0,0.66667
0.35143,0.16828,1.4057,-0.49759,-9.1417,31.965,1.8652,-0.62175,-1.1188,2.487,-1.5729e-12,-0.55938,0,0,0.25,-5.9212e-16,0,0.66667
0.11421,0.84243,0.45685,0.51364,10.656,52.258,-0.62575,0.20858,-1.0626,-0.83433,-7.1654e-10,-0.53128,0,0,0.25,2.0194e-16,0,0.66667
0.3249,0.45829,1.2996,-0.062558,-1.1574,33.967,0.2168,-0.072267,-1.9857,0.28907,2.2917e-12,-0.99286,0,0,0.25,-0,-0,0.66667
0.24452,0.87613,0.97806,0.5642,11.174,40.859,-1.4715,0.49051,-0.86877,-1.962,-4.1343e-11,-0.43439,0,0,0.25,-5.9212e-16,0,0.66667
0.71057,0.57143,2.8423,0.10715,1.0705,8.1135,-0.81212,0.27071,-1.9585,-1.0828,1.4367e-11,-0.97925,0,0,0.25,-0,-0,0.66667
0.30055,0.45703,1.2022,-0.064461,-1.2136,35.98,0.20665,-0.068884,-1.9847,0.27554,6.0316e-12,-0.99235,0,0,0.25,-0,-0,0.66667
0.67724,0.78096,2.7089,0.42143,4.6989,9.9761,-3.0444,1.0148,-1.3693,-4.0592,3.38e-12,-0.68464,0,0,0.25,1.5358e-15,0,0.66667
0.41266,0.20486,1.6506,-0.44271,-7.668,27.146,1.9487,-0.64956,-1.3022,2.5982,-1.7339e-12,-0.6511,0,0,0.25,-0,-0,0.66667
0.34994,0.56267,1.3998,0.094,1.7058,31.936,-0.35087,0.11696,-1.9693,-0.46783,-1.17e-12,-0.98465,0,0,0.25,-0,-0,0.66667
0.78582,0.50929,3.1433,0.013937,0.10559,4.8489,-0.11682,0.038939,-1.9988,-0.15576,-5.2895e-11,-0.99941,0,0,0.25,-0,-0,0.66667
0.1854,0.90732,0.74161,0.61098,12.466,45.988,-1.2083,0.40277,-0.6739,-1.6111,1.3541e-10,-0.33695,0,0,0.25,-0,3.9158e-17,0.66667
0.45682,0.96662,1.8273,0.69992,11.763,24.094,-3.4106,1.1369,-0.25879,-4.5474,1.5521e-13,-0.12939,0,0,0.25,-0,-0,0.66667
0.58351,0.71058,2.334,0.31587,4.2926,15.211,-1.966,0.65534,-1.6448,-2.6214,-1.9097e-12,-0.82238,0,0,0.25,-0,-0,0.66667
0.3212,0.21449,1.2848,-0.42826,-8.0253,34.374,1.4673,-0.48909,-1.3478,1.9564,3.87e-12,-0.6739,0,0,0.25,-1.0587e-16,0,0.66667
0.70625,0.4274,2.825,-0.1089,-1.1022,8.3219,0.82038,-0.27346,-1.9575,1.0938,-1.2816e-11,-0.97876,0,0,0.25,-5.9212e-16,0,0.66667
0.91783,0.77585,3.6713,0.41377,1.2232,1.3055,-4.0509,1.3503,-1.3913,-5.4012,-2.8708e-09,-0.69565,0,0,0.25,2.3198e-15,0,0.66667
0.073071,0.43242,0.29228,-0.10138,-2.0931,55.919,0.079015,-0.026338,-1.9634,0.10535,1.292e-07,-0.9817,0,0,0.25,-3.7007e-17,0,0.66667
0.18143,0.4371,0.72571,-0.094346,-1.8923,46.218,0.18258,-0.06086,-1.969,0.24344,-2.5389e-10,-0.98452,0,0,0.25,-6.4763e-17,0,0.66667
0.50911,0.76859,2.0364,0.40288,6.1999,20.127,-2.1879,0.72929,-1.422,-2.9172,-5.0604e-13,-0.71099,0,0,0.25,-0,-0,0.66667
0.79988,0.60458,3.1995,0.15687,1.1179,4.3584,-1.3384,0.44615,-1.9122,-1.7846,1.0051e-10,-0.95608,0,0,0.25,-2.3685e-15,0,0.66667
0.63096,0.5947,2.5238,0.14205,1.744,12.306,-0.95599,0.31866,-1.9288,-1.2747,-4.3565e-13,-0.96442,0,0,0.25,-0,-0,0.66667
0.019691,0.4018,0.078763,-0.14731,-3.0587,60.765,0.030939,-0.010313,-1.923,0.041252,2.9729e-07,-0.96151,0,0,0.25,-0,-0,0.66667
0.32998,0.85195,1.3199,0.52792,9.8806,33.713,-1.8582,0.61939,-1.0092,-2.4776,1.3534e-13,-0.50461,0,0,0.25,-0,-0,0.66667
0.65383,0.39671,2.6153,-0.15493,-1.8058,11.035,1.0805,-0.36018,-1.9145,1.4407,-1.6656e-12,-0.95726,0,0,0.25,-0,-0,0.66667
0.68714,0.81893,2.7486,0.47839,5.2215,9.534,-3.5064,1.1688,-1.187,-4.6752,4.0654e-12,-0.59352,0,0,0.25,-0,-0,0.66667
0.48225,0.39361,1.929,-0.15958,-2.5238,21.883,0.82088,-0.27363,-1.9092,1.0945,-3.5139e-13,-0.9546,0,0,0.25,-0,-0,0.66667
0.053735,0.41856,0.21494,-0.12216,-2.5293,57.672,0.07002,-0.02334,-1.946,0.093361,-5.5384e-08,-0.97301,0,0,0.25,-0,-0,0.66667
0.62779,0.3525,2.5112,-0.22126,-2.742,12.519,1.4816,-0.49387,-1.8258,1.9755,6.9444e-13,-0.9129,0,0,0.25,-0,-0,0.66667
0.50403,0.181,2.0161,-0.47851,-7.4493,20.536,2.5726,-0.85754,-1.1858,3.4301,2.4203e-14,-0.59289,0,0,0.25,-0,-0,0.66667
0.72541,0.45976,2.9017,-0.060359,-0.57507,7.4057,0.46704,-0.15568,-1.9864,0.62272,-1.3439e-11,-0.99319,0,0,0.25,5.9212e-16,0,0.66667
0.39049,0.88182,1.562,0.57273,10.216,28.942,-2.3856,0.7952,-0.83449,-3.1808,1.2261e-12,-0.41724,0,0,0.25,-0,2.0212e-16,0.66667
0.83573,0.64832,3.3429,0.22248,1.3129,3.1811,-1.9833,0.66109,-1.8234,-2.6444,1.9084e-10,-0.91171,0,0,0.25,-0,-0,0.66667
0.3075,0.47001,1.23,-0.044984,-0.84277,35.401,0.14755,-0.049183,-1.9934,0.19673,3.8235e-12,-0.99671,0,0,0.25,-0,-0,0.66667
0.86379,0.74578,3.4551,0.36867,1.8336,2.492,-3.3968,1.1323,-1.5169,-4.5291,6.6413e-10,-0.75845,0,0,0.25,-5.9212e-16,0,0.66667
0.014481,0.16046,0.057923,-0.50931,-10.703,61.245,0.078668,-0.026223,-1.0786,0.10489,1.3869e-09,-0.53928,0,0,0.25,3.7007e-17,0,0.66667
0.76274,0.80242,3.051,0.45363,3.8795,6.0471,-3.6907,1.2302,-1.2681,-4.9209,9.4856e-11,-0.63404,0,0,0.25,-0,-0,0.66667
0.82737,0.53621,3.3095,0.054319,0.33404,3.3794,-0.47938,0.15979,-1.9904,-0.63918,-2.4594e-10,-0.99518,0,0,0.25,-0,-0,0.66667
0.6809,0.065784,2.7236,-0.65132,-7.3595,10.087,4.7305,-1.5768,-0.49175,6.3073,4.4498e-13,-0.24587,0,0,0.25,-0,-0,0.66667
0.90273,0.99868,3.6109,0.74802,2.951,2.2303,-7.2028,2.4009,-0.011347,-9.6038,-6.9346e-09,-0.0056734,0,0,0.25,1.4803e-15,-4.7812e-17,0.66667
0.20173,0.82308,0.80694,0.48462,9.7532,44.516,-1.0428,0.34761,-1.165,-1.3904,-2.1919e-10,-0.5825,0,0,0.25,-0,-0,0.66667
0.35195,0.74005,1.4078,0.36007,6.5684,31.849,-1.3518,0.45059,-1.5382,-1.8023,4.2755e-13,-0.76912,0,0,0.25,-0,-0,0.66667
0.22914,0.20064,0.91656,-0.44904,-8.9086,42.128,1.0975,-0.36585,-1.2822,1.4634,1.1569e-10,-0.64112,0,0,0.25,-0,-0,0.66667
0.84492,0.2232,3.3797,-0.4152,-2.3663,3.0839,3.7419,-1.2473,-1.3879,4.9892,-6.0495e-10,-0.69394,0,0,0.25,-0,-0,0.66667
0.74641,0.26853,2.9856,-0.3472,-3.1212,6.6207,2.7643,-0.92144,-1.5708,3.6857,-7.3191e-11,-0.78541,0,0,0.25,1.1842e-15,0,0.66667
0.86905,0.19166,3.4762,-0.46252,-2.2477,2.4719,4.2875,-1.4292,-1.2394,5.7166,-6.7856e-10,-0.61969,0,0,0.25,-2.3685e-15,0,0.66667
0.34762,0.9859,1.3905,0.72885,13.646,32.445,-2.7026,0.90086,-0.11054,-3.6034,4.0856e-14,-0.055269,0,0,0.25,5.9212e-16,0,0.66667
0.15395,0.34567,0.6158,-0.23149,-4.6992,48.664,0.38014,-0.12671,-1.8104,0.50685,1.0886e-09,-0.90521,0,0,0.25,-0,-0,0.66667
0.96828,0.26998,3.8731,-0.34503,-0.30083,0.46959,3.5636,-1.1879,-1.577,4.7514,3.4008e-09,-0.78851,0,0,0.25,-0,-0,0.66667
0.44892,0.38104,1.7957,-0.17843,-2.9412,24.302,0.85443,-0.28481,-1.8867,1.1392,-8.5321e-13,-0.94336,0,0,0.25,-1.1842e-15,0,0.66667
0.7299,0.33153,2.9196,-0.2527,-2.3882,7.2782,1.9674,-0.65581,-1.7723,2.6232,-4.5427e-11,-0.88613,0,0,0.25,1.1842e-15,0,0.66667
0.65417,0.049432,2.6167,-0.67585,-8.174,11.52,4.7159,-1.572,-0.37565,6.2879,2.6512e-13,-0.18783,0,0,0.25,1.1842e-15,0,0.66667
0.14285,0.52089,0.57139,0.031338,0.63667,49.64,-0.04775,0.015917,-1.9964,-0.063667,5.7314e-10,-0.99818,0,0,0.25,-0,-0,0.66667
0.84418,0.86043,3.3767,0.54065,3.1629,3.286,-4.8683,1.6228,-0.96087,-6.4911,9.1881e-10,-0.48043,0,0,0.25,-1.1842e-15,0,0.66667
0.97846,0.028444,3.9139,-0.70733,-0.59735,1.0316,7.3824,-2.4608,-0.2213,9.8432,3.391e-06,-0.11065,0,0,0.25,1.1842e-15,0,0.66667
0.96625,0.22659,3.865,-0.41012,-0.41293,0.5763,4.2269,-1.409,-1.402,5.6359,3.0789e-09,-0.701,0,0,0.25,-0,-0,0.66667
0.3364,0.46031,1.3456,-0.059537,-1.0919,33.028,0.21364,-0.071212,-1.9868,0.28485,1.1815e-12,-0.99338,0,0,0.25,-0,-0,0.66667
0.92595,0.6871,3.7038,0.28065,0.7131,1.0057,-2.7719,0.92398,-1.7209,-3.6959,7.5222e-09,-0.86043,0,0,0.25,1.2953e-15,0,0.66667
0.13324,0.94588,0.53298,0.66881,13.935,50.604,-0.95057,0.31686,-0.40892,-1.2674,2.6673e-09,-0.20446,0,0,0.25,-0,-0,0.66667
0.93972,0.9198,3.7589,0.6297,1.4623,1.3078,-6.3119,2.104,-0.58983,-8.4159,6.5404e-08,-0.29491,0,0,0.25,-0,-0,0.66667
0.0441,0.52136,0.1764,0.03204,0.66353,58.545,-0.015071,0.0050237,-1.9961,-0.020095,-1.4944e-07,-0.99806,0,0,0.25,-0,-0,0.66667
0.40908,0.77445,1.6363,0.41167,7.1449,27.4,-1.7963,0.59878,-1.3975,-2.3951,1.7796e-12,-0.69875,0,0,0.25,-0,-0,0.66667
0.84301,0.25814,3.372,-0.36279,-2.0772,3.08,3.2622,-1.0874,-1.5325,4.3496,-6.8551e-10,-0.76625,0,0,0.25,-0,-0,0.66667
0.72623,0.86015,2.9049,0.54022,5.2948,7.7402,-4.1848,1.3949,-0.96136,-5.5797,1.5249e-11,-0.48068,0,0,0.25,-8.6003e-16,0,0.66667
0.72093,0.58245,2.8837,0.12367,1.1969,7.6287,-0.95102,0.31701,-1.9454,-1.268,2.1979e-11,-0.97271,0,0,0.25,-0,-0,0.66667
0.27735,0.50647,1.1094,0.0097109,0.18556,37.924,-0.028728,0.0095761,-1.9996,-0.038304,2.4089e-13,-0.99979,0,0,0.25,-0,-0,0.66667
0.42121,0.15878,1.6849,-0.51183,-8.8223,26.547,2.2996,-0.76654,-1.0698,3.0662,-1.2628e-12,-0.53492,0,0,0.25,-1.1842e-15,0,0.66667
0.58955,0.098303,2.3582,-0.60255,-8.2619,15.116,3.7891,-1.263,-0.70925,5.0522,7.4674e-13,-0.35462,0,0,0.25,-0,-0,0.66667
0.38914,0.70633,1.5566,0.30949,5.4529,28.886,-1.2846,0.42821,-1.6594,-1.7128,1.8664e-12,-0.82968,0,0,0.25,-0,-0,0.66667
0.50598,0.72314,2.0239,0.33472,5.1562,20.297,-1.8065,0.60216,-1.6016,-2.4086,-1.6442e-13,-0.8008,0,0,0.25,-1.1842e-15,0,0.66667
0.54035,0.21788,2.1614,-0.42318,-6.2236,18.043,2.4391,-0.81303,-1.3638,3.2521,7.585e-13,-0.68191,0,0,0.25,-1.5543e-15,0,0.66667
0.82427,0.37278,3.2971,-0.19082,-1.2009,3.53,1.6778,-0.55926,-1.8711,2.237,-2.1689e-10,-0.93556,0,0,0.25,-0,-0,0.66667
0.72498,0.44651,2.8999,-0.080231,-0.76573,7.4294,0.62043,-0.20681,-1.9765,0.82724,-1.6032e-11,-0.98823,0,0,0.25,-0,-0,0.66667
0.66049,0.41929,2.642,-0.12107,-1.3873,10.664,0.85294,-0.28431,-1.9472,1.1373,-2.1649e-12,-0.9736,0,0,0.25,-1.1842e-15,0,0.66667
0.035884,0.8363,0.14354,0.50445,10.587,59.308,-0.19308,0.064361,-1.0949,-0.25744,-1.3634e-08,-0.54745,0,0,0.25,-0,-0,0.66667
0.15539,0.93296,0.62154,0.64944,13.425,48.639,-1.0764,0.3588,-0.50125,-1.4352,-1.458e-09,-0.25063,0,0,0.25,1.4803e-16,-1.4706e-16,0.66667
0.88653,0.021107,3.5461,-0.71834,-3.2459,2.5135,6.7928,-2.2643,-0.16479,9.0571,-3.1887e-09,-0.082397,0,0,0.25,-0,-0,0.66667
0.76576,0.83426,3.063,0.50138,4.2624,5.9863,-4.0953,1.3651,-1.1067,-5.4605,8.6054e-11,-0.55335,0,0,0.25,5.9212e-16,0,0.66667
0.18038,0.79132,0.72154,0.43699,8.8507,46.369,-0.84081,0.28027,-1.3203,-1.1211,-4.9201e-10,-0.66013,0,0,0.25,2.9606e-16,0,0.66667
0.065156,0.19595,0.26062,-0.45607,-9.5206,56.658,0.31697,-0.10566,-1.2604,0.42263,-8.5442e-09,-0.63018,0,0,0.25,-0,-0,0.66667
0.16273,0.59753,0.65093,0.1463,2.9563,47.876,-0.25395,0.084649,-1.9239,-0.33859,2.636e-10,-0.96196,0,0,0.25,-0,-0,0.66667
0.83741,0.24947,3.3496,-0.3758,-2.2309,3.2653,3.3568,-1.1189,-1.4985,4.4757,-6.2926e-10,-0.74925,0,0,0.25,7.4015e-17,0,0.66667
0.97311,0.56584,3.8924,0.098756,0.055181,0.23043,-1.0251,0.34169,-1.9656,-1.3668,-1.2332e-06,-0.98282,0,0,0.25,-0,-0,0.66667
0.7551,0.55649,3.0204,0.084735,0.72818,6.0973,-0.68249,0.2275,-1.9743,-0.90999,3.0912e-11,-0.98714,0,0,0.25,-0,-0,0.66667
0.7846,0.48547,3.1384,-0.021795,-0.16603,4.896,0.18241,-0.060802,-1.9977,0.24321,1.5338e-11,-0.99887,0,0,0.25,-0,-0,0.66667
0.029384,0.80094,0.11754,0.45141,9.4538,59.893,-0.14149,0.047162,-1.2754,-0.18865,8.0162e-09,-0.63768,0,0,0.25,3.7007e-17,0,0.66667
0.87464,0.12655,3.4986,-0.56018,-2.664,2.4833,5.2261,-1.742,-0.88584,6.9682,-8.3524e-09,-0.44292,0,0,0.25,-0,5.6528e-17,0.66667
0.68115,0.84575,2.7246,0.51863,5.7729,9.8859,-3.7681,1.256,-1.044,-5.0242,1.3591e-12,-0.52199,0,0,0.25,-0,-0,0.66667
0.34905,0.69207,1.3962,0.2881,5.2542,32.053,-1.0727,0.35755,-1.7049,-1.4302,-9.3225e-13,-0.85243,0,0,0.25,-1.1842e-15,0,0.66667
0.49958,0.18161,1.9983,-0.47759,-7.4801,20.843,2.545,-0.84834,-1.1898,3.3933,-1.7364e-13,-0.59492,0,0,0.25,-2.9606e-16,-1.0529e-17,0.66667
0.95006,0.90026,3.8002,0.60039,1.1216,1.1011,-6.0843,2.0281,-0.71848,-8.1124,-3.0119e-08,-0.35924,0,0,0.25,5.9212e-16,1.934e-16,0.66667
0.054088,0.81076,0.21635,0.46613,9.7482,57.659,-0.26893,0.089643,-1.2278,-0.35857,-1.032e-08,-0.6139,0,0,0.25,-9.2519e-18,0,0.66667
0.1917,0.65963,0.7668,0.23944,4.7949,45.331,-0.48961,0.1632,-1.7965,-0.65281,-2.3452e-10,-0.89824,0,0,0.25,-0,-0,0.66667
0.15015,0.93317,0.6006,0.64975,13.454,49.101,-1.0406,0.34688,-0.4989,-1.3875,-2.0833e-09,-0.24945,0,0,0.25,3.7007e-16,0,0.66667
0.53825,0.75052,2.153,0.37578,5.5299,18.146,-2.1574,0.71915,-1.4985,-2.8766,-8.3999e-13,-0.74927,0,0,0.25,-0,-0,0.66667
0.23563,0.25034,0.94251,-0.37449,-7.3816,41.544,0.94122,-0.31374,-1.5029,1.255,1.1858e-10,-0.75146,0,0,0.25,-0,-0,0.66667
0.076734,0.46742,0.30694,-0.048864,-1.0079,55.586,0.039995,-0.013332,-1.9928,0.053327,-1.9593e-07,-0.99641,0,0,0.25,2.0354e-16,0,0.66667
0.515,0.90438,2.06,0.60657,9.3857,19.913,-3.3321,1.1107,-0.69325,-4.4428,-4.4409e-13,-0.34663,0,0,0.25,7.4015e-17,0,0.66667
0.83625,0.84836,3.345,0.52254,3.1949,3.4969,-4.6611,1.5537,-1.029,-6.2147,1.0309e-09,-0.51451,0,0,0.25,-0,-0,0.66667
0.68195,0.55467,2.7278,0.082006,0.88861,9.5274,-0.59652,0.19884,-1.9756,-0.79536,4.0761e-12,-0.98781,0,0,0.25,5.9212e-16,0,0.66667
0.036724,0.025988,0.14689,-0.71102,-15.106,59.248,0.27852,-0.092839,-0.20237,0.37136,9.1264e-07,-0.10118,0,0,0.25,-0,-0,0.66667
0.04527,0.03859,0.18108,-0.69211,-14.675,58.477,0.33421,-0.1114,-0.2971,0.44561,1.999e-06,-0.14855,0,0,0.25,-0,-2.1282e-16,0.66667
0.53809,0.072325,2.1523,-0.64151,-9.6227,18.415,3.682,-1.2273,-0.536,4.9093,9.6589e-14,-0.268,0,0,0.25,-0,-0,0.66667
0.14142,0.23022,0.56567,-0.40467,-8.2929,49.808,0.61042,-0.20347,-1.4179,0.81389,1.1099e-09,-0.70896,0,0,0.25,-0,-0,0.66667
0.70723,0.11713,2.8289,-0.5743,-5.9851,8.6741,4.3324,-1.4441,-0.82701,5.7766,-3.7748e-12,-0.4135,0,0,0.25,-5.9212e-16,0,0.66667
0.24745,0.18911,0.98978,-0.46633,-9.1724,40.565,1.2308,-0.41028,-1.2278,1.6411,6.9652e-11,-0.61388,0,0,0.25,-0,-0,0.66667
0.43996,0.88505,1.7598,0.57758,9.7995,25.202,-2.7105,0.9035,-0.81372,-3.614,3.4484e-13,-0.40686,0,0,0.25,1.1842e-15,0,0.66667
0.62029,0.35326,2.4812,-0.22011,-2.7716,12.951,1.4563,-0.48545,-1.8272,1.9418,9.9321e-13,-0.9136,0,0,0.25,-0,-0,0.66667
0.97274,0.2423,3.8909,-0.38655,-0.27791,0.47572,4.0108,-1.3369,-1.4685,5.3477,8.7482e-10,-0.73424,0,0,0.25,-5.9212e-16,0,0.66667
0.19701,0.49506,0.78802,-0.0074058,-0.14753,44.846,0.015563,-0.0051875,-1.9997,0.02075,2.1569e-10,-0.99983,0,0,0.25,-0,-0,0.66667
0.91184,0.9253,3.6474,0.63795,2.191,1.8031,-6.2049,2.0683,-0.55215,-8.2732,6.0696e-08,-0.27607,0,0,0.25,-0,-0,0.66667
0.35078,0.97482,1.4031,0.71223,13.284,32.179,-2.6649,0.88829,-0.19601,-3.5532,3.2818e-13,-0.098007,0,0,0.25,-0,-0,0.66667
0.16192,0.63754,0.6477,0.2063,4.1745,47.953,-0.35633,0.11878,-1.8478,-0.4751,-4.4983e-10,-0.92392,0,0,0.25,-0,-0,0.66667
0.42086,0.34494,1.6835,-0.23258,-3.9603,26.418,1.0441,-0.34804,-1.8091,1.3922,-1.4839e-12,-0.90455,0,0,0.25,-1.1842e-15,0,0.66667
0.84148,0.0782,3.3659,-0.6327,-3.8337,3.5282,5.679,-1.893,-0.57633,7.572,-1.5735e-10,-0.28816,0,0,0.25,1.1842e-15,0,0.66667
0.043786,0.93575,0.17514,0.65362,13.825,58.607,-0.30527,0.10176,-0.48182,-0.40703,1.0026e-06,-0.24091,0,0,0.25,1.0177e-16,-6.3653e-17,0.66667
0.13697,0.14018,0.54789,-0.53974,-11.147,50.235,0.78857,-0.26286,-0.96358,1.0514,6.644e-10,-0.48179,0,0,0.25,-2.9606e-16,0,0.66667
0.58994,0.33376,2.3598,-0.24936,-3.3388,14.776,1.5691,-0.52304,-1.7785,2.0922,1.4517e-12,-0.88924,0,0,0.25,-0,-0,0.66667
0.40858,0.96915,1.6343,0.70372,12.457,27.675,-3.0669,1.0223,-0.24047,-4.0893,6.7035e-13,-0.12024,0,0,0.25,-0,-0,0.66667
0.47828,0.54932,1.9131,0.073976,1.1744,22.149,-0.3774,0.1258,-1.9796,-0.5032,1.5754e-13,-0.98982,0,0,0.25,-5.9212e-16,0,0.66667
0.82205,0.36567,3.2882,-0.20149,-1.2846,3.6095,1.7668,-0.58894,-1.855,2.3558,-1.3622e-10,-0.92749,0,0,0.25,-0,-0,0.66667
0.16727,0.79239,0.66909,0.43858,8.9263,47.524,-0.78254,0.26085,-1.3154,-1.0434,-6.8606e-10,-0.65771,0,0,0.25,2.9606e-16,0,0.66667
0.32202,0.70099,1.2881,0.30148,5.6172,34.253,-1.0356,0.34519,-1.6759,-1.3807,-6.7033e-12,-0.83796,0,0,0.25,5.9212e-16,0,0.66667
0.20551,0.45933,0.82204,-0.061004,-1.2111,44.102,0.13373,-0.044576,-1.9867,0.1783,4.3e-11,-0.99333,0,0,0.25,2.9606e-16,0,0.66667
0.099323,0.71998,0.39729,0.32997,6.8147,53.564,-0.34958,0.11653,-1.6134,-0.46611,1.2049e-09,-0.80671,0,0,0.25,-0,-0,0.66667
0.52436,0.27671,2.0974,-0.33493,-5.0243,19.045,1.8733,-0.62444,-1.601,2.4978,5.7421e-13,-0.8005,0,0,0.25,-8.8818e-16,0,0.66667
0.21257,0.6649,0.85029,0.24735,4.9098,43.508,-0.56086,0.18695,-1.7819,-0.74781,-1.9817e-10,-0.89093,0,0,0.25,-0,-0,0.66667
0.90438,0.51361,3.6175,0.020417,0.067414,1.2979,-0.19696,0.065652,-1.9983,-0.26261,-1.1498e-08,-0.99915,0,0,0.25,-0,-0,0.66667
0.046031,0.22699,0.18412,-0.40952,-8.5503,58.383,0.20107,-0.067024,-1.4041,0.2681,-7.7499e-09,-0.70206,0,0,0.25,-0,-0,0.66667
0.89727,0.77021,3.5891,0.40531,1.5178,1.7138,-3.8792,1.2931,-1.4151,-5.1723,2.8928e-09,-0.70754,0,0,0.25,-0,-0,0.66667
0.58773,0.0021656,2.3509,-0.74675,-10.424,15.429,4.6815,-1.5605,-0.017621,6.242,2.6645e-15,-0.0088104,0,0,0.25,-0,-0,0.66667
0.8616,0.33154,3.4464,-0.25268,-1.2582,2.4413,2.3223,-0.77409,-1.7727,3.0963,2.7042e-10,-0.88636,0,0,0.25,-0,-0,0.66667
0.02917,0.4359,0.11668,-0.096156,-1.9944,59.902,0.029919,-0.0099738,-1.9682,0.039892,-1.1792e-06,-0.9841,0,0,0.25,-4.1941e-17,0,0.66667
0.33301,0.64438,1.332,0.21657,3.992,33.33,-0.76929,0.25643,-1.8325,-1.0257,-4.0396e-12,-0.91626,0,0,0.25,5.9212e-16,0,0.66667
0.50111,0.48759,2.0044,-0.018616,-0.28656,20.534,0.099505,-0.033168,-1.9988,0.13267,-3.5062e-13,-0.9994,0,0,0.25,5.9212e-16,0,0.66667
0.21711,0.23808,0.86845,-0.39288,-7.82,43.149,0.90985,-0.30328,-1.4511,1.2131,1.9221e-10,-0.72555,0,0,0.25,-0,-0,0.66667
0.4226,0.50424,1.6904,0.0063536,0.10763,26.246,-0.02864,0.0095467,-2.0008,-0.038187,5.1707e-14,-1.0004,0,0,0.25,-0,-0,0.66667
0.029533,0.25831,0.11813,-0.36254,-7.5653,59.876,0.1142,-0.038068,-1.5328,0.15227,-1.3329e-09,-0.76642,0,0,0.25,-0,-0,0.66667
0.58718,0.57368,2.3487,0.11053,1.4818,14.893,-0.69225,0.23075,-1.9557,-0.92301,-8.9045e-13,-0.97787,0,0,0.25,-0,-0,0.66667
0.92973,0.69916,3.7189,0.29873,0.71753,0.95714,-2.9626,0.98753,-1.6818,-3.9501,2.6833e-09,-0.8409,0,0,0.25,-0,-0,0.66667
0.075808,0.19848,0.30323,-0.45228,-9.4253,55.697,0.36572,-0.12191,-1.2725,0.48763,-6.8323e-09,-0.63624,0,0,0.25,-0,-0,0.66667
0.84182,0.40509,3.3673,-0.14237,-0.80478,2.9491,1.2784,-0.42613,-1.9291,1.7045,-6.5079e-10,-0.96457,0,0,0.25,1.3323e-15,0,0.66667
0.74778,0.026843,2.9911,-0.70973,-6.6313,7.071,5.6611,-1.887,-0.20953,7.5481,8.4377e-13,-0.10476,0,0,0.25,5.9212e-16,0,0.66667
0.22999,0.47214,0.91994,-0.041792,-0.8201,41.974,0.10252,-0.034174,-1.9941,0.1367,6.7443e-12,-0.99704,0,0,0.25,-0,-0,0.66667
0.51812,0.92372,2.0725,0.63557,9.8146,19.735,-3.5126,1.1709,-0.56334,-4.6834,-2.6357e-13,-0.28167,0,0,0.25,5.9212e-16,0,0.66667
0.31376,0.18887,1.255,-0.4667,-8.8092,35.004,1.5619,-0.52064,-1.2269,2.0826,3.6801e-12,-0.61346,0,0,0.25,1.1842e-15,0,0.66667
0.61579,0.20308,2.4631,-0.44539,-5.7305,13.378,2.9255,-0.97516,-1.2937,3.9006,1.9431e-12,-0.64686,0,0,0.25,-0,-0,0.66667
0.21317,0.967,0.85269,0.7005,14.213,43.618,-1.5928,0.53094,-0.25574,-2.1238,2.6126e-11,-0.12787,0,0,0.25,3.7007e-17,0,0.66667
0.43589,0.61309,1.7436,0.16964,2.8374,25.268,-0.78872,0.26291,-1.8976,-1.0516,1.0947e-12,-0.9488,0,0,0.25,-0,-0,0.66667
0.78908,0.60201,3.1563,0.15301,1.1462,4.7576,-1.2879,0.42928,-1.9161,-1.7171,1.4394e-10,-0.95807,0,0,0.25,-2.3685e-15,0,0.66667
0.46647,0.89657,1.8659,0.59486,9.8003,23.288,-2.9598,0.9866,-0.74174,-3.9464,2.0228e-13,-0.37087,0,0,0.25,5.9212e-16,0,0.66667
0.67355,0.026473,2.6942,-0.71029,-8.2356,10.558,5.1031,-1.701,-0.2068,6.8042,1.279e-13,-0.1034,0,0,0.25,5.9212e-16,0,0.66667
0.88484,0.41989,3.5393,-0.12016,-0.48812,1.7636,1.1341,-0.37803,-1.9478,1.5121,2.077e-09,-0.97389,0,0,0.25,-0,-0,0.66667
0.93814,0.55829,3.7526,0.08743,0.17332,0.68312,-0.87489,0.29163,-1.9738,-1.1665,-1.9872e-07,-0.98691,0,0,0.25,5.9212e-16,0,0.66667
0.98474,0.47971,3.939,-0.03044,-0.0019471,0.10788,0.31974,-0.10658,-1.997,0.42632,-2.2873e-06,-0.99852,0,0,0.25,-0,-0,0.66667
0.88356,0.40096,3.5342,-0.14857,-0.61187,1.8066,1.4002,-0.46673,-1.9213,1.8669,-6.1931e-09,-0.96064,0,0,0.25,-1.1842e-15,0,0.66667
0.24358,0.51227,0.97432,0.018398,0.35847,40.801,-0.0478,0.015933,-1.9979,-0.063734,-8.5821e-13,-0.99896,0,0,0.25,-0,-0,0.66667
0.4083,0.74213,1.6332,0.36319,6.2942,27.432,-1.5818,0.52726,-1.5311,-2.109,2.0637e-12,-0.76556,0,0,0.25,-0,-0,0.66667
0.37481,0.2551,1.4992,-0.36736,-6.5731,30.036,1.4687,-0.48955,-1.5212,1.9582,-1.8671e-12,-0.76059,0,0,0.25,-1.1842e-15,0,0.66667
0.15223,0.80743,0.60891,0.46115,9.4425,48.861,-0.7488,0.2496,-1.244,-0.9984,-1.8009e-09,-0.62198,0,0,0.25,-0,-0,0.66667
0.070456,0.32084,0.28182,-0.26874,-5.5681,56.163,0.20197,-0.067323,-1.7426,0.26929,-2.5373e-09,-0.87129,0,0,0.25,-0,-0,0.66667
0.29574,0.65293,1.183,0.2294,4.3445,36.406,-0.72366,0.24122,-1.8139,-0.96488,-1.9583e-11,-0.90695,0,0,0.25,4.4409e-16,0,0.66667
0.85996,0.73063,3.4398,0.34595,1.7634,2.5718,-3.1733,1.0578,-1.5747,-4.2311,6.991e-10,-0.78734,0,0,0.25,-0,-0,0.66667
0.038983,0.89515,0.15593,0.59272,12.496,59.034,-0.24647,0.082155,-0.75001,-0.32862,-2.8411e-07,-0.37501,0,0,0.25,-3.7007e-17,0,0.66667
0.21547,0.85315,0.86186,0.52972,10.621,43.34,-1.2175,0.40582,-1.002,-1.6233,-1.0721e-10,-0.501,0,0,0.25,-0,-0,0.66667
0.34655,0.42606,1.3862,-0.11091,-2.0187,32.211,0.41,-0.13667,-1.9559,0.54666,1.0806e-12,-0.97796,0,0,0.25,-0,-0,0.66667
0.64816,0.53466,2.5926,0.051989,0.61297,11.322,-0.35944,0.11981,-1.9904,-0.47925,5.2724e-13,-0.99522,0,0,0.25,-0,-0,0.66667
0.56317,0.93398,2.2527,0.65097,9.3893,16.812,-3.9105,1.3035,-0.49438,-5.214,-3.6571e-13,-0.24719,0,0,0.25,-0,-0,0.66667
0.79618,0.04826,3.1847,-0.67761,-5.2195,5.1089,5.7547,-1.9182,-0.36754,7.6729,-2.0612e-11,-0.18377,0,0,0.25,-2.1271e-15,0,0.66667
0.68696,0.38658,2.7479,-0.17013,-1.8226,9.2986,1.2467,-0.41556,-1.8973,1.6622,-9.1918e-12,-0.94866,0,0,0.25,-0,-0,0.66667
0.8895,0.80695,3.558,0.46043,1.8834,1.9649,-4.3685,1.4562,-1.2469,-5.8247,1.2514e-09,-0.62346,0,0,0.25,-1.7764e-15,0,0.66667
0.4869,0.91927,1.9476,0.6289,10.127,21.873,-3.2663,1.0888,-0.59335,-4.3551,-7.4163e-14,-0.29667,0,0,0.25,-0,-0,0.66667
0.53592,0.51386,2.1437,0.020796,0.3041,18.165,-0.11888,0.039626,-1.9977,-0.15851,-3.1469e-13,-0.99885,0,0,0.25,-0,-0,0.66667
0.83765,0.31094,3.3506,-0.28359,-1.6632,3.1673,2.5338,-0.84461,-1.7145,3.3784,-5.7712e-10,-0.85725,0,0,0.25,-1.4803e-16,0,0.66667
0.0056932,0.87851,0.022773,0.56777,11.971,62.041,-0.034479,0.011493,-0.85396,-0.045972,-1.4594e-07,-0.42698,0,0,0.25,-0,-0,0.66667
0.24257,0.67887,0.97029,0.2683,5.2505,40.919,-0.6942,0.2314,-1.7434,-0.92561,-9.6034e-11,-0.8717,0,0,0.25,2.9606e-16,0,0.66667
0.22151,0.22852,0.88603,-0.40722,-8.0937,42.773,0.96217,-0.32072,-1.4102,1.2829,1.6948e-10,-0.70508,0,0,0.25,-0,-0,0.66667
0.56155,0.60838,2.2462,0.16258,2.2843,16.518,-0.97381,0.3246,-1.906,-1.2984,-1.1958e-12,-0.95301,0,0,0.25,1.1842e-15,0,0.66667
0.71761,0.1372,2.8704,-0.54421,-5.4808,8.1422,4.1656,-1.3885,-0.94701,5.5542,-1.0095e-11,-0.47351,0,0,0.25,-0,-0,0.66667
0.2525,0.85647,1.01,0.5347,10.526,40.165,-1.4401,0.48003,-0.98311,-1.9201,-3.4605e-11,-0.49155,0,0,0.25,-0,-0,0.66667
0.50602,0.12309,2.0241,-0.56537,-8.8304,20.481,3.0516,-1.0172,-0.86389,4.0688,-1.3367e-13,-0.43194,0,0,0.25,-7.4015e-16,0,0.66667
0.73927,0.39609,2.9571,-0.15586,-1.4208,6.8062,1.229,-0.40968,-1.913,1.6387,-4.1611e-11,-0.95651,0,0,0.25,-0,-0,0.66667
0.7223,0.39672,2.8892,-0.15492,-1.4942,7.5759,1.1936,-0.39786,-1.9143,1.5915,-2.7675e-11,-0.95715,0,0,0.25,-0,-0,0.66667
0.46831,0.78613,1.8732,0.4292,6.9798,23.014,-2.144,0.71467,-1.346,-2.8587,4.956e-13,-0.67299,0,0,0.25,-0,-0,0.66667
0.70619,0.12307,2.8248,-0.56539,-5.904,8.711,4.2589,-1.4196,-0.8642,5.6786,-3.9448e-12,-0.4321,0,0,0.25,1.3323e-15,0,0.66667
0.55907,0.17539,2.2363,-0.48691,-6.9765,16.886,2.9036,-0.96788,-1.1565,3.8715,8.7574e-13,-0.57826,0,0,0.25,5.9212e-16,0,0.66667
0.078411,0.80388,0.31364,0.45581,9.4966,55.463,-0.38123,0.12708,-1.2618,-0.50831,2.6607e-09,-0.63091,0,0,0.25,7.4015e-17,0,0.66667
0.9528,0.75248,3.8112,0.37871,0.58003,0.69748,-3.849,1.283,-1.4915,-5.1319,-7.9146e-09,-0.74573,0,0,0.25,-0,-0,0.66667
0.97565,0.51169,3.9026,0.017535,0.0077667,0.18866,-0.18249,0.060828,-1.998,-0.24332,-4.2959e-06,-0.99901,0,0,0.25,-0,-0,0.66667
0.16201,0.17765,0.64806,-0.48352,-9.8795,48.001,0.8356,-0.27853,-1.1681,1.1141,8.3966e-10,-0.58403,0,0,0.25,-0,-0,0.66667
0.41783,0.48323,1.6713,-0.025161,-0.4284,26.609,0.11214,-0.037379,-1.9971,0.14952,-6.9299e-14,-0.99853,0,0,0.25,-0,-0,0.66667
0.61959,0.84469,2.4784,0.51704,6.6375,13.233,-3.4171,1.139,-1.0501,-4.5561,-2.061e-12,-0.52506,0,0,0.25,2.3685e-15,0,0.66667
0.56812,0.55051,2.2725,0.075765,1.0509,16.078,-0.45913,0.15304,-1.9788,-0.61218,-7.489e-13,-0.98939,0,0,0.25,5.9212e-16,0,0.66667
0.37473,0.2973,1.4989,-0.30405,-5.4274,30.013,1.2153,-0.40511,-1.6715,1.6204,-1.3999e-12,-0.83576,0,0,0.25,-1.0359e-15,0,0.66667
0.90355,0.70891,3.6142,0.31336,1.0764,1.4725,-3.0201,1.0067,-1.6507,-4.0268,1.7539e-10,-0.82533,0,0,0.25,-1.1842e-15,0,0.66667
0.67718,0.81142,2.7087,0.46713,5.2288,10.028,-3.3742,1.1247,-1.2248,-4.4989,2.0084e-12,-0.61238,0,0,0.25,-4.4409e-16,0,0.66667
0.11263,0.37792,0.45052,-0.18312,-3.7565,52.354,0.21999,-0.073331,-1.8813,0.29332,1.1855e-09,-0.94067,0,0,0.25,-2.9606e-16,0,0.66667
0.66956,0.74831,2.6783,0.37246,4.2199,10.329,-2.6601,0.8867,-1.5078,-3.5468,2.8757e-12,-0.75388,0,0,0.25,1.7764e-15,0,0.66667
0.21799,0.38985,0.87196,-0.16522,-3.2656,43.024,0.38418,-0.12806,-1.903,0.51225,1.0886e-10,-0.9515,0,0,0.25,2.9606e-16,0,0.66667
0.086095,0.94362,0.34438,0.66542,14.008,54.807,-0.61109,0.2037,-0.42527,-0.81478,-6.2055e-08,-0.21263,0,0,0.25,-0,-0,0.66667
0.35993,0.23136,1.4397,-0.40295,-7.3155,31.232,1.547,-0.51568,-1.4229,2.0627,-1.4341e-12,-0.71143,0,0,0.25,-0,-0,0.66667
0.049607,0.068751,0.19843,-0.64687,-13.669,58.082,0.34229,-0.1141,-0.51236,0.45639,5.9007e-08,-0.25618,0,0,0.25,-0,-0,0.66667
0.14662,0.22325,0.58647,-0.41512,-8.4975,49.348,0.64921,-0.2164,-1.3872,0.86561,7.4715e-10,-0.69361,0,0,0.25,-0,-0,0.66667
0.45307,0.36716,1.8123,-0.19926,-3.2702,24.004,0.96295,-0.32098,-1.8595,1.2839,-9.3431e-13,-0.92977,0,0,0.25,-0,-0,0.66667
0.9832,0.067792,3.9328,-0.64831,-0.36515,0.85379,6.7992,-2.2664,-0.50626,9.0656,7.3199e-07,-0.25313,0,0,0.25,-0,-1.6658e-16,0.66667
0.84187,0.3386,3.3675,-0.2421,-1.3778,3.0052,2.174,-0.72466,-1.7921,2.8987,-4.6002e-10,-0.89606,0,0,0.25,5.9212e-16,0,0.66667
0.013205,0.20892,0.05282,-0.43663,-9.1447,61.358,0.0615,-0.0205,-1.322,0.082,2.0314e-08,-0.661,0,0,0.25,-1.8504e-17,0,0.66667
0.86889,0.16389,3.4756,-0.50417,-2.4742,2.5382,4.6727,-1.5576,-1.0957,6.2303,-3.6032e-09,-0.54786,0,0,0.25,-0,-0,0.66667
0.28341,0.57191,1.1337,0.10787,2.0547,37.418,-0.32609,0.1087,-1.9586,-0.43479,-1.7031e-11,-0.97929,0,0,0.25,-0,-0,0.66667
0.19764,0.32075,0.79055,-0.26888,-5.3753,44.815,0.56683,-0.18894,-1.7424,0.75578,2.6587e-10,-0.87122,0,0,0.25,-0,-0,0.66667
0.30963,0.38352,1.2385,-0.17472,-3.2736,35.24,0.57705,-0.19235,-1.8913,0.7694,1.0263e-11,-0.94567,0,0,0.25,-0,-0,0.66667
0.52923,0.1359,2.1169,-0.54615,-8.2382,18.892,3.0831,-1.0277,-0.93931,4.1108,3.606e-13,-0.46965,0,0,0.25,-1.1842e-15,0,0.66667
0.48269,0.68024,1.9307,0.27037,4.2868,21.893,-1.392,0.46401,-1.7404,-1.856,2.4913e-13,-0.87019,0,0,0.25,-0,-0,0.66667
0.62987,0.90466,2.5195,0.60699,7.6896,12.758,-4.0781,1.3594,-0.69056,-5.4375,-1.2226e-12,-0.34528,0,0,0.25,-2.9606e-16,0,0.66667
0.16677,0.89205,0.66708,0.58808,12.065,47.614,-1.0461,0.34871,-0.76951,-1.3948,-5.7852e-10,-0.38476,0,0,0.25,2.9606e-16,0,0.66667
0.3743,0.98364,1.4972,0.72546,13.281,30.336,-2.8964,0.96546,-0.12882,-3.8619,3.3928e-13,-0.064409,0,0,0.25,5.9212e-16,-2.954e-16,0.66667
0.58249,0.14137,2.33,-0.53794,-7.43,15.47,3.3423,-1.1141,-0.97034,4.4565,1.0292e-12,-0.48517,0,0,0.25,-0,-0,0.66667
0.81078,0.18814,3.2431,-0.4678,-3.2526,4.2502,4.0457,-1.3486,-1.2233,5.3942,-4.4111e-10,-0.61164,0,0,0.25,2.3685e-15,0,0.66667
0.36845,0.57641,1.4738,0.11461,2.0479,30.458,-0.45045,0.15015,-1.9523,-0.6006,-3.4417e-15,-0.97617,0,0,0.25,-0,-0,0.66667
0.83938,0.49715,3.3575,-0.0042777,-0.024462,2.9938,0.0383,-0.012767,-2.0003,0.051066,-1.2351e-10,-1.0002,0,0,0.25,2.9606e-16,0,0.66667
0.41681,0.062978,1.6672,-0.65553,-11.465,27.004,2.9145,-0.97149,-0.47285,3.886,-4.1056e-13,-0.23643,0,0,0.25,1.1842e-15,0,0.66667
0.94249,0.79262,3.77,0.43893,0.87775,0.92555,-4.4127,1.4709,-1.3143,-5.8836,-6.14e-09,-0.65713,0,0,0.25,-0,-0,0.66667
0.29636,0.61458,1.1855,0.17187,3.2495,36.343,-0.54332,0.18111,-1.8953,-0.72442,-1.6605e-11,-0.94765,0,0,0.25,2.9606e-16,0,0.66667
0.3686,0.15679,1.4744,-0.51481,-9.3317,30.611,2.0241,-0.67471,-1.0583,2.6988,-1.7379e-12,-0.52915,0,0,0.25,-0,-0,0.66667
0.65273,0.37856,2.6109,-0.18216,-2.1304,11.106,1.2683,-0.42276,-1.8824,1.6911,-1.7963e-12,-0.94121,0,0,0.25,2.3685e-15,0,0.66667
0.58342,0.50998,2.3337,0.014963,0.20183,15.113,-0.093117,0.031039,-1.9986,-0.12416,-1.2495e-13,-0.99928,0,0,0.25,-0,-0,0.66667
0.35417,0.54389,1.4167,0.065832,1.1901,31.592,-0.2487,0.082901,-1.9838,-0.3316,-6.0614e-13,-0.9919,0,0,0.25,-0,-0,0.66667
0.48431,0.090671,1.9372,-0.61399,-9.9081,22.039,3.1718,-1.0573,-0.66098,4.2291,-9.5035e-14,-0.33049,0,0,0.25,1.4803e-16,0,0.66667
0.66432,0.93303,2.6573,0.64955,7.6469,10.94,-4.6028,1.5343,-0.49973,-6.137,-5.2713e-13,-0.24987,0,0,0.25,-1.4803e-15,0,0.66667
0.05634,0.4518,0.22536,-0.072304,-1.4958,57.434,0.043452,-0.014484,-1.9805,0.057936,1.1281e-07,-0.99024,0,0,0.25,-0,-0,0.66667
0.6064,0.11304,2.4256,-0.58043,-7.6934,14.079,3.7544,-1.2515,-0.80171,5.0059,1.0434e-12,-0.40085,0,0,0.25,-0,-0,0.66667
0.74678,0.32404,2.9871,-0.26394,-2.3557,6.537,2.1025,-0.70083,-1.7519,2.8033,-7.2033e-11,-0.87593,0,0,0.25,-0,-0,0.66667
0.79397,0.52707,3.1759,0.040601,0.29653,4.5433,-0.34385,0.11462,-1.9946,-0.45846,1.6542e-11,-0.99728,0,0,0.25,-8.3611e-16,0,0.66667
0.21378,0.15008,0.85514,-0.52488,-10.529,43.484,1.1969,-0.39897,-1.0203,1.5959,1.0825e-10,-0.51013,0,0,0.25,-0,-0,0.66667
0.64111,0.51463,2.5644,0.02194,0.26289,11.711,-0.15003,0.050011,-1.9984,-0.20005,2.2865e-13,-0.99922,0,0,0.25,-2.3685e-15,0,0.66667
0.73113,0.92557,2.9245,0.63836,6.2359,7.669,-4.9784,1.6595,-0.55065,-6.6379,4.5128e-12,-0.27533,0,0,0.25,-0,-0,0.66667
0.095062,0.31706,0.38025,-0.27441,-5.6626,53.942,0.27825,-0.092752,-1.733,0.37101,-3.0984e-09,-0.86651,0,0,0.25,-2.9606e-16,0,0.66667
0.070073,0.1833,0.28029,-0.47505,-9.9187,56.217,0.35507,-0.11836,-1.1975,0.47343,-8.9085e-09,-0.59876,0,0,0.25,-0,-0,0.66667
0.88595,0.6207,3.5438,0.18105,0.7313,1.7656,-1.711,0.57033,-1.8836,-2.2813,-5.3082e-10,-0.94178,0,0,0.25,1.4803e-15,0,0.66667
0.36132,0.91635,1.4453,0.62453,11.472,31.267,-2.407,0.80234,-0.61314,-3.2094,7.665e-13,-0.30657,0,0,0.25,-0,-0,0.66667
0.70343,0.4219,2.8137,-0.11715,-1.1959,8.461,0.87902,-0.29301,-1.9514,1.172,-1.2501e-11,-0.9757,0,0,0.25,1.1842e-15,0,0.66667
0.56015,0.76839,2.2406,0.40258,5.7265,16.743,-2.4054,0.8018,-1.4234,-3.2072,-1.4475e-12,-0.71171,0,0,0.25,5.9212e-16,0,0.66667
0.33775,0.58366,1.351,0.12549,2.3007,32.926,-0.45211,0.1507,-1.9433,-0.60281,-2.4326e-12,-0.97164,0,0,0.25,-0,-0,0.66667
0.34565,0.51714,1.3826,0.025704,0.46786,32.276,-0.09477,0.03159,-1.9974,-0.12636,-5.4021e-13,-0.9987,0,0,0.25,-1.1842e-15,0,0.66667
0.90546,0.4408,3.6219,-0.088801,-0.29018,1.287,0.85766,-0.28589,-1.9731,1.1435,3.2128e-08,-0.98654,0,0,0.25,-0,-0,0.66667
0.45348,0.48383,1.8139,-0.024261,-0.39699,23.942,0.11735,-0.039117,-1.9981,0.15647,-4.137e-13,-0.99905,0,0,0.25,5.9212e-16,0,0.66667
0.48253,0.11957,1.9301,-0.57064,-9.1991,22.12,2.9371,-0.97903,-0.84268,3.9161,-4.4631e-13,-0.42134,0,0,0.25,-0,-3.7211e-16,0.66667
0.97915,0.53962,3.9166,0.059437,0.017873,0.16117,-0.62077,0.20692,-1.9869,-0.8277,8.4797e-07,-0.99347,0,0,0.25,-0,-0,0.66667
0.41169,0.62297,1.6468,0.18445,3.1669,27.101,-0.80998,0.26999,-1.8794,-1.08,1.4331e-12,-0.93972,0,0,0.25,-8.1416e-16,0,0.66667
0.36945,0.28011,1.4778,-0.32984,-5.921,30.442,1.2998,-0.43327,-1.6137,1.7331,-1.4929e-12,-0.80687,0,0,0.25,7.4015e-16,0,0.66667
0.079963,0.4915,0.31985,-0.012749,-0.2628,55.293,0.010874,-0.0036246,-1.9995,0.014499,8.4845e-08,-0.99977,0,0,0.25,-1.4803e-16,0,0.66667
0.38778,0.74477,1.5511,0.36715,6.4919,29.019,-1.5187,0.50622,-1.521,-2.0249,1.6648e-12,-0.7605,0,0,0.25,8.8818e-16,0,0.66667
0.17793,0.79104,0.71173,0.43657,8.8502,46.584,-0.82857,0.27619,-1.3216,-1.1048,-5.4294e-10,-0.66082,0,0,0.25,-2.9606e-16,0,0.66667
0.13134,0.73756,0.52537,0.35634,7.3098,50.698,-0.49922,0.16641,-1.5476,-0.66563,-4.9085e-10,-0.77382,0,0,0.25,-0,-0,0.66667
0.36767,0.8591,1.4707,0.53865,9.7856,30.701,-2.1125,0.70416,-0.96739,-2.8167,1.5639e-12,-0.4837,0,0,0.25,-0,-0,0.66667
0.15881,0.21267,0.63524,-0.431,-8.7944,48.27,0.7301,-0.24337,-1.3397,0.97347,7.2878e-10,-0.66987,0,0,0.25,3.7007e-16,0,0.66667
0.30756,0.79601,1.2303,0.44401,8.408,35.503,-1.4567,0.48556,-1.2982,-1.9422,-7.6067e-12,-0.6491,0,0,0.25,5.9212e-16,0,0.66667
0.68798,0.24931,2.7519,-0.37603,-4.0609,9.3848,2.7595,-0.91984,-1.4989,3.6793,-8.7137e-12,-0.74947,0,0,0.25,-4.811e-16,0,0.66667
0.83844,0.54326,3.3538,0.064885,0.37357,3.0292,-0.58029,0.19343,-1.9843,-0.77373,-1.4021e-10,-0.99213,0,0,0.25,-0,-0,0.66667
0.30482,0.83603,1.2193,0.50405,9.5926,35.76,-1.6389,0.54629,-1.0961,-2.1852,-5.1903e-12,-0.54805,0,0,0.25,-2.9606e-16,0,0.66667
0.3531,0.206,1.4124,-0.441,-8.0667,31.798,1.661,-0.55366,-1.3076,2.2146,-1.1292e-12,-0.65381,0,0,0.25,-1.0103e-15,0,0.66667
0.73064,0.65868,2.9226,0.23802,2.2422,7.2353,-1.855,0.61834,-1.7991,-2.4734,4.5231e-11,-0.89957,0,0,0.25,-0,-0,0.66667
0.77783,0.81568,3.1113,0.47352,3.8239,5.469,-3.9288,1.3096,-1.2033,-5.2383,1.4301e-10,-0.60163,0,0,0.25,-0,-0,0.66667
0.17703,0.72441,0.70812,0.33662,6.7993,46.639,-0.63564,0.21188,-1.597,-0.84753,-4.822e-10,-0.79848,0,0,0.25,-0,-0,0.66667
0.40176,0.086231,1.607,-0.62065,-10.989,28.115,2.6597,-0.88658,-0.63006,3.5463,-6.7368e-13,-0.31503,0,0,0.25,-0,-0,0.66667
0.0029414,0.092431,0.011766,-0.61135,-12.922,62.29,0.01918,-0.0063936,-0.67204,0.025574,-3.2086e-07,-0.33602,0,0,0.25,-5.2042e-18,0,0.66667
0.4006,0.34493,1.6024,-0.2326,-4.0432,27.968,0.99391,-0.3313,-1.8082,1.3252,-1.9921e-12,-0.90409,0,0,0.25,1.1842e-15,0,0.66667
0.8932,0.77894,3.5728,0.4184,1.6366,1.8218,-3.9863,1.3288,-1.3784,-5.3151,3.9279e-09,-0.68919,0,0,0.25,-1.7764e-15,0,0.66667
0.057463,0.40294,0.22985,-0.14558,-3.0138,57.334,0.089234,-0.029745,-1.9249,0.11898,1.6516e-07,-0.96243,0,0,0.25,9.2519e-17,0,0.66667
0.38963,0.068362,1.5585,-0.64746,-11.619,29.072,2.6909,-0.89695,-0.51016,3.5878,-5.147e-13,-0.25508,0,0,0.25,-0,-0,0.66667
0.26534,0.7912,1.0614,0.4368,8.494,39.031,-1.2363,0.4121,-1.322,-1.6484,-4.2112e-11,-0.66102,0,0,0.25,-0,-0,0.66667
0.036777,0.4591,0.14711,-0.061354,-1.2716,59.211,0.024068,-0.0080229,-1.986,0.03209,-4.2869e-07,-0.99299,0,0,0.25,3.7007e-17,0,0.66667
0.4005,0.90449,1.602,0.60674,10.745,28.199,-2.592,0.864,-0.69152,-3.456,6.5881e-13,-0.34576,0,0,0.25,2.2204e-16,0,0.66667
0.23781,0.74657,0.95123,0.36985,7.2807,41.355,-0.93818,0.31273,-1.5141,-1.2509,-1.1381e-10,-0.75704,0,0,0.25,-0,-0,0.66667
0.83097,0.80227,3.3239,0.45341,2.8258,3.5622,-4.0188,1.3396,-1.2688,-5.3585,4.6395e-10,-0.63439,0,0,0.25,-0,-0,0.66667
0.64363,0.54294,2.5745,0.064415,0.76762,11.574,-0.44223,0.14741,-1.9848,-0.58964,3.8033e-13,-0.99242,0,0,0.25,-1.1842e-15,0,0.66667
0.47657,0.7714,1.9063,0.40711,6.5449,22.407,-2.0695,0.68983,-1.4099,-2.7593,4.0656e-13,-0.70497,0,0,0.25,-0,-0,0.66667
0.70881,0.93015,2.8352,0.64523,6.7515,8.7081,-4.8783,1.6261,-0.51933,-6.5044,6.2661e-13,-0.25966,0,0,0.25,-0,-0,0.66667
0.099384,0.78849,0.39753,0.43273,8.972,53.573,-0.45873,0.15291,-1.3338,-0.61165,-1.3751e-09,-0.6669,0,0,0.25,-0,-0,0.66667
0.75698,0.54939,3.0279,0.074088,0.63207,6.016,-0.59822,0.19941,-1.9795,-0.79762,3.2193e-11,-0.98977,0,0,0.25,1.1842e-15,0,0.66667
0.29859,0.16286,1.1944,-0.50571,-9.6658,36.277,1.6107,-0.5369,-1.091,2.1476,6.7147e-12,-0.54552,0,0,0.25,-0,-0,0.66667
0.50277,0.54955,2.0111,0.074328,1.1419,20.423,-0.39862,0.13287,-1.9799,-0.53149,-1.1507e-13,-0.98997,0,0,0.25,-5.9212e-16,0,0.66667
0.094178,0.89047,0.37671,0.58571,12.251,54.067,-0.58838,0.19613,-0.7804,-0.78451,-9.1524e-09,-0.3902,0,0,0.25,-0,-0,0.66667
0.81456,0.35541,3.2582,-0.21688,-1.441,3.8721,1.8844,-0.62814,-1.8326,2.5126,-2.8103e-10,-0.91628,0,0,0.25,-0,-0,0.66667
0.51047,0.15369,2.0419,-0.51947,-8.0366,20.132,2.8285,-0.94283,-1.0409,3.7713,-2.9776e-13,-0.52044,0,0,0.25,7.4015e-16,0,0.66667
0.44197,0.071251,1.7679,-0.64312,-10.941,25.117,3.0319,-1.0106,-0.52896,4.0425,-5.0182e-14,-0.26448,0,0,0.25,-1.1842e-15,0,0.66667
0.13489,0.0659,0.53957,-0.65115,-13.545,50.452,0.9369,-0.3123,-0.49259,1.2492,-4.8917e-09,-0.24629,0,0,0.25,2.9606e-16,0,0.66667
0.63488,0.46804,2.5395,-0.047942,-0.58267,12.063,0.32466,-0.10822,-1.9925,0.43288,-3.4681e-13,-0.99624,0,0,0.25,1.5913e-15,0,0.66667
0.35231,0.22836,1.4092,-0.40745,-7.4459,31.843,1.5312,-0.5104,-1.409,2.0416,-8.8107e-13,-0.70449,0,0,0.25,-0,-0,0.66667
0.68271,0.11074,2.7308,-0.5839,-6.5165,9.894,4.2521,-1.4174,-0.78699,5.6694,-2.0872e-14,-0.39349,0,0,0.25,-1.9927e-15,0,0.66667
0.76246,0.28724,3.0498,-0.31915,-2.698,5.9179,2.5956,-0.86519,-1.638,3.4608,-1.1398e-10,-0.81898,0,0,0.25,-0,-0,0.66667
0.0067478,0.4084,0.026991,-0.1374,-2.8537,61.942,0.0098897,-0.0032964,-1.9332,0.013186,1.7819e-07,-0.96658,0,0,0.25,1.8504e-17,0,0.66667
0.25906,0.70363,1.0362,0.30544,5.9302,39.519,-0.84403,0.28134,-1.6673,-1.1254,-6.4694e-11,-0.83366,0,0,0.25,5.9212e-16,0,0.66667
0.67791,0.25964,2.7117,-0.36053,-3.995,9.8838,2.6071,-0.86902,-1.5371,3.4761,-5.5271e-12,-0.76857,0,0,0.25,-0,-0,0.66667
0.3361,0.91638,1.3444,0.62456,11.707,33.283,-2.2391,0.74637,-0.61226,-2.9855,8.1712e-13,-0.30613,0,0,0.25,-0,-0,0.66667
0.75013,0.95869,3.0005,0.68803,6.3553,6.9315,-5.5052,1.8351,-0.31731,-7.3402,3.1486e-13,-0.15866,0,0,0.25,1.1842e-15,0,0.66667
0.55698,0.90543,2.2279,0.60815,8.8275,17.152,-3.6131,1.2044,-0.68564,-4.8174,-4.643e-13,-0.34282,0,0,0.25,-2.5905e-16,0,0.66667
0.85824,0.25463,3.433,-0.36806,-1.9054,2.6438,3.3694,-1.1231,-1.5191,4.4925,-8.6719e-10,-0.75957,0,0,0.25,-0,-0,0.66667
0.57058,0.99432,2.2823,0.74148,10.659,16.474,-4.5128,1.5043,-0.044867,-6.0171,1.4655e-14,-0.022433,0,0,0.25,2.9606e-16,0,0.66667
0.8894,0.98808,3.5576,0.73211,3.2436,2.4796,-6.9455,2.3152,-0.094269,-9.2607,-7.1026e-09,-0.047135,0,0,0.25,-0,-0,0.66667
0.22748,0.53957,0.90991,0.05935,1.1662,42.191,-0.14401,0.048003,-1.9869,-0.19201,-2.3886e-11,-0.99343,0,0,0.25,-0,-0,0.66667
0.79398,0.89735,3.1759,0.59602,4.5714,5.0421,-5.0478,1.6826,-0.73675,-6.7304,1.0005e-10,-0.36837,0,0,0.25,-0,-1.5141e-16,0.66667
0.033947,0.88993,0.13579,0.58489,12.33,59.488,-0.21179,0.070596,-0.7832,-0.28238,-4.8498e-08,-0.3916,0,0,0.25,7.4015e-17,0,0.66667
0.077267,0.75948,0.30907,0.38922,8.0879,55.558,-0.32079,0.10693,-1.4617,-0.42772,2.9898e-09,-0.73083,0,0,0.25,-0,-0,0.66667
0.3959,0.79709,1.5836,0.44563,7.8485,28.433,-1.8819,0.62729,-1.293,-2.5092,2.0519e-12,-0.64652,0,0,0.25,-0,-0,0.66667
0.18577,0.71553,0.74307,0.3233,6.5055,45.868,-0.64062,0.21354,-1.6292,-0.85416,-3.992e-10,-0.81461,0,0,0.25,-1.9017e-17,0,0.66667
0.94419,0.54458,3.7768,0.066873,0.11609,0.58456,-0.6735,0.2245,-1.9832,-0.898,2.2239e-07,-0.99158,0,0,0.25,-0,-0,0.66667
0.77968,0.66242,3.1187,0.24363,1.9107,5.1686,-2.0262,0.67539,-1.7894,-2.7016,1.5611e-10,-0.89471,0,0,0.25,-0,-0,0.66667
0.74367,0.74282,2.9747,0.36423,3.3106,6.7559,-2.8892,0.96307,-1.5279,-3.8523,6.6031e-11,-0.76393,0,0,0.25,5.9212e-16,0,0.66667
0.492,0.27352,1.968,-0.33972,-5.3355,21.272,1.7828,-0.59427,-1.5891,2.3771,-3.6804e-13,-0.79455,0,0,0.25,2.9606e-16,0,0.66667
0.49005,0.14433,1.9602,-0.53351,-8.4945,21.557,2.7887,-0.92958,-0.98717,3.7183,-2.0917e-13,-0.49358,0,0,0.25,-5.9212e-16,0,0.66667
0.58111,0.91334,2.3244,0.62002,8.6459,15.653,-3.8432,1.2811,-0.63318,-5.1242,-5.2247e-13,-0.31659,0,0,0.25,-1.1842e-15,0,0.66667
0.59663,0.99058,2.3865,0.73588,10.095,14.878,-4.6831,1.561,-0.074406,-6.2442,-9.9476e-14,-0.037203,0,0,0.25,1.7764e-15,0,0.66667
0.89803,0.58576,3.5921,0.12864,0.45832,1.4615,-1.2322,0.41073,-1.9406,-1.6429,-6.1839e-09,-0.97029,0,0,0.25,-5.9212e-16,0,0.66667
0.12083,0.91703,0.48334,0.62555,13.039,51.694,-0.80627,0.26876,-0.60813,-1.075,2.7766e-09,-0.30406,0,0,0.25,-2.9606e-16,0,0.66667
0.50961,0.017617,2.0385,-0.72357,-11.398,20.42,3.9333,-1.3111,-0.13755,5.2444,-1.7897e-13,-0.068775,0,0,0.25,-0,-0,0.66667
0.99552,0.23744,3.9821,-0.39384,0.091314,0.3016,4.1821,-1.394,-1.4478,5.5762,-2.239e-08,-0.7239,0,0,0.25,-0,4.7821e-17,0.66667
0.48143,0.36443,1.9257,-0.20336,-3.2229,21.955,1.0443,-0.34809,-1.8526,1.3924,-3.8369e-13,-0.92632,0,0,0.25,-5.9212e-16,0,0.66667
0.83781,0.050104,3.3513,-0.67484,-4.2163,3.7207,6.0309,-2.0103,-0.3799,8.0411,-5.496e-12,-0.18995,0,0,0.25,-0,-0,0.66667
0.60366,0.62256,2.4146,0.18384,2.392,13.916,-1.1837,0.39458,-1.8801,-1.5783,-1.5061e-12,-0.94007,0,0,0.25,1.3323e-15,0,0.66667
0.66437,0.83198,2.6575,0.49796,5.7718,10.732,-3.5289,1.1763,-1.1174,-4.7052,-3.535e-13,-0.55872,0,0,0.25,-0,-0,0.66667
0.27246,0.90328,1.0898,0.60492,11.824,38.514,-1.758,0.58601,-0.69907,-2.3441,-5.7203e-12,-0.34954,0,0,0.25,3.7007e-16,0,0.66667
0.83093,0.65853,3.3237,0.23779,1.4455,3.3432,-2.1076,0.70253,-1.7997,-2.8101,-5.7316e-11,-0.89987,0,0,0.25,-0,-0,0.66667
0.24447,0.96022,0.97787,0.69033,13.785,40.932,-1.8001,0.60005,-0.30503,-2.4002,5.3135e-13,-0.15252,0,0,0.25,-2.9606e-16,0,0.66667
0.67336,0.97752,2.6934,0.71628,8.3154,10.578,-5.1447,1.7149,-0.17598,-6.8596,-2.9354e-13,-0.08799,0,0,0.25,1.1842e-15,0,0.66667
0.08813,0.96777,0.35252,0.70165,14.801,54.632,-0.65959,0.21986,-0.25016,-0.87945,1.546e-07,-0.12508,0,0,0.25,1.6653e-16,0,0.66667
0.018852,0.0022623,0.075408,-0.74661,-15.918,60.859,0.15012,-0.050047,-0.018758,0.20015,-1.0665e-05,-0.0093789,0,0,0.25,-0,-0,0.66667
0.47235,0.33858,1.8894,-0.24213,-3.8865,22.619,1.22,-0.40665,-1.7917,1.6266,-6.1295e-13,-0.89584,0,0,0.25,-5.9212e-16,0,0.66667
0.939,0.26801,3.756,-0.34798,-0.71882,0.85894,3.4853,-1.1618,-1.5694,4.6471,3.8578e-09,-0.78468,0,0,0.25,1.1842e-15,0,0.66667
0.32557,0.055699,1.3023,-0.66645,-12.629,34.167,2.3144,-0.77148,-0.42091,3.0859,-5.9819e-13,-0.21045,0,0,0.25,2.9606e-16,0,0.66667
0.32215,0.1398,1.2886,-0.5403,-10.178,34.358,1.8566,-0.61887,-0.96113,2.4755,3.8425e-13,-0.48057,0,0,0.25,-0,-0,0.66667
0.052031,0.84613,0.20812,0.5192,10.888,57.85,-0.28815,0.096051,-1.0419,-0.3842,3.7222e-08,-0.52096,0,0,0.25,-1.4803e-16,0,0.66667
0.67529,0.72947,2.7011,0.34421,3.8361,10.006,-2.4793,0.82645,-1.5783,-3.3058,5.0522e-12,-0.78916,0,0,0.25,-0,-0,0.66667
0.72174,0.55175,2.887,0.077621,0.74855,7.5789,-0.59757,0.19919,-1.9782,-0.79676,1.4214e-11,-0.98912,0,0,0.25,-5.9212e-16,0,0.66667
0.90372,0.87191,3.6149,0.55787,2.0361,1.8113,-5.3777,1.7926,-0.89413,-7.1702,1.0988e-08,-0.44707,0,0,0.25,-0,-0,0.66667
0.43715,0.36262,1.7486,-0.20608,-3.445,25.184,0.96092,-0.32031,-1.8493,1.2812,-1.1234e-12,-0.92463,0,0,0.25,-0,-0,0.66667
0.10952,0.29585,0.43807,-0.30623,-6.3057,52.645,0.35773,-0.11924,-1.6668,0.47697,-2.7943e-10,-0.83342,0,0,0.25,-1.4803e-16,0,0.66667
0.037607,0.80895,0.15043,0.46343,9.7054,59.149,-0.1859,0.061967,-1.2364,-0.24787,4.3541e-08,-0.61822,0,0,0.25,7.4015e-17,0,0.66667
0.88077,0.71417,3.5231,0.32125,1.3838,2.0021,-3.0181,1.006,-1.633,-4.0242,6.673e-10,-0.81649,0,0,0.25,1.1136e-15,0,0.66667
0.65226,0.3708,2.609,-0.1938,-2.27,11.137,1.3484,-0.44946,-1.8667,1.7978,-1.6319e-12,-0.93334,0,0,0.25,-0,-0,0.66667
0.9155,0.93726,3.662,0.65589,2.1749,1.7712,-6.405,2.135,-0.47112,-8.54,8.4758e-08,-0.23556,0,0,0.25,2.0354e-16,0,0.66667
0.8806,0.63529,3.5224,0.20293,0.86239,1.9093,-1.9061,0.63537,-1.8529,-2.5415,-3.6422e-09,-0.92644,0,0,0.25,-2.3685e-15,0,0.66667
0.47024,0.13954,1.881,-0.54068,-8.8325,22.966,2.712,-0.90401,-0.96043,3.616,-4.1811e-13,-0.48021,0,0,0.25,-0,-0,0.66667
0.67034,0.30475,2.6814,-0.29287,-3.2955,10.225,2.0941,-0.69803,-1.6953,2.7921,-4.6221e-12,-0.84765,0,0,0.25,-5.9212e-16,0,0.66667
0.74507,0.65826,2.9803,0.23739,2.1284,6.5939,-1.8866,0.62887,-1.8001,-2.5155,6.5947e-11,-0.90005,0,0,0.25,-0,-0,0.66667
0.42221,0.73487,1.6888,0.35231,6.016,26.368,-1.5867,0.52889,-1.5589,-2.1156,1.6306e-12,-0.77943,0,0,0.25,-0,-0,0.66667
0.15392,0.28192,0.61567,-0.32712,-6.6588,48.682,0.53707,-0.17902,-1.6207,0.71609,7.6069e-10,-0.81036,0,0,0.25,-0,-0,0.66667
0.28408,0.90538,1.1363,0.60806,11.804,37.543,-1.8426,0.61419,-0.68641,-2.4568,-3.1745e-12,-0.3432,0,0,0.25,-1.8504e-16,0,0.66667
0.54848,0.071755,2.1939,-0.64237,-9.4815,17.74,3.7581,-1.2527,-0.53295,5.0108,1.0236e-13,-0.26648,0,0,0.25,-0,-0,0.66667
0.25574,0.98992,1.0229,0.73488,14.635,40.005,-2.0046,0.66821,-0.079155,-2.6728,2.1723e-12,-0.039578,0,0,0.25,-5.9212e-16,0,0.66667
0.89173,0.19672,3.5669,-0.45493,-1.82,1.9057,4.3272,-1.4424,-1.2644,5.7696,-1.7724e-10,-0.6322,0,0,0.25,-0,-0,0.66667
0.58075,0.82853,2.323,0.4928,6.8039,15.529,-3.0527,1.0176,-1.1361,-4.0703,-1.4198e-12,-0.56805,0,0,0.25,-0,-0,0.66667
0.71867,0.91353,2.8747,0.62029,6.2839,8.2061,-4.7551,1.585,-0.63272,-6.3401,3.0096e-12,-0.31636,0,0,0.25,-0,-0,0.66667
0.86203,0.93594,3.4481,0.6539,3.4923,2.9867,-6.0126,2.0042,-0.48063,-8.0168,-5.5085e-09,-0.24032,0,0,0.25,-2.9606e-16,0,0.66667
0.89656,0.84404,3.5863,0.51605,2.0012,1.8921,-4.9352,1.6451,-1.0538,-6.5803,1.8363e-08,-0.52692,0,0,0.25,-2.3685e-15,0,0.66667
0.95761,0.90462,3.8304,0.60693,0.95227,1.0185,-6.1994,2.0665,-0.69088,-8.2659,5.7506e-07,-0.34544,0,0,0.25,1.6283e-15,0,0.66667
0.62751,0.83674,2.51,0.50511,6.3715,12.765,-3.3809,1.127,-1.093,-4.5078,-1.8081e-12,-0.54649,0,0,0.25,-0,-0,0.66667
0.99898,0.18864,3.9959,-0.46704,0.14649,0.39325,4.9767,-1.6589,-1.2259,6.6356,1.3702e-08,-0.61295,0,0,0.25,-2.3685e-15,0,0.66667
0.79051,0.61114,3.162,0.16672,1.2416,4.7097,-1.4058,0.46859,-1.9002,-1.8743,1.3724e-10,-0.95012,0,0,0.25,1.1842e-15,0,0.66667
0.27082,0.39733,1.0833,-0.15401,-2.9585,38.487,0.4449,-0.1483,-1.9151,0.5932,3.2713e-11,-0.95756,0,0,0.25,-0,-0,0.66667
0.99055,0.66225,3.9622,0.24337,-0.029365,0.16544,-2.5714,0.85714,-1.7891,-3.4286,3.6726e-08,-0.89456,0,0,0.25,-0,-0,0.66667
0.80151,0.29131,3.206,-0.31303,-2.2372,4.4041,2.6762,-0.89207,-1.651,3.5683,-2.853e-10,-0.82552,0,0,0.25,-0,-0,0.66667
0.25311,0.42333,1.0125,-0.115,-2.2306,39.989,0.31049,-0.1035,-1.9525,0.41398,3.9808e-11,-0.97623,0,0,0.25,-0,-0,0.66667
0.031897,0.73674,0.12759,0.35511,7.4072,59.661,-0.12082,0.040274,-1.5518,-0.16109,4.0046e-09,-0.77588,0,0,0.25,-0,-0,0.66667
0.95281,0.73377,3.8112,0.35066,0.52954,0.66273,-3.5638,1.1879,-1.563,-4.7518,-3.0546e-09,-0.7815,0,0,0.25,-1.1842e-15,0,0.66667
0.55683,0.15503,2.2273,-0.51746,-7.4581,17.06,3.0735,-1.0245,-1.0485,4.098,6.9167e-13,-0.52425,0,0,0.25,-2.8765e-16,0,0.66667
0.55271,0.82495,2.2108,0.48743,7.0576,17.295,-2.8737,0.95788,-1.1544,-3.8315,-1.0341e-12,-0.5772,0,0,0.25,-0,-0,0.66667
0.047378,0.51354,0.18951,0.02031,0.42047,58.247,-0.010263,0.0034207,-1.9987,-0.013685,-6.0633e-07,-0.99935,0,0,0.25,1.4803e-16,0,0.66667
0.63904,0.34107,2.5562,-0.2384,-2.8839,11.891,1.625,-0.54168,-1.7989,2.1667,6.2839e-14,-0.89946,0,0,0.25,-1.4803e-16,0,0.66667
0.5001,0.19252,2.0004,-0.46123,-7.2113,20.793,2.4604,-0.82013,-1.2447,3.2805,-2.5224e-13,-0.62234,0,0,0.25,1.1842e-15,0,0.66667
0.80429,0.95777,3.2172,0.68665,5.1077,4.8383,-5.8909,1.9636,-0.32275,-7.8545,3.6596e-11,-0.16137,0,0,0.25,-1.1842e-15,0,0.66667
0.06955,0.88797,0.2782,0.58195,12.22,56.278,-0.43173,0.14391,-0.7949,-0.57564,-5.133e-08,-0.39745,0,0,0.25,-0,-0,0.66667
0.56293,0.6373,2.2517,0.20595,2.8902,16.445,-1.2366,0.41222,-1.8494,-1.6489,-1.428e-12,-0.92471,0,0,0.25,1.1842e-15,0,0.66667
0.40868,0.27336,1.6347,-0.33996,-5.8835,27.391,1.482,-0.49398,-1.5891,1.9759,-2.0479e-12,-0.79456,0,0,0.25,-2.9606e-16,0,0.66667
0.55177,0.25238,2.2071,-0.37143,-5.3479,17.258,2.186,-0.72868,-1.5099,2.9147,1.1557e-12,-0.75495,0,0,0.25,-0,-0,0.66667
0.35846,0.49466,1.4339,-0.0080068,-0.14419,31.246,0.030615,-0.010205,-2.0005,0.04082,-2.9179e-13,-1.0003,0,0,0.25,-1.1842e-15,0,0.66667
0.99938,0.97886,3.9975,0.7183,-0.015543,0.92025,-7.6571,2.5524,-0.16583,-10.209,3.2939e-06,-0.082914,0,0,0.25,-0,-7.7772e-16,0.66667
0.45032,0.75416,1.8013,0.38124,6.3189,24.29,-1.8313,0.61043,-1.4837,-2.4417,1.0372e-12,-0.74183,0,0,0.25,-0,-0,0.66667
0.34582,0.069376,1.3833,-0.64594,-12.035,32.519,2.3827,-0.79424,-0.51674,3.177,-7.2387e-13,-0.25837,0,0,0.25,-0,-0,0.66667
0.18973,0.48952,0.7589,-0.015713,-0.31397,45.485,0.031798,-0.010599,-1.999,0.042398,-5.0335e-11,-0.99949,0,0,0.25,2.9606e-16,0,0.66667
0.92353,0.31245,3.6941,-0.28132,-0.74178,1.0496,2.7713,-0.92375,-1.7201,3.695,-6.0557e-09,-0.86006,0,0,0.25,1.434e-15,0,0.66667
0.10429,0.64551,0.41718,0.21826,4.4891,53.106,-0.24281,0.080937,-1.8299,-0.32375,6.3578e-10,-0.91497,0,0,0.25,-0,-0,0.66667
0.44034,0.14551,1.7614,-0.53174,-8.9899,25.134,2.4976,-0.83253,-0.99436,3.3301,-7.4429e-13,-0.49718,0,0,0.25,-0,-0,0.66667
0.6862,0.70325,2.7448,0.30488,3.293,9.4154,-2.2315,0.74385,-1.6694,-2.9754,9.807e-12,-0.83471,0,0,0.25,1.1842e-15,0,0.66667
0.14241,0.89648,0.56962,0.59472,12.301,49.768,-0.90338,0.30113,-0.74242,-1.2045,-1.4753e-09,-0.37121,0,0,0.25,1.4803e-16,0,0.66667
0.9315,0.088475,3.726,-0.61729,-1.6263,1.4105,6.1333,-2.0444,-0.64499,8.1778,-6.0509e-08,-0.3225,0,0,0.25,-5.9212e-16,0,0.66667
0.058875,0.82102,0.2355,0.48153,10.072,57.228,-0.3024,0.1008,-1.1753,-0.4032,2.6354e-09,-0.58764,0,0,0.25,-0,-0,0.66667
0.2181,0.50082,0.8724,0.0012249,0.024172,43.004,-0.0028495,0.00094985,-2.0016,-0.0037994,7.6265e-11,-1.0008,0,0,0.25,-0,-0,0.66667
0.077195,0.8302,0.30878,0.49529,10.34,55.578,-0.40783,0.13594,-1.1278,-0.54378,-8.807e-09,-0.5639,0,0,0.25,-2.3945e-16,0,0.66667
0.41151,0.27601,1.646,-0.33598,-5.7972,27.173,1.4748,-0.49159,-1.5985,1.9664,-1.9456e-12,-0.79926,0,0,0.25,-0,-0,0.66667
0.59726,0.83998,2.389,0.50996,6.8385,14.541,-3.2489,1.083,-1.0757,-4.3318,-1.5863e-12,-0.53785,0,0,0.25,-5.9212e-16,0,0.66667
0.73114,0.79938,2.9246,0.44908,4.2909,7.4012,-3.5023,1.1674,-1.2824,-4.6697,3.4901e-11,-0.64122,0,0,0.25,-8.6585e-16,0,0.66667
0.87843,0.5875,3.5137,0.13125,0.56517,1.9258,-1.2298,0.40993,-1.9388,-1.6397,6.0764e-09,-0.96939,0,0,0.25,-0,-0,0.66667
0.35325,0.77228,1.413,0.40841,7.458,31.769,-1.5389,0.51297,-1.4063,-2.0519,8.471e-13,-0.70315,0,0,0.25,2.9606e-16,0,0.66667
0.70246,0.63224,2.8099,0.19836,2.0359,8.5404,-1.4863,0.49544,-1.8607,-1.9817,1.7697e-11,-0.93034,0,0,0.25,-2.3685e-15,0,0.66667
0.048616,0.39034,0.19447,-0.16448,-3.4093,58.137,0.085297,-0.028432,-1.9036,0.11373,2.5278e-08,-0.95179,0,0,0.25,-0,-0,0.66667
0.81926,0.70255,3.277,0.30382,1.983,3.7782,-2.655,0.885,-1.6708,-3.54,3.2951e-10,-0.83541,0,0,0.25,-1.1842e-15,0,0.66667
0.31828,0.8403,1.2731,0.51045,9.6267,34.657,-1.733,0.57765,-1.0737,-2.3106,-1.7636e-12,-0.53684,0,0,0.25,-0,-0,0.66667
0.22164,0.81954,0.88657,0.47931,9.5576,42.786,-1.1332,0.37773,-1.1832,-1.5109,-1.4356e-10,-0.59159,0,0,0.25,-0,-0,0.66667
0.36104,0.19907,1.4441,-0.45139,-8.2065,31.171,1.7383,-0.57944,-1.2755,2.3178,-1.7877e-12,-0.63773,0,0,0.25,5.9212e-16,0,0.66667
0.11407,0.92768,0.45628,0.64152,13.407,52.301,-0.78057,0.26019,-0.53616,-1.0408,-5.8312e-09,-0.26808,0,0,0.25,-1.4803e-16,0,0.66667
0.29371,0.39314,1.1748,-0.16029,-3.0353,36.562,0.50216,-0.16739,-1.9082,0.66954,1.7014e-11,-0.95408,0,0,0.25,-2.9606e-16,0,0.66667
0.008789,0.091676,0.035156,-0.61249,-12.946,61.762,0.05742,-0.01914,-0.66647,0.076561,5.1957e-07,-0.33324,0,0,0.25,-6.9389e-18,0,0.66667
0.25326,0.0082937,1.0131,-0.73756,-14.711,40.216,1.9925,-0.66417,-0.065613,2.6567,-1.5132e-13,-0.032807,0,0,0.25,1.1842e-15,0,0.66667
0.83771,0.76864,3.3509,0.40297,2.3966,3.2873,-3.6007,1.2002,-1.4218,-4.801,8.5016e-10,-0.71088,0,0,0.25,-1.1842e-15,0,0.66667
0.80776,0.26752,3.231,-0.34872,-2.426,4.2156,3.0046,-1.0015,-1.5668,4.0062,-3.2341e-10,-0.78342,0,0,0.25,-0,-0,0.66667
0.38257,0.11092,1.5303,-0.58361,-10.494,29.566,2.3816,-0.79385,-0.78798,3.1754,-1.307e-12,-0.39399,0,0,0.25,-0,-0,0.66667
0.43068,0.60817,1.7227,0.16226,2.7293,25.656,-0.74542,0.24847,-1.9054,-0.99389,9.4241e-13,-0.95271,0,0,0.25,-0,-0,0.66667
0.18259,0.62822,0.73035,0.19233,3.8614,46.125,-0.37458,0.12486,-1.8687,-0.49944,1.4796e-11,-0.93436,0,0,0.25,-0,-0,0.66667
0.31687,0.04861,1.2675,-0.67708,-12.921,34.883,2.2885,-0.76285,-0.36925,3.0514,-3.8769e-13,-0.18462,0,0,0.25,-0,-0,0.66667
0.41737,0.18496,1.6695,-0.47255,-8.1588,26.809,2.1038,-0.70126,-1.2064,2.805,-1.5565e-12,-0.60322,0,0,0.25,5.9212e-16,0,0.66667
0.066468,0.93124,0.26587,0.64686,13.642,56.565,-0.45862,0.15287,-0.51218,-0.6115,1.9644e-08,-0.25609,0,0,0.25,7.4015e-17,0,0.66667
0.33789,0.11261,1.3515,-0.58109,-10.846,33.108,2.0943,-0.69811,-0.79857,2.7924,-1.3423e-12,-0.39929,0,0,0.25,-0,-0,0.66667
0.49567,0.024039,1.9827,-0.71394,-11.45,21.363,3.7747,-1.2582,-0.18744,5.033,-1.5032e-13,-0.09372,0,0,0.25,5.9212e-16,-3.854e-16,0.66667
0.0067213,0.86003,0.026885,0.54005,11.369,61.947,-0.038718,0.012906,-0.96203,-0.051624,1.223e-08,-0.48102,0,0,0.25,9.2519e-18,0,0.66667
0.43808,0.21982,1.7523,-0.42026,-7.0768,25.22,1.9638,-0.6546,-1.3736,2.6184,-1.4152e-12,-0.6868,0,0,0.25,-0,-0,0.66667
0.21869,0.84929,0.87476,0.52393,10.486,43.059,-1.2222,0.40739,-1.025,-1.6296,-9.6521e-11,-0.51248,0,0,0.25,-0,-0,0.66667
0.2134,0.64424,0.8536,0.21636,4.2898,43.43,-0.49249,0.16416,-1.8328,-0.65665,-1.5985e-10,-0.91639,0,0,0.25,-0,-0,0.66667
0.24924,0.77146,0.99696,0.40719,7.9796,40.389,-1.0825,0.36085,-1.4108,-1.4434,-7.4964e-11,-0.70538,0,0,0.25,2.9606e-16,0,0.66667
0.12833,0.62819,0.5133,0.19229,3.9299,50.946,-0.26321,0.087737,-1.869,-0.35095,9.9991e-12,-0.93452,0,0,0.25,-2.9606e-16,0,0.66667
0.94481,0.17354,3.7793,-0.48969,-0.95733,0.9706,4.9351,-1.645,-1.1464,6.5801,2.7749e-08,-0.57321,0,0,0.25,1.1842e-15,0,0.66667
0.16907,0.18691,0.6763,-0.46964,-9.566,47.374,0.84698,-0.28233,-1.2169,1.1293,2.2656e-10,-0.60845,0,0,0.25,3.0531e-16,0,0.66667
0.56761,0.46806,2.2705,-0.047908,-0.66492,16.107,0.29006,-0.096687,-1.9926,0.38675,2.2815e-14,-0.99628,0,0,0.25,1.5913e-15,0,0.66667
0.17151,0.68881,0.68603,0.28322,5.7227,47.116,-0.51813,0.17271,-1.7164,-0.69084,-5.4826e-10,-0.8582,0,0,0.25,-5.9212e-16,0,0.66667
0.26092,0.90297,1.0437,0.60446,11.894,39.487,-1.6823,0.56076,-0.70117,-2.2431,-1.248e-11,-0.35058,0,0,0.25,-7.4015e-17,0,0.66667
0.67678,0.24808,2.7071,-0.37788,-4.2046,9.958,2.7279,-0.90929,-1.4928,3.6372,-4.5561e-12,-0.74639,0,0,0.25,-1.4803e-15,0,0.66667
0.50327,0.022845,2.0131,-0.71573,-11.364,20.842,3.8422,-1.2807,-0.17839,5.1229,-1.0436e-13,-0.089195,0,0,0.25,-0,-0,0.66667
0.15729,0.96524,0.62915,0.69785,14.465,48.489,-1.1708,0.39027,-0.26945,-1.5611,2.0024e-10,-0.13473,0,0,0.25,-2.9606e-16,0,0.66667
0.082507,0.62724,0.33003,0.19085,3.9397,55.069,-0.16796,0.055988,-1.871,-0.22395,9.3294e-09,-0.9355,0,0,0.25,-2.9606e-16,0,0.66667
0.88189,0.79276,3.5276,0.43914,1.9139,2.1151,-4.1309,1.377,-1.3135,-5.5079,2.3604e-09,-0.65673,0,0,0.25,-0,-0,0.66667
0.24189,0.88857,0.96756,0.58285,11.572,41.092,-1.5038,0.50128,-0.79116,-2.0051,-3.2957e-11,-0.39558,0,0,0.25,-0,-0,0.66667
0.95897,0.63286,3.8359,0.19929,0.23364,0.44185,-2.0385,0.67951,-1.8583,-2.7181,8.6682e-08,-0.92914,0,0,0.25,-0,-0,0.66667
0.89236,0.43385,3.5695,-0.099221,-0.37427,1.5787,0.94444,-0.31481,-1.9658,1.2593,-2.2315e-08,-0.98289,0,0,0.25,2.9606e-16,0,0.66667
0.15998,0.77837,0.63991,0.41755,8.5117,48.164,-0.71252,0.23751,-1.3806,-0.95003,-8.3941e-10,-0.69029,0,0,0.25,-0,-0,0.66667
0.50371,0.66382,2.0148,0.24572,3.7841,20.408,-1.3202,0.44008,-1.7851,-1.7603,-6.1728e-14,-0.89256,0,0,0.25,-1.1842e-15,0,0.66667
0.11892,0.74561,0.47568,0.36841,7.5852,51.81,-0.46732,0.15577,-1.5174,-0.6231,-1.3382e-09,-0.75868,0,0,0.25,-0,-0,0.66667
0.11084,0.31804,0.44335,-0.27295,-5.6132,52.523,0.3227,-0.10757,-1.7357,0.43026,1.0129e-09,-0.86784,0,0,0.25,-0,-0,0.66667
0.6963,0.15929,2.7852,-0.51106,-5.4571,9.1183,3.7957,-1.2652,-1.0715,5.061,-4.8894e-12,-0.53573,0,0,0.25,-0,-0,0.66667
0.27155,0.6912,1.0862,0.28679,5.5243,38.454,-0.83071,0.2769,-1.7076,-1.1076,-4.4558e-11,-0.85381,0,0,0.25,-0,-0,0.66667
0.96639,0.47602,3.8656,-0.035968,-0.029787,0.28802,0.37076,-0.12359,-1.9955,0.49434,-4.1334e-07,-0.99776,0,0,0.25,-2.3685e-15,0,0.66667
0.83925,0.38764,3.357,-0.16853,-0.96968,3.0403,1.5087,-0.5029,-1.8983,2.0116,-6.7838e-11,-0.94915,0,0,0.25,1.1842e-15,0,0.66667
0.09252,0.63288,0.37008,0.19931,4.1076,54.165,-0.1967,0.065566,-1.8591,-0.26227,1.2421e-08,-0.92955,0,0,0.25,-0,-0,0.66667
0.39056,0.17051,1.5622,-0.49424,-8.7724,28.879,2.059,-0.68633,-1.1318,2.7453,-1.696e-12,-0.56588,0,0,0.25,-5.9212e-16,8.7558e-17,0.66667
0.12422,0.48099,0.49687,-0.028517,-0.58237,51.306,0.037785,-0.012595,-1.9972,0.05038,2.5552e-10,-0.99862,0,0,0.25,-0,-0,0.66667
0.55539,0.68838,2.2216,0.28257,4.0272,16.967,-1.674,0.55799,-1.7166,-2.232,-1.443e-12,-0.85832,0,0,0.25,2.3685e-15,0,0.66667
0.16211,0.60796,0.64842,0.16194,3.2739,47.933,-0.28002,0.093339,-1.9058,-0.37336,7.5995e-14,-0.95292,0,0,0.25,-0,-0,0.66667
0.83177,0.049378,3.3271,-0.67593,-4.3696,3.9086,5.997,-1.999,-0.37493,7.996,2.1039e-10,-0.18747,0,0,0.25,-0,-0,0.66667
0.25769,0.24392,1.0308,-0.38412,-7.4851,39.66,1.0559,-0.35195,-1.475,1.4078,6.1647e-11,-0.73751,0,0,0.25,-2.9606e-16,0,0.66667
0.51057,0.17655,2.0423,-0.48517,-7.4876,20.093,2.6423,-0.88075,-1.1624,3.523,-9.3481e-14,-0.58119,0,0,0.25,5.9212e-16,0,0.66667
0.78245,0.19913,3.1298,-0.4513,-3.5654,5.2617,3.7667,-1.2556,-1.2759,5.0222,-1.7896e-10,-0.63793,0,0,0.25,-0,-0,0.66667
0.53834,0.56889,2.1534,0.10334,1.5066,18.015,-0.59342,0.19781,-1.9616,-0.79123,-5.5378e-13,-0.98082,0,0,0.25,-0,-0,0.66667
0.52882,0.91703,2.1153,0.62555,9.502,19.007,-3.5286,1.1762,-0.60843,-4.7048,-3.1175e-13,-0.30422,0,0,0.25,-0,3.9462e-16,0.66667
0.85484,0.20663,3.4194,-0.44005,-2.3593,2.8279,4.0125,-1.3375,-1.3108,5.35,-1.379e-09,-0.6554,0,0,0.25,1.1842e-15,0,0.66667
0.2451,0.082677,0.9804,-0.62598,-12.441,40.841,1.6366,-0.54553,-0.60605,2.1821,1.327e-11,-0.30303,0,0,0.25,-0,-0,0.66667
0.1271,0.87104,0.5084,0.55656,11.536,51.118,-0.75455,0.25152,-0.89927,-1.0061,-4.1034e-09,-0.44963,0,0,0.25,1.4803e-16,0,0.66667
0.56024,0.70531,2.241,0.30797,4.3584,16.67,-1.8404,0.61346,-1.6625,-2.4538,-1.4039e-12,-0.83124,0,0,0.25,-0,-0,0.66667
0.12838,0.63065,0.51352,0.19598,4.0055,50.942,-0.26837,0.089458,-1.8635,-0.35783,-2.4368e-10,-0.93177,0,0,0.25,-0,-0,0.66667
0.33116,0.0071143,1.3246,-0.73933,-14.03,33.775,2.6116,-0.87052,-0.0565,3.4821,-4.7073e-14,-0.02825,0,0,0.25,-0,-0,0.66667
0.32644,0.60926,1.3058,0.16389,3.0328,33.855,-0.57068,0.19023,-1.9043,-0.76091,-5.2568e-12,-0.95215,0,0,0.25,5.9212e-16,0,0.66667
0.94804,0.79681,3.7922,0.44522,0.79312,0.85486,-4.5023,1.5008,-1.2944,-6.003,-2.4931e-09,-0.64718,0,0,0.25,-0,-0,0.66667
0.37591,0.52619,1.5037,0.039288,0.69686,29.859,-0.15754,0.052512,-1.9953,-0.21005,-6.5406e-14,-0.99765,0,0,0.25,2.9606e-16,0,0.66667
0.46911,0.15871,1.8764,-0.51194,-8.3585,23.022,2.5617,-0.85389,-1.0695,3.4156,-7.4607e-13,-0.53477,0,0,0.25,-0,-0,0.66667
0.94734,0.6721,3.7894,0.25815,0.43197,0.64309,-2.6086,0.86953,-1.7621,-3.4781,1.04e-08,-0.88107,0,0,0.25,-1.1842e-15,0,0.66667
0.82838,0.15169,3.3135,-0.52246,-3.3405,3.7441,4.6165,-1.5388,-1.0305,6.1553,-9.2992e-10,-0.51526,0,0,0.25,1.4803e-15,0,0.66667
0.672,0.43977,2.688,-0.090339,-1.005,10.045,0.64755,-0.21585,-1.9725,0.8634,-3.4733e-12,-0.98624,0,0,0.25,2.3685e-15,0,0.66667
0.26731,0.52533,1.0692,0.038,0.73064,38.774,-0.10835,0.036117,-1.9953,-0.14447,-9.1572e-12,-0.99766,0,0,0.25,2.9606e-16,0,0.66667
0.13326,0.44762,0.53306,-0.078572,-1.6011,50.497,0.11169,-0.03723,-1.9773,0.14892,1.1188e-09,-0.98863,0,0,0.25,-0,-0,0.66667
0.33396,0.64467,1.3359,0.217,3.997,33.252,-0.77301,0.25767,-1.8318,-1.0307,-3.7404e-12,-0.91588,0,0,0.25,-2.9606e-16,0,0.66667
0.15982,0.52645,0.63928,0.039673,0.80167,48.128,-0.067633,0.022544,-1.9946,-0.090177,-2.207e-10,-0.9973,0,0,0.25,2.9606e-16,0,0.66667
0.9604,0.16475,3.8416,-0.50287,-0.67136,0.78821,5.1515,-1.7172,-1.1002,6.8687,-2.957e-08,-0.55012,0,0,0.25,-0,-0,0.66667
0.20094,0.87979,0.80375,0.56969,11.522,44.617,-1.221,0.40701,-0.84654,-1.6281,-5.8195e-11,-0.42327,0,0,0.25,-0,-0,0.66667
0.31067,0.37074,1.2427,-0.19389,-3.6316,35.158,0.64252,-0.21417,-1.867,0.85669,1.0831e-11,-0.9335,0,0,0.25,-4.4409e-16,0,0.66667
0.66142,0.93218,2.6457,0.64828,7.684,11.091,-4.5737,1.5246,-0.50562,-6.0982,-6.2572e-13,-0.25281,0,0,0.25,-2.9606e-16,0,0.66667
0.43762,0.007813,1.7505,-0.73828,-12.72,25.54,3.4463,-1.1488,-0.062701,4.595,7.6605e-14,-0.03135,0,0,0.25,-0,-0,0.66667
0.58983,0.1248,2.3593,-0.5628,-7.686,15.05,3.5409,-1.1803,-0.87477,4.7212,1.0856e-12,-0.43738,0,0,0.25,-4.3484e-16,0,0.66667
0.84885,0.71031,3.3954,0.31547,1.7293,2.8581,-2.8563,0.95211,-1.6457,-3.8085,5.63e-10,-0.82284,0,0,0.25,-0,-0,0.66667
0.58815,0.055265,2.3526,-0.6671,-9.2273,15.286,4.1851,-1.395,-0.41728,5.5802,1.994e-13,-0.20864,0,0,0.25,5.9212e-16,0,0.66667
0.49698,0.79371,1.9879,0.44056,6.909,20.994,-2.3355,0.77849,-1.3094,-3.1139,-4.0634e-14,-0.65472,0,0,0.25,-0,-0,0.66667
0.83558,0.56519,3.3423,0.097782,0.57351,3.1264,-0.87151,0.2905,-1.9662,-1.162,7.9759e-10,-0.98309,0,0,0.25,-2.3685e-15,0,0.66667
0.79797,0.49385,3.1919,-0.009229,-0.066131,4.3935,0.078554,-0.026185,-2.0003,0.10474,-1.5913e-10,-1.0001,0,0,0.25,2.3685e-15,0,0.66667
0.98116,0.36389,3.9246,-0.20417,-0.052292,0.20957,2.1368,-0.71227,-1.8514,2.8491,1.066e-07,-0.92569,0,0,0.25,1.1842e-15,0,0.66667
0.94861,0.49415,3.7944,-0.0087718,-0.013619,0.5129,0.088757,-0.029586,-1.9996,0.11834,1.5047e-07,-0.99981,0,0,0.25,1.7764e-15,0,0.66667
0.91719,0.27032,3.6688,-0.34452,-1.0083,1.2318,3.3706,-1.1235,-1.5773,4.4941,1.7984e-10,-0.78867,0,0,0.25,-1.1842e-15,0,0.66667
0.49483,0.19346,1.9793,-0.45981,-7.2401,21.159,2.4269,-0.80898,-1.2481,3.2359,-2.3714e-13,-0.62403,0,0,0.25,-0,-0,0.66667
0.73715,0.52341,2.9486,0.035108,0.32155,6.8701,-0.27605,0.092017,-1.9956,-0.36807,9.0905e-12,-0.99779,0,0,0.25,-1.1842e-15,0,0.66667
0.60052,0.10126,2.4021,-0.59812,-8.0313,14.45,3.8313,-1.2771,-0.7275,5.1084,9.6723e-13,-0.36375,0,0,0.25,-0,-0,0.66667
0.738,0.39337,2.952,-0.15994,-1.4647,6.8643,1.2591,-0.41969,-1.9085,1.6787,-4.1653e-11,-0.95423,0,0,0.25,-1.1842e-15,0,0.66667
0.37576,0.6771,1.503,0.26566,4.7316,29.918,-1.0648,0.35493,-1.7493,-1.4197,1.4403e-12,-0.87466,0,0,0.25,-0,-0,0.66667
0.91111,0.45029,3.6444,-0.074558,-0.22715,1.1671,0.72459,-0.24153,-1.9795,0.96612,5.7533e-10,-0.98974,0,0,0.25,-0,-0,0.66667
0.87231,0.5237,3.4892,0.035555,0.16065,2.0577,-0.33083,0.11028,-1.9955,-0.44111,2.0757e-09,-0.99776,0,0,0.25,1.1842e-15,0,0.66667
0.70467,0.62868,2.8187,0.19303,1.968,8.4305,-1.4509,0.48362,-1.8684,-1.9345,1.89e-11,-0.93418,0,0,0.25,-2.3685e-15,0,0.66667
0.26123,0.57984,1.0449,0.11975,2.3123,39.297,-0.33369,0.11123,-1.9483,-0.44491,-3.3544e-11,-0.97414,0,0,0.25,-2.9606e-16,0,0.66667
0.50107,0.11302,2.0043,-0.58047,-9.1385,20.837,3.1025,-1.0342,-0.80203,4.1366,-6.1728e-14,-0.40101,0,0,0.25,-5.9212e-16,0,0.66667
0.21771,0.55662,0.87082,0.084935,1.6772,43.041,-0.19724,0.065745,-1.975,-0.26298,-3.196e-11,-0.98749,0,0,0.25,-4.4409e-16,0,0.66667
0.10252,0.64209,0.41008,0.21314,4.385,53.265,-0.23308,0.077694,-1.8375,-0.31078,-2.4543e-09,-0.91875,0,0,0.25,-1.4803e-16,0,0.66667
0.57796,0.31422,2.3118,-0.27866,-3.8189,15.532,1.7179,-0.57265,-1.7255,2.2906,1.5833e-12,-0.86275,0,0,0.25,-0,-0,0.66667
0.4796,0.69801,1.9184,0.29701,4.7328,22.125,-1.5194,0.50648,-1.6857,-2.0259,3.2452e-13,-0.84286,0,0,0.25,1.1842e-15,0,0.66667
0.24749,0.81062,0.98997,0.46593,9.1641,40.561,-1.23,0.41,-1.229,-1.64,-7.0121e-11,-0.61452,0,0,0.25,-3.7007e-17,0,0.66667
0.44668,0.003778,1.7867,-0.74433,-12.704,24.883,3.5464,-1.1821,-0.030128,4.7285,4.4409e-14,-0.015064,0,0,0.25,-0,-0,0.66667
0.13839,0.5755,0.55357,0.11325,2.3051,50.04,-0.16717,0.055724,-1.9541,-0.2229,-1.0958e-09,-0.97706,0,0,0.25,-0,-0,0.66667
0.5228,0.10844,2.0912,-0.58733,-8.9726,19.366,3.2753,-1.0918,-0.77249,4.3671,-4.7518e-14,-0.38624,0,0,0.25,1.1842e-15,0,0.66667
0.97037,0.025917,3.8815,-0.71112,-0.84375,1.1144,7.3606,-2.4535,-0.20252,9.8141,4.164e-06,-0.10126,0,0,0.25,1.1842e-15,0,0.66667
0.82378,0.73619,3.2951,0.35428,2.2685,3.6766,-3.1131,1.0377,-1.553,-4.1508,5.2257e-10,-0.7765,0,0,0.25,2.0868e-16,0,0.66667
0.0044396,0.58786,0.017759,0.13179,2.737,62.152,-0.0062414,0.0020805,-1.9381,-0.0083219,-2.8102e-08,-0.96907,0,0,0.25,2.313e-18,0,0.66667
0.09162,0.85325,0.36648,0.52987,11.054,54.286,-0.51783,0.17261,-1.0017,-0.69044,3.1967e-10,-0.50084,0,0,0.25,-0,2.7341e-17,0.66667
0.025576,0.10481,0.1023,-0.59279,-12.508,60.245,0.16172,-0.053906,-0.74983,0.21562,-6.8714e-07,-0.37492,0,0,0.25,7.4015e-17,0,0.66667
0.30843,0.74443,1.2337,0.36665,6.915,35.397,-1.2062,0.40208,-1.522,-1.6083,-1.0979e-11,-0.76102,0,0,0.25,7.4015e-16,0,0.66667
0.98064,0.89841,3.9226,0.59762,0.36153,0.7641,-6.2512,2.0837,-0.72992,-8.3349,-5.7749e-07,-0.36496,0,0,0.25,-0,-0,0.66667
0.4604,0.41938,1.8416,-0.12092,-1.9642,23.447,0.59386,-0.19795,-1.9471,0.79181,-7.0111e-13,-0.97353,0,0,0.25,-0,-0,0.66667
0.40975,0.4452,1.639,-0.082201,-1.4118,27.23,0.35927,-0.11976,-1.9758,0.47903,-6.2272e-13,-0.9879,0,0,0.25,-0,-0,0.66667
0.40822,0.057261,1.6329,-0.66411,-11.723,27.663,2.8918,-0.96392,-0.43233,3.8557,-1.9473e-13,-0.21617,0,0,0.25,-5.9212e-16,0,0.66667
0.82481,0.81368,3.2993,0.47052,3.0424,3.7833,-4.1396,1.3799,-1.2137,-5.5195,5.2305e-10,-0.60686,0,0,0.25,2.3685e-15,0,0.66667
0.58171,0.29952,2.3268,-0.30072,-4.0974,15.313,1.866,-0.62198,-1.6779,2.4879,1.6527e-12,-0.83894,0,0,0.25,-0,-0,0.66667
0.11935,0.27295,0.47741,-0.34058,-7.0045,51.768,0.43359,-0.14453,-1.587,0.57812,1.2007e-09,-0.79352,0,0,0.25,-0,-0,0.66667
0.44473,0.41263,1.7789,-0.13106,-2.1688,24.6,0.62173,-0.20724,-1.9385,0.82897,-6.0774e-13,-0.96926,0,0,0.25,-1.1842e-15,0,0.66667
0.1464,0.00071456,0.58562,-0.74893,-15.633,49.468,1.1696,-0.38985,-0.0063532,1.5594,2.898e-09,-0.0031766,0,0,0.25,-0,-0,0.66667
0.66607,0.41235,2.6643,-0.13148,-1.4861,10.369,0.93411,-0.31137,-1.9383,1.2455,-3.2127e-12,-0.96913,0,0,0.25,-0,-0,0.66667
0.12237,0.035943,0.48948,-0.69609,-14.571,51.577,0.90858,-0.30286,-0.27761,1.2114,-7.615e-09,-0.13881,0,0,0.25,-0,-0,0.66667
0.086689,0.37305,0.34676,-0.19043,-3.928,54.691,0.17608,-0.058694,-1.8714,0.23478,-2.5857e-08,-0.93569,0,0,0.25,2.0354e-16,0,0.66667
0.70336,0.16039,2.8134,-0.50941,-5.3311,8.7719,3.8219,-1.274,-1.0785,5.0959,-7.4589e-12,-0.53923,0,0,0.25,-0,-0,0.66667
0.41126,0.58077,1.645,0.12116,2.0787,27.12,-0.53148,0.17716,-1.947,-0.70864,8.6509e-13,-0.97351,0,0,0.25,-0,-0,0.66667
0.99611,0.19017,3.9844,-0.46474,0.090033,0.40581,4.9379,-1.646,-1.2326,6.5839,-1.9946e-09,-0.61628,0,0,0.25,-2.3685e-15,0,0.66667
0.53405,0.89124,2.1362,0.58686,8.8163,18.617,-3.3431,1.1144,-0.77496,-4.4575,-5.2247e-13,-0.38748,0,0,0.25,1.1842e-15,0,0.66667
0.77901,0.87135,3.1161,0.55703,4.5261,5.5422,-4.6286,1.5429,-0.89744,-6.1715,9.4217e-11,-0.44872,0,0,0.25,1.4803e-15,-2.3098e-16,0.66667
0.86863,0.22467,3.4745,-0.413,-1.995,2.416,3.8266,-1.2755,-1.3932,5.1021,-1.9389e-09,-0.69662,0,0,0.25,2.3685e-15,0,0.66667
0.79875,0.9449,3.195,0.66735,5.0726,4.9972,-5.6858,1.8953,-0.41675,-7.581,-1.2756e-11,-0.20838,0,0,0.25,-0,-0,0.66667
0.21409,0.55583,0.85635,0.083748,1.6565,43.355,-0.19125,0.063749,-1.9748,-0.25499,-3.1371e-11,-0.98742,0,0,0.25,-0,-0,0.66667
0.68037,0.69326,2.7215,0.28989,3.1777,9.7021,-2.1038,0.70126,-1.7009,-2.8051,7.7667e-12,-0.85045,0,0,0.25,-0,-0,0.66667
0.0046244,0.54912,0.018498,0.073681,1.5293,62.135,-0.0036341,0.0012091,-1.9799,-0.0048466,-3.4082e-06,-0.98997,0,0,0.25,-0,-0,0.66667
0.7958,0.13228,3.1832,-0.55158,-4.1673,4.9036,4.6821,-1.5607,-0.9187,6.2428,-1.3494e-10,-0.45935,0,0,0.25,-0,-0,0.66667
0.21583,0.018666,0.86333,-0.722,-14.654,43.401,1.6622,-0.55407,-0.14611,2.2163,2.4856e-11,-0.073055,0,0,0.25,-0,2.8485e-16,0.66667
0.98672,0.63188,3.9469,0.19783,0.0039475,0.15886,-2.0821,0.69405,-1.861,-2.7762,-5.8968e-08,-0.93051,0,0,0.25,-0,-0,0.66667
0.94415,0.26021,3.7766,-0.35968,-0.67167,0.7949,3.6223,-1.2074,-1.5392,4.8298,2.881e-09,-0.76962,0,0,0.25,-2.3685e-15,0,0.66667
0.58512,0.95673,2.3405,0.6851,9.5455,15.496,-4.2759,1.4253,-0.33026,-5.7012,-6.3949e-14,-0.16513,0,0,0.25,-6.9292e-16,0,0.66667
0.16047,0.66185,0.64187,0.24278,4.9192,48.087,-0.41556,0.13852,-1.7904,-0.55408,-2.3833e-10,-0.8952,0,0,0.25,-0,-0,0.66667
0.7034,0.3659,2.8136,-0.20115,-2.0591,8.496,1.5092,-0.50308,-1.8566,2.0123,-1.8288e-11,-0.92832,0,0,0.25,5.9212e-16,0,0.66667
0.41745,0.89585,1.6698,0.59377,10.33,26.898,-2.644,0.88133,-0.74586,-3.5253,7.6761e-13,-0.37293,0,0,0.25,-0,-0,0.66667
0.46677,0.78309,1.8671,0.42463,6.9168,23.122,-2.1142,0.70473,-1.3599,-2.8189,7.3364e-13,-0.67997,0,0,0.25,-1.1842e-15,0,0.66667
0.30497,0.45951,1.2199,-0.060728,-1.1398,35.612,0.19755,-0.065849,-1.9862,0.2634,5.0914e-12,-0.99309,0,0,0.25,-0,-0,0.66667
0.86917,0.59235,3.4767,0.13853,0.64468,2.1681,-1.2843,0.42812,-1.9323,-1.7125,-1.854e-09,-0.96613,0,0,0.25,-0,-0,0.66667
0.46942,0.84225,1.8777,0.51337,8.3794,23.001,-2.5705,0.85684,-1.0644,-3.4274,3.8125e-13,-0.53221,0,0,0.25,2.9606e-16,0,0.66667
0.80616,0.94861,3.2246,0.67291,4.9494,4.7466,-5.7864,1.9288,-0.38921,-7.7151,2.056e-11,-0.1946,0,0,0.25,-0,-0,0.66667
0.8068,0.5848,3.2272,0.1272,0.87519,4.0981,-1.0947,0.36489,-1.9419,-1.4596,1.1708e-10,-0.97094,0,0,0.25,-5.9212e-16,0,0.66667
0.55703,0.23813,2.2281,-0.39281,-5.6135,16.935,2.3339,-0.77797,-1.4506,3.1119,1.1973e-12,-0.7253,0,0,0.25,5.9212e-16,0,0.66667
0.38613,0.75043,1.5445,0.37564,6.6548,29.152,-1.5472,0.51572,-1.4991,-2.0629,1.5847e-12,-0.74957,0,0,0.25,-0,-0,0.66667
0.68707,0.25157,2.7483,-0.37265,-4.0333,9.4277,2.731,-0.91035,-1.5078,3.6414,-8.5887e-12,-0.75389,0,0,0.25,-0,-0,0.66667
0.6809,0.43568,2.7236,-0.096483,-1.0487,9.5842,0.70075,-0.23358,-1.9673,0.93434,-4.9358e-12,-0.98363,0,0,0.25,5.4488e-16,0,0.66667
0.18194,0.85222,0.72777,0.52834,10.743,46.26,-1.0254,0.34178,-1.007,-1.3671,-2.6373e-10,-0.50349,0,0,0.25,-0,-0,0.66667
0.76415,0.2725,3.0566,-0.34125,-2.8712,5.8682,2.7815,-0.92717,-1.5861,3.7087,-1.2164e-10,-0.79307,0,0,0.25,-0,-0,0.66667
0.16518,0.19291,0.66071,-0.46064,-9.3914,47.715,0.81159,-0.27053,-1.2453,1.0821,3.8897e-10,-0.62266,0,0,0.25,-0,-0,0.66667
0.32411,0.22206,1.2964,-0.41691,-7.7917,34.13,1.4413,-0.48044,-1.3824,1.9217,3.5212e-12,-0.69118,0,0,0.25,-0,-0,0.66667
0.87021,0.71548,3.4808,0.32322,1.5202,2.2724,-3.0002,1.0001,-1.6288,-4.0003,5.7585e-10,-0.8144,0,0,0.25,-2.9606e-16,0,0.66667
0.57167,0.5681,2.2867,0.10215,1.4085,15.858,-0.62287,0.20762,-1.9626,-0.8305,-9.3409e-13,-0.98132,0,0,0.25,-0,-0,0.66667
0.2566,0.0028742,1.0264,-0.74569,-14.856,39.939,2.041,-0.68033,-0.023094,2.7213,-5.3539e-12,-0.011547,0,0,0.25,-0,-0,0.66667
0.92392,0.57012,3.6957,0.10518,0.26826,0.9306,-1.0366,0.34552,-1.9608,-1.3821,8.2688e-08,-0.98041,0,0,0.25,-0,-0,0.66667
0.66058,0.12216,2.6423,-0.56676,-6.673,11.019,3.9935,-1.3312,-0.85831,5.3246,9.8255e-13,-0.42915,0,0,0.25,-4.4409e-16,0,0.66667
0.55451,0.9045,2.218,0.60674,8.8416,17.308,-3.5888,1.1963,-0.69141,-4.785,-3.9435e-13,-0.3457,0,0,0.25,-4.4409e-16,0,0.66667
0.99332,0.17595,3.9733,-0.48607,0.026386,0.45887,5.1501,-1.7167,-1.1591,6.8668,-7.1015e-08,-0.57955,0,0,0.25,-1.1842e-15,0,0.66667
0.84555,0.95639,3.3822,0.68458,4.0962,3.5104,-6.1744,2.0581,-0.33353,-8.2325,4.5402e-10,-0.16677,0,0,0.25,-0,-0,0.66667
0.67719,0.3039,2.7088,-0.29415,-3.2523,9.8687,2.1248,-0.70826,-1.6918,2.833,-6.7044e-12,-0.84591,0,0,0.25,5.9212e-16,0,0.66667
0.081731,0.85741,0.32692,0.53612,11.208,55.175,-0.46738,0.15579,-0.97746,-0.62318,-1.7534e-08,-0.48873,0,0,0.25,-0,-0,0.66667
0.36445,0.54278,1.4578,0.064174,1.15,30.771,-0.24947,0.083157,-1.9846,-0.33263,-1.9187e-13,-0.99232,0,0,0.25,-5.9212e-16,0,0.66667
0.50217,0.48077,2.0087,-0.028847,-0.44342,20.461,0.15452,-0.051506,-1.9968,0.20602,-1.3459e-13,-0.9984,0,0,0.25,-0,-0,0.66667
0.61766,0.53276,2.4706,0.049133,0.61975,13.054,-0.3237,0.1079,-1.9918,-0.4316,-3.8589e-13,-0.99591,0,0,0.25,2.3685e-15,0,0.66667
0.63988,0.045828,2.5595,-0.68126,-8.5133,12.307,4.6498,-1.5499,-0.34989,6.1998,4.7384e-13,-0.17495,0,0,0.25,-1.1842e-15,-2.9473e-16,0.66667
0.72511,0.27032,2.9005,-0.34452,-3.3267,7.5678,2.6647,-0.88823,-1.5772,3.5529,-3.9043e-11,-0.78859,0,0,0.25,-0,-0,0.66667
0.91024,0.80438,3.641,0.45656,1.5024,1.5129,-4.4329,1.4776,-1.2585,-5.9105,9.1362e-09,-0.62927,0,0,0.25,1.1842e-15,0,0.66667
0.56828,0.63492,2.2731,0.20238,2.8137,16.104,-1.2267,0.40892,-1.8537,-1.6357,-1.2929e-12,-0.92684,0,0,0.25,-0,-0,0.66667
0.98027,0.7613,3.9211,0.39194,0.16051,0.41253,-4.0982,1.3661,-1.4532,-5.4643,-1.439e-09,-0.72661,0,0,0.25,-0,-0,0.66667
0.1132,0.87359,0.45279,0.56038,11.657,52.359,-0.67663,0.22554,-0.88421,-0.90217,-4.527e-09,-0.4421,0,0,0.25,-1.8504e-17,0,0.66667
0.46568,0.67703,1.8627,0.26555,4.3011,23.11,-1.3191,0.43969,-1.7489,-1.7587,6.8778e-13,-0.87447,0,0,0.25,5.9212e-16,0,0.66667
0.10167,0.90383,0.40669,0.60575,12.666,53.4,-0.65694,0.21898,-0.69559,-0.87591,-3.7149e-08,-0.34779,0,0,0.25,-0,-0,0.66667
0.74245,0.35396,2.9698,-0.21906,-1.9803,6.6972,1.7348,-0.57828,-1.8286,2.3131,-5.8966e-11,-0.91429,0,0,0.25,-0,-0,0.66667
0.80683,0.7336,3.2273,0.35039,2.4492,4.25,-3.0155,1.0052,-1.5626,-4.0207,3.1582e-10,-0.78128,0,0,0.25,-0,-0,0.66667
0.52316,0.14529,2.0926,-0.53207,-8.09,19.284,2.9691,-0.98971,-0.99257,3.9588,1.8008e-13,-0.49629,0,0,0.25,-0,-0,0.66667
0.43253,0.37518,1.7301,-0.18723,-3.1445,25.524,0.8638,-0.28793,-1.8762,1.1517,-1.1265e-12,-0.9381,0,0,0.25,-0,-0,0.66667
0.066995,0.60593,0.26798,0.1589,3.2861,56.471,-0.11355,0.037851,-1.9095,-0.1514,2.977e-08,-0.95477,0,0,0.25,-0,-0,0.66667
0.56461,0.93203,2.2585,0.64805,9.322,16.717,-3.9029,1.301,-0.50719,-5.2039,-1.894e-13,-0.25359,0,0,0.25,-5.9212e-16,0,0.66667
0.25483,0.3156,1.0193,-0.2766,-5.3783,39.872,0.75186,-0.25062,-1.7282,1.0025,7.0835e-11,-0.86412,0,0,0.25,-0,-0,0.66667
0.082332,0.29831,0.32933,-0.30254,-6.2626,55.093,0.26569,-0.088563,-1.6739,0.35425,-3.9796e-09,-0.83693,0,0,0.25,-1.4803e-16,0,0.66667
0.73371,0.39424,2.9348,-0.15864,-1.4741,7.0557,1.2416,-0.41386,-1.9107,1.6554,-3.7792e-11,-0.95535,0,0,0.25,1.1842e-15,0,0.66667
0.74344,0.52461,2.9738,0.036919,0.33081,6.5921,-0.29277,0.097589,-1.9947,-0.39036,1.159e-11,-0.99737,0,0,0.25,-1.1842e-15,0,0.66667
0.37108,0.52504,1.4843,0.037562,0.66912,30.242,-0.14868,0.049559,-1.9949,-0.19823,-1.1824e-13,-0.99746,0,0,0.25,-5.9212e-16,0,0.66667
0.18447,0.35779,0.7379,-0.21331,-4.2813,45.962,0.41973,-0.13991,-1.8377,0.55964,2.3771e-10,-0.91886,0,0,0.25,-2.9606e-16,0,0.66667
0.51289,0.28806,2.0516,-0.3179,-4.8458,19.812,1.7392,-0.57973,-1.6408,2.3189,3.4972e-13,-0.82038,0,0,0.25,-0,-0,0.66667
0.093456,0.74398,0.37383,0.36597,7.5765,54.096,-0.36482,0.12161,-1.5246,-0.48643,3.6635e-10,-0.76232,0,0,0.25,-1.8678e-17,0,0.66667
0.77844,0.91715,3.1138,0.62572,5.1488,5.6768,-5.1956,1.7319,-0.6076,-6.9275,3.4314e-11,-0.3038,0,0,0.25,-0,-0,0.66667
0.47595,0.27968,1.9038,-0.33048,-5.2978,22.403,1.6778,-0.55927,-1.6121,2.2371,-6.235e-13,-0.80603,0,0,0.25,-7.4015e-16,0,0.66667
0.96096,0.35202,3.8439,-0.22197,-0.24436,0.43373,2.2753,-0.75843,-1.8242,3.0337,-4.3461e-09,-0.91209,0,0,0.25,-0,-0,0.66667
0.10902,0.097227,0.43608,-0.60416,-12.612,52.742,0.70257,-0.23419,-0.70341,0.93676,2.558e-08,-0.3517,0,0,0.25,-0,-1.171e-16,0.66667
0.69796,0.66861,2.7918,0.25292,2.6364,8.792,-1.8829,0.62765,-1.7718,-2.5106,1.6116e-11,-0.88589,0,0,0.25,1.1842e-15,0,0.66667
0.80356,0.17973,3.2142,-0.4804,-3.4657,4.5201,4.1177,-1.3726,-1.1789,5.4903,-2.61e-10,-0.58944,0,0,0.25,-0,-0,0.66667
0.72687,0.99026,2.9075,0.73538,7.3828,8.0327,-5.7017,1.9006,-0.076438,-7.6022,1.2834e-12,-0.038219,0,0,0.25,2.045e-15,0,0.66667
0.46145,0.58701,1.8458,0.13051,2.1176,23.372,-0.64242,0.21414,-1.939,-0.85656,6.1501e-13,-0.96949,0,0,0.25,-3.1888e-16,0,0.66667
0.54611,0.65954,2.1844,0.23931,3.4573,17.548,-1.394,0.46467,-1.7975,-1.8587,-1.0336e-12,-0.89875,0,0,0.25,-1.1842e-15,0,0.66667
0.61519,0.61921,2.4608,0.17882,2.2727,13.231,-1.1734,0.39114,-1.8861,-1.5646,-1.0757e-12,-0.94303,0,0,0.25,-1.4803e-15,0,0.66667
0.059105,0.57011,0.23642,0.10517,2.1757,57.184,-0.066306,0.022102,-1.9605,-0.088408,2.0706e-07,-0.98027,0,0,0.25,-0,-0,0.66667
0.99567,0.70411,3.9827,0.30616,-0.092433,0.19204,-3.2516,1.0839,-1.666,-4.3355,1.17e-08,-0.83299,0,0,0.25,-0,-0,0.66667
0.25491,0.65454,1.0196,0.23182,4.5018,39.854,-0.63031,0.2101,-1.8095,-0.84041,-6.5474e-11,-0.90473,0,0,0.25,-3.3307e-16,0,0.66667
0.64341,0.60733,2.5736,0.16099,1.9231,11.611,-1.1049,0.3683,-1.9074,-1.4732,3.2452e-13,-0.95371,0,0,0.25,1.1842e-15,0,0.66667
0.12643,0.1123,0.50573,-0.58154,-12.073,51.184,0.78428,-0.26143,-0.79746,1.0457,3.9448e-09,-0.39873,0,0,0.25,1.4803e-16,0,0.66667
0.16786,0.05337,0.67145,-0.66994,-13.81,47.548,1.1996,-0.39985,-0.40378,1.5994,-3.4737e-10,-0.20189,0,0,0.25,1.4803e-16,0,0.66667
0.4911,0.17172,1.9644,-0.49242,-7.8079,21.446,2.5795,-0.85984,-1.1369,3.4394,-2.3048e-13,-0.56844,0,0,0.25,-0,-0,0.66667
0.2885,0.73032,1.154,0.34548,6.598,37.046,-1.0632,0.35438,-1.5747,-1.4175,-2.4775e-11,-0.78737,0,0,0.25,5.9212e-16,0,0.66667
0.50424,0.043184,2.017,-0.68522,-10.835,20.737,3.6855,-1.2285,-0.32992,4.914,-3.1086e-14,-0.16496,0,0,0.25,-0,-0,0.66667
0.10218,0.47686,0.40873,-0.034713,-0.7126,53.288,0.037834,-0.012611,-1.9951,0.050446,-6.5012e-09,-0.99756,0,0,0.25,-0,-0,0.66667
0.41929,0.31207,1.6772,-0.28189,-4.8152,26.556,1.2607,-0.42025,-1.7187,1.681,-1.9093e-12,-0.85933,0,0,0.25,-2.7756e-16,0,0.66667
0.2686,0.46217,1.0744,-0.056748,-1.0904,38.666,0.16259,-0.054196,-1.9886,0.21678,1.3526e-11,-0.99431,0,0,0.25,2.9606e-16,0,0.66667
0.5819,0.95133,2.3276,0.677,9.479,15.681,-4.2021,1.4007,-0.36977,-5.6028,-1.9895e-13,-0.18489,0,0,0.25,-0,-0,0.66667
0.17171,0.71153,0.68682,0.31729,6.4173,47.105,-0.58112,0.19371,-1.6428,-0.77483,-4.1112e-10,-0.8214,0,0,0.25,-1.4803e-16,0,0.66667
0.96232,0.3213,3.8493,-0.26806,-0.28642,0.45606,2.7515,-0.91717,-1.7439,3.6687,5.3359e-09,-0.87194,0,0,0.25,-0,-0,0.66667
0.54421,0.36037,2.1768,-0.20944,-3.0321,17.659,1.2158,-0.40526,-1.8436,1.621,6.0385e-13,-0.9218,0,0,0.25,1.1842e-15,0,0.66667
0.70195,0.51346,2.8078,0.020196,0.20678,8.5167,-0.15122,0.050405,-1.9985,-0.20162,2.4526e-12,-0.99926,0,0,0.25,-2.3685e-15,0,0.66667
0.93237,0.113,3.7295,-0.5805,-1.4827,1.3234,5.7732,-1.9244,-0.80109,7.6976,-4.8475e-08,-0.40055,0,0,0.25,-0,-0,0.66667
0.34537,0.84351,1.3815,0.51526,9.5224,32.462,-1.8982,0.63273,-1.0575,-2.5309,1.1408e-12,-0.52875,0,0,0.25,6.1062e-16,0,0.66667
0.51572,0.419,2.0629,-0.12149,-1.8335,19.54,0.66834,-0.22278,-1.9478,0.89112,1.2879e-13,-0.97392,0,0,0.25,-0,-0,0.66667
0.78659,0.039177,3.1464,-0.69124,-5.5617,5.4874,5.7997,-1.9332,-0.30068,7.7329,6.0307e-12,-0.15034,0,0,0.25,-0,-0,0.66667
0.06941,0.32548,0.27764,-0.26179,-5.4238,56.257,0.19382,-0.064607,-1.7554,0.25843,-7.8082e-09,-0.8777,0,0,0.25,-0,-0,0.66667
0.75322,0.42424,3.0129,-0.11364,-0.98413,6.185,0.91302,-0.30434,-1.9536,1.2174,-4.392e-11,-0.97678,0,0,0.25,-1.1842e-15,0,0.66667
0.11748,0.95419,0.46992,0.68128,14.264,52.008,-0.85372,0.28457,-0.34871,-1.1383,-1.5254e-09,-0.17436,0,0,0.25,-1.4803e-16,0,0.66667
0.38913,0.64055,1.5565,0.21082,3.7032,28.851,-0.87505,0.29168,-1.8418,-1.1667,1.3836e-12,-0.92091,0,0,0.25,-0,-0,0.66667
0.69699,0.57905,2.788,0.11858,1.2333,8.7779,-0.88158,0.29386,-1.9491,-1.1754,1.0023e-11,-0.97453,0,0,0.25,-1.1842e-15,0,0.66667
0.059872,0.71595,0.23949,0.32393,6.7319,57.124,-0.20687,0.068957,-1.6276,-0.27583,8.9977e-10,-0.81382,0,0,0.25,1.8504e-17,0,0.66667
0.66498,0.064142,2.6599,-0.65379,-7.6883,10.912,4.6374,-1.5458,-0.4806,6.1832,5.9464e-13,-0.2403,0,0,0.25,-0,-0,0.66667
0.97191,0.60156,3.8877,0.15234,0.094784,0.26592,-1.5793,0.52644,-1.9174,-2.1058,2.8871e-07,-0.95869,0,0,0.25,-0,-0,0.66667
0.24942,0.25854,0.99768,-0.36219,-7.084,40.358,0.96359,-0.3212,-1.534,1.2848,8.2061e-11,-0.76702,0,0,0.25,-0,-0,0.66667
0.25914,0.33311,1.0365,-0.25034,-4.8522,39.498,0.69197,-0.23066,-1.7764,0.92263,5.9195e-11,-0.88819,0,0,0.25,-0,-0,0.66667
0.087231,0.61674,0.34892,0.1751,3.6105,54.641,-0.16293,0.054309,-1.8904,-0.21724,6.5763e-09,-0.9452,0,0,0.25,-1.4803e-16,0,0.66667
0.093025,0.68387,0.3721,0.27581,5.6939,54.126,-0.27368,0.091226,-1.7306,-0.3649,4.812e-09,-0.8653,0,0,0.25,3.7007e-17,0,0.66667
0.31441,0.11066,1.2576,-0.584,-11.093,35.019,1.9585,-0.65285,-0.78709,2.6114,3.032e-13,-0.39355,0,0,0.25,-5.9212e-16,0,0.66667
0.83253,0.30777,3.3301,-0.28835,-1.7445,3.3317,2.5606,-0.85354,-1.7045,3.4141,-6.292e-10,-0.85223,0,0,0.25,-1.1842e-15,0,0.66667
0.51242,0.21617,2.0497,-0.42575,-6.5295,19.918,2.3271,-0.77569,-1.3561,3.1028,1.7986e-14,-0.67807,0,0,0.25,8.9186e-16,0,0.66667
0.38564,0.8473,1.5426,0.52094,9.3034,29.28,-2.1429,0.7143,-1.0353,-2.8572,2.0324e-12,-0.51764,0,0,0.25,-0,-0,0.66667
0.1825,0.9761,0.73002,0.71415,14.689,46.286,-1.3902,0.46342,-0.18627,-1.8537,-7.2345e-11,-0.093134,0,0,0.25,-5.9212e-16,0,0.66667
0.97602,0.47668,3.9041,-0.03498,-0.015008,0.18671,0.36418,-0.12139,-1.9951,0.48557,1.8555e-07,-0.99753,0,0,0.25,-0,-0,0.66667
0.74144,0.91258,2.9658,0.61886,5.8294,7.1832,-4.8944,1.6315,-0.63787,-6.5258,1.1134e-11,-0.31893,0,0,0.25,-0,-0,0.66667
0.34016,0.79368,1.3607,0.44052,8.142,32.838,-1.5984,0.53279,-1.3095,-2.1312,1.6442e-13,-0.65474,0,0,0.25,-0,-0,0.66667
0.92233,0.0018629,3.6893,-0.74721,-2.3767,1.857,7.3512,-2.4504,-0.016351,9.8016,3.1924e-07,-0.0081755,0,0,0.25,-0,-0,0.66667
0.58633,0.84497,2.3453,0.51746,7.0859,15.212,-3.2363,1.0788,-1.0484,-4.315,-1.3136e-12,-0.5242,0,0,0.25,-0,-0,0.66667
0.2652,0.4424,1.0608,-0.086401,-1.6639,38.957,0.24441,-0.08147,-1.9744,0.32588,2.4266e-11,-0.98721,0,0,0.25,-0,-0,0.66667
0.48157,0.46284,1.9263,-0.055736,-0.88095,21.912,0.2863,-0.095433,-1.9891,0.38173,-2.3281e-13,-0.99457,0,0,0.25,5.9212e-16,0,0.66667
0.43439,0.6225,1.7375,0.18375,3.0796,25.384,-0.85141,0.2838,-1.8806,-1.1352,1.1321e-12,-0.94031,0,0,0.25,-2.9606e-16,0,0.66667
0.3025,0.62677,1.21,0.19016,3.5818,35.835,-0.61359,0.20453,-1.8719,-0.81812,-1.4431e-11,-0.93593,0,0,0.25,-0,-0,0.66667
0.65676,0.83246,2.627,0.49869,5.8876,11.138,-3.4936,1.1645,-1.116,-4.6581,-1.0016e-12,-0.55801,0,0,0.25,-0,-0,0.66667
0.79219,0.17371,3.1688,-0.48944,-3.7248,4.9447,4.1358,-1.3786,-1.1475,5.5144,-1.91e-10,-0.57374,0,0,0.25,-1.1842e-15,0,0.66667
0.35326,0.69306,1.4131,0.2896,5.2633,31.715,-1.0912,0.36375,-1.7016,-1.455,-2.4492e-13,-0.85079,0,0,0.25,-0,-0,0.66667
0.43787,0.45644,1.7515,-0.065336,-1.0888,25.1,0.30516,-0.10172,-1.9851,0.40688,-4.5738e-13,-0.99254,0,0,0.25,-0,-0,0.66667
0.96304,0.018192,3.8521,-0.72271,-1.0886,1.2189,7.424,-2.4747,-0.14203,9.8986,-1.1675e-07,-0.071014,0,0,0.25,-2.2809e-15,0,0.66667
0.25951,0.47543,1.0381,-0.036859,-0.71192,39.438,0.10203,-0.03401,-1.9948,0.13604,9.9436e-12,-0.99739,0,0,0.25,-0,-0,0.66667
0.71926,0.8446,2.877,0.5169,5.1641,8.0286,-3.9657,1.3219,-1.0517,-5.2876,1.3322e-11,-0.52584,0,0,0.25,-0,-0,0.66667
0.85114,0.21637,3.4046,-0.42545,-2.3328,2.9146,3.8626,-1.2875,-1.3566,5.1501,-7.0453e-10,-0.67832,0,0,0.25,-1.5244e-15,0,0.66667
0.74183,0.96338,2.9673,0.69508,6.6108,7.2982,-5.5001,1.8334,-0.28194,-7.3334,3.3236e-12,-0.14097,0,0,0.25,-5.9212e-16,0,0.66667
0.21655,0.87343,0.86621,0.56015,11.245,43.259,-1.2939,0.4313,-0.88542,-1.7252,-1.3925e-10,-0.44271,0,0,0.25,3.3307e-16,0,0.66667
0.43531,0.60887,1.7412,0.1633,2.7329,25.31,-0.75825,0.25275,-1.9049,-1.011,1.1198e-12,-0.95243,0,0,0.25,-5.9212e-16,0,0.66667
0.60876,0.65497,2.435,0.23245,2.9987,13.634,-1.5094,0.50314,-1.8094,-2.0125,-1.796e-12,-0.90471,0,0,0.25,1.7023e-15,0,0.66667
0.59156,0.56195,2.3662,0.09293,1.2354,14.621,-0.58638,0.19546,-1.9706,-0.78185,-6.7368e-13,-0.98528,0,0,0.25,-1.3323e-15,0,0.66667
0.95189,0.15731,3.8075,-0.51403,-0.87086,0.91417,5.2192,-1.7397,-1.0619,6.9589,2.5423e-09,-0.53096,0,0,0.25,-0,-0,0.66667
0.3584,0.072437,1.4336,-0.64134,-11.824,31.512,2.4518,-0.81728,-0.53774,3.2691,-1.1053e-12,-0.26887,0,0,0.25,5.9212e-16,-2.5683e-16,0.66667
0.53179,0.92257,2.1272,0.63385,9.5924,18.82,-3.5955,1.1985,-0.57162,-4.794,-2.6712e-13,-0.28581,0,0,0.25,-0,-0,0.66667
0.39838,0.20662,1.5935,-0.44007,-7.7299,28.239,1.87,-0.62334,-1.3105,2.4934,-1.7092e-12,-0.65525,0,0,0.25,-4.7177e-16,0,0.66667
0.61473,0.051728,2.4589,-0.67241,-8.847,13.717,4.4091,-1.4697,-0.39171,5.8787,4.4009e-13,-0.19585,0,0,0.25,-5.9212e-16,0,0.66667
0.46485,0.25474,1.8594,-0.36788,-5.9894,23.223,1.8241,-0.60803,-1.5189,2.4321,-7.1054e-13,-0.75947,0,0,0.25,-1.1842e-15,0,0.66667
0.95549,0.54183,3.8219,0.062752,0.080176,0.4255,-0.63956,0.21319,-1.9858,-0.85275,-5.5753e-07,-0.9929,0,0,0.25,-2.3685e-15,0,0.66667
0.70849,0.44988,2.8339,-0.07518,-0.75537,8.206,0.56815,-0.18938,-1.9791,0.75753,-9.8135e-12,-0.98955,0,0,0.25,1.1842e-15,0,0.66667
0.49885,0.94631,1.9954,0.66946,10.648,21.089,-3.5622,1.1874,-0.40676,-4.7496,6.728e-14,-0.20338,0,0,0.25,-1.1842e-15,0,0.66667
0.49291,0.27747,1.9716,-0.33379,-5.2347,21.205,1.755,-0.58499,-1.6038,2.34,-3.0098e-13,-0.80192,0,0,0.25,7.4015e-16,0,0.66667
0.2485,0.39876,0.99399,-0.15187,-2.9548,40.389,0.40254,-0.13418,-1.9183,0.53672,5.9645e-11,-0.95915,0,0,0.25,-0,-0,0.66667
0.21539,0.16364,0.86155,-0.50455,-10.103,43.337,1.1592,-0.38639,-1.0948,1.5456,1.1874e-10,-0.54738,0,0,0.25,-0,-0,0.66667
0.38386,0.34359,1.5354,-0.23461,-4.1441,29.271,0.96063,-0.32021,-1.805,1.2808,-1.486e-12,-0.90249,0,0,0.25,-6.8464e-16,0,0.66667
0.26942,0.35289,1.0777,-0.22066,-4.2481,38.618,0.63413,-0.21138,-1.8265,0.8455,4.2521e-11,-0.91326,0,0,0.25,-0,-0,0.66667
0.29831,0.33635,1.1932,-0.24547,-4.6428,36.197,0.78106,-0.26035,-1.7861,1.0414,1.806e-11,-0.89305,0,0,0.25,-2.9606e-16,0,0.66667
0.21497,0.020409,0.8599,-0.71939,-14.604,43.473,1.6496,-0.54987,-0.15945,2.1995,1.8494e-11,-0.079723,0,0,0.25,-0,-0,0.66667
0.43072,0.15501,1.7229,-0.51749,-8.8335,25.838,2.3775,-0.79249,-1.0483,3.17,-9.1194e-13,-0.52416,0,0,0.25,-7.4015e-16,0,0.66667
0.23735,0.75909,0.9494,0.38863,7.658,41.401,-0.98391,0.32797,-1.4628,-1.3119,-1.0976e-10,-0.73139,0,0,0.25,-0,-0,0.66667
0.42905,0.17085,1.7162,-0.49372,-8.4306,25.945,2.2595,-0.75317,-1.1323,3.0127,-1.2483e-12,-0.56616,0,0,0.25,-0,-0,0.66667
0.73823,0.60584,2.9529,0.15875,1.4526,6.8536,-1.2501,0.4167,-1.9098,-1.6668,4.1493e-11,-0.9549,0,0,0.25,-0,-0,0.66667
0.19031,0.11985,0.76125,-0.57023,-11.584,45.543,1.1576,-0.38585,-0.84417,1.5434,2.769e-10,-0.42209,0,0,0.25,-4.4409e-16,0,0.66667
0.98048,0.16187,3.9219,-0.50719,-0.25776,0.59132,5.3044,-1.7681,-1.0854,7.0726,8.8571e-08,-0.54269,0,0,0.25,2.3685e-15,0,0.66667
0.25094,0.1722,1.0038,-0.4917,-9.6655,40.277,1.3161,-0.43871,-1.1404,1.7548,5.0824e-11,-0.57019,0,0,0.25,-0,-0,0.66667
0.091928,0.4598,0.36771,-0.060295,-1.2405,54.213,0.059123,-0.019708,-1.9871,0.07883,4.1162e-08,-0.99357,0,0,0.25,-0,-0,0.66667
0.6622,0.95684,2.6488,0.68526,8.1423,11.108,-4.8404,1.6135,-0.32953,-6.4538,-4.0457e-13,-0.16476,0,0,0.25,-0,-0,0.66667
0.12414,0.13506,0.49654,-0.54741,-11.349,51.38,0.72483,-0.24161,-0.9348,0.96644,5.7711e-09,-0.4674,0,0,0.25,-0,2.8919e-16,0.66667
0.45854,0.48308,1.8342,-0.025377,-0.41276,23.571,0.12412,-0.041375,-1.9968,0.1655,-5.2753e-13,-0.99842,0,0,0.25,5.9212e-16,0,0.66667
0.55491,0.83972,2.2196,0.50959,7.3636,17.175,-3.0163,1.0054,-1.0766,-4.0217,-9.992e-13,-0.53832,0,0,0.25,-0,-0,0.66667
0.91222,0.64111,3.6489,0.21167,0.64433,1.2084,-2.0596,0.68652,-1.8398,-2.7461,-8.1256e-09,-0.91989,0,0,0.25,1.1842e-15,0,0.66667
0.84078,0.79813,3.3631,0.44719,2.6279,3.2496,-4.0105,1.3368,-1.2885,-5.3474,7.6024e-10,-0.64424,0,0,0.25,-0,-0,0.66667
0.47647,0.52464,1.9059,0.036956,0.5879,22.274,-0.18782,0.062607,-1.9947,-0.25043,-1.253e-13,-0.99735,0,0,0.25,-0,-0,0.66667
0.8806,0.82029,3.5224,0.48043,2.1362,2.2061,-4.5128,1.5043,-1.1788,-6.017,3.4954e-09,-0.58942,0,0,0.25,-0,-0,0.66667
0.81353,0.16821,3.2541,-0.49769,-3.428,4.1976,4.3188,-1.4396,-1.1194,5.7584,-3.1918e-10,-0.55969,0,0,0.25,-0,-0,0.66667
0.19464,0.39622,0.77855,-0.15566,-3.1081,45.062,0.32318,-0.10773,-1.9131,0.43091,1.0088e-10,-0.95653,0,0,0.25,-2.9606e-16,0,0.66667
0.67245,0.58822,2.6898,0.13233,1.4717,10.033,-0.9492,0.3164,-1.9386,-1.2656,4.1824e-12,-0.96928,0,0,0.25,-0,-0,0.66667
0.71923,0.41989,2.8769,-0.12017,-1.1692,7.707,0.92191,-0.3073,-1.9488,1.2292,-2.0595e-11,-0.97441,0,0,0.25,1.1842e-15,0,0.66667
0.65257,0.12506,2.6103,-0.56241,-6.7451,11.443,3.9148,-1.3049,-0.8764,5.2198,1.2876e-12,-0.4382,0,0,0.25,-0,-0,0.66667
0.40566,0.80602,1.6226,0.45903,8.0137,27.691,-1.9862,0.66207,-1.2515,-2.6483,1.8431e-12,-0.62576,0,0,0.25,-0,-0,0.66667
0.04361,0.98809,0.17444,0.73213,15.569,58.631,-0.34057,0.11352,-0.093712,-0.45409,1.0391e-06,-0.046856,0,0,0.25,2.237e-17,0,0.66667
0.37899,0.23112,1.516,-0.40332,-7.2011,29.725,1.6305,-0.54349,-1.421,2.174,-2.2815e-12,-0.7105,0,0,0.25,5.9212e-16,0,0.66667
0.033161,0.86161,0.13264,0.54241,11.408,59.556,-0.19186,0.063954,-0.9537,-0.25581,1.025e-07,-0.47685,0,0,0.25,-3.7007e-17,0,0.66667
0.2442,0.48693,0.97681,-0.019599,-0.38175,40.747,0.051053,-0.017018,-1.9978,0.06807,1.5101e-12,-0.99888,0,0,0.25,-0,-0,0.66667
0.84278,0.47684,3.3711,-0.034735,-0.19447,2.8913,0.31226,-0.10409,-1.9961,0.41635,-5.3118e-10,-0.99805,0,0,0.25,-0,-0,0.66667
0.47471,0.64723,1.8989,0.22085,3.532,22.441,-1.1183,0.37276,-1.826,-1.491,3.3795e-13,-0.91298,0,0,0.25,5.9212e-16,0,0.66667
0.19554,0.60545,0.78216,0.15817,3.1571,44.983,-0.3299,0.10997,-1.9102,-0.43987,-1.0776e-10,-0.95508,0,0,0.25,-2.9606e-16,0,0.66667
0.93344,0.088897,3.7338,-0.61665,-1.5764,1.3779,6.1398,-2.0466,-0.64807,8.1864,-1.4713e-08,-0.32403,0,0,0.25,-0,-0,0.66667
0.17584,0.69495,0.70338,0.29243,5.901,46.735,-0.54851,0.18284,-1.6957,-0.73134,-3.5557e-10,-0.84786,0,0,0.25,-0,-0,0.66667
0.71019,0.86153,2.8408,0.54229,5.5829,8.4883,-4.1081,1.3694,-0.95342,-5.4774,7.1987e-12,-0.47671,0,0,0.25,-0,-0,0.66667
0.25216,0.30615,1.0086,-0.29077,-5.6645,40.103,0.78208,-0.26069,-1.6997,1.0428,7.6521e-11,-0.84984,0,0,0.25,1.4803e-16,0,0.66667
0.12576,0.67788,0.50302,0.26683,5.4663,51.184,-0.35792,0.11931,-1.7472,-0.47722,4.476e-10,-0.87358,0,0,0.25,-1.4803e-16,0,0.66667
0.42352,0.61043,1.6941,0.16565,2.8081,26.197,-0.74834,0.24945,-1.9023,-0.99778,1.2237e-12,-0.95113,0,0,0.25,-5.9212e-16,0,0.66667
0.30687,0.21702,1.2275,-0.42447,-8.0342,35.55,1.3894,-0.46314,-1.3598,1.8526,8.1489e-12,-0.67992,0,0,0.25,-8.1416e-16,0,0.66667
0.55624,0.17689,2.2249,-0.48466,-6.9758,17.066,2.8756,-0.95853,-1.164,3.8341,9.6301e-13,-0.58202,0,0,0.25,-5.9212e-16,0,0.66667
0.0056956,0.16886,0.022782,-0.49671,-10.434,62.04,0.030177,-0.010059,-1.1219,0.040236,1.023e-07,-0.56096,0,0,0.25,-9.2519e-18,0,0.66667
0.40187,0.72846,1.6075,0.34268,5.9718,27.915,-1.469,0.48966,-1.582,-1.9586,1.9322e-12,-0.79098,0,0,0.25,-0,-0,0.66667
0.32437,0.085679,1.2975,-0.62148,-11.75,34.231,2.1503,-0.71677,-0.62645,2.8671,-8.5998e-13,-0.31323,0,0,0.25,-0,-0,0.66667
0.20888,0.59186,0.83551,0.13778,2.7335,43.814,-0.30699,0.10233,-1.9329,-0.40932,-1.2914e-10,-0.96645,0,0,0.25,-1.1102e-16,0,0.66667
0.7647,0.14669,3.0588,-0.52996,-4.5398,6.0693,4.3228,-1.4409,-1.0017,5.7637,-7.1225e-11,-0.50083,0,0,0.25,5.9212e-16,-3.9408e-16,0.66667
0.21573,0.59044,0.86291,0.13565,2.6828,43.217,-0.31215,0.10405,-1.9351,-0.41621,-1.3935e-10,-0.96756,0,0,0.25,4.4409e-16,0,0.66667
0.36723,0.19459,1.4689,-0.45811,-8.2876,30.683,1.7945,-0.59816,-1.2533,2.3926,-1.6799e-12,-0.62665,0,0,0.25,-0,-0,0.66667
0.061462,0.39229,0.24585,-0.16157,-3.3439,56.972,0.10592,-0.035308,-1.9072,0.14123,2.3397e-08,-0.95359,0,0,0.25,-0,-0,0.66667
0.79907,0.030563,3.1963,-0.70416,-5.3815,5.0572,6.0018,-2.0006,-0.23826,8.0025,-7.0007e-11,-0.11913,0,0,0.25,-1.3323e-15,0,0.66667
0.85776,0.92974,3.4311,0.64461,3.5355,3.0842,-5.8979,1.966,-0.52283,-7.8638,-2.0968e-10,-0.26141,0,0,0.25,-1.1842e-15,0,0.66667
0.979,0.76823,3.916,0.40235,0.18951,0.43809,-4.2016,1.4005,-1.4236,-5.6021,-4.6223e-09,-0.7118,0,0,0.25,-1.1842e-15,0,0.66667
0.95064,0.52667,3.8026,0.040011,0.05891,0.48686,-0.40572,0.13524,-1.9948,-0.54096,-2.2416e-07,-0.99738,0,0,0.25,-0,-0,0.66667
0.48709,0.67411,1.9484,0.26117,4.1158,21.577,-1.3569,0.45231,-1.7571,-1.8092,1.823e-13,-0.87853,0,0,0.25,-0,-0,0.66667
0.29631,0.18938,1.1853,-0.46594,-8.9003,36.445,1.4727,-0.49089,-1.2295,1.9636,1.032e-11,-0.61477,0,0,0.25,-1.1842e-15,0,0.66667
0.69417,0.60314,2.7767,0.15471,1.6237,8.9305,-1.1455,0.38185,-1.9142,-1.5274,1.1219e-11,-0.9571,0,0,0.25,-0,-0,0.66667
0.72461,0.63265,2.8984,0.19898,1.9082,7.4893,-1.538,0.51265,-1.8587,-2.0506,3.3957e-11,-0.92937,0,0,0.25,-2.3685e-15,0,0.66667
0.86836,0.68137,3.4734,0.27205,1.2897,2.2742,-2.5198,0.83995,-1.7365,-3.3598,4.7129e-10,-0.86825,0,0,0.25,-5.9212e-16,0,0.66667
0.20632,0.21398,0.82529,-0.42903,-8.5947,44.098,0.9442,-0.31473,-1.3458,1.2589,2.5598e-10,-0.67291,0,0,0.25,1.4803e-16,0,0.66667
0.39895,0.35357,1.5958,-0.21965,-3.8229,28.091,0.93473,-0.31158,-1.8277,1.2463,-1.5232e-12,-0.91385,0,0,0.25,-1.1842e-15,0,0.66667
0.78884,0.11693,3.1554,-0.5746,-4.4918,5.1965,4.8349,-1.6116,-0.82548,6.4465,-1.2278e-10,-0.41274,0,0,0.25,5.9212e-16,0,0.66667
0.22269,0.9841,0.89075,0.72615,14.696,42.814,-1.7248,0.57495,-0.12451,-2.2998,9.035e-13,-0.062255,0,0,0.25,-0,-0,0.66667
0.48218,0.71631,1.9287,0.32446,5.1587,21.956,-1.6688,0.55626,-1.6266,-2.2251,2.8544e-13,-0.81329,0,0,0.25,1.4275e-16,0,0.66667
0.78097,0.98027,3.1239,0.7204,5.9627,5.7568,-6.0012,2.0004,-0.15506,-8.0016,7.5135e-12,-0.077531,0,0,0.25,-1.1842e-15,0,0.66667
0.60466,0.8741,2.4186,0.56114,7.4502,14.158,-3.6192,1.2064,-0.88114,-4.8256,-1.3114e-12,-0.44057,0,0,0.25,-3.2532e-16,0,0.66667
0.19904,0.019905,0.79616,-0.72014,-14.722,44.851,1.5289,-0.50965,-0.15549,2.0386,-5.1186e-11,-0.077746,0,0,0.25,-0,-0,0.66667
0.49234,0.79671,1.9694,0.44506,7.0249,21.321,-2.3373,0.77909,-1.2947,-3.1164,8.5043e-14,-0.64736,0,0,0.25,-5.9212e-16,0,0.66667
0.98027,0.33228,3.9211,-0.25158,-0.079398,0.25506,2.6305,-0.87685,-1.7744,3.5074,-4.4175e-08,-0.88719,0,0,0.25,-0,-0,0.66667
0.19192,0.006661,0.76767,-0.74001,-15.194,45.479,1.5149,-0.50496,-0.052738,2.0198,-4.429e-11,-0.026369,0,0,0.25,-0,-0,0.66667
0.24271,0.98931,0.97083,0.73397,14.718,41.108,-1.9002,0.63339,-0.083763,-2.5335,-9.2258e-12,-0.041881,0,0,0.25,2.9606e-16,0,0.66667
0.41545,0.075015,1.6618,-0.63748,-11.149,27.089,2.825,-0.94166,-0.55421,3.7667,-2.8022e-13,-0.27711,0,0,0.25,-0,-0,0.66667
0.79504,0.88159,3.1802,0.57238,4.353,4.9642,-4.8541,1.618,-0.83545,-6.4721,9.8517e-11,-0.41773,0,0,0.25,-2.3685e-15,0,0.66667
0.85992,0.20208,3.4397,-0.44688,-2.3156,2.6952,4.099,-1.3663,-1.2901,5.4653,-1.2345e-09,-0.64504,0,0,0.25,-1.1842e-15,0,0.66667
0.76878,0.93642,3.0751,0.65463,5.6205,6.1063,-5.3682,1.7894,-0.47723,-7.1576,-9.2815e-14,-0.23861,0,0,0.25,4.4409e-16,0,0.66667
0.42266,0.42529,1.6906,-0.11206,-1.8997,26.251,0.50523,-0.16841,-1.9555,0.67363,-8.5609e-13,-0.97774,0,0,0.25,-0,-0,0.66667
0.26259,0.41026,1.0504,-0.1346,-2.5976,39.183,0.37703,-0.12568,-1.936,0.5027,3.3984e-11,-0.968,0,0,0.25,-0,-0,0.66667
0.59111,0.54918,2.3644,0.073766,0.9812,14.645,-0.46511,0.15504,-1.9803,-0.62014,-6.9988e-13,-0.99013,0,0,0.25,1.1842e-15,0,0.66667
0.55633,0.69535,2.2253,0.29302,4.1715,16.912,-1.7388,0.57961,-1.6942,-2.3184,-1.3372e-12,-0.8471,0,0,0.25,-0,-0,0.66667
0.32302,0.30077,1.2921,-0.29885,-5.5636,34.171,1.0297,-0.34324,-1.6817,1.3729,6.5096e-12,-0.84085,0,0,0.25,-3.8253e-16,0,0.66667
0.2448,0.59919,0.97922,0.14879,2.9005,40.705,-0.38852,0.12951,-1.9212,-0.51802,-6.6263e-11,-0.96058,0,0,0.25,-0,-0,0.66667
0.62917,0.66007,2.5167,0.2401,2.9688,12.45,-1.6114,0.53712,-1.7953,-2.1485,-9.871e-13,-0.89764,0,0,0.25,-0,-0,0.66667
0.36144,0.13262,1.4458,-0.55107,-10.072,31.203,2.1246,-0.70819,-0.92041,2.8328,-1.6014e-12,-0.4602,0,0,0.25,-0,-0,0.66667
0.44656,0.0040602,1.7862,-0.74391,-12.698,24.891,3.5435,-1.1812,-0.032315,4.7246,1.0369e-13,-0.016158,0,0,0.25,-0,-0,0.66667
0.42369,0.47054,1.6948,-0.044197,-0.74792,26.165,0.19974,-0.066581,-1.9942,0.26632,-1.42e-13,-0.99708,0,0,0.25,-0,-0,0.66667
0.60498,0.78444,2.4199,0.42666,5.6024,13.996,-2.7533,0.91778,-1.3531,-3.6711,-2.0453e-12,-0.67653,0,0,0.25,-0,-0,0.66667
0.067117,0.11203,0.26847,-0.58195,-12.224,56.497,0.41663,-0.13888,-0.79511,0.5555,5.3481e-08,-0.39755,0,0,0.25,-0,-0,0.66667
0.46478,0.8614,1.8591,0.5421,8.9155,23.359,-2.6876,0.89586,-0.95446,-3.5834,4.0723e-13,-0.47723,0,0,0.25,-0,-0,0.66667
0.93632,0.049022,3.7453,-0.67647,-1.7059,1.4613,6.7561,-2.252,-0.37292,9.0082,-5.5714e-08,-0.18646,0,0,0.25,1.1842e-15,0,0.66667
0.14808,0.36654,0.59234,-0.20019,-4.0686,49.183,0.31621,-0.1054,-1.8569,0.42162,-5.312e-10,-0.92843,0,0,0.25,-1.4803e-16,0,0.66667
0.88159,0.62735,3.5264,0.19102,0.80373,1.8774,-1.7963,0.59876,-1.8705,-2.395,-6.2146e-09,-0.93526,0,0,0.25,-2.3685e-15,0,0.66667
0.19859,0.79705,0.79436,0.44558,8.9627,44.777,-0.94388,0.31463,-1.2933,-1.2585,-2.7554e-10,-0.64665,0,0,0.25,-0,-0,0.66667
0.48283,0.46615,1.9313,-0.050771,-0.80113,21.822,0.26148,-0.087159,-1.9919,0.34864,-1.214e-13,-0.99593,0,0,0.25,-2.9606e-16,0,0.66667
0.49097,0.46971,1.9639,-0.045434,-0.70921,21.246,0.23794,-0.079312,-1.9932,0.31725,-3.194e-13,-0.9966,0,0,0.25,1.1842e-15,0,0.66667
0.2348,0.76103,0.9392,0.39155,7.7264,41.621,-0.98066,0.32689,-1.4552,-1.3075,-1.1737e-10,-0.7276,0,0,0.25,-0,-0,0.66667
0.59658,0.98386,2.3863,0.72579,9.9459,14.865,-4.6186,1.5395,-0.12655,-6.1582,-1.3278e-13,-0.063275,0,0,0.25,1.1842e-15,0,0.66667
0.83706,0.94017,3.3482,0.66025,4.1295,3.7146,-5.8951,1.965,-0.45023,-7.8602,-2.2561e-10,-0.22512,0,0,0.25,-0,-0,0.66667
0.24277,0.73399,0.97109,0.35099,6.8865,40.924,-0.9089,0.30297,-1.561,-1.2119,-1.0102e-10,-0.78049,0,0,0.25,2.9606e-16,0,0.66667
0.50573,0.24703,2.0229,-0.37945,-5.8599,20.343,2.0469,-0.68231,-1.4883,2.7292,3.9746e-14,-0.74414,0,0,0.25,7.4015e-16,0,0.66667
0.46839,0.64587,1.8736,0.21881,3.527,22.895,-1.0932,0.3644,-1.8301,-1.4576,6.9011e-13,-0.91507,0,0,0.25,-0,-0,0.66667
0.8049,0.69937,3.2196,0.29906,2.0999,4.2704,-2.5676,0.85586,-1.6811,-3.4235,3.1758e-10,-0.84055,0,0,0.25,-1.1842e-15,0,0.66667
0.48547,0.79099,1.9419,0.43648,6.9487,21.797,-2.2602,0.75341,-1.3228,-3.0137,8.1934e-14,-0.6614,0,0,0.25,-0,-0,0.66667
0.047994,0.56902,0.19198,0.10353,2.1443,58.192,-0.053001,0.017667,-1.9624,-0.070668,-1.2708e-07,-0.98121,0,0,0.25,-0,-0,0.66667
0.29891,0.054888,1.1956,-0.66767,-12.89,36.351,2.1288,-0.70959,-0.41516,2.8383,-1.3012e-13,-0.20758,0,0,0.25,-0,-0,0.66667
0.72163,0.78061,2.8865,0.42092,4.1352,7.8034,-3.24,1.08,-1.3711,-4.32,2.757e-11,-0.68557,0,0,0.25,2.2204e-16,0,0.66667
0.54076,0.55602,2.1631,0.084023,1.2199,17.851,-0.48465,0.16155,-1.9745,-0.6462,-6.4596e-13,-0.98727,0,0,0.25,8.8818e-16,0,0.66667
0.71301,0.79379,2.852,0.44069,4.4536,8.2283,-3.3517,1.1172,-1.3086,-4.4689,1.8547e-11,-0.65432,0,0,0.25,-0,-0,0.66667
0.89043,0.44086,3.5617,-0.088714,-0.34101,1.6205,0.84259,-0.28086,-1.9733,1.1235,-1.6776e-08,-0.98665,0,0,0.25,-2.3685e-15,0,0.66667
0.036948,0.26201,0.14779,-0.35698,-7.4442,59.203,0.14069,-0.046897,-1.5461,0.18759,-6.6849e-09,-0.77304,0,0,0.25,-0,-0,0.66667
0.16157,0.6831,0.6463,0.27465,5.5676,47.994,-0.47336,0.15779,-1.7318,-0.63114,-4.3641e-10,-0.8659,0,0,0.25,1.4803e-16,0,0.66667
0.20618,0.93382,0.82473,0.65073,13.198,44.197,-1.4311,0.47704,-0.49489,-1.9082,-3.436e-11,-0.24745,0,0,0.25,-4.4409e-16,0,0.66667
0.54819,0.36489,2.1928,-0.20266,-2.9146,17.396,1.185,-0.39501,-1.8541,1.5801,8.2989e-13,-0.92704,0,0,0.25,-5.9212e-16,0,0.66667
0.6875,0.13204,2.75,-0.55194,-6.0618,9.6086,4.0476,-1.3492,-0.91764,5.3968,-1.5365e-12,-0.45882,0,0,0.25,2.3685e-15,0,0.66667
0.34233,0.21535,1.3693,-0.42697,-7.8729,32.655,1.5591,-0.5197,-1.3527,2.0788,-2.5591e-13,-0.67636,0,0,0.25,5.9212e-16,0,0.66667
0.8698,0.73147,3.4792,0.3472,1.644,2.3079,-3.2213,1.0738,-1.5706,-4.295,4.231e-10,-0.78529,0,0,0.25,-0,-0,0.66667
0.8792,0.14304,3.5168,-0.53544,-2.4399,2.3278,5.0214,-1.6738,-0.97997,6.6952,-3.4906e-09,-0.48998,0,0,0.25,-0,-0,0.66667
0.19012,0.73826,0.76049,0.35738,7.1875,45.493,-0.72476,0.24159,-1.5456,-0.96635,-3.5131e-10,-0.77278,0,0,0.25,-0,-0,0.66667
0.53183,0.077815,2.1273,-0.63328,-9.5828,18.817,3.5925,-1.1975,-0.57419,4.79,8.9928e-14,-0.2871,0,0,0.25,-0,-0,0.66667
0.98953,0.23623,3.9581,-0.39565,-0.0092143,0.34401,4.1761,-1.392,-1.4426,5.5682,-1.1019e-08,-0.72129,0,0,0.25,1.2396e-17,0,0.66667
0.057573,0.18054,0.23029,-0.4792,-10.024,57.345,0.29428,-0.098093,-1.1832,0.39237,-1.4117e-09,-0.59162,0,0,0.25,-1.1102e-16,0,0.66667
0.083431,0.12343,0.33372,-0.56485,-11.824,55.027,0.50268,-0.16756,-0.86609,0.67024,2.768e-08,-0.43304,0,0,0.25,-7.4015e-17,0,0.66667
0.41763,0.37178,1.6705,-0.19233,-3.2826,26.651,0.85677,-0.28559,-1.8688,1.1424,-1.2337e-12,-0.93441,0,0,0.25,-5.9212e-16,0,0.66667
0.85461,0.86451,3.4184,0.54677,2.9957,2.9944,-4.9842,1.6614,-0.93644,-6.6457,1.7649e-09,-0.46822,0,0,0.25,1.1842e-15,0,0.66667
0.39859,0.87339,1.5944,0.56008,9.9056,28.307,-2.3813,0.79375,-0.88502,-3.175,1.3014e-12,-0.44251,0,0,0.25,8.1416e-16,0,0.66667
0.0099489,0.23513,0.039795,-0.3973,-8.3082,61.653,0.042162,-0.014054,-1.4379,0.056216,1.2462e-08,-0.71893,0,0,0.25,-1.1782e-17,0,0.66667
0.64554,0.83317,2.5822,0.49976,6.0565,11.75,-3.4412,1.1471,-1.1113,-4.5883,-1.5741e-12,-0.55566,0,0,0.25,-0,-0,0.66667
0.2938,0.61627,1.1752,0.1744,3.3032,36.557,-0.54656,0.18219,-1.8917,-0.72875,-1.8243e-11,-0.94583,0,0,0.25,-0,-0,0.66667
0.14993,0.39599,0.59972,-0.15601,-3.1663,49.014,0.2495,-0.083166,-1.9127,0.33266,1.0653e-09,-0.95635,0,0,0.25,-1.4803e-16,0,0.66667
0.10779,0.76584,0.43114,0.39876,8.2411,52.813,-0.45845,0.15282,-1.4345,-0.61127,-1.5164e-09,-0.71723,0,0,0.25,-0,-0,0.66667
0.8689,0.90366,3.4756,0.60549,3.0419,2.7118,-5.6118,1.8706,-0.69671,-7.4825,4.8509e-09,-0.34835,0,0,0.25,-1.2231e-15,0,0.66667
0.0032652,0.16902,0.013061,-0.49647,-10.429,62.26,0.017292,-0.0057638,-1.1231,0.023056,1.2666e-07,-0.56155,0,0,0.25,-4.6259e-18,0,0.66667
0.51859,0.51887,2.0743,0.028305,0.42496,19.332,-0.15657,0.052191,-1.9967,-0.20876,-2.4786e-13,-0.99836,0,0,0.25,-0,-0,0.66667
0.55082,0.56016,2.2033,0.090235,1.2891,17.192,-0.53017,0.17672,-1.9716,-0.70689,-5.1292e-13,-0.9858,0,0,0.25,-2.9606e-16,0,0.66667
0.11595,0.8304,0.4638,0.4956,10.268,52.099,-0.61296,0.20432,-1.1257,-0.81728,-2.7658e-10,-0.56287,0,0,0.25,1.4803e-16,0,0.66667
0.20004,0.71909,0.80016,0.32864,6.5755,44.618,-0.70124,0.23375,-1.6171,-0.93498,-2.6529e-10,-0.80855,0,0,0.25,-0,-0,0.66667
0.86222,0.77056,3.4489,0.40584,2.054,2.5787,-3.7325,1.2442,-1.4141,-4.9767,1.5919e-09,-0.70704,0,0,0.25,1.1842e-15,0,0.66667
0.11697,0.99245,0.46789,0.73867,15.53,52.07,-0.92164,0.30721,-0.059419,-1.2289,-1.8353e-08,-0.02971,0,0,0.25,-4.4409e-16,0,0.66667
0.8247,0.20683,3.2988,-0.43975,-2.8324,3.7458,3.8684,-1.2895,-1.3119,5.1579,-6.1029e-10,-0.65596,0,0,0.25,-0,-0,0.66667
0.19309,0.65675,0.77236,0.23513,4.7053,45.208,-0.48427,0.16142,-1.8041,-0.6457,-2.0258e-10,-0.90207,0,0,0.25,-5.9212e-16,0,0.66667
0.99555,0.84449,3.9822,0.51673,-0.060363,0.49951,-5.4872,1.8291,-1.0514,-7.3163,1.1181e-07,-0.52571,0,0,0.25,-0,2.7276e-17,0.66667
0.47141,0.5506,1.8856,0.075894,1.2154,22.642,-0.38162,0.12721,-1.9792,-0.50883,2.8558e-13,-0.98959,0,0,0.25,-0,-0,0.66667
0.54727,0.051508,2.1891,-0.67274,-9.9766,17.857,3.9271,-1.309,-0.39116,5.2362,7.6383e-14,-0.19558,0,0,0.25,-5.9212e-16,0,0.66667
0.082274,0.82521,0.3291,0.48782,10.172,55.119,-0.42811,0.1427,-1.1532,-0.57081,2.1642e-09,-0.57661,0,0,0.25,1.4803e-16,0,0.66667
0.051293,0.18006,0.20517,-0.47992,-10.046,57.913,0.26258,-0.087525,-1.1808,0.3501,-1.9542e-08,-0.5904,0,0,0.25,7.4015e-17,0,0.66667
0.20742,0.92561,0.8297,0.63842,12.931,44.084,-1.4125,0.47084,-0.55019,-1.8834,-5.5287e-11,-0.2751,0,0,0.25,-0,-0,0.66667
0.16079,0.48158,0.64316,-0.027637,-0.55826,48.042,0.047401,-0.0158,-1.9966,0.063201,1.6116e-10,-0.99828,0,0,0.25,-0,-0,0.66667
0.45106,0.29321,1.8043,-0.31018,-5.1208,24.196,1.4924,-0.49746,-1.6577,1.9898,-1.1637e-12,-0.82886,0,0,0.25,-0,-0,0.66667
0.62995,0.83047,2.5198,0.49571,6.2157,12.616,-3.3309,1.1103,-1.1255,-4.4412,-1.9273e-12,-0.56276,0,0,0.25,1.1842e-15,0,0.66667
0.72633,0.68441,2.9053,0.27661,2.6485,7.4577,-2.1431,0.71436,-1.728,-2.8574,4.1371e-11,-0.86402,0,0,0.25,-0,-0,0.66667
0.45605,0.7094,1.8242,0.3141,5.1561,23.833,-1.5279,0.50932,-1.649,-2.0373,7.977e-13,-0.8245,0,0,0.25,5.9212e-16,0,0.66667
0.37693,0.88298,1.5077,0.57448,10.376,29.999,-2.3097,0.76991,-0.82673,-3.0796,1.2459e-12,-0.41337,0,0,0.25,-0,-0,0.66667
0.064415,0.017369,0.25766,-0.72395,-15.351,56.761,0.49742,-0.16581,-0.1363,0.66322,-1.0377e-07,-0.068149,0,0,0.25,-1.4803e-16,0,0.66667
0.53834,0.38627,2.1533,-0.17059,-2.4902,18.032,0.97958,-0.32653,-1.8957,1.3061,6.4843e-13,-0.94783,0,0,0.25,-0,-0,0.66667
0.45104,0.69432,1.8041,0.29148,4.8089,24.189,-1.4023,0.46744,-1.6982,-1.8698,1.1345e-12,-0.84908,0,0,0.25,-0,-0,0.66667
0.40236,0.24368,1.6094,-0.38448,-6.7091,27.9,1.6501,-0.55004,-1.4743,2.2002,-1.9893e-12,-0.73716,0,0,0.25,2.3824e-16,0,0.66667
0.073837,0.21207,0.29535,-0.43189,-8.9951,55.872,0.34016,-0.11339,-1.3366,0.45354,3.1755e-10,-0.6683,0,0,0.25,-7.4015e-17,0,0.66667
0.19382,0.35916,0.77526,-0.21126,-4.2242,45.141,0.43676,-0.14559,-1.8404,0.58235,2.331e-10,-0.92018,0,0,0.25,-0,-0,0.66667
0.60843,0.69692,2.4337,0.29538,3.8232,13.689,-1.917,0.63901,-1.69,-2.556,-2.0299e-12,-0.84502,0,0,0.25,1.1842e-15,0,0.66667
0.91508,0.77214,3.6603,0.40821,1.2486,1.3502,-3.9845,1.3282,-1.4068,-5.3126,-3.4982e-09,-0.70342,0,0,0.25,-1.1842e-15,0,0.66667
0.63152,0.47343,2.5261,-0.039862,-0.48806,12.253,0.26852,-0.089507,-1.9942,0.35803,-2.1722e-13,-0.99711,0,0,0.25,-0,-0,0.66667
0.57768,0.17616,2.3107,-0.48577,-6.7403,15.713,2.9932,-0.99774,-1.1613,3.991,1.1644e-12,-0.58064,0,0,0.25,5.9212e-16,-3.901e-17,0.66667
0.34238,0.69081,1.3695,0.28622,5.2476,32.59,-1.0453,0.34843,-1.7097,-1.3937,-2.1392e-12,-0.85483,0,0,0.25,-1.1842e-15,0,0.66667
0.13547,0.12426,0.54189,-0.56361,-11.66,50.375,0.81443,-0.27148,-0.87126,1.0859,-3.6511e-09,-0.43563,0,0,0.25,3.7007e-17,0,0.66667
0.50839,0.27324,2.0335,-0.34014,-5.2233,20.134,1.8445,-0.61484,-1.588,2.4593,1.7375e-13,-0.79402,0,0,0.25,-0,-0,0.66667
0.64626,0.39138,2.5851,-0.16293,-1.9335,11.454,1.1231,-0.37438,-1.9047,1.4975,-9.5857e-13,-0.95236,0,0,0.25,1.1842e-15,0,0.66667
0.96752,0.81559,3.8701,0.47339,0.47932,0.6586,-4.8855,1.6285,-1.2042,-6.5139,-9.9983e-09,-0.60211,0,0,0.25,-0,-0,0.66667
0.76195,0.85486,3.0478,0.53229,4.6087,6.1846,-4.3262,1.4421,-0.9921,-5.7683,6.0877e-11,-0.49605,0,0,0.25,-0,-0,0.66667
0.183,0.64412,0.73199,0.21618,4.3418,46.092,-0.42198,0.14066,-1.8332,-0.56264,-2.6326e-10,-0.91658,0,0,0.25,-0,-0,0.66667
0.23966,0.22336,0.95864,-0.41496,-8.176,41.211,1.0608,-0.3536,-1.3878,1.4144,9.6744e-11,-0.69388,0,0,0.25,-0,-0,0.66667
0.95701,0.3396,3.828,-0.2406,-0.30597,0.4976,2.456,-0.81868,-1.7944,3.2747,3.7583e-08,-0.89721,0,0,0.25,-1.7764e-15,0,0.66667
0.758,0.23111,3.032,-0.40333,-3.4934,6.1849,3.2611,-1.087,-1.4207,4.3481,-9.2218e-11,-0.71033,0,0,0.25,-0,-0,0.66667
0.19292,0.84703,0.77168,0.52055,10.534,45.297,-1.0712,0.35706,-1.0367,-1.4283,-3.0541e-10,-0.51837,0,0,0.25,-0,-0,0.66667
0.70195,0.38441,2.8078,-0.17338,-1.7806,8.5538,1.2982,-0.43273,-1.8933,1.7309,-1.6028e-11,-0.94666,0,0,0.25,-0,-0,0.66667
0.83347,0.60193,3.3339,0.15289,0.91035,3.2133,-1.3592,0.45308,-1.9164,-1.8123,-2.842e-10,-0.9582,0,0,0.25,-0,-0,0.66667
0.43625,0.13515,1.745,-0.54728,-9.304,25.451,2.5467,-0.84889,-0.93519,3.3956,-7.887e-13,-0.4676,0,0,0.25,-0,-0,0.66667
0.0094767,0.45364,0.037907,-0.069545,-1.4433,61.693,0.0070308,-0.0023444,-1.9819,0.009374,-1.1698e-06,-0.99093,0,0,0.25,-1.8504e-17,0,0.66667
0.66811,0.47907,2.6724,-0.031388,-0.35244,10.242,0.22369,-0.074563,-1.996,0.29825,-1.0061e-12,-0.99802,0,0,0.25,-0,-0,0.66667
0.069735,0.47072,0.27894,-0.043927,-0.90702,56.22,0.032675,-0.010892,-1.9934,0.043567,-1.3477e-07,-0.99672,0,0,0.25,-0,-0,0.66667
0.2378,0.35642,0.95121,-0.21538,-4.2196,41.318,0.54631,-0.1821,-1.8345,0.72842,9.2422e-11,-0.91727,0,0,0.25,-0,-0,0.66667
0.097031,0.025205,0.38812,-0.71219,-15.01,53.839,0.73712,-0.24571,-0.19664,0.98282,-1.6144e-08,-0.098318,0,0,0.25,1.4803e-16,0,0.66667
0.87047,0.11661,3.4819,-0.57508,-2.8342,2.6158,5.3396,-1.7799,-0.8237,7.1195,-2.4942e-09,-0.41185,0,0,0.25,-5.9212e-16,0,0.66667
0.83404,0.4647,3.3362,-0.05295,-0.31309,3.165,0.47106,-0.15702,-1.99,0.62809,7.2937e-10,-0.99502,0,0,0.25,1.9779e-16,0,0.66667
0.23516,0.93252,0.94064,0.64878,12.98,41.702,-1.6274,0.54246,-0.50424,-2.1699,-9.4612e-12,-0.25212,0,0,0.25,-0,-0,0.66667
0.75438,0.78506,3.0175,0.4276,3.7624,6.3635,-3.4408,1.1469,-1.3501,-4.5877,7.6977e-11,-0.67507,0,0,0.25,-0,-0,0.66667
0.50836,0.37029,2.0335,-0.19457,-2.9722,20.066,1.0551,-0.35169,-1.8652,1.4067,9.3481e-14,-0.93262,0,0,0.25,-0,-0,0.66667
0.42116,0.14188,1.6846,-0.53718,-9.2745,26.571,2.4132,-0.80439,-0.9741,3.2176,-9.9942e-13,-0.48705,0,0,0.25,-0,-3.8055e-16,0.66667
0.21872,0.14525,0.87488,-0.53212,-10.655,43.06,1.2414,-0.41382,-0.99367,1.6553,9.8803e-11,-0.49684,0,0,0.25,-2.9606e-16,3.9444e-16,0.66667
0.22166,0.93891,0.88663,0.65837,13.267,42.865,-1.5566,0.51887,-0.45975,-2.0755,-2.1761e-11,-0.22988,0,0,0.25,5.9212e-16,0,0.66667
0.090802,0.76097,0.36321,0.39146,8.1161,54.339,-0.37915,0.12638,-1.4548,-0.50553,5.0239e-10,-0.7274,0,0,0.25,1.4803e-16,0,0.66667
0.24882,0.026728,0.99527,-0.70991,-14.164,40.574,1.8841,-0.62804,-0.2089,2.5122,-3.167e-12,-0.10445,0,0,0.25,-2.9606e-16,1.4658e-16,0.66667
0.58965,0.62878,2.3586,0.19316,2.5828,14.768,-1.2149,0.40497,-1.8676,-1.6199,-1.6308e-12,-0.9338,0,0,0.25,-0,-0,0.66667
0.88221,0.63154,3.5289,0.19731,0.82606,1.8659,-1.8568,0.61892,-1.8612,-2.4757,-4.7271e-09,-0.93058,0,0,0.25,-2.3685e-15,0,0.66667
0.15505,0.93265,0.62019,0.64898,13.417,48.668,-1.0733,0.35777,-0.50325,-1.4311,-1.517e-09,-0.25162,0,0,0.25,3.1385e-16,0,0.66667
0.26188,0.66923,1.0475,0.25385,4.913,39.265,-0.7091,0.23637,-1.7703,-0.94547,-5.599e-11,-0.88514,0,0,0.25,-0,-0,0.66667
0.63358,0.49126,2.5343,-0.01311,-0.15976,12.134,0.088601,-0.029534,-1.9987,0.11813,-1.1756e-13,-0.99936,0,0,0.25,-0,-0,0.66667
0.1012,0.7394,0.40478,0.35909,7.4208,53.399,-0.38762,0.12921,-1.5407,-0.51682,8.7083e-10,-0.77035,0,0,0.25,-0,-0,0.66667
0.51534,0.57134,2.0614,0.10701,1.6154,19.563,-0.58821,0.19607,-1.9598,-0.78428,-2.0473e-13,-0.97991,0,0,0.25,-1.1842e-15,0,0.66667
0.44685,0.77241,1.7874,0.40861,6.8088,24.563,-1.9476,0.6492,-1.4057,-2.5968,1.1969e-12,-0.70286,0,0,0.25,-0,-0,0.66667
0.050434,0.58372,0.20174,0.12559,2.6012,57.971,-0.067561,0.022521,-1.9435,-0.090082,6.2604e-08,-0.97176,0,0,0.25,7.4015e-17,0,0.66667
0.76578,0.93336,3.0631,0.65005,5.6411,6.2185,-5.3098,1.7699,-0.49874,-7.0797,7.2942e-12,-0.24937,0,0,0.25,-1.1842e-15,0,0.66667
0.095195,0.17618,0.38078,-0.48573,-10.104,53.957,0.49322,-0.16441,-1.1611,0.65762,6.549e-09,-0.58056,0,0,0.25,-1.4803e-16,0,0.66667
0.33837,0.15823,1.3535,-0.51265,-9.5251,33.024,1.8503,-0.61677,-1.066,2.4671,-1.2503e-12,-0.53299,0,0,0.25,1.1842e-15,0,0.66667
0.57897,0.89137,2.3159,0.58705,8.1932,15.745,-3.6254,1.2085,-0.77467,-4.8339,-7.8937e-13,-0.38734,0,0,0.25,1.1842e-15,0,0.66667
0.85085,0.17392,3.4034,-0.48912,-2.7165,3.0109,4.4392,-1.4797,-1.1484,5.9189,-9.0142e-10,-0.5742,0,0,0.25,-0,-0,0.66667
0.26085,0.13156,1.0434,-0.55266,-10.841,39.464,1.5378,-0.51258,-0.91378,2.0503,1.9669e-11,-0.45689,0,0,0.25,-0,-0,0.66667
0.81028,0.34521,3.2411,-0.23218,-1.5787,4.0299,2.0068,-0.66892,-1.8094,2.6757,-2.9362e-10,-0.9047,0,0,0.25,2.3685e-15,0,0.66667
0.43666,0.88637,1.7467,0.57956,9.8702,25.448,-2.6995,0.89982,-0.80588,-3.5993,7.2875e-13,-0.40294,0,0,0.25,-0,-0,0.66667
0.82762,0.9403,3.3105,0.66046,4.3524,4.0087,-5.8305,1.9435,-0.45034,-7.7739,-2.164e-10,-0.22517,0,0,0.25,2.3685e-15,-9.673e-17,0.66667
0.92159,0.2574,3.6864,-0.36391,-1.0074,1.1722,3.5773,-1.1924,-1.5298,4.7698,2.03e-09,-0.76491,0,0,0.25,-0,-0,0.66667
0.4382,0.095884,1.7528,-0.60617,-10.326,25.359,2.8334,-0.94446,-0.69487,3.7778,-3.5172e-13,-0.34743,0,0,0.25,-1.1842e-15,0,0.66667
0.26206,0.77643,1.0482,0.41464,8.0702,39.3,-1.159,0.38634,-1.3889,-1.5454,-5.1023e-11,-0.69445,0,0,0.25,2.9606e-16,0,0.66667
0.46144,0.92486,1.8458,0.63729,10.597,23.692,-3.1368,1.0456,-0.555,-4.1824,1.5299e-13,-0.2775,0,0,0.25,5.9212e-16,0,0.66667
0.094812,0.0021036,0.37925,-0.74684,-15.786,54.046,0.7553,-0.25177,-0.018042,1.0071,5.3134e-08,-0.009021,0,0,0.25,-0,-0,0.66667
0.65878,0.3059,2.6351,-0.29115,-3.3714,10.838,2.0459,-0.68197,-1.6988,2.7279,-2.0053e-12,-0.84938,0,0,0.25,-1.1842e-15,0,0.66667
0.63235,0.068554,2.5294,-0.64717,-8.1892,12.675,4.3652,-1.4551,-0.51047,5.8202,6.8212e-13,-0.25524,0,0,0.25,-0,-0,0.66667
0.4968,0.75362,1.9872,0.38042,5.9478,20.962,-2.0159,0.67198,-1.4859,-2.6879,4.5297e-14,-0.74295,0,0,0.25,-0,-0,0.66667
0.47016,0.6291,1.8806,0.19365,3.1127,22.759,-0.97118,0.32373,-1.8675,-1.2949,4.1223e-13,-0.93373,0,0,0.25,1.1842e-15,0,0.66667
0.12851,0.39432,0.51403,-0.15852,-3.2376,50.928,0.21729,-0.07243,-1.9101,0.28972,-6.8235e-10,-0.95507,0,0,0.25,1.4803e-16,0,0.66667
0.33439,0.65505,1.3376,0.23257,4.2841,33.222,-0.82954,0.27651,-1.8082,-1.1061,-3.9547e-12,-0.90409,0,0,0.25,8.5117e-16,0,0.66667
0.2686,0.044112,1.0744,-0.68383,-13.469,38.888,1.9592,-0.65307,-0.33688,2.6123,1.3161e-12,-0.16844,0,0,0.25,-0,-0,0.66667
0.53581,0.33024,2.1432,-0.25463,-3.7412,18.234,1.4553,-0.4851,-1.7687,1.9404,6.305e-13,-0.88436,0,0,0.25,-0,-0,0.66667
0.41981,0.20545,1.6792,-0.44183,-7.5962,26.603,1.9785,-0.65949,-1.3057,2.638,-1.5138e-12,-0.65283,0,0,0.25,-0,-0,0.66667
0.83603,0.20952,3.3441,-0.43572,-2.63,3.3801,3.8856,-1.2952,-1.3242,5.1808,-7.3803e-10,-0.66212,0,0,0.25,5.9212e-16,0,0.66667
0.70121,0.67707,2.8048,0.26561,2.7447,8.6406,-1.9866,0.66221,-1.7491,-2.6489,1.8404e-11,-0.87454,0,0,0.25,-5.9212e-16,0,0.66667
0.4959,0.20641,1.9836,-0.44038,-6.9161,21.069,2.3294,-0.77648,-1.3098,3.1059,-4.6629e-14,-0.65491,0,0,0.25,-0,-0,0.66667
0.59952,0.74057,2.3981,0.36086,4.7696,14.267,-2.3077,0.76922,-1.5363,-3.0769,-2.1489e-12,-0.76817,0,0,0.25,-0,-0,0.66667
0.39672,0.19321,1.5869,-0.46018,-8.1047,28.38,1.9473,-0.64911,-1.2468,2.5964,-1.9644e-12,-0.6234,0,0,0.25,-0,-0,0.66667
0.21745,0.25738,0.8698,-0.36393,-7.2344,43.111,0.84412,-0.28137,-1.5295,1.1255,1.9611e-10,-0.76473,0,0,0.25,5.9212e-16,0,0.66667
0.74224,0.067516,2.969,-0.64873,-6.1198,7.1985,5.1361,-1.712,-0.50344,6.8481,-3.9675e-12,-0.25172,0,0,0.25,-2.3685e-15,0,0.66667
0.92264,0.03978,3.6906,-0.69033,-2.129,1.7176,6.7939,-2.2646,-0.30599,9.0585,-1.8256e-07,-0.153,0,0,0.25,-0,-0,0.66667
0.26129,0.86916,1.0451,0.55373,10.86,39.428,-1.5433,0.51443,-0.90971,-2.0577,-1.9753e-11,-0.45486,0,0,0.25,-0,-0,0.66667
0.63229,0.85857,2.5292,0.53785,6.7344,12.533,-3.6275,1.2092,-0.97046,-4.8366,-1.5474e-12,-0.48523,0,0,0.25,-1.1842e-15,0,0.66667
0.70958,0.56351,2.8383,0.095258,0.95429,8.1578,-0.72099,0.24033,-1.9683,-0.96132,1.3027e-11,-0.98413,0,0,0.25,-2.3685e-15,0,0.66667
0.73708,0.73766,2.9483,0.35649,3.3124,7.0382,-2.8028,0.93426,-1.5478,-3.737,5.4976e-11,-0.77389,0,0,0.25,1.1842e-15,0,0.66667
0.27022,0.14358,1.0809,-0.53463,-10.419,38.664,1.541,-0.51366,-0.98301,2.0546,1.804e-11,-0.4915,0,0,0.25,-2.9606e-16,0,0.66667
0.10234,0.55983,0.40937,0.089748,1.843,53.274,-0.097975,0.032658,-1.9715,-0.13063,-2.3487e-08,-0.98577,0,0,0.25,-0,-0,0.66667
0.71856,0.61273,2.8742,0.16909,1.6511,7.7566,-1.296,0.432,-1.8987,-1.728,2.6005e-11,-0.94933,0,0,0.25,-2.0352e-15,0,0.66667
0.44319,0.60296,1.7728,0.15443,2.5612,24.72,-0.73007,0.24336,-1.9146,-0.97342,8.38e-13,-0.95729,0,0,0.25,-0,-0,0.66667
0.6827,0.5378,2.7308,0.056698,0.61291,9.4843,-0.41289,0.13763,-1.9883,-0.55052,2.8584e-12,-0.99417,0,0,0.25,-0,-0,0.66667
0.058429,0.079962,0.23372,-0.63006,-13.287,57.285,0.39268,-0.13089,-0.58786,0.52357,1.1925e-07,-0.29393,0,0,0.25,7.4015e-17,5.7633e-17,0.66667
0.65428,0.65854,2.6171,0.23781,2.7768,11.049,-1.6597,0.55324,-1.7999,-2.2129,1.7776e-12,-0.89994,0,0,0.25,-2.3685e-15,0,0.66667
0.28838,0.50181,1.1535,0.0027126,0.051471,36.995,-0.0083439,0.0027813,-2.0003,-0.011125,-1.8626e-12,-1.0002,0,0,0.25,-0,-0,0.66667
0.87785,0.94264,3.5114,0.66396,3.1654,2.6016,-6.2171,2.0724,-0.43285,-8.2895,1.5536e-08,-0.21643,0,0,0.25,-0,-0,0.66667
0.1653,0.16239,0.6612,-0.50642,-10.348,47.717,0.89291,-0.29764,-1.0878,1.1905,1.1909e-09,-0.54391,0,0,0.25,-0,-0,0.66667
0.44557,0.6772,1.7823,0.2658,4.4091,24.581,-1.2633,0.4211,-1.748,-1.6844,1.0114e-12,-0.874,0,0,0.25,-5.9212e-16,0,0.66667
0.96915,0.79812,3.8766,0.44718,0.41134,0.59969,-4.6228,1.5409,-1.2892,-6.1637,-1.5816e-08,-0.64458,0,0,0.25,-1.1842e-15,0,0.66667
0.086128,0.09899,0.34451,-0.60151,-12.612,54.791,0.55261,-0.1842,-0.71328,0.73681,-5.3024e-08,-0.35664,0,0,0.25,-0,-0,0.66667
0.40046,0.55068,1.6019,0.076022,1.3178,27.944,-0.32474,0.10825,-1.9786,-0.43298,5.8747e-13,-0.98932,0,0,0.25,-0,-0,0.66667
0.28546,0.22438,1.1418,-0.41343,-7.9334,37.327,1.2589,-0.41962,-1.3922,1.6785,2.2279e-11,-0.69611,0,0,0.25,-0,-0,0.66667
0.082679,0.83941,0.33072,0.50912,10.627,55.086,-0.449,0.14967,-1.0785,-0.59866,4.6995e-09,-0.53925,0,0,0.25,-1.8504e-16,0,0.66667
0.70977,0.10768,2.8391,-0.58848,-6.0978,8.574,4.4553,-1.4851,-0.76772,5.9404,-3.8782e-12,-0.38386,0,0,0.25,1.1842e-15,0,0.66667
0.56244,0.5588,2.2498,0.088205,1.2357,16.442,-0.52918,0.17639,-1.9736,-0.70557,-6.8323e-13,-0.98681,0,0,0.25,-2.9606e-16,0,0.66667
0.98804,0.26266,3.9522,-0.35601,-0.019667,0.30253,3.7521,-1.2507,-1.5488,5.0028,-9.678e-09,-0.77439,0,0,0.25,-0,-0,0.66667
0.22761,0.11116,0.91044,-0.58326,-11.664,42.316,1.416,-0.47202,-0.78948,1.8881,5.0371e-11,-0.39474,0,0,0.25,-5.656e-16,0,0.66667
0.10466,0.077583,0.41865,-0.63363,-13.263,53.139,0.70738,-0.23579,-0.57171,0.94317,-5.4296e-09,-0.28586,0,0,0.25,-0,-0,0.66667
0.46991,0.1978,1.8796,-0.4533,-7.3673,22.917,2.2721,-0.75737,-1.2695,3.0295,-6.7768e-13,-0.63477,0,0,0.25,-0,-0,0.66667
0.72526,0.37891,2.901,-0.18163,-1.7369,7.4506,1.4051,-0.46836,-1.8827,1.8735,-3.2474e-11,-0.94135,0,0,0.25,-2.3685e-15,0,0.66667
0.20312,0.70621,0.81247,0.30932,6.1768,44.345,-0.67016,0.22339,-1.6602,-0.89355,-2.4741e-10,-0.83009,0,0,0.25,-0,-0,0.66667
0.19345,0.1337,0.7738,-0.54945,-11.134,45.261,1.1338,-0.37792,-0.926,1.5117,1.8377e-10,-0.463,0,0,0.25,-0,-0,0.66667
0.01645,0.13756,0.065798,-0.54366,-11.445,61.067,0.095392,-0.031797,-0.94919,0.12719,9.1174e-08,-0.4746,0,0,0.25,-0,-0,0.66667
0.61338,0.56042,2.4535,0.090624,1.1539,13.311,-0.59293,0.19764,-1.9714,-0.79057,-7.6833e-13,-0.98569,0,0,0.25,1.4803e-15,0,0.66667
0.58667,0.097704,2.3467,-0.60344,-8.3185,15.292,3.7762,-1.2587,-0.70523,5.035,6.2705e-13,-0.35261,0,0,0.25,-0,-0,0.66667
0.46014,0.28463,1.8406,-0.32305,-5.2791,23.539,1.5856,-0.52854,-1.629,2.1141,-1.0068e-12,-0.8145,0,0,0.25,-0,-0,0.66667
0.7062,0.97831,2.8248,0.71747,7.6371,8.9555,-5.4046,1.8015,-0.16945,-7.2061,1.0481e-13,-0.084726,0,0,0.25,-0,-0,0.66667
0.059315,0.41156,0.23726,-0.13265,-2.745,57.166,0.083928,-0.027976,-1.9376,0.1119,1.0862e-07,-0.96882,0,0,0.25,-0,-0,0.66667
0.66498,0.37536,2.6599,-0.18695,-2.1224,10.448,1.3261,-0.44203,-1.8764,1.7681,-3.3749e-12,-0.93819,0,0,0.25,-2.3685e-15,0,0.66667
0.18851,0.4474,0.75405,-0.078903,-1.5779,45.594,0.15866,-0.052886,-1.9781,0.21154,2.0935e-12,-0.98904,0,0,0.25,-0,-0,0.66667
0.13418,0.26542,0.53674,-0.35187,-7.2113,50.443,0.50363,-0.16788,-1.5588,0.67151,4.6071e-10,-0.77941,0,0,0.25,-0,-0,0.66667
0.89487,0.59422,3.5795,0.14133,0.52109,1.5375,-1.349,0.44968,-1.9299,-1.7987,-2.4152e-08,-0.96493,0,0,0.25,-2.3685e-15,0,0.66667
0.68858,0.36354,2.7543,-0.20469,-2.1858,9.2329,1.5034,-0.50115,-1.8511,2.0046,-1.0845e-11,-0.92556,0,0,0.25,1.1842e-15,0,0.66667
0.63478,0.56155,2.5391,0.092321,1.1229,12.076,-0.6251,0.20837,-1.9703,-0.83347,8.9373e-15,-0.98514,0,0,0.25,4.4409e-16,0,0.66667
0.062431,0.3765,0.24972,-0.18525,-3.8352,56.885,0.12337,-0.041122,-1.8797,0.16449,-5.4399e-08,-0.93983,0,0,0.25,1.4803e-16,0,0.66667
0.10037,0.94613,0.40148,0.66919,14.053,53.531,-0.71645,0.23882,-0.40713,-0.95527,7.2005e-09,-0.20356,0,0,0.25,-0,-0,0.66667
0.41814,0.0010114,1.6726,-0.74848,-13.174,27,3.3384,-1.1128,-0.0089293,4.4512,-4.2588e-13,-0.0044647,0,0,0.25,2.3685e-15,0,0.66667
0.77618,0.4522,3.1047,-0.071707,-0.56671,5.2315,0.59368,-0.19789,-1.9809,0.79157,-4.3817e-11,-0.99044,0,0,0.25,-0,-0,0.66667
0.0092608,0.82901,0.037043,0.49352,10.364,61.717,-0.04875,0.01625,-1.1331,-0.065,-5.6658e-08,-0.56653,0,0,0.25,-0,-0,0.66667
0.46474,0.586,1.859,0.12901,2.0847,23.133,-0.63951,0.21317,-1.9406,-0.85268,4.5164e-13,-0.97028,0,0,0.25,-2.0879e-17,0,0.66667
0.20022,0.36077,0.8009,-0.20884,-4.1643,44.579,0.44603,-0.14868,-1.8444,0.59471,2.063e-10,-0.92222,0,0,0.25,-2.9606e-16,0,0.66667
0.89358,0.11128,3.5743,-0.58308,-2.372,2.0752,5.5577,-1.8526,-0.79068,7.4103,-6.4733e-09,-0.39534,0,0,0.25,-1.1842e-15,0,0.66667
0.59828,0.60656,2.3931,0.15984,2.1004,14.23,-1.0201,0.34002,-1.9084,-1.3601,-1.2378e-12,-0.95422,0,0,0.25,-0,-0,0.66667
0.68755,0.3002,2.7502,-0.2997,-3.2243,9.3432,2.198,-0.73266,-1.681,2.9307,-1.0645e-11,-0.8405,0,0,0.25,-0,-0,0.66667
0.80757,0.22143,3.2303,-0.41786,-2.9325,4.2981,3.5995,-1.1998,-1.3795,4.7993,-3.8331e-10,-0.68977,0,0,0.25,-0,-0,0.66667
0.5879,0.87413,2.3516,0.56119,7.6902,15.166,-3.5192,1.1731,-0.88084,-4.6922,-1.0592e-12,-0.44042,0,0,0.25,-0,-0,0.66667
0.84743,0.9362,3.3897,0.6543,3.8433,3.395,-5.9144,1.9715,-0.47862,-7.8858,2.5346e-09,-0.23931,0,0,0.25,-1.7764e-15,0,0.66667
0.47046,0.23204,1.8818,-0.40194,-6.5097,22.841,2.017,-0.67234,-1.4254,2.6894,-7.2986e-13,-0.71271,0,0,0.25,-0,-0,0.66667
0.17437,0.54799,0.6975,0.07199,1.4475,46.84,-0.1339,0.044634,-1.9812,-0.17854,-1.4632e-10,-0.99059,0,0,0.25,-2.9606e-16,0,0.66667
0.64155,0.75616,2.5662,0.38425,4.6581,11.854,-2.6295,0.87649,-1.4757,-3.506,-1.1156e-12,-0.73784,0,0,0.25,-0,-0,0.66667
0.97645,0.26735,3.9058,-0.34897,-0.18708,0.39185,3.6347,-1.2116,-1.566,4.8463,-4.6921e-09,-0.78301,0,0,0.25,1.1842e-15,0,0.66667
0.35024,0.7531,1.401,0.37965,6.9409,31.995,-1.4183,0.47278,-1.4877,-1.8911,2.276e-13,-0.74383,0,0,0.25,-0,-0,0.66667
0.80271,0.2252,3.2108,-0.41221,-2.9598,4.4636,3.5294,-1.1765,-1.3955,4.7059,-3.6089e-10,-0.69777,0,0,0.25,2.3685e-15,0,0.66667
0.67727,0.43628,2.7091,-0.095581,-1.0489,9.7713,0.6905,-0.23017,-1.9681,0.92067,-4.108e-12,-0.98405,0,0,0.25,-1.4803e-15,0,0.66667
0.52046,0.0078146,2.0819,-0.73828,-11.47,19.708,4.0986,-1.3662,-0.06164,5.4649,4.2455e-13,-0.03082,0,0,0.25,-2.3685e-15,0,0.66667
0.14443,0.17836,0.57774,-0.48246,-9.9127,49.558,0.74328,-0.24776,-1.172,0.99105,1.0556e-09,-0.58601,0,0,0.25,-0,-0,0.66667
0.83883,0.18186,3.3553,-0.47721,-2.8514,3.3503,4.2699,-1.4233,-1.1902,5.6932,-8.1693e-10,-0.59508,0,0,0.25,1.1842e-15,0,0.66667
0.42617,0.24512,1.7047,-0.38231,-6.5096,26.086,1.738,-0.57932,-1.4804,2.3173,-1.8859e-12,-0.74019,0,0,0.25,8.8818e-16,0,0.66667
0.78295,0.31725,3.1318,-0.27413,-2.1246,5.0638,2.2894,-0.76312,-1.7334,3.0525,-1.6224e-10,-0.86672,0,0,0.25,-2.3685e-15,0,0.66667
0.59163,0.19987,2.3665,-0.45019,-6.0744,14.821,2.841,-0.94701,-1.2791,3.7881,1.6331e-12,-0.63957,0,0,0.25,-0,-0,0.66667
0.25054,0.27554,1.0022,-0.33669,-6.5749,40.254,0.89977,-0.29992,-1.5978,1.1997,8.124e-11,-0.79888,0,0,0.25,-1.4803e-16,0,0.66667
0.17356,0.66649,0.69424,0.24973,5.0376,46.929,-0.46234,0.15411,-1.7783,-0.61645,-3.12e-10,-0.88913,0,0,0.25,-2.9606e-16,0,0.66667
0.73804,0.070876,2.9522,-0.64369,-6.1532,7.3724,5.0674,-1.6891,-0.52655,6.7565,-4.0412e-12,-0.26327,0,0,0.25,-0,-0,0.66667
0.11212,0.81803,0.44846,0.47704,9.8832,52.438,-0.5705,0.19017,-1.1911,-0.76066,-1.538e-09,-0.59556,0,0,0.25,-0,-0,0.66667
0.21762,0.74417,0.8705,0.36626,7.2807,43.097,-0.8502,0.2834,-1.5237,-1.1336,-1.9642e-10,-0.76183,0,0,0.25,1.4803e-16,0,0.66667
0.86531,0.047775,3.4612,-0.67834,-3.5638,2.9498,6.261,-2.087,-0.36301,8.348,1.3425e-09,-0.18151,0,0,0.25,-0,-0,0.66667
0.9046,0.7924,3.6184,0.4386,1.5317,1.6018,-4.2321,1.4107,-1.316,-5.6427,1.4461e-10,-0.65799,0,0,0.25,-0,-0,0.66667
0.093513,0.8345,0.37405,0.50175,10.449,54.111,-0.50048,0.16683,-1.1054,-0.66731,1.3137e-09,-0.55268,0,0,0.25,-7.4015e-17,-1.4677e-16,0.66667
0.014555,0.89052,0.058221,0.58578,12.361,61.24,-0.090945,0.030315,-0.77994,-0.12126,7.2757e-08,-0.38997,0,0,0.25,1.8504e-17,0,0.66667
0.30404,0.056843,1.2162,-0.66474,-12.787,35.926,2.1558,-0.7186,-0.4286,2.8744,-1.2257e-13,-0.2143,0,0,0.25,1.4803e-16,0,0.66667
0.12829,0.83822,0.51315,0.50733,10.484,51,-0.69423,0.23141,-1.085,-0.92564,-2.3806e-09,-0.54251,0,0,0.25,-1.4803e-16,0,0.66667
0.25704,0.59827,1.0282,0.1474,2.8542,39.658,-0.40415,0.13472,-1.9226,-0.53886,-4.3351e-11,-0.96131,0,0,0.25,5.9212e-16,0,0.66667
0.50233,0.45725,2.0093,-0.064124,-0.98565,20.452,0.34359,-0.11453,-1.9851,0.45812,-5.1598e-14,-0.99257,0,0,0.25,-5.9212e-16,0,0.66667
0.56141,0.43258,2.2456,-0.10113,-1.4195,16.51,0.60559,-0.20186,-1.9644,0.80746,6.341e-13,-0.9822,0,0,0.25,-8.8818e-16,0,0.66667
0.98057,0.62685,3.9223,0.19027,0.052384,0.20526,-1.9901,0.66337,-1.8719,-2.6535,-1.3328e-07,-0.93597,0,0,0.25,-0,-0,0.66667
0.42958,0.18921,1.7183,-0.46619,-7.9433,25.885,2.1362,-0.71205,-1.2276,2.8482,-1.7224e-12,-0.6138,0,0,0.25,1.1842e-15,0,0.66667
0.67931,0.31843,2.7172,-0.27236,-2.9912,9.7448,1.9735,-0.65783,-1.7359,2.6313,-7.5453e-12,-0.86795,0,0,0.25,-0,-0,0.66667
0.88941,0.93667,3.5577,0.655,2.829,2.3102,-6.2141,2.0714,-0.47602,-8.2854,-1.9641e-08,-0.23801,0,0,0.25,-1.2583e-15,0,0.66667
0.15189,0.8952,0.60756,0.5928,12.225,48.928,-0.96044,0.32015,-0.74993,-1.2806,2.6306e-10,-0.37497,0,0,0.25,-0,-0,0.66667
0.09317,0.76162,0.37268,0.39243,8.1328,54.126,-0.39,0.13,-1.4527,-0.51999,-4.2146e-10,-0.72634,0,0,0.25,1.4803e-16,0,0.66667
0.29675,0.39727,1.187,-0.15409,-2.9117,36.307,0.48775,-0.16258,-1.9161,0.65034,1.5035e-11,-0.95807,0,0,0.25,2.9606e-16,0,0.66667
0.12968,0.40991,0.51871,-0.13513,-2.7581,50.821,0.18692,-0.062305,-1.9353,0.24922,-2.869e-10,-0.96764,0,0,0.25,2.9606e-16,0,0.66667
0.16102,0.81612,0.6441,0.47418,9.6876,48.085,-0.81446,0.27149,-1.2007,-1.0859,-7.8893e-10,-0.60037,0,0,0.25,-0,-0,0.66667
0.34358,0.97471,1.3743,0.71206,13.356,32.753,-2.6096,0.86986,-0.19813,-3.4795,1.2967e-13,-0.099065,0,0,0.25,-0,-0,0.66667
0.31134,0.46702,1.2453,-0.049475,-0.92443,35.084,0.1643,-0.054768,-1.9926,0.21907,3.1352e-12,-0.99629,0,0,0.25,8.1416e-16,0,0.66667
0.76235,0.29486,3.0494,-0.30771,-2.6,5.9125,2.5022,-0.83408,-1.6628,3.3363,-1.1214e-10,-0.8314,0,0,0.25,-0,-0,0.66667
0.94892,0.56358,3.7957,0.095363,0.14781,0.5237,-0.96524,0.32175,-1.9684,-1.287,-5.993e-08,-0.98421,0,0,0.25,-2.3685e-15,0,0.66667
0.58072,0.58003,2.3229,0.12005,1.6291,15.296,-0.74362,0.24787,-1.9484,-0.99149,-8.6886e-13,-0.97418,0,0,0.25,-1.1842e-15,0,0.66667
0.98347,0.50288,3.9339,0.0043156,0.0004972,0.11688,-0.045273,0.0151,-2.0011,-0.06036,1.3628e-05,-1.0005,0,0,0.25,-0,-0,0.66667
0.95183,0.40946,3.8073,-0.1358,-0.19577,0.499,1.3788,-0.4596,-1.9354,1.8384,1.183e-07,-0.9677,0,0,0.25,-0,-0,0.66667
0.25764,0.23644,1.0306,-0.39533,-7.7074,39.668,1.0865,-0.36215,-1.4433,1.4486,6.0615e-11,-0.72167,0,0,0.25,-2.9606e-16,0,0.66667
0.30135,0.78665,1.2054,0.42998,8.1715,36.01,-1.3822,0.46072,-1.3426,-1.8429,-1.1055e-11,-0.6713,0,0,0.25,-0,-0,0.66667
0.84189,0.8618,3.3676,0.5427,3.2208,3.3574,-4.8736,1.6245,-0.95259,-6.4981,7.4796e-10,-0.4763,0,0,0.25,-1.1842e-15,0,0.66667
0.58489,0.39145,2.3396,-0.16282,-2.1947,15.05,1.0158,-0.3386,-1.9048,1.3544,1.006e-12,-0.95238,0,0,0.25,-0,-0,0.66667
0.17505,0.14134,0.7002,-0.53799,-10.973,46.869,1.0045,-0.33485,-0.97036,1.3394,5.2332e-10,-0.48518,0,0,0.25,-0,-0,0.66667
0.052125,0.49578,0.2085,-0.0063334,-0.13105,57.816,0.0035212,-0.001174,-1.9999,0.0046949,-3.6475e-07,-0.99995,0,0,0.25,-7.4015e-17,0,0.66667
0.54514,0.32836,2.1806,-0.25746,-3.7277,17.62,1.4971,-0.49902,-1.7641,1.9961,6.2161e-13,-0.88206,0,0,0.25,1.1842e-15,0,0.66667
0.14795,0.34725,0.59179,-0.22912,-4.6597,49.198,0.36158,-0.12053,-1.8134,0.4821,7.5897e-10,-0.90669,0,0,0.25,5.9212e-16,0,0.66667
0.77243,0.82979,3.0897,0.49468,4.0935,5.7095,-4.0758,1.3586,-1.129,-5.4344,1.1011e-10,-0.56449,0,0,0.25,1.1842e-15,0,0.66667
0.60364,0.78353,2.4146,0.42529,5.5986,14.075,-2.7384,0.91279,-1.3572,-3.6512,-1.9935e-12,-0.67862,0,0,0.25,-0,-0,0.66667
0.2545,0.086973,1.018,-0.61954,-12.246,40.039,1.6818,-0.56061,-0.63505,2.2424,1.0961e-11,-0.31752,0,0,0.25,-2.9606e-16,0,0.66667
0.0097104,0.56805,0.038842,0.10207,2.1189,61.672,-0.010573,0.0035236,-1.9627,-0.014097,-8.637e-07,-0.98137,0,0,0.25,-0,-0,0.66667
0.29272,0.16565,1.1709,-0.50153,-9.6207,36.763,1.5659,-0.52197,-1.1052,2.0879,9.3923e-12,-0.55261,0,0,0.25,-0,-0,0.66667
0.61384,0.18713,2.4553,-0.46931,-6.0729,13.516,3.0728,-1.0243,-1.2178,4.0971,1.9695e-12,-0.60888,0,0,0.25,2.2204e-16,0,0.66667
0.19308,0.60797,0.77234,0.16195,3.2361,45.199,-0.33356,0.11119,-1.9059,-0.44474,-1.3332e-10,-0.95293,0,0,0.25,-0,-0,0.66667
0.29108,0.9694,1.1643,0.7041,13.699,37.025,-2.1861,0.72871,-0.23799,-2.9148,-4.1855e-13,-0.11899,0,0,0.25,-1.1842e-15,0,0.66667
0.98264,0.34097,3.9306,-0.23854,-0.050047,0.22332,2.5003,-0.83342,-1.7986,3.3337,-5.3678e-08,-0.89931,0,0,0.25,2.9606e-16,0,0.66667
0.77969,0.5394,3.1188,0.059102,0.46008,5.0908,-0.49153,0.16384,-1.9878,-0.65538,4.8547e-11,-0.9939,0,0,0.25,-0,-0,0.66667
0.23048,0.27843,0.9219,-0.33235,-6.5577,41.976,0.81706,-0.27235,-1.6077,1.0894,1.3521e-10,-0.80387,0,0,0.25,-7.4015e-17,0,0.66667
0.27348,0.64063,1.0939,0.21095,4.0504,38.272,-0.61537,0.20512,-1.8408,-0.82049,-3.7505e-11,-0.92039,0,0,0.25,-5.9212e-16,0,0.66667
0.68583,0.59511,2.7433,0.14266,1.5317,9.3455,-1.0436,0.34788,-1.9289,-1.3915,7.8131e-12,-0.96443,0,0,0.25,-0,-0,0.66667
0.97299,0.56159,3.892,0.092385,0.051955,0.2295,-0.95882,0.31961,-1.9704,-1.2784,-1.3101e-06,-0.98522,0,0,0.25,7.4015e-17,0,0.66667
0.36782,0.57037,1.4713,0.10556,1.8869,30.507,-0.41415,0.13805,-1.9598,-0.55221,1.3878e-14,-0.9799,0,0,0.25,-0,-0,0.66667
0.02374,0.36914,0.094959,-0.19628,-4.0784,60.397,0.049704,-0.016568,-1.8627,0.066272,-1.3672e-07,-0.93134,0,0,0.25,-3.7007e-17,0,0.66667
0.81142,0.74186,3.2457,0.36279,2.4817,4.1024,-3.14,1.0467,-1.5324,-4.1867,3.7901e-10,-0.76619,0,0,0.25,-5.9212e-16,0,0.66667
0.45963,0.17044,1.8385,-0.49434,-8.155,23.691,2.4236,-0.80786,-1.1302,3.2315,-8.6242e-13,-0.56508,0,0,0.25,-0,-0,0.66667
0.58271,0.16764,2.3308,-0.49854,-6.8619,15.415,3.0987,-1.0329,-1.1156,4.1316,1.2994e-12,-0.55782,0,0,0.25,-0,-0,0.66667
0.55146,0.5329,2.2058,0.049349,0.70395,17.145,-0.29028,0.096761,-1.9919,-0.38704,-5.4506e-13,-0.99596,0,0,0.25,-0,-0,0.66667
0.63102,0.039716,2.5241,-0.69043,-8.8027,12.815,4.6472,-1.5491,-0.30454,6.1962,1.2079e-13,-0.15227,0,0,0.25,1.1842e-15,0,0.66667
0.72115,0.65868,2.8846,0.23803,2.3123,7.6715,-1.8309,0.61032,-1.7994,-2.4413,3.4984e-11,-0.8997,0,0,0.25,-0,-0,0.66667
0.37326,0.32717,1.4931,-0.25924,-4.6268,30.112,1.0322,-0.34405,-1.7608,1.3762,-1.1219e-12,-0.88042,0,0,0.25,-5.9212e-16,0,0.66667
0.86276,0.27615,3.451,-0.33578,-1.6747,2.4844,3.0901,-1.03,-1.5993,4.1201,-3.8394e-10,-0.79965,0,0,0.25,-1.7764e-15,0,0.66667
0.044935,0.49823,0.17974,-0.0026499,-0.054868,58.469,0.00127,-0.00042121,-2.0011,0.0016944,3.1962e-06,-1.0005,0,0,0.25,8.3267e-17,0,0.66667
0.63268,0.76952,2.5307,0.40429,5.0051,12.369,-2.7284,0.90946,-1.418,-3.6378,-1.7291e-12,-0.70898,0,0,0.25,-0,-0,0.66667
0.32943,0.69593,1.3177,0.29389,5.4442,33.645,-1.0327,0.34424,-1.6932,-1.3769,-5.0084e-12,-0.84658,0,0,0.25,-0,-0,0.66667
0.5372,0.78836,2.1488,0.43254,6.3962,18.258,-2.4785,0.82617,-1.3344,-3.3047,-8.602e-13,-0.66718,0,0,0.25,-0,-0,0.66667
0.25122,0.80612,1.0049,0.45918,9.0102,40.239,-1.2305,0.41016,-1.2508,-1.6407,-6.093e-11,-0.62542,0,0,0.25,4.4409e-16,0,0.66667
0.30016,0.31266,1.2006,-0.28101,-5.3139,36.053,0.89971,-0.2999,-1.7203,1.1996,1.7355e-11,-0.86017,0,0,0.25,1.1842e-15,0,0.66667
0.68492,0.93824,2.7397,0.65737,7.3562,9.8935,-4.8026,1.6009,-0.46467,-6.4034,-4.13e-13,-0.23234,0,0,0.25,-0,-0,0.66667
0.30867,0.061581,1.2347,-0.65763,-12.604,35.541,2.1652,-0.72174,-0.46316,2.8869,-1.4522e-13,-0.23158,0,0,0.25,2.5905e-16,-3.1271e-16,0.66667
0.48557,0.87777,1.9423,0.56666,9.0966,21.902,-2.935,0.97832,-0.85939,-3.9133,5.5511e-14,-0.4297,0,0,0.25,-0,-0,0.66667
0.72351,0.48597,2.894,-0.021049,-0.20171,7.4895,0.16244,-0.054148,-1.9976,0.21659,-3.1719e-12,-0.99882,0,0,0.25,-1.1842e-15,0,0.66667
0.93934,0.28048,3.7574,-0.32929,-0.6713,0.83241,3.2993,-1.0998,-1.6158,4.3991,8.2315e-10,-0.80789,0,0,0.25,-1.4803e-16,0,0.66667
0.18872,0.52448,0.75489,0.036714,0.73398,45.574,-0.073906,0.024635,-1.9957,-0.098542,-1.1629e-10,-0.99784,0,0,0.25,-0,-0,0.66667
0.52997,0.4294,2.1199,-0.1059,-1.564,18.573,0.59863,-0.19954,-1.9604,0.79817,1.8596e-14,-0.98022,0,0,0.25,5.9212e-16,0,0.66667
0.74163,0.24219,2.9665,-0.38671,-3.5467,6.867,3.0592,-1.0197,-1.4677,4.0789,-6.0454e-11,-0.73386,0,0,0.25,-0,-0,0.66667
0.53447,0.5874,2.1379,0.1311,1.9237,18.278,-0.74742,0.24914,-1.9389,-0.99656,-4.9127e-13,-0.96947,0,0,0.25,5.9212e-16,0,0.66667
0.78526,0.015055,3.141,-0.72742,-5.9241,5.609,6.0929,-2.031,-0.11793,8.1239,-4.5209e-11,-0.058967,0,0,0.25,-0,-0,0.66667
0.74517,0.86547,2.9807,0.5482,5.052,6.9128,-4.3574,1.4525,-0.93092,-5.8098,2.8115e-11,-0.46546,0,0,0.25,1.1842e-15,0,0.66667
0.76862,0.49539,3.0745,-0.0069182,-0.056357,5.5274,0.056719,-0.018906,-2.0002,0.075626,-3.8814e-11,-1.0001,0,0,0.25,2.0724e-15,0,0.66667
0.77155,0.9836,3.0862,0.72541,6.2357,6.1306,-5.97,1.99,-0.12809,-7.96,-1.1767e-11,-0.064047,0,0,0.25,6.4316e-16,0,0.66667
0.88414,0.19785,3.5366,-0.45323,-1.9428,2.0806,4.2743,-1.4248,-1.2689,5.6991,-4.012e-09,-0.63443,0,0,0.25,-0,-0,0.66667
0.45436,0.36201,1.8175,-0.20699,-3.3927,23.911,1.0032,-0.3344,-1.8476,1.3376,-9.1904e-13,-0.92381,0,0,0.25,-0,-0,0.66667
0.45973,0.72499,1.8389,0.33749,5.5211,23.577,-1.655,0.55167,-1.5947,-2.2067,5.9619e-13,-0.79733,0,0,0.25,-0,-0,0.66667
0.14676,0.58809,0.58706,0.13214,2.6836,49.294,-0.20686,0.068955,-1.9377,-0.27582,-5.7627e-10,-0.96883,0,0,0.25,-0,-0,0.66667
0.23564,0.030415,0.94256,-0.70438,-14.144,41.692,1.7704,-0.59015,-0.23736,2.3606,8.7306e-12,-0.11868,0,0,0.25,1.4803e-16,0,0.66667
0.26969,0.0085646,1.0788,-0.73715,-14.568,38.832,2.1206,-0.70686,-0.067575,2.8274,6.7724e-13,-0.033787,0,0,0.25,-1.1842e-15,0,0.66667
0.73747,0.54593,2.9499,0.068902,0.63063,6.8607,-0.542,0.18067,-1.9826,-0.72267,1.9083e-11,-0.9913,0,0,0.25,-0,-0,0.66667
0.15702,0.43756,0.62808,-0.093663,-1.8951,48.379,0.15687,-0.052292,-1.9706,0.20917,-1.0281e-09,-0.98528,0,0,0.25,-5.9212e-16,0,0.66667
0.72315,0.84583,2.8926,0.51875,5.1215,7.8516,-4.0014,1.3338,-1.0437,-5.3352,1.5082e-11,-0.52187,0,0,0.25,2.3685e-15,0,0.66667
0.59594,0.15424,2.3838,-0.51863,-6.9769,14.63,3.2968,-1.0989,-1.0446,4.3957,1.2297e-12,-0.5223,0,0,0.25,1.3323e-15,0,0.66667
0.9303,0.58654,3.7212,0.12982,0.29917,0.82782,-1.2882,0.4294,-1.9396,-1.7176,-1.8293e-08,-0.96979,0,0,0.25,-1.1842e-15,0,0.66667
0.72528,0.87418,2.9011,0.56127,5.5313,7.8136,-4.3422,1.4474,-0.88047,-5.7896,1.2007e-11,-0.44023,0,0,0.25,-1.4803e-16,0,0.66667
0.69888,0.4145,2.7955,-0.12825,-1.3271,8.6878,0.9561,-0.3187,-1.9412,1.2748,-1.1483e-11,-0.97058,0,0,0.25,-0,-0,0.66667
0.075963,0.58761,0.30385,0.13141,2.7129,55.658,-0.10648,0.035493,-1.9389,-0.14197,5.3774e-08,-0.96945,0,0,0.25,-3.7007e-17,0,0.66667
0.50651,0.51371,2.0261,0.020562,0.31413,20.16,-0.11109,0.03703,-1.9976,-0.14812,-2.3796e-13,-0.99878,0,0,0.25,-0,-0,0.66667
0.76296,0.79402,3.0519,0.44103,3.7635,6.0228,-3.5892,1.1964,-1.308,-4.7856,1.0117e-10,-0.65402,0,0,0.25,-0,-0,0.66667
0.29181,0.026241,1.1672,-0.71064,-13.827,36.97,2.2119,-0.73732,-0.20437,2.9493,6.0618e-14,-0.10218,0,0,0.25,2.9606e-16,0,0.66667
0.49858,0.83079,1.9943,0.49618,7.7912,20.929,-2.6388,0.87959,-1.1245,-3.5184,-1.5743e-13,-0.56227,0,0,0.25,-0,-0,0.66667
0.30177,0.7986,1.2071,0.44789,8.5169,35.984,-1.4417,0.48057,-1.2859,-1.9223,-9.7429e-12,-0.64296,0,0,0.25,2.3476e-16,0,0.66667
0.4502,0.77404,1.8008,0.41105,6.8241,24.318,-1.9739,0.65798,-1.3992,-2.6319,1.0023e-12,-0.69962,0,0,0.25,-0,-0,0.66667
0.24377,0.95846,0.97507,0.68769,13.735,40.99,-1.7881,0.59604,-0.31778,-2.3841,-9.1982e-13,-0.15889,0,0,0.25,-2.9606e-16,0,0.66667
0.5657,0.12472,2.2628,-0.56292,-8.0226,16.545,3.3967,-1.1322,-0.87442,4.529,4.7584e-13,-0.43721,0,0,0.25,1.8504e-17,0,0.66667
0.94963,0.34226,3.7985,-0.23662,-0.37139,0.59278,2.3968,-0.79893,-1.8017,3.1957,-9.795e-09,-0.90086,0,0,0.25,-1.7764e-15,0,0.66667
0.2179,0.39203,0.87159,-0.16195,-3.2008,43.031,0.37641,-0.12547,-1.9068,0.50188,1.125e-10,-0.95339,0,0,0.25,-0,-0,0.66667
0.4385,0.10384,1.754,-0.59423,-10.11,25.326,2.7794,-0.92648,-0.74469,3.7059,-5.6888e-13,-0.37234,0,0,0.25,-0,-0,0.66667
0.76894,0.080707,3.0758,-0.62894,-5.3752,6.055,5.1586,-1.7195,-0.59302,6.8781,-2.8172e-11,-0.29651,0,0,0.25,-0,-0,0.66667
0.14093,0.63588,0.56373,0.20383,4.1518,49.821,-0.30641,0.10214,-1.8526,-0.40854,-5.6317e-10,-0.92632,0,0,0.25,-0,-0,0.66667
0.9131,0.24378,3.6524,-0.38434,-1.1977,1.3579,3.7434,-1.2478,-1.4744,4.9911,1.0237e-09,-0.73721,0,0,0.25,1.7764e-15,0,0.66667
0.39416,0.29986,1.5766,-0.30021,-5.2623,28.492,1.2622,-0.42073,-1.679,1.6829,-2.0777e-12,-0.8395,0,0,0.25,-0,-0,0.66667
0.32525,0.83584,1.301,0.50377,9.4488,34.083,-1.7477,0.58257,-1.0976,-2.3303,-8.4821e-13,-0.5488,0,0,0.25,-0,-0,0.66667
0.57673,0.40088,2.3069,-0.14868,-2.0334,15.552,0.91462,-0.30487,-1.922,1.2195,9.3725e-13,-0.96101,0,0,0.25,-2.9606e-16,0,0.66667
0.24807,0.98425,0.99228,0.72637,14.516,40.648,-1.922,0.64068,-0.12378,-2.5627,-4.4685e-12,-0.061891,0,0,0.25,-5.9212e-16,2.9604e-16,0.66667
0.81192,0.36376,3.2477,-0.20436,-1.3754,3.9553,1.7699,-0.58996,-1.8518,2.3599,-1.9935e-10,-0.92588,0,0,0.25,-1.1842e-15,0,0.66667
0.88291,0.59285,3.5316,0.13928,0.57664,1.8183,-1.3116,0.43722,-1.9315,-1.7489,8.0044e-09,-0.96577,0,0,0.25,4.4409e-16,0,0.66667
0.83441,0.64376,3.3376,0.21564,1.282,3.2179,-1.9193,0.63976,-1.8338,-2.559,2.9968e-10,-0.91689,0,0,0.25,-0,-0,0.66667
0.35124,0.25397,1.4049,-0.36904,-6.7385,31.911,1.3826,-0.46088,-1.5157,1.8435,-4.1012e-13,-0.75785,0,0,0.25,-0,-0,0.66667
0.14604,0.26902,0.58418,-0.34647,-7.0747,49.385,0.53973,-0.17991,-1.5724,0.71964,8.9695e-10,-0.78619,0,0,0.25,-0,-0,0.66667
0.60481,0.18451,2.4192,-0.47324,-6.2366,14.052,3.053,-1.0177,-1.2041,4.0706,1.8865e-12,-0.60203,0,0,0.25,-0,-0,0.66667
0.9963,0.96892,3.9852,0.70338,0.061306,0.8984,-7.475,2.4916,-0.24197,-9.9666,-1.5434e-05,-0.12098,0,0,0.25,-2.3685e-15,0,0.66667
0.80367,0.81149,3.2147,0.46724,3.3629,4.4983,-4.0054,1.3351,-1.2243,-5.3405,2.2217e-10,-0.61215,0,0,0.25,-0,-0,0.66667
0.74154,0.58003,2.9662,0.12004,1.0844,6.6927,-0.94948,0.31649,-1.9478,-1.266,3.6146e-11,-0.9739,0,0,0.25,-0,-0,0.66667
0.38666,0.13967,1.5466,-0.54049,-9.6551,29.214,2.2292,-0.74307,-0.96063,2.9723,-1.5254e-12,-0.48031,0,0,0.25,-0,-0,0.66667
0.40617,0.50856,1.6247,0.01284,0.22124,27.5,-0.05563,0.018543,-2,-0.074174,-7.977e-14,-1,0,0,0.25,-0,-0,0.66667
0.29465,0.0027351,1.1786,-0.7459,-14.526,36.762,2.3443,-0.78142,-0.022646,3.1257,-1.3751e-12,-0.011323,0,0,0.25,-0,-0,0.66667
0.29924,0.72252,1.1969,0.33377,6.3268,36.146,-1.0654,0.35512,-1.6045,-1.4205,-1.7577e-11,-0.80225,0,0,0.25,-0,-0,0.66667
0.65307,0.7729,2.6123,0.40934,4.8406,11.244,-2.8515,0.9505,-1.404,-3.802,-4.19e-13,-0.70202,0,0,0.25,5.9212e-16,0,0.66667
0.042617,0.90375,0.17047,0.60563,12.774,58.707,-0.27531,0.09177,-0.69633,-0.36708,-5.4486e-07,-0.34816,0,0,0.25,1.8504e-17,0,0.66667
0.60103,0.23314,2.4041,-0.40028,-5.2876,14.209,2.5662,-0.85541,-1.4293,3.4216,1.801e-12,-0.71466,0,0,0.25,1.1842e-15,0,0.66667
0.45501,0.80477,1.82,0.45715,7.5658,23.998,-2.2187,0.73958,-1.2571,-2.9583,6.7835e-13,-0.62856,0,0,0.25,-2.9606e-16,0,0.66667
0.38402,0.73484,1.5361,0.35227,6.2466,29.305,-1.443,0.48099,-1.5578,-1.924,1.785e-12,-0.77891,0,0,0.25,5.9212e-16,0,0.66667
0.72104,0.75542,2.8842,0.38312,3.7588,7.7919,-2.9467,0.98222,-1.4785,-3.9289,3.1559e-11,-0.73924,0,0,0.25,-0,-0,0.66667
0.090843,0.66278,0.36337,0.24417,5.0385,54.32,-0.23659,0.078865,-1.7881,-0.31546,-7.8706e-09,-0.89406,0,0,0.25,-0,-0,0.66667
0.24894,0.2326,0.99576,-0.4011,-7.8594,40.412,1.0651,-0.35502,-1.428,1.4201,7.6843e-11,-0.71399,0,0,0.25,-0,-0,0.66667
0.16059,0.26301,0.64236,-0.35548,-7.2272,48.096,0.60892,-0.20297,-1.55,0.81189,5.5353e-10,-0.775,0,0,0.25,-2.9606e-16,0,0.66667
0.67252,0.43446,2.6901,-0.098317,-1.0924,10.02,0.70529,-0.2351,-1.9668,0.94038,-3.5992e-12,-0.98342,0,0,0.25,5.9212e-16,0,0.66667
0.19789,0.31044,0.79158,-0.28435,-5.6864,44.796,0.60022,-0.20007,-1.713,0.80029,3.1206e-10,-0.85648,0,0,0.25,4.0708e-16,0,0.66667
0.47419,0.44472,1.8968,-0.082925,-1.3235,22.443,0.41944,-0.13981,-1.9752,0.55925,-5.1681e-13,-0.98758,0,0,0.25,-0,-0,0.66667
0.95248,0.16332,3.8099,-0.50502,-0.83861,0.8908,5.1309,-1.7103,-1.0938,6.8412,1.0647e-08,-0.54689,0,0,0.25,2.3685e-15,0,0.66667
0.79059,0.82106,3.1624,0.4816,3.6873,4.9934,-4.0613,1.3538,-1.1747,-5.4151,1.9926e-10,-0.58737,0,0,0.25,-0,-0,0.66667
0.6679,0.30867,2.6716,-0.287,-3.2485,10.349,2.0447,-0.68155,-1.7074,2.7262,-4.1935e-12,-0.85371,0,0,0.25,1.4803e-15,0,0.66667
0.85654,0.90607,3.4261,0.60911,3.34,3.0502,-5.565,1.855,-0.68205,-7.42,2.0999e-09,-0.34102,0,0,0.25,-7.6669e-17,-2.9267e-16,0.66667
0.28897,0.98897,1.1559,0.73346,14.322,37.222,-2.2608,0.7536,-0.086384,-3.0144,7.7605e-13,-0.043192,0,0,0.25,-2.9606e-16,0,0.66667
0.77802,0.63128,3.1121,0.19692,1.5511,5.2053,-1.6342,0.54473,-1.8622,-2.1789,1.2307e-10,-0.93109,0,0,0.25,-0,-0,0.66667
0.019068,0.51385,0.076273,0.02077,0.43083,60.821,-0.0042218,0.0014064,-1.9979,-0.0056294,-1.2563e-06,-0.99895,0,0,0.25,-7.4015e-17,0,0.66667
0.87353,0.51688,3.4941,0.025323,0.11325,2.0249,-0.23595,0.078651,-1.9976,-0.3146,-2.2583e-10,-0.99879,0,0,0.25,-0,-0,0.66667
0.24772,0.057296,0.99088,-0.66406,-13.214,40.64,1.7547,-0.58489,-0.43251,2.3395,9.2162e-12,-0.21626,0,0,0.25,1.4803e-16,0,0.66667
0.12308,0.25167,0.49231,-0.37249,-7.6624,51.439,0.48902,-0.16301,-1.5078,0.65202,1.2652e-09,-0.75388,0,0,0.25,-0,-0,0.66667
0.12635,0.28386,0.5054,-0.3242,-6.6522,51.139,0.43694,-0.14565,-1.6274,0.58259,7.9808e-10,-0.81368,0,0,0.25,-2.9606e-16,0,0.66667
0.58781,0.20525,2.3512,-0.44212,-6.0047,15.046,2.7721,-0.92402,-1.3041,3.6961,1.6458e-12,-0.65205,0,0,0.25,-0,-0,0.66667
0.89189,0.26146,3.5676,-0.35781,-1.4,1.777,3.404,-1.1347,-1.5448,4.5387,-2.2262e-10,-0.77241,0,0,0.25,-0,-0,0.66667
0.092472,0.81384,0.36989,0.47077,9.7907,54.199,-0.46435,0.15478,-1.2134,-0.61913,-1.1476e-08,-0.60668,0,0,0.25,-2.9606e-16,0,0.66667
0.48349,0.19925,1.9339,-0.45113,-7.2064,21.948,2.3265,-0.77551,-1.2765,3.102,-4.3054e-13,-0.63826,0,0,0.25,-0,-0,0.66667
0.88532,0.85798,3.5413,0.53698,2.3242,2.1831,-5.0709,1.6903,-0.97392,-6.7612,5.8063e-09,-0.48696,0,0,0.25,1.1842e-15,0,0.66667
0.95716,0.88716,3.8286,0.58073,0.90314,0.97103,-5.9291,1.9764,-0.80027,-7.9055,4.5786e-08,-0.40014,0,0,0.25,-0,-0,0.66667
0.99077,0.98505,3.9631,0.72757,0.26009,0.99192,-7.6891,2.563,-0.1169,-10.252,-4.2914e-07,-0.058451,0,0,0.25,1.1842e-15,0,0.66667
0.36192,0.079453,1.4477,-0.63082,-11.587,31.225,2.4353,-0.81175,-0.58472,3.247,-1.3054e-12,-0.29236,0,0,0.25,-0,-0,0.66667
0.58532,0.88982,2.3413,0.58474,8.0669,15.351,-3.6507,1.2169,-0.7833,-4.8677,-9.3148e-13,-0.39165,0,0,0.25,1.1842e-15,0,0.66667
0.38493,0.55988,1.5397,0.089824,1.5807,29.155,-0.36881,0.12294,-1.9716,-0.49174,5.3429e-13,-0.98579,0,0,0.25,1.4803e-16,0,0.66667
0.13587,0.62579,0.54347,0.18868,3.8479,50.272,-0.27345,0.091151,-1.8742,-0.3646,-3.3929e-09,-0.93708,0,0,0.25,-5.9212e-16,0,0.66667
0.76152,0.28575,3.0461,-0.32138,-2.7271,5.9584,2.6105,-0.87018,-1.6329,3.4807,-1.118e-10,-0.81646,0,0,0.25,-0,-0,0.66667
0.22086,0.91893,0.88344,0.6284,12.643,42.919,-1.4804,0.49346,-0.59573,-1.9739,-3.3221e-11,-0.29786,0,0,0.25,-0,-0,0.66667
0.6968,0.81949,2.7872,0.47924,5.0944,9.0547,-3.5619,1.1873,-1.183,-4.7493,6.9975e-12,-0.59148,0,0,0.25,-0,-0,0.66667
0.80946,0.14408,3.2378,-0.53388,-3.7731,4.3912,4.6096,-1.5365,-0.98614,6.1462,-2.4603e-10,-0.49307,0,0,0.25,1.1842e-15,0,0.66667
0.27256,0.92771,1.0902,0.64157,12.57,38.528,-1.8652,0.62175,-0.53575,-2.487,-3.9173e-12,-0.26787,0,0,0.25,-2.9606e-16,0,0.66667
0.5085,0.79705,2.034,0.44557,6.8795,20.202,-2.4168,0.8056,-1.2931,-3.2224,-2.8111e-13,-0.64655,0,0,0.25,-1.1842e-15,0,0.66667
0.42229,0.85988,1.6892,0.53982,9.3107,26.488,-2.4316,0.81054,-0.96405,-3.2421,1.0951e-12,-0.48202,0,0,0.25,-0,-0,0.66667
0.054664,0.58636,0.21866,0.12953,2.6818,57.587,-0.075529,0.025176,-1.9398,-0.10071,-3.1156e-08,-0.96991,0,0,0.25,-0,-0,0.66667
0.74161,0.59326,2.9664,0.13989,1.2643,6.6968,-1.1066,0.36888,-1.931,-1.4755,3.9146e-11,-0.96551,0,0,0.25,5.0854e-16,0,0.66667
0.80872,0.17886,3.2349,-0.48171,-3.3904,4.3408,4.1554,-1.3851,-1.1746,5.5406,-3.6183e-10,-0.58731,0,0,0.25,5.9212e-16,0,0.66667
0.53813,0.90951,2.1525,0.61427,9.1916,18.379,-3.5259,1.1753,-0.65848,-4.7013,-1.9096e-13,-0.32924,0,0,0.25,-0,-0,0.66667
0.75933,0.96086,3.0373,0.69129,6.1837,6.555,-5.5992,1.8664,-0.30032,-7.4655,1.7004e-12,-0.15016,0,0,0.25,-5.9212e-16,0,0.66667
0.041085,0.10174,0.16434,-0.59739,-12.595,58.845,0.2618,-0.087268,-0.7306,0.34907,3.9009e-07,-0.3653,0,0,0.25,-0,-0,0.66667
0.18226,0.92309,0.72904,0.63464,12.984,46.273,-1.2338,0.41127,-0.56709,-1.6451,-1.3299e-10,-0.28355,0,0,0.25,-2.9606e-16,0,0.66667
0.5671,0.98912,2.2684,0.73368,10.6,16.68,-4.4381,1.4794,-0.085468,-5.9174,4.9294e-14,-0.042734,0,0,0.25,-1.1842e-15,0,0.66667
0.62121,0.67436,2.4848,0.26155,3.2925,12.92,-1.733,0.57768,-1.7562,-2.3107,-1.2912e-12,-0.87808,0,0,0.25,-1.1842e-15,0,0.66667
0.78202,0.95959,3.1281,0.68938,5.6504,5.656,-5.7505,1.9168,-0.31059,-7.6673,-3.3267e-12,-0.1553,0,0,0.25,5.9212e-16,0,0.66667
0.60149,0.78602,2.406,0.42903,5.673,14.207,-2.7526,0.91754,-1.3454,-3.6702,-1.9504e-12,-0.67268,0,0,0.25,-0,-0,0.66667
0.56027,0.64982,2.2411,0.22473,3.17,16.624,-1.343,0.44767,-1.8207,-1.7907,-1.3013e-12,-0.91035,0,0,0.25,-5.5643e-16,0,0.66667
0.66962,0.97796,2.6785,0.71694,8.4006,10.772,-5.1208,1.7069,-0.17237,-6.8278,-6.7946e-14,-0.086187,0,0,0.25,-1.1842e-15,2.4616e-16,0.66667
0.18539,0.29702,0.74157,-0.30447,-6.1238,45.897,0.6021,-0.2007,-1.6701,0.80279,3.3184e-10,-0.83504,0,0,0.25,-0,-0,0.66667
0.14813,0.40063,0.59253,-0.14906,-3.0266,49.174,0.23552,-0.078506,-1.9207,0.31402,1.3102e-09,-0.96035,0,0,0.25,8.7712e-17,0,0.66667
0.2334,0.74877,0.93359,0.37315,7.3632,41.736,-0.929,0.30967,-1.5064,-1.2387,-1.2498e-10,-0.75318,0,0,0.25,-1.1102e-16,0,0.66667
0.88661,0.57757,3.5464,0.11635,0.46478,1.7197,-1.1004,0.36679,-1.9512,-1.4672,-2.7511e-09,-0.97558,0,0,0.25,-0,-0,0.66667
0.62684,0.65672,2.5074,0.23508,2.9209,12.581,-1.5718,0.52395,-1.8049,-2.0958,-1.2652e-12,-0.90243,0,0,0.25,2.3685e-15,0,0.66667
0.65717,0.14509,2.6287,-0.53236,-6.2981,11.157,3.7318,-1.2439,-0.99247,4.9757,1.0618e-12,-0.49623,0,0,0.25,-0,-0,0.66667
0.3064,0.70785,1.2256,0.31177,5.8763,35.544,-1.019,0.33965,-1.6536,-1.3586,-1.3501e-11,-0.8268,0,0,0.25,-0,-0,0.66667
0.25905,0.83032,1.0362,0.49548,9.698,39.59,-1.3691,0.45637,-1.1262,-1.8255,-3.8153e-11,-0.56309,0,0,0.25,-0,-0,0.66667
0.59709,0.85008,2.3883,0.52512,7.0526,14.568,-3.3444,1.1148,-1.0196,-4.4593,-1.4619e-12,-0.50979,0,0,0.25,-1.1842e-15,0,0.66667
0.21493,0.16032,0.8597,-0.50952,-10.208,43.379,1.1681,-0.38936,-1.0772,1.5575,1.0663e-10,-0.53861,0,0,0.25,-0,-0,0.66667
0.93549,0.81204,3.742,0.46806,1.0801,1.0774,-4.6706,1.5569,-1.2224,-6.2275,-2.8657e-09,-0.61118,0,0,0.25,4.0708e-16,0,0.66667
0.80368,0.67108,3.2147,0.25662,1.8064,4.2804,-2.1999,0.73329,-1.7649,-2.9332,2.2234e-10,-0.88244,0,0,0.25,-0,-0,0.66667
0.077647,0.31879,0.31059,-0.27182,-5.6261,55.513,0.22513,-0.075044,-1.738,0.30018,2.7956e-09,-0.86902,0,0,0.25,-0,-0,0.66667
0.17487,0.50876,0.69948,0.013146,0.2642,46.794,-0.024521,0.0081737,-1.9992,-0.032695,-1.1415e-10,-0.9996,0,0,0.25,-0,-0,0.66667
0.48717,0.46685,1.9487,-0.049732,-0.78027,21.514,0.25843,-0.086144,-1.9921,0.34458,-7.6716e-14,-0.99603,0,0,0.25,-1.4803e-16,0,0.66667
0.26934,0.37478,1.0773,-0.18783,-3.6137,38.618,0.53962,-0.17987,-1.8756,0.7195,3.9704e-11,-0.93779,0,0,0.25,6.3375e-16,0,0.66667
0.2902,0.61015,1.1608,0.16523,3.1364,36.857,-0.51147,0.17049,-1.902,-0.68195,-1.9656e-11,-0.95098,0,0,0.25,5.9212e-16,0,0.66667
0.96137,0.73957,3.8455,0.35936,0.41938,0.56533,-3.6851,1.2284,-1.54,-4.9134,-6.972e-09,-0.77001,0,0,0.25,1.1842e-15,0,0.66667
0.34206,0.85788,1.3682,0.53682,9.9594,32.742,-1.9586,0.65288,-0.9752,-2.6115,1.2246e-12,-0.4876,0,0,0.25,-0,6.051e-17,0.66667
0.8359,0.38975,3.3436,-0.16538,-0.97114,3.1429,1.4745,-0.49151,-1.9018,1.966,-8.3286e-11,-0.95088,0,0,0.25,-1.1842e-15,0,0.66667
0.34459,0.88581,1.3784,0.57872,10.743,32.567,-2.1272,0.70905,-0.8094,-2.8362,1.0387e-12,-0.4047,0,0,0.25,-0,-0,0.66667
0.72145,0.95561,2.8858,0.68341,6.9234,8.1839,-5.2591,1.753,-0.33898,-7.0122,5.5822e-13,-0.16949,0,0,0.25,-0,-0,0.66667
0.18399,0.30215,0.73597,-0.29678,-5.971,46.018,0.58246,-0.19415,-1.6864,0.77661,2.917e-10,-0.84321,0,0,0.25,1.4803e-16,0,0.66667
0.68595,0.46095,2.7438,-0.058575,-0.62766,9.3189,0.42858,-0.14286,-1.9881,0.57144,-3.6131e-12,-0.99403,0,0,0.25,-5.9212e-16,0,0.66667
0.57425,0.40398,2.297,-0.14402,-1.9784,15.706,0.8822,-0.29407,-1.9268,1.1763,7.8831e-13,-0.96341,0,0,0.25,1.7001e-16,0,0.66667
0.72788,0.25412,2.9115,-0.36881,-3.5364,7.4638,2.8635,-0.95449,-1.5163,3.818,-4.0864e-11,-0.75816,0,0,0.25,-2.3685e-15,0,0.66667
0.43689,0.28551,1.7476,-0.32173,-5.4003,25.251,1.4993,-0.49978,-1.633,1.9991,-1.3285e-12,-0.81649,0,0,0.25,-0,-0,0.66667
0.94886,0.7014,3.7954,0.3021,0.49466,0.66309,-3.0576,1.0192,-1.6748,-4.0768,-8.3998e-09,-0.8374,0,0,0.25,-0,-0,0.66667
0.98993,0.48451,3.9597,-0.02324,0.0036128,0.066605,0.2454,-0.081805,-1.9972,0.3272,-5.6075e-06,-0.99859,0,0,0.25,-2.3566e-15,0,0.66667
0.37841,0.39853,1.5136,-0.1522,-2.6968,29.677,0.61432,-0.20477,-1.9175,0.8191,-6.6191e-13,-0.95874,0,0,0.25,-5.9212e-16,0,0.66667
0.75586,0.011683,3.0235,-0.73248,-6.6787,6.7765,5.9056,-1.9685,-0.091556,7.8742,-9.5528e-12,-0.045778,0,0,0.25,2.3685e-15,0,0.66667
0.93393,0.78293,3.7357,0.42439,0.98859,1.0378,-4.2277,1.4092,-1.3604,-5.6369,-4.0163e-09,-0.68018,0,0,0.25,2.3685e-15,0,0.66667
0.81266,0.43779,3.2507,-0.09331,-0.62237,3.8819,0.80885,-0.26962,-1.9709,1.0785,1.3673e-10,-0.98547,0,0,0.25,-0,-0,0.66667
0.44965,0.018959,1.7986,-0.72156,-12.25,24.64,3.4608,-1.1536,-0.14827,4.6144,1.3189e-13,-0.074137,0,0,0.25,-0,2.8258e-16,0.66667
0.0019673,0.20045,0.0078693,-0.44933,-9.4175,62.377,0.0094289,-0.003143,-1.2819,0.012572,-9.4991e-09,-0.64097,0,0,0.25,-0,-0,0.66667
0.94677,0.115,3.7871,-0.5775,-1.1396,1.1005,5.8321,-1.944,-0.81346,7.7761,2.9243e-08,-0.40673,0,0,0.25,-0,-0,0.66667
0.34939,0.57471,1.3976,0.11206,2.0349,31.982,-0.41765,0.13922,-1.9545,-0.55686,-1.2093e-12,-0.97726,0,0,0.25,5.9212e-16,0,0.66667
0.037035,0.09806,0.14814,-0.60291,-12.72,59.211,0.23817,-0.079391,-0.70753,0.31757,3.0787e-07,-0.35377,0,0,0.25,1.4803e-16,0,0.66667
0.24443,0.3046,0.97774,-0.2931,-5.7343,40.765,0.76419,-0.25473,-1.6941,1.0189,9.1027e-11,-0.84704,0,0,0.25,1.4803e-16,0,0.66667
0.96294,0.67631,3.8518,0.26446,0.27533,0.44548,-2.7164,0.90547,-1.7505,-3.6219,-1.0467e-08,-0.87527,0,0,0.25,-1.1842e-15,0,0.66667
0.46377,0.11732,1.8551,-0.57402,-9.4731,23.461,2.8396,-0.94653,-0.82807,3.7861,-2.3226e-13,-0.41404,0,0,0.25,-2.9606e-16,0,0.66667
0.12421,0.10987,0.49685,-0.5852,-12.158,51.382,0.77535,-0.25845,-0.78241,1.0338,2.3484e-09,-0.3912,0,0,0.25,-1.4803e-16,2.9577e-16,0.66667
0.66748,0.057237,2.6699,-0.66414,-7.7723,10.797,4.7286,-1.5762,-0.43169,6.3048,4.5919e-13,-0.21584,0,0,0.25,5.9212e-16,0,0.66667
0.013877,0.98545,0.055508,0.72818,15.507,61.306,-0.10779,0.035933,-0.11448,-0.14371,6.1974e-06,-0.057238,0,0,0.25,-1.8504e-17,-2.9465e-16,0.66667
0.79892,0.42357,3.1957,-0.11465,-0.81943,4.3772,0.97703,-0.32568,-1.953,1.3027,-1.1482e-10,-0.97649,0,0,0.25,-0,-0,0.66667
0.53493,0.28333,2.1397,-0.32501,-4.7955,18.331,1.8545,-0.61817,-1.6251,2.4727,5.6422e-13,-0.81253,0,0,0.25,1.1842e-15,0,0.66667
0.85021,0.49177,3.4008,-0.012342,-0.065769,2.6681,0.11193,-0.03731,-1.9989,0.14924,2.5676e-09,-0.99944,0,0,0.25,1.7764e-15,0,0.66667
0.2292,0.39748,0.9168,-0.15379,-3.0225,42.05,0.37598,-0.12533,-1.9154,0.5013,7.5182e-11,-0.95769,0,0,0.25,2.9606e-16,0,0.66667
0.090134,0.75312,0.36054,0.37968,7.8692,54.397,-0.36503,0.12168,-1.4879,-0.48671,-7.5107e-11,-0.74396,0,0,0.25,-0,-0,0.66667
0.6928,0.87025,2.7712,0.55538,6.0151,9.3493,-4.1041,1.368,-0.90327,-5.4722,2.1623e-12,-0.45164,0,0,0.25,-2.9606e-16,0,0.66667
0.81499,0.88573,3.26,0.57859,4.0081,4.2741,-5.0298,1.6766,-0.80949,-6.7064,3.7167e-10,-0.40474,0,0,0.25,-0,-0,0.66667
0.63154,0.75341,2.5262,0.38012,4.7101,12.412,-2.5607,0.85355,-1.4863,-3.4142,-1.7235e-12,-0.74316,0,0,0.25,-0,-0,0.66667
0.77283,0.25272,3.0913,-0.37091,-3.0234,5.5467,3.0576,-1.0192,-1.511,4.0768,-1.4668e-10,-0.7555,0,0,0.25,-0,-0,0.66667
0.63111,0.69567,2.5244,0.2935,3.6225,12.371,-1.9758,0.6586,-1.6932,-2.6344,-1.1401e-12,-0.84658,0,0,0.25,-0,-0,0.66667
0.89066,0.21171,3.5626,-0.43243,-1.7387,1.8987,4.1082,-1.3694,-1.3359,5.4777,-3.2196e-09,-0.66796,0,0,0.25,-5.9212e-16,0,0.66667
0.99276,0.68328,3.971,0.27491,-0.054195,0.17888,-2.9112,0.9704,-1.7312,-3.8816,-6.0228e-09,-0.8656,0,0,0.25,-1.7764e-15,0,0.66667
0.17377,0.15252,0.69508,-0.52122,-10.626,46.976,0.96611,-0.32204,-1.0348,1.2881,7.1016e-10,-0.51739,0,0,0.25,-4.4409e-16,0,0.66667
0.54939,0.89922,2.1976,0.59883,8.7925,17.628,-3.5092,1.1697,-0.7251,-4.679,-4.8384e-13,-0.36255,0,0,0.25,-5.9212e-16,0,0.66667
0.11999,0.51846,0.47998,0.027697,0.56624,51.685,-0.035451,0.011817,-1.9965,-0.047268,2.8209e-09,-0.99825,0,0,0.25,-2.9606e-16,0,0.66667
0.76715,0.62586,3.0686,0.18879,1.5541,5.6358,-1.5449,0.51495,-1.8746,-2.0598,1.1037e-10,-0.93732,0,0,0.25,2.3685e-15,0,0.66667
0.22811,0.13594,0.91243,-0.54608,-10.894,42.256,1.3287,-0.4429,-0.93891,1.7716,6.7238e-11,-0.46945,0,0,0.25,-0,-0,0.66667
0.11092,0.93622,0.44368,0.65434,13.696,52.585,-0.77418,0.25806,-0.47895,-1.0322,1.6112e-08,-0.23947,0,0,0.25,-7.4015e-17,0,0.66667
0.96882,0.67706,3.8753,0.2656,0.21231,0.38027,-2.7447,0.9149,-1.7496,-3.6596,-9.2863e-09,-0.87482,0,0,0.25,-0,-0,0.66667
0.44753,0.59294,1.7901,0.13941,2.2998,24.395,-0.66547,0.22182,-1.9315,-0.88729,9.3353e-13,-0.96577,0,0,0.25,1.4415e-16,0,0.66667
0.82994,0.93803,3.3198,0.65705,4.2729,3.9285,-5.8167,1.9389,-0.46638,-7.7556,-5.3428e-10,-0.23319,0,0,0.25,-0,-0,0.66667
0.025977,0.7558,0.10391,0.38369,8.0147,60.199,-0.10632,0.035439,-1.4764,-0.14176,7.1746e-11,-0.73818,0,0,0.25,-0,-0,0.66667
0.090511,0.88705,0.36204,0.58058,12.148,54.394,-0.56052,0.18684,-0.80106,-0.74736,-7.8653e-09,-0.40053,0,0,0.25,-1.4803e-16,0,0.66667
0.81523,0.42493,3.2609,-0.1126,-0.74149,3.7994,0.97915,-0.32638,-1.9545,1.3055,-4.7183e-11,-0.97727,0,0,0.25,-0,-0,0.66667
0.90936,0.78987,3.6375,0.4348,1.4369,1.4991,-4.2175,1.4058,-1.3276,-5.6234,8.3607e-11,-0.66381,0,0,0.25,-0,-0,0.66667
0.068241,0.54807,0.27296,0.072099,1.4893,56.355,-0.05248,0.017493,-1.9806,-0.069974,4.7527e-08,-0.99031,0,0,0.25,1.4803e-16,0,0.66667
0.65027,0.57187,2.6011,0.1078,1.2657,11.215,-0.74775,0.24925,-1.958,-0.997,8.6964e-13,-0.97901,0,0,0.25,-0,-0,0.66667
0.55332,0.81868,2.2133,0.47802,6.91,17.247,-2.8213,0.94042,-1.1872,-3.7617,-1.2195e-12,-0.59361,0,0,0.25,-0,-0,0.66667
0.20654,0.83462,0.82616,0.50193,10.089,44.104,-1.1058,0.3686,-1.1039,-1.4744,-1.9334e-10,-0.55197,0,0,0.25,1.4803e-16,0,0.66667
0.4248,0.36788,1.6992,-0.19818,-3.3574,26.109,0.898,-0.29933,-1.8604,1.1973,-1.2521e-12,-0.93018,0,0,0.25,-2.9606e-16,0,0.66667
0.4726,0.24122,1.8904,-0.38816,-6.2655,22.678,1.9568,-0.65226,-1.4639,2.609,-7.6483e-13,-0.73197,0,0,0.25,-0,-0,0.66667
0.011484,0.19768,0.045936,-0.45348,-9.5051,61.515,0.05555,-0.018516,-1.2683,0.074066,2.2903e-08,-0.63416,0,0,0.25,-0,-0,0.66667
0.54494,0.030193,2.1798,-0.70471,-10.521,18.05,4.0963,-1.3654,-0.23547,5.4617,2.4647e-13,-0.11773,0,0,0.25,-4.4409e-16,-3.8717e-17,0.66667
0.7824,0.56254,3.1296,0.093817,0.72238,4.9927,-0.78296,0.26099,-1.9703,-1.0439,2.2373e-11,-0.98517,0,0,0.25,-0,-0,0.66667
0.91446,0.69653,3.6579,0.2948,0.88447,1.2325,-2.8756,0.95853,-1.6903,-3.8341,-5.4021e-09,-0.84515,0,0,0.25,-0,-0,0.66667
0.046043,0.5624,0.18417,0.093599,1.9388,58.369,-0.045969,0.015323,-1.9706,-0.061292,-5.3536e-07,-0.98529,0,0,0.25,-1.0987e-16,0,0.66667
0.79178,0.84718,3.1671,0.52077,3.9876,5.0047,-4.3982,1.4661,-1.0359,-5.8643,1.6381e-10,-0.51797,0,0,0.25,-0,-0,0.66667
0.43939,0.49438,1.7576,-0.0084251,-0.14012,24.984,0.039487,-0.013162,-2.0002,0.052649,1.2459e-13,-1.0001,0,0,0.25,-5.9212e-16,0,0.66667
0.70462,0.8257,2.8185,0.48855,5.0837,8.685,-3.6719,1.224,-1.1512,-4.8959,9.2748e-12,-0.57562,0,0,0.25,1.1842e-15,0,0.66667
0.60938,0.72096,2.4375,0.33144,4.2894,13.657,-2.1544,0.71812,-1.611,-2.8725,-2.2489e-12,-0.80549,0,0,0.25,2.3685e-15,0,0.66667
0.91416,0.091372,3.6566,-0.61294,-2.0298,1.7078,5.9768,-1.9923,-0.66441,7.9691,4.8114e-08,-0.33221,0,0,0.25,-2.9606e-16,0,0.66667
0.67954,0.21584,2.7182,-0.42624,-4.7258,9.8626,3.0896,-1.0299,-1.3541,4.1194,-3.9537e-12,-0.67707,0,0,0.25,-1.1842e-15,0,0.66667
0.20458,0.61786,0.81831,0.17679,3.5163,44.194,-0.38579,0.1286,-1.8892,-0.51439,-1.8067e-10,-0.94462,0,0,0.25,1.4803e-16,0,0.66667
0.98969,0.11041,3.9588,-0.58438,-0.12171,0.66829,6.1692,-2.0564,-0.7849,8.2256,-2.6946e-07,-0.39245,0,0,0.25,-0,-0,0.66667
0.80836,0.96883,3.2334,0.70325,5.1497,4.7304,-6.0638,2.0213,-0.24255,-8.085,1.2069e-11,-0.12127,0,0,0.25,-0,-0,0.66667
0.05115,0.84838,0.2046,0.52257,10.962,57.93,-0.28512,0.095039,-1.0291,-0.38016,1.5739e-08,-0.51457,0,0,0.25,-0,-0,0.66667
0.99025,0.55421,3.961,0.081317,-0.013197,0.074999,-0.85892,0.28631,-1.9759,-1.1452,3.3605e-08,-0.98797,0,0,0.25,-0,-0,0.66667
0.084374,0.42204,0.3375,-0.11695,-2.4106,54.897,0.10525,-0.035084,-1.9504,0.14033,-1.8152e-08,-0.97521,0,0,0.25,1.4803e-16,0,0.66667
0.41597,0.6851,1.6639,0.27765,4.7585,26.806,-1.232,0.41065,-1.7262,-1.6426,1.6517e-12,-0.8631,0,0,0.25,-0,-0,0.66667
0.88805,0.48665,3.5522,-0.020019,-0.078598,1.6646,0.18963,-0.06321,-1.9982,0.25284,-2.1248e-09,-0.9991,0,0,0.25,-0,-0,0.66667
0.76211,0.85011,3.0485,0.52516,4.5402,6.1678,-4.2692,1.4231,-1.0194,-5.6922,6.469e-11,-0.50969,0,0,0.25,-0,-0,0.66667
0.67305,0.223,2.6922,-0.4155,-4.6807,10.187,2.9829,-0.99431,-1.387,3.9773,-2.8746e-12,-0.69351,0,0,0.25,-0,-0,0.66667
0.53369,0.95804,2.1348,0.68706,10.418,18.761,-3.9112,1.3037,-0.32138,-5.215,-4.2188e-15,-0.16069,0,0,0.25,5.9212e-16,0,0.66667
0.34698,0.67441,1.3879,0.26161,4.7752,32.211,-0.96826,0.32275,-1.7561,-1.291,-1.4154e-12,-0.87807,0,0,0.25,5.9212e-16,0,0.66667
0.89994,0.24899,3.5998,-0.37652,-1.3627,1.6196,3.6143,-1.2048,-1.4965,4.8191,1.0114e-10,-0.74824,0,0,0.25,-5.181e-16,0,0.66667
0.81896,0.76853,3.2758,0.40279,2.6625,3.8903,-3.5186,1.1729,-1.4222,-4.6915,4.1204e-10,-0.71112,0,0,0.25,1.1842e-15,0,0.66667
0.94589,0.56327,3.7836,0.094906,0.15869,0.56708,-0.95755,0.31918,-1.9685,-1.2767,-2.6061e-07,-0.98426,0,0,0.25,-0,-0,0.66667
0.39956,0.6123,1.5982,0.16845,2.9267,28.03,-0.71795,0.23932,-1.8982,-0.95726,1.3318e-12,-0.94909,0,0,0.25,-5.9212e-16,0,0.66667
0.23362,0.88896,0.93449,0.58343,11.633,41.8,-1.4539,0.48463,-0.78978,-1.9385,-3.955e-11,-0.39489,0,0,0.25,-0,-0,0.66667
0.72322,0.45298,2.8929,-0.070529,-0.67685,7.5088,0.54408,-0.18136,-1.9815,0.72544,-1.3916e-11,-0.99077,0,0,0.25,-1.1842e-15,0,0.66667
0.6891,0.71709,2.7564,0.32564,3.494,9.2852,-2.3935,0.79785,-1.6242,-3.1914,1.0872e-11,-0.81208,0,0,0.25,-1.6283e-15,0,0.66667
0.54337,0.36183,2.1735,-0.20725,-3.0043,17.714,1.2012,-0.4004,-1.8467,1.6016,7.9103e-13,-0.92335,0,0,0.25,-0,-0,0.66667
0.53711,0.91797,2.1484,0.62695,9.4063,18.462,-3.5919,1.1973,-0.60162,-4.7892,-2.971e-13,-0.30081,0,0,0.25,-0,-0,0.66667
0.80969,0.85471,3.2388,0.53207,3.755,4.3805,-4.5953,1.5318,-0.99312,-6.1271,2.457e-10,-0.49656,0,0,0.25,-0,-0,0.66667
0.79958,0.93922,3.1983,0.65883,4.9814,4.9512,-5.6191,1.873,-0.4576,-7.4921,-4.1349e-11,-0.2288,0,0,0.25,-2.3685e-15,0,0.66667
0.84777,0.23007,3.3911,-0.40489,-2.2622,2.9867,3.6614,-1.2205,-1.4166,4.8818,-6.475e-10,-0.70828,0,0,0.25,-0,-0,0.66667
0.19036,0.017808,0.76145,-0.72329,-14.841,45.606,1.4687,-0.48955,-0.13948,1.9582,2.5513e-11,-0.069742,0,0,0.25,-0,-0,0.66667
0.20027,0.21397,0.8011,-0.42905,-8.6176,44.625,0.91657,-0.30552,-1.3458,1.2221,3.2569e-10,-0.67291,0,0,0.25,-0,-0,0.66667
0.77366,0.37533,3.0947,-0.18701,-1.4993,5.3723,1.5433,-0.51443,-1.8763,2.0577,-1.2218e-10,-0.93814,0,0,0.25,-2.3685e-15,0,0.66667
0.56553,0.59476,2.2621,0.14214,1.9826,16.257,-0.85744,0.28581,-1.9291,-1.1433,-1.2003e-12,-0.96457,0,0,0.25,2.3685e-15,0,0.66667
0.2689,0.094748,1.0756,-0.60788,-11.909,38.815,1.7436,-0.58119,-0.6871,2.3248,7.1674e-12,-0.34355,0,0,0.25,-0,-0,0.66667
0.47936,0.47423,1.9174,-0.038656,-0.61268,22.069,0.19765,-0.065884,-1.9946,0.26353,5.2042e-15,-0.99729,0,0,0.25,-0,-0,0.66667
0.67466,0.39539,2.6986,-0.15692,-1.7363,9.9259,1.1292,-0.37641,-1.9121,1.5056,-5.2851e-12,-0.95607,0,0,0.25,-0,-0,0.66667
0.68423,0.27147,2.7369,-0.34279,-3.731,9.5453,2.5019,-0.83396,-1.5819,3.3358,-8.1881e-12,-0.79093,0,0,0.25,-0,-0,0.66667
0.82139,0.41112,3.2856,-0.13332,-0.84993,3.5982,1.1681,-0.38935,-1.9366,1.5574,-2.684e-10,-0.96832,0,0,0.25,-0,-0,0.66667
0.36466,0.0047454,1.4587,-0.74288,-13.732,31.108,2.8896,-0.96321,-0.037744,3.8528,-1.6698e-13,-0.018872,0,0,0.25,-0,-0,0.66667
0.67275,0.24439,2.691,-0.38341,-4.3123,10.172,2.7514,-0.91713,-1.478,3.6685,-3.5107e-12,-0.73902,0,0,0.25,-5.9212e-16,0,0.66667
0.55308,0.35718,2.2123,-0.21423,-3.0575,17.083,1.2639,-0.42129,-1.8359,1.6851,8.5421e-13,-0.91795,0,0,0.25,-0,-0,0.66667
0.40642,0.13019,1.6257,-0.55471,-9.7326,27.704,2.4047,-0.80157,-0.90695,3.2063,-1.1955e-12,-0.45347,0,0,0.25,-0,-0,0.66667
0.39796,0.34808,1.5918,-0.22788,-3.9708,28.171,0.96731,-0.32244,-1.8153,1.2897,-1.5005e-12,-0.90763,0,0,0.25,-0,-0,0.66667
0.61288,0.81187,2.4515,0.4678,6.0644,13.57,-3.0582,1.0194,-1.2229,-4.0776,-1.9267e-12,-0.61144,0,0,0.25,-1.4433e-15,0,0.66667
0.061349,0.072785,0.2454,-0.64082,-13.519,57.024,0.41935,-0.13978,-0.54004,0.55913,2.4248e-07,-0.27002,0,0,0.25,-0,2.6147e-16,0.66667
0.7645,0.67763,3.058,0.26644,2.2262,5.7921,-2.1727,0.72425,-1.7478,-2.897,1.1672e-10,-0.87388,0,0,0.25,-0,-0,0.66667
0.23365,0.93904,0.93459,0.65856,13.194,41.837,-1.6413,0.5471,-0.45939,-2.1884,-1.5571e-12,-0.22969,0,0,0.25,-0,-0,0.66667
0.16594,0.55642,0.66375,0.084633,1.7071,47.587,-0.1498,0.049934,-1.9742,-0.19974,-6.1428e-10,-0.98712,0,0,0.25,-1.978e-16,0,0.66667
0.42348,0.15657,1.6939,-0.51515,-8.8601,26.379,2.327,-0.77567,-1.0579,3.1027,-1.0565e-12,-0.52895,0,0,0.25,-1.1842e-15,0,0.66667
0.46845,0.72071,1.8738,0.33106,5.3573,22.942,-1.6542,0.55141,-1.6118,-2.2056,3.5039e-13,-0.80591,0,0,0.25,1.1842e-15,0,0.66667
0.27444,0.64514,1.0977,0.21771,4.1785,38.193,-0.63732,0.21244,-1.8306,-0.84976,-3.7393e-11,-0.91531,0,0,0.25,-0,-0,0.66667
0.31013,0.37143,1.2405,-0.19285,-3.6134,35.203,0.63796,-0.21265,-1.8684,0.85062,1.0779e-11,-0.9342,0,0,0.25,6.8394e-16,0,0.66667
0.67315,0.48338,2.6926,-0.024926,-0.27628,9.976,0.17897,-0.059658,-1.9977,0.23863,-1.0389e-12,-0.99885,0,0,0.25,-0,-0,0.66667
0.030054,0.92243,0.12022,0.63365,13.4,59.843,-0.20313,0.067711,-0.57233,-0.27084,-4.1809e-08,-0.28617,0,0,0.25,3.7007e-17,-2.9568e-16,0.66667
0.65518,0.84641,2.6207,0.51961,6.169,11.248,-3.6314,1.2105,-1.0411,-4.8419,-1.0674e-12,-0.52057,0,0,0.25,-2.3685e-15,3.4003e-16,0.66667
0.52145,0.99389,2.0858,0.74083,11.496,19.645,-4.1206,1.3735,-0.04832,-5.4942,-1.7808e-13,-0.02416,0,0,0.25,2.0724e-15,0,0.66667
0.47871,0.60007,1.9148,0.15011,2.3844,22.133,-0.7665,0.2555,-1.9196,-1.022,1.2607e-13,-0.95979,0,0,0.25,-0,-0,0.66667
0.72049,0.077973,2.882,-0.63304,-6.3882,8.1428,4.8651,-1.6217,-0.57493,6.4867,-3.0398e-12,-0.28746,0,0,0.25,-0,-0,0.66667
0.68825,0.062768,2.753,-0.65585,-7.2738,9.7243,4.8148,-1.6049,-0.47234,6.4197,1.168e-13,-0.23617,0,0,0.25,-0,-0,0.66667
0.064811,0.85186,0.25924,0.52779,11.057,56.698,-0.36487,0.12162,-1.0096,-0.48649,1.4066e-08,-0.5048,0,0,0.25,-0,-0,0.66667
0.80024,0.17718,3.2009,-0.48423,-3.5503,4.6441,4.1333,-1.3778,-1.1659,5.5111,-2.3572e-10,-0.58296,0,0,0.25,-0,-0,0.66667
0.039175,0.31591,0.1567,-0.27613,-5.7425,58.998,0.11539,-0.038462,-1.7289,0.15385,7.8938e-09,-0.86447,0,0,0.25,-0,-0,0.66667
0.027013,0.73317,0.10805,0.34976,7.2964,60.104,-0.10078,0.033593,-1.5643,-0.13437,-1.2656e-09,-0.78216,0,0,0.25,3.7007e-17,0,0.66667
0.52587,0.23344,2.1035,-0.39983,-6.0041,18.988,2.2428,-0.74759,-1.4307,2.9904,6.477e-13,-0.71535,0,0,0.25,-1.1842e-15,0,0.66667
0.7348,0.49708,2.9392,-0.0043849,-0.040475,6.9739,0.034368,-0.011456,-2.0012,0.045824,-5.529e-12,-1.0006,0,0,0.25,-1.7764e-15,0,0.66667
0.50557,0.70884,2.0223,0.31326,4.8239,20.312,-1.6894,0.56312,-1.6504,-2.2525,-2.8333e-13,-0.8252,0,0,0.25,5.9212e-16,0,0.66667
0.29367,0.9591,1.1747,0.68866,13.361,36.8,-2.1572,0.71906,-0.31348,-2.8763,-5.2269e-13,-0.15674,0,0,0.25,2.9606e-16,-2.527e-16,0.66667
0.18618,0.37326,0.74472,-0.19011,-3.8113,45.809,0.37754,-0.12585,-1.8727,0.50339,8.961e-12,-0.93637,0,0,0.25,-4.0708e-16,0,0.66667
0.66274,0.91465,2.651,0.62198,7.3275,10.982,-4.3969,1.4656,-0.62391,-5.8626,-7.7849e-13,-0.31195,0,0,0.25,-1.1842e-15,0,0.66667
0.94213,0.57844,3.7685,0.11766,0.21519,0.63143,-1.1824,0.39414,-1.95,-1.5766,-7.3557e-08,-0.97499,0,0,0.25,-1.1842e-15,0,0.66667
0.15878,0.65999,0.63511,0.23998,4.8648,48.237,-0.40644,0.13548,-1.7958,-0.54192,-4.1393e-10,-0.89791,0,0,0.25,-0,-0,0.66667
0.27586,0.95722,1.1035,0.68583,13.452,38.28,-2.0181,0.6727,-0.32682,-2.6908,-3.4861e-13,-0.16341,0,0,0.25,2.9606e-16,0,0.66667
0.99109,0.69236,3.9644,0.28855,-0.034243,0.20392,-3.0504,1.0168,-1.7038,-4.0672,-1.1168e-08,-0.8519,0,0,0.25,-0,-0,0.66667
0.83374,0.1849,3.335,-0.47265,-2.9079,3.5014,4.2034,-1.4011,-1.206,5.6045,-3.4286e-10,-0.603,0,0,0.25,-5.9212e-16,0,0.66667
0.75016,0.47517,3.0006,-0.037248,-0.3258,6.3007,0.29805,-0.09935,-1.9959,0.3974,-1.7059e-11,-0.99795,0,0,0.25,-2.3685e-15,0,0.66667
0.042073,0.27303,0.16829,-0.34046,-7.0926,58.738,0.15279,-0.050931,-1.5874,0.20372,-6.2946e-09,-0.79372,0,0,0.25,-0,-0,0.66667
0.027017,0.59236,0.10807,0.13854,2.8752,60.098,-0.039924,0.013308,-1.9324,-0.053231,-4.3152e-07,-0.96622,0,0,0.25,-1.8504e-17,0,0.66667
0.48721,0.38564,1.9488,-0.17154,-2.6961,21.535,0.89149,-0.29716,-1.8951,1.1887,-3.1991e-13,-0.94754,0,0,0.25,-0,-0,0.66667
0.032196,0.75526,0.12878,0.38289,7.9947,59.635,-0.13149,0.043831,-1.4795,-0.17533,1.2607e-09,-0.73975,0,0,0.25,-7.4015e-17,0,0.66667
0.10153,0.068736,0.4061,-0.6469,-13.562,53.422,0.70055,-0.23352,-0.5117,0.93407,-2.6987e-08,-0.25585,0,0,0.25,-0,-0,0.66667
0.56329,0.20885,2.2532,-0.43673,-6.1923,16.571,2.6241,-0.8747,-1.3221,3.4988,1.146e-12,-0.66105,0,0,0.25,-0,-0,0.66667
0.4278,0.23171,1.7112,-0.40244,-6.847,25.976,1.8364,-0.61215,-1.4233,2.4486,-1.5944e-12,-0.71163,0,0,0.25,-0,-0,0.66667
0.79087,0.71861,3.1635,0.32791,2.4652,4.8082,-2.7662,0.92207,-1.6184,-3.6883,2.3477e-10,-0.80922,0,0,0.25,-5.7362e-16,0,0.66667
0.27399,0.50562,1.096,0.0084336,0.16149,38.208,-0.024648,0.0082159,-1.9995,-0.032863,-1.6257e-13,-0.99973,0,0,0.25,-0,-0,0.66667
0.27245,0.50798,1.0898,0.011964,0.2293,38.338,-0.034768,0.011589,-1.9989,-0.046357,-2.0402e-12,-0.99946,0,0,0.25,-0,-0,0.66667
0.40582,0.33431,1.6233,-0.24854,-4.2998,27.571,1.0759,-0.35862,-1.7808,1.4345,-1.7348e-12,-0.8904,0,0,0.25,-0,-0,0.66667
0.67323,0.63754,2.6929,0.20631,2.2952,10.022,-1.4816,0.49385,-1.8486,-1.9754,5.3801e-12,-0.92431,0,0,0.25,1.1842e-15,0,0.66667
0.9815,0.87609,3.926,0.56413,0.29831,0.68917,-5.906,1.9687,-0.86947,-7.8747,4.0341e-08,-0.43474,0,0,0.25,2.3685e-15,-3.5745e-19,0.66667
0.39748,0.70174,1.5899,0.30262,5.2881,28.236,-1.283,0.42768,-1.6734,-1.7107,1.8492e-12,-0.83671,0,0,0.25,-0,-0,0.66667
0.74457,0.49309,2.9783,-0.010359,-0.092428,6.5409,0.082271,-0.027424,-1.9993,0.1097,-5.7003e-12,-0.99963,0,0,0.25,1.7764e-15,0,0.66667
0.85672,0.19742,3.4269,-0.45388,-2.408,2.7937,4.1477,-1.3826,-1.2673,5.5303,-1.3706e-09,-0.63367,0,0,0.25,-0,-0,0.66667
0.67501,0.62333,2.7,0.185,2.0471,9.9193,-1.332,0.44401,-1.8791,-1.776,5.8962e-12,-0.93957,0,0,0.25,-1.4803e-15,0,0.66667
0.77949,0.11469,3.1179,-0.57797,-4.7014,5.5569,4.8055,-1.6018,-0.81224,6.4074,-8.1056e-11,-0.40612,0,0,0.25,1.1842e-15,0,0.66667
0.81192,0.48144,3.2477,-0.027839,-0.18618,3.8961,0.2411,-0.080368,-1.9974,0.32147,-2.4641e-11,-0.99871,0,0,0.25,-1.1842e-15,0,0.66667
0.59693,0.29305,2.3877,-0.31043,-4.1127,14.388,1.9766,-0.65886,-1.6569,2.6354,1.8849e-12,-0.82846,0,0,0.25,-0,-0,0.66667
0.439,0.91189,1.756,0.61784,10.525,25.311,-2.8931,0.96437,-0.6433,-3.8575,3.4217e-13,-0.32165,0,0,0.25,1.1842e-15,0,0.66667
0.16875,0.6492,0.675,0.22381,4.5197,47.351,-0.40285,0.13428,-1.8219,-0.53714,-7.2589e-11,-0.91094,0,0,0.25,3.9598e-16,0,0.66667
0.78139,0.85571,3.1256,0.53357,4.279,5.4151,-4.4472,1.4824,-0.98811,-5.9296,1.0054e-10,-0.49405,0,0,0.25,-0,-0,0.66667
0.19409,0.21275,0.77637,-0.43088,-8.6773,45.165,0.89205,-0.29735,-1.3396,1.1894,3.5065e-10,-0.66979,0,0,0.25,-2.9606e-16,0,0.66667
0.99872,0.067145,3.9949,-0.64928,0.059475,0.75589,6.9168,-2.3056,-0.50184,9.2224,-5.7869e-06,-0.25092,0,0,0.25,-2.3685e-15,0,0.66667
0.5426,0.83692,2.1704,0.50537,7.4462,17.969,-2.925,0.975,-1.0917,-3.9,-8.0913e-13,-0.54585,0,0,0.25,-0,-0,0.66667
0.0093665,0.55067,0.037466,0.076006,1.5774,61.703,-0.0075946,0.0025318,-1.9786,-0.010126,4.3444e-07,-0.9893,0,0,0.25,-0,-0,0.66667
0.4188,0.72064,1.6752,0.33096,5.6667,26.616,-1.4785,0.49282,-1.6113,-1.9713,1.697e-12,-0.80567,0,0,0.25,-0,-0,0.66667
0.24105,0.44452,0.96421,-0.083227,-1.6244,41.021,0.21399,-0.071331,-1.9749,0.28533,3.563e-11,-0.98746,0,0,0.25,-5.9212e-16,0,0.66667
0.053138,0.55421,0.21255,0.081314,1.6829,57.725,-0.046089,0.015363,-1.9759,-0.061452,-3.7686e-09,-0.98796,0,0,0.25,3.7007e-17,0,0.66667
0.71613,0.503,2.8645,0.0045025,0.044162,7.8341,-0.034393,0.011464,-2.0006,-0.045858,4.4239e-13,-1.0003,0,0,0.25,-0,-0,0.66667
0.31649,0.553,1.266,0.079499,1.4802,34.66,-0.26838,0.08946,-1.9771,-0.35784,-4.5167e-12,-0.98855,0,0,0.25,-2.9606e-16,0,0.66667
0.82107,0.47779,3.2843,-0.033312,-0.21218,3.5847,0.29175,-0.097251,-1.9954,0.389,-6.8722e-11,-0.99768,0,0,0.25,-0,-0,0.66667
0.76442,0.10543,3.0577,-0.59186,-5.118,6.1749,4.8259,-1.6086,-0.75455,6.4345,-3.6354e-11,-0.37727,0,0,0.25,-1.1842e-15,-3.1853e-16,0.66667
0.065672,0.63317,0.26269,0.19975,4.1347,56.592,-0.13992,0.046641,-1.858,-0.18656,-7.6595e-09,-0.92899,0,0,0.25,-0,-0,0.66667
0.71272,0.63446,2.8509,0.20169,2.0079,8.0475,-1.5333,0.51112,-1.8547,-2.0445,2.4556e-11,-0.92735,0,0,0.25,-1.1842e-15,0,0.66667
0.19497,0.38152,0.77988,-0.17772,-3.5495,45.035,0.36961,-0.1232,-1.8873,0.49281,2.1112e-10,-0.94364,0,0,0.25,-0,-0,0.66667
0.77656,0.66816,3.1062,0.25223,2.0055,5.2971,-2.0893,0.69644,-1.7731,-2.7858,1.4002e-10,-0.88655,0,0,0.25,1.1842e-15,0,0.66667
0.25043,0.5076,1.0017,0.011397,0.22123,40.213,-0.030444,0.010148,-2.0001,-0.040592,7.3102e-13,-1.0001,0,0,0.25,1.1842e-15,0,0.66667
0.40375,0.97453,1.615,0.7118,12.668,28.05,-3.0654,1.0218,-0.19885,-4.0872,3.1397e-13,-0.099423,0,0,0.25,-1.1842e-15,0,0.66667
0.8833,0.82686,3.5332,0.49029,2.1351,2.1558,-4.6194,1.5398,-1.1443,-6.1592,1.0379e-09,-0.57216,0,0,0.25,-0,-0,0.66667
0.65698,0.97919,2.6279,0.71879,8.6814,11.44,-5.0371,1.679,-0.16325,-6.7161,-1.5232e-13,-0.081627,0,0,0.25,-0,-0,0.66667
0.081501,0.95598,0.326,0.68396,14.427,55.222,-0.5946,0.1982,-0.33616,-0.7928,2.169e-09,-0.16808,0,0,0.25,-0,-0,0.66667
0.13451,0.37497,0.53802,-0.18754,-3.826,50.393,0.26908,-0.089692,-1.8757,0.35877,3.3701e-09,-0.93785,0,0,0.25,-3.1861e-16,0,0.66667
0.007682,0.092827,0.030728,-0.61076,-12.909,61.862,0.050046,-0.016682,-0.67419,0.066728,5.182e-07,-0.33709,0,0,0.25,-0,-0,0.66667
0.98219,0.018289,3.9288,-0.72257,-0.51389,1.0395,7.5701,-2.5234,-0.14335,10.093,9.0703e-07,-0.071676,0,0,0.25,-0,-2.8745e-16,0.66667
0.047674,0.90892,0.1907,0.61338,12.937,58.252,-0.31192,0.10397,-0.66348,-0.41589,-2.6866e-07,-0.33174,0,0,0.25,1.4803e-16,0,0.66667
0.10538,0.80014,0.42151,0.45022,9.33,53.037,-0.50606,0.16869,-1.2787,-0.67475,3.9971e-10,-0.63934,0,0,0.25,-0,-0,0.66667
0.45747,0.79156,1.8299,0.43734,7.209,23.805,-2.134,0.71135,-1.3194,-2.8454,5.0115e-13,-0.6597,0,0,0.25,1.1842e-15,0,0.66667
0.054401,0.030179,0.2176,-0.70473,-14.942,57.658,0.40894,-0.13631,-0.23462,0.54525,-9.7953e-07,-0.11731,0,0,0.25,2.7756e-17,0,0.66667
0.28909,0.93075,1.1563,0.64612,12.535,37.15,-1.9924,0.66412,-0.51521,-2.6565,-1.0977e-12,-0.2576,0,0,0.25,2.3144e-17,0,0.66667
0.67797,0.15526,2.7119,-0.5171,-5.8027,10.046,3.7396,-1.2465,-1.0498,4.9861,-9.0661e-13,-0.52491,0,0,0.25,-0,-0,0.66667
0.048629,0.10223,0.19452,-0.59665,-12.571,58.164,0.30949,-0.10316,-0.73439,0.41265,2.4878e-08,-0.3672,0,0,0.25,-0,-0,0.66667
0.45797,0.27436,1.8319,-0.33847,-5.5489,23.706,1.6534,-0.55114,-1.5924,2.2046,-9.5335e-13,-0.7962,0,0,0.25,-2.9606e-16,0,0.66667
0.57276,0.1317,2.291,-0.55245,-7.7719,16.09,3.3751,-1.125,-0.91453,4.5002,6.2927e-13,-0.45727,0,0,0.25,-0,-0,0.66667
0.19927,0.979,0.79707,0.7185,14.685,44.83,-1.5272,0.50906,-0.16398,-2.0363,3.7888e-11,-0.081991,0,0,0.25,-0,-0,0.66667
0.18617,0.27618,0.74467,-0.33574,-6.7575,45.835,0.6667,-0.22223,-1.5999,0.88894,4.0046e-10,-0.79995,0,0,0.25,1.8425e-16,0,0.66667
0.10269,0.15264,0.41075,-0.52104,-10.841,53.291,0.57071,-0.19024,-1.0348,0.76095,1.3348e-08,-0.51738,0,0,0.25,1.8504e-16,0,0.66667
0.0688,0.62323,0.2752,0.18485,3.8234,56.308,-0.13565,0.045218,-1.8789,-0.18087,-2.6495e-08,-0.93945,0,0,0.25,7.4015e-17,0,0.66667
0.16898,0.44195,0.67594,-0.087082,-1.7546,47.317,0.15697,-0.052322,-1.9734,0.20929,7.4756e-10,-0.98671,0,0,0.25,-0,-0,0.66667
0.060817,0.56416,0.24327,0.09624,1.9903,57.029,-0.062432,0.020811,-1.9682,-0.083243,2.737e-07,-0.98412,0,0,0.25,-0,-0,0.66667
0.55168,0.48582,2.2067,-0.02127,-0.30325,17.129,0.12516,-0.041721,-1.9976,0.16688,-3.2398e-13,-0.9988,0,0,0.25,-0,-0,0.66667
0.80791,0.36717,3.2316,-0.19925,-1.3682,4.0928,1.7171,-0.57236,-1.8585,2.2895,-2.2974e-10,-0.92924,0,0,0.25,-5.9212e-16,0,0.66667
0.80434,0.79191,3.2174,0.43787,3.1294,4.4366,-3.7567,1.2522,-1.3175,-5.009,3.2083e-10,-0.65874,0,0,0.25,-2.3685e-15,0,0.66667
0.63118,0.95628,2.5247,0.68443,8.7174,12.796,-4.608,1.536,-0.33356,-6.144,-3.9302e-13,-0.16678,0,0,0.25,-1.1842e-15,0,0.66667
0.54175,0.27632,2.167,-0.33551,-4.9004,17.888,1.9388,-0.64627,-1.5997,2.5851,9.5968e-13,-0.79985,0,0,0.25,2.9606e-16,0,0.66667
0.46714,0.39516,1.8685,-0.15726,-2.5351,22.966,0.7836,-0.2612,-1.912,1.0448,-6.5636e-13,-0.95601,0,0,0.25,-0,-0,0.66667
0.96014,0.44631,3.8405,-0.080539,-0.087817,0.37076,0.82484,-0.27495,-1.9763,1.0998,-3.6558e-08,-0.98814,0,0,0.25,-0,-0,0.66667
0.2899,0.52914,1.1596,0.043714,0.82878,36.869,-0.13517,0.045058,-1.9935,-0.18023,-6.0517e-12,-0.99675,0,0,0.25,7.4015e-16,0,0.66667
0.36643,0.44034,1.4657,-0.089489,-1.6013,30.615,0.34978,-0.11659,-1.9717,0.46637,-2.2593e-14,-0.98584,0,0,0.25,-0,-0,0.66667
0.57534,0.97488,2.3014,0.71232,10.125,16.136,-4.3715,1.4572,-0.19609,-5.8286,1.1235e-13,-0.098044,0,0,0.25,-0,-0,0.66667
0.51258,0.54727,2.0503,0.07091,1.0743,19.746,-0.3877,0.12923,-1.9816,-0.51693,-3.4647e-13,-0.9908,0,0,0.25,5.9212e-16,0,0.66667
0.67424,0.021483,2.6969,-0.71778,-8.3163,10.536,5.1621,-1.7207,-0.16804,6.8829,1.1058e-13,-0.084022,0,0,0.25,-0,-0,0.66667
0.77467,0.9113,3.0987,0.61695,5.1467,5.8082,-5.0979,1.6993,-0.64649,-6.7972,4.2994e-11,-0.32324,0,0,0.25,-0,-0,0.66667
0.18244,0.86178,0.72976,0.54267,11.041,46.222,-1.0561,0.35202,-0.95211,-1.4081,-4.3843e-10,-0.47605,0,0,0.25,-2.9606e-16,0,0.66667
0.6289,0.1619,2.5156,-0.50715,-6.3795,12.689,3.4021,-1.134,-1.0855,4.5361,1.962e-12,-0.54277,0,0,0.25,-2.3685e-15,0,0.66667
0.69402,0.58745,2.7761,0.13118,1.3764,8.9293,-0.97111,0.3237,-1.9385,-1.2948,9.8795e-12,-0.96923,0,0,0.25,-0,-0,0.66667
0.27231,0.79202,1.0892,0.43804,8.4835,38.443,-1.2723,0.42411,-1.317,-1.6964,-3.2537e-11,-0.65848,0,0,0.25,-0,-0,0.66667
0.92808,0.17284,3.7123,-0.49073,-1.288,1.2357,4.858,-1.6193,-1.1428,6.4774,-1.2863e-08,-0.5714,0,0,0.25,1.1842e-15,0,0.66667
0.34525,0.51288,1.381,0.019322,0.3518,32.309,-0.071156,0.023719,-1.9986,-0.094875,-6.2447e-13,-0.99929,0,0,0.25,1.1842e-15,0,0.66667
0.63808,0.87711,2.5523,0.56566,7.0119,12.243,-3.85,1.2833,-0.86319,-5.1333,-1.5095e-12,-0.43159,0,0,0.25,-0,-0,0.66667
0.9258,0.6681,3.7032,0.25216,0.63824,0.98337,-2.4901,0.83002,-1.7733,-3.3201,-1.2023e-08,-0.88667,0,0,0.25,-0,-0,0.66667
0.98063,0.70771,3.9225,0.31157,0.10461,0.31081,-3.2591,1.0864,-1.6543,-4.3454,-4.2704e-09,-0.82717,0,0,0.25,-1.1842e-15,0,0.66667
0.24873,0.16139,0.99491,-0.50792,-10.005,40.473,1.3476,-0.44919,-1.0834,1.7967,4.5289e-11,-0.54171,0,0,0.25,-0,-0,0.66667
0.94195,0.0028303,3.7678,-0.74575,-1.7885,1.5422,7.493,-2.4977,-0.022961,9.9906,-1.2527e-06,-0.01148,0,0,0.25,-0,-0,0.66667
0.90908,0.0056606,3.6363,-0.74151,-2.736,2.0879,7.1903,-2.3968,-0.04525,9.5871,-1.3526e-07,-0.022625,0,0,0.25,-0,-0,0.66667
0.25098,0.69021,1.0039,0.28532,5.561,40.203,-0.76382,0.25461,-1.7117,-1.0184,-7.8636e-11,-0.85586,0,0,0.25,-5.9212e-16,0,0.66667
0.10105,0.12034,0.40421,-0.5695,-11.885,53.447,0.61386,-0.20462,-0.84668,0.81847,-4.4285e-09,-0.42334,0,0,0.25,1.8504e-16,0,0.66667
0.36236,0.45733,1.4494,-0.064002,-1.149,30.937,0.24738,-0.082459,-1.9851,0.32984,-8.2517e-14,-0.99253,0,0,0.25,5.9212e-16,0,0.66667
0.92363,0.63064,3.6945,0.19596,0.50764,0.98088,-1.9306,0.64353,-1.8639,-2.5741,2.8791e-08,-0.93197,0,0,0.25,-0,-0,0.66667
0.84527,0.95444,3.3811,0.68165,4.0828,3.5127,-6.1459,2.0486,-0.34776,-8.1946,6.3449e-10,-0.17388,0,0,0.25,-0,-0,0.66667
0.25812,0.29777,1.0325,-0.30335,-5.8923,39.598,0.83521,-0.2784,-1.6718,1.1136,6.5983e-11,-0.83591,0,0,0.25,-3.0568e-16,0,0.66667
0.27562,0.96631,1.1025,0.69947,13.735,38.31,-2.0564,0.68546,-0.26075,-2.7418,1.0711e-12,-0.13038,0,0,0.25,6.6613e-16,0,0.66667
0.29828,0.38595,1.1931,-0.17108,-3.2304,36.183,0.54431,-0.18144,-1.896,0.72574,1.5529e-11,-0.94798,0,0,0.25,-0,-0,0.66667
0.081417,0.65253,0.32567,0.22879,4.7274,55.169,-0.19869,0.066231,-1.8143,-0.26492,3.2483e-09,-0.90716,0,0,0.25,7.4015e-17,0,0.66667
0.16833,0.73778,0.67334,0.35666,7.2322,47.411,-0.64041,0.21347,-1.5472,-0.85388,-5.0052e-10,-0.77358,0,0,0.25,2.9606e-16,0,0.66667
0.61444,0.93696,2.4577,0.65544,8.6135,13.709,-4.2958,1.4319,-0.47327,-5.7277,-3.8858e-13,-0.23663,0,0,0.25,-1.7023e-15,0,0.66667
0.4924,0.90732,1.9696,0.61098,9.7542,21.47,-3.209,1.0697,-0.67318,-4.2787,3.1086e-14,-0.33659,0,0,0.25,-1.1842e-15,0,0.66667
0.41191,0.2003,1.6476,-0.44955,-7.7951,27.208,1.9752,-0.65839,-1.2806,2.6335,-1.6872e-12,-0.6403,0,0,0.25,-5.9212e-16,0,0.66667
0.5157,0.56419,2.0628,0.096291,1.4526,19.536,-0.52968,0.17656,-1.9687,-0.70624,-3.7609e-13,-0.98433,0,0,0.25,1.1842e-15,0,0.66667
0.88736,0.49583,3.5495,-0.0062554,-0.024716,1.6803,0.059209,-0.019736,-2.0002,0.078946,-6.4792e-09,-1.0001,0,0,0.25,-0,-0,0.66667
0.9551,0.1493,3.8204,-0.52605,-0.82928,0.89378,5.3593,-1.7864,-1.0163,7.1457,-1.1684e-08,-0.50816,0,0,0.25,5.9212e-16,0,0.66667
0.25568,0.73144,1.0227,0.34715,6.7627,39.819,-0.94676,0.31559,-1.5707,-1.2624,-6.8716e-11,-0.78533,0,0,0.25,-0,-0,0.66667
0.23367,0.23431,0.93466,-0.39854,-7.8711,41.721,0.99332,-0.33111,-1.4353,1.3244,1.2116e-10,-0.71767,0,0,0.25,-2.9606e-16,0,0.66667
0.070154,0.19109,0.28062,-0.46336,-9.6692,56.208,0.34674,-0.11558,-1.2366,0.46231,-1.6672e-08,-0.61831,0,0,0.25,-0,-0,0.66667
0.2597,0.13872,1.0388,-0.54193,-10.63,39.557,1.5012,-0.5004,-0.95489,2.0016,2.4794e-11,-0.47744,0,0,0.25,-0,-0,0.66667
0.17421,0.29027,0.69685,-0.31459,-6.3563,46.883,0.58459,-0.19486,-1.6481,0.77946,3.9888e-10,-0.82403,0,0,0.25,2.9606e-16,0,0.66667
0.027562,0.31251,0.11025,-0.28124,-5.8543,60.052,0.082685,-0.027562,-1.7198,0.11025,-1.0292e-08,-0.85992,0,0,0.25,-0,-0,0.66667
0.17447,0.00024811,0.69788,-0.74963,-15.505,47.004,1.3951,-0.46502,-0.0032168,1.8601,-1.9796e-10,-0.0016084,0,0,0.25,-0,-0,0.66667
0.78046,0.34589,3.1218,-0.23116,-1.8056,5.1303,1.9244,-0.64146,-1.8113,2.5658,-1.6382e-10,-0.90567,0,0,0.25,2.3685e-15,0,0.66667
0.92026,0.96037,3.6811,0.69055,2.1943,1.7601,-6.7785,2.2595,-0.30469,-9.0381,7.4179e-08,-0.15234,0,0,0.25,5.9212e-16,0,0.66667
0.72159,0.58927,2.8864,0.1339,1.2936,7.6013,-1.0306,0.34355,-1.9366,-1.3742,2.4443e-11,-0.96832,0,0,0.25,1.4803e-15,0,0.66667
0.29842,0.88849,1.1937,0.58273,11.19,36.335,-1.8549,0.6183,-0.79249,-2.4732,-2.5689e-12,-0.39625,0,0,0.25,-5.9212e-16,0,0.66667
0.63146,0.25681,2.5258,-0.36478,-4.5166,12.404,2.457,-0.81901,-1.5264,3.276,1.5423e-12,-0.76322,0,0,0.25,-0,-0,0.66667
0.77018,0.0001895,3.0807,-0.74972,-6.5062,6.2335,6.1591,-2.053,-0.0024055,8.2122,4.834e-11,-0.0012028,0,0,0.25,-0,-0,0.66667
0.4425,0.25967,1.77,-0.3605,-6.023,24.855,1.7016,-0.56718,-1.5373,2.2687,-1.5214e-12,-0.76867,0,0,0.25,-0,-0,0.66667
0.61945,0.28477,2.4778,-0.32285,-4.0912,13.062,2.1332,-0.71106,-1.6295,2.8442,1.5947e-12,-0.81477,0,0,0.25,-0,-0,0.66667
0.57375,0.57005,2.295,0.10507,1.4435,15.728,-0.64303,0.21434,-1.9605,-0.85737,-1.0673e-12,-0.98023,0,0,0.25,1.1842e-15,0,0.66667
0.90274,0.61167,3.611,0.16751,0.56846,1.3772,-1.613,0.53765,-1.8997,-2.1506,-4.9049e-09,-0.94983,0,0,0.25,-0,-0,0.66667
0.75239,0.17289,3.0096,-0.49067,-4.3782,6.5251,3.9378,-1.3126,-1.1436,5.2505,-5.7129e-11,-0.57181,0,0,0.25,-0,-0,0.66667
0.26495,0.048723,1.0598,-0.67692,-13.354,39.19,1.9131,-0.6377,-0.3709,2.5508,1.7318e-12,-0.18545,0,0,0.25,2.9606e-16,0,0.66667
0.22937,0.136,0.91746,-0.546,-10.886,42.148,1.3358,-0.44527,-0.93935,1.7811,6.425e-11,-0.46967,0,0,0.25,-0,-0,0.66667
0.6936,0.33972,2.7744,-0.24042,-2.5356,9.0004,1.7787,-0.5929,-1.7945,2.3716,-1.3822e-11,-0.89724,0,0,0.25,2.9606e-16,0,0.66667
0.23301,0.65629,0.93205,0.23443,4.6062,41.734,-0.58267,0.19422,-1.8062,-0.77689,-1.0144e-10,-0.90309,0,0,0.25,-0,-0,0.66667
0.62193,0.28459,2.4877,-0.32311,-4.0733,12.918,2.1435,-0.71449,-1.6293,2.8579,1.7917e-12,-0.81467,0,0,0.25,-2.3685e-15,0,0.66667
0.25494,0.67987,1.0197,0.26981,5.2448,39.861,-0.7337,0.24457,-1.7408,-0.97827,-6.9614e-11,-0.87039,0,0,0.25,-0,-0,0.66667
0.92042,0.50062,3.6817,0.00092674,0.0024799,0.97705,-0.0090986,0.003033,-2.0014,-0.012131,2.0982e-07,-1.0007,0,0,0.25,-0,-0,0.66667
0.30256,0.49417,1.2102,-0.0087448,-0.16437,35.811,0.028222,-0.0094072,-1.9995,0.037629,3.5627e-13,-0.99975,0,0,0.25,2.9606e-16,0,0.66667
0.84854,0.45807,3.3942,-0.062901,-0.33926,2.7229,0.56933,-0.18978,-1.9853,0.75911,-1.0556e-09,-0.99265,0,0,0.25,1.1842e-15,0,0.66667
0.22971,0.052843,0.91883,-0.67074,-13.476,42.181,1.6435,-0.54782,-0.39986,2.1913,5.5492e-12,-0.19993,0,0,0.25,-0,-2.8272e-17,0.66667
0.5721,0.47714,2.2884,-0.034287,-0.47209,15.822,0.20923,-0.069743,-1.9953,0.27897,5.6011e-14,-0.99763,0,0,0.25,-0,-0,0.66667
0.1889,0.92066,0.75561,0.631,12.873,45.691,-1.2714,0.42381,-0.58421,-1.6952,-7.7228e-11,-0.29211,0,0,0.25,-0,-0,0.66667
0.42001,0.78668,1.68,0.43001,7.387,26.58,-1.9265,0.64217,-1.343,-2.5687,1.5076e-12,-0.67151,0,0,0.25,-0,-0,0.66667
0.37624,0.11005,1.505,-0.58493,-10.578,30.062,2.3475,-0.78249,-0.78341,3.1299,-1.3496e-12,-0.39171,0,0,0.25,-0,-0,0.66667
0.039037,0.31379,0.15615,-0.27932,-5.8093,59.01,0.11631,-0.038769,-1.723,0.15507,1.2556e-08,-0.86152,0,0,0.25,1.4803e-16,0,0.66667
0.12795,0.87577,0.5118,0.56366,11.685,51.044,-0.76928,0.25643,-0.8714,-1.0257,-3.7499e-09,-0.4357,0,0,0.25,-0,-0,0.66667
0.75376,0.24184,3.015,-0.38724,-3.4018,6.3457,3.1134,-1.0378,-1.4666,4.1512,-8.6767e-11,-0.73329,0,0,0.25,5.9212e-16,0,0.66667
0.41261,0.29163,1.6504,-0.31256,-5.3821,27.078,1.3756,-0.45855,-1.6519,1.8342,-1.8812e-12,-0.82594,0,0,0.25,-0,-0,0.66667
0.80409,0.41005,3.2163,-0.13493,-0.94121,4.1976,1.1573,-0.38575,-1.9353,1.543,-4.5986e-11,-0.96763,0,0,0.25,-2.3685e-15,0,0.66667
0.6699,0.66664,2.6796,0.24996,2.8098,10.22,-1.7861,0.59536,-1.7778,-2.3814,4.7534e-12,-0.88889,0,0,0.25,-0,-0,0.66667
0.38282,0.14763,1.5313,-0.52855,-9.4681,29.505,2.1583,-0.71944,-1.006,2.8777,-1.7322e-12,-0.50301,0,0,0.25,-2.9606e-16,0,0.66667
0.49483,0.50932,1.9793,0.013973,0.21694,20.972,-0.073751,0.024584,-1.9987,-0.098335,-3.3381e-13,-0.99937,0,0,0.25,-0,-0,0.66667
0.95056,0.12666,3.8022,-0.56,-1.0077,1.0153,5.678,-1.8927,-0.88591,7.5707,1.3681e-08,-0.44296,0,0,0.25,2.3685e-15,0,0.66667
0.94795,0.81977,3.7918,0.47965,0.87219,0.90989,-4.85,1.6167,-1.1816,-6.4666,-1.6768e-08,-0.59081,0,0,0.25,2.3685e-15,0,0.66667
0.48498,0.57913,1.9399,0.1187,1.8691,21.679,-0.61404,0.20468,-1.95,-0.81872,9.0594e-14,-0.97501,0,0,0.25,-0,-0,0.66667
0.71243,0.94193,2.8497,0.66289,6.8793,8.5663,-5.0375,1.6792,-0.43753,-6.7167,3.2596e-13,-0.21876,0,0,0.25,2.3685e-15,0,0.66667
0.74983,0.30181,2.9993,-0.29728,-2.63,6.4307,2.3777,-0.79256,-1.6862,3.1703,-8.1821e-11,-0.8431,0,0,0.25,-0,-0,0.66667
0.5106,0.31647,2.0424,-0.2753,-4.2029,19.946,1.4994,-0.49979,-1.7306,1.9992,2.5568e-13,-0.86532,0,0,0.25,-1.1842e-15,0,0.66667
0.44701,0.71743,1.7881,0.32615,5.4133,24.503,-1.5551,0.51838,-1.6223,-2.0735,1.2375e-12,-0.81114,0,0,0.25,7.4015e-16,0,0.66667
0.76902,0.19985,3.0761,-0.45023,-3.7566,5.7881,3.6932,-1.2311,-1.2788,4.9242,-1.101e-10,-0.63938,0,0,0.25,-0,-0,0.66667
0.41563,0.8541,1.6625,0.53114,9.2192,26.984,-2.3548,0.78492,-0.99617,-3.1397,1.4031e-12,-0.49808,0,0,0.25,-1.1842e-15,0,0.66667
0.50009,0.39768,2.0004,-0.15349,-2.3697,20.626,0.81874,-0.27291,-1.9169,1.0916,-2.5446e-13,-0.95843,0,0,0.25,-0,-0,0.66667
0.08748,0.21866,0.34992,-0.42201,-8.7657,54.642,0.39378,-0.13126,-1.3675,0.52504,-4.6581e-09,-0.68377,0,0,0.25,-3.4694e-17,0,0.66667
0.90434,0.31461,3.6173,-0.27809,-0.94086,1.4225,2.6825,-0.89417,-1.7261,3.5767,2.417e-09,-0.86303,0,0,0.25,2.3685e-15,0,0.66667
0.45473,0.95554,1.8189,0.68331,11.495,24.227,-3.3143,1.1048,-0.33973,-4.4191,2.3825e-13,-0.16986,0,0,0.25,-0,-0,0.66667
0.59906,0.65771,2.3962,0.23657,3.1114,14.216,-1.5117,0.50389,-1.8015,-2.0155,-1.7442e-12,-0.90077,0,0,0.25,-0,-0,0.66667
0.070556,0.64267,0.28222,0.21401,4.4281,56.151,-0.16106,0.053687,-1.8362,-0.21475,-1.0015e-08,-0.91809,0,0,0.25,-0,-0,0.66667
0.52944,0.98419,2.1178,0.72629,11.125,19.094,-4.1016,1.3672,-0.12424,-5.4688,-5.1514e-14,-0.062118,0,0,0.25,-0,-0,0.66667
0.22131,0.21307,0.88525,-0.43039,-8.5636,42.797,1.016,-0.33867,-1.3417,1.3547,1.5645e-10,-0.67083,0,0,0.25,-0,-0,0.66667
0.38519,0.50439,1.5408,0.0065848,0.11579,29.129,-0.027055,0.0090183,-1.9998,-0.036073,-8.5515e-14,-0.99992,0,0,0.25,-2.3685e-15,0,0.66667
0.56,0.28796,2.24,-0.31806,-4.5053,16.692,1.8999,-0.63329,-1.6405,2.5332,1.1207e-12,-0.82023,0,0,0.25,1.1842e-15,0,0.66667
0.81503,0.43318,3.2601,-0.10022,-0.66038,3.8022,0.8713,-0.29043,-1.9648,1.1617,1.4691e-10,-0.98239,0,0,0.25,2.9606e-16,0,0.66667
0.26284,0.84909,1.0514,0.52364,10.243,39.282,-1.4681,0.48936,-1.0254,-1.9575,-2.798e-11,-0.51268,0,0,0.25,-0,-0,0.66667
0.72782,0.47373,2.9113,-0.039407,-0.37244,7.2927,0.30593,-0.10198,-1.9943,0.40791,-9.4353e-12,-0.99715,0,0,0.25,-0,-0,0.66667
0.49204,0.3654,1.9682,-0.2019,-3.1552,21.204,1.0597,-0.35323,-1.8543,1.4129,-2.6257e-13,-0.92716,0,0,0.25,-0,-0,0.66667
0.30424,0.35736,1.217,-0.21396,-4.0274,35.695,0.69437,-0.23146,-1.8363,0.92582,1.3911e-11,-0.91813,0,0,0.25,5.9212e-16,0,0.66667
0.29041,0.19412,1.1616,-0.45881,-8.795,36.934,1.4213,-0.47375,-1.2511,1.895,1.3996e-11,-0.62556,0,0,0.25,-0,-0,0.66667
0.2411,0.039655,0.96441,-0.69052,-13.813,41.218,1.7758,-0.59195,-0.30405,2.3678,1.3852e-12,-0.15202,0,0,0.25,-5.9212e-16,0,0.66667
0.073163,0.15515,0.29265,-0.51727,-10.818,55.944,0.40368,-0.13456,-1.0493,0.53824,4.5435e-08,-0.52464,0,0,0.25,2.0354e-16,0,0.66667
0.58112,0.341,2.3245,-0.2385,-3.2447,15.315,1.4784,-0.49279,-1.7984,1.9712,1.3864e-12,-0.8992,0,0,0.25,-0,-0,0.66667
0.62494,0.43467,2.4998,-0.097991,-1.2179,12.639,0.65321,-0.21774,-1.9673,0.87095,7.5828e-14,-0.98364,0,0,0.25,1.7764e-15,0,0.66667
0.23524,0.52149,0.94097,0.03224,0.63096,41.519,-0.080898,0.026966,-1.9966,-0.10786,-1.4935e-11,-0.99829,0,0,0.25,-0,-0,0.66667
0.56429,0.40065,2.2572,-0.14902,-2.0833,16.338,0.89697,-0.29899,-1.9215,1.196,7.1804e-13,-0.96076,0,0,0.25,5.9212e-16,0,0.66667
0.8726,0.7893,3.4904,0.43395,2.0402,2.3403,-4.0391,1.3464,-1.3305,-5.3854,1.1583e-09,-0.66523,0,0,0.25,-0,-0,0.66667
0.80766,0.36148,3.2306,-0.20778,-1.4293,4.1065,1.79,-0.59667,-1.8457,2.3867,-2.382e-10,-0.92286,0,0,0.25,-0,-0,0.66667
0.40735,0.52843,1.6294,0.042652,0.73413,27.411,-0.18533,0.061775,-1.9946,-0.2471,1.7665e-13,-0.99732,0,0,0.25,-0,-0,0.66667
0.49622,0.41891,1.9849,-0.12163,-1.8867,20.888,0.64379,-0.2146,-1.9468,0.85839,-2.3564e-13,-0.9734,0,0,0.25,-0,-0,0.66667
0.70639,0.042664,2.8256,-0.686,-7.2668,8.8912,5.1689,-1.723,-0.32631,6.8919,-2.7134e-13,-0.16316,0,0,0.25,-0,-0,0.66667
0.57792,0.82615,2.3117,0.48922,6.787,15.701,-3.0158,1.0053,-1.1493,-4.0211,-1.3085e-12,-0.57464,0,0,0.25,-0,-5.6473e-17,0.66667
0.75469,0.004817,3.0188,-0.74277,-6.8125,6.8455,5.9793,-1.9931,-0.038372,7.9725,-1.4834e-11,-0.019186,0,0,0.25,-0,-0,0.66667
0.95016,0.2406,3.8006,-0.3891,-0.64095,0.74664,3.9436,-1.3145,-1.4615,5.2581,9.8865e-09,-0.73073,0,0,0.25,-0,-0,0.66667
0.17702,0.42636,0.70809,-0.11047,-2.2197,46.608,0.20859,-0.06953,-1.9559,0.27812,3.774e-11,-0.97795,0,0,0.25,-0,-0,0.66667
0.78926,0.94083,3.157,0.66124,5.2332,5.3313,-5.5668,1.8556,-0.44543,-7.4224,5.1499e-11,-0.22272,0,0,0.25,-2.3685e-15,0,0.66667
0.33497,0.19395,1.3399,-0.45907,-8.5272,33.268,1.6403,-0.54675,-1.2503,2.187,1.4966e-13,-0.62514,0,0,0.25,-0,-0,0.66667
0.56378,0.40497,2.2551,-0.14254,-1.9942,16.369,0.85719,-0.28573,-1.9291,1.1429,6.9744e-13,-0.96455,0,0,0.25,3.7007e-16,0,0.66667
0.20689,0.20808,0.82756,-0.43789,-8.7734,44.051,0.96634,-0.32211,-1.3178,1.2885,2.4759e-10,-0.65888,0,0,0.25,2.9606e-16,0,0.66667
0.74097,0.045532,2.9639,-0.6817,-6.4892,7.3111,5.388,-1.796,-0.34671,7.1839,-3.133e-12,-0.17336,0,0,0.25,-0,-0,0.66667
0.98,0.51363,3.92,0.020449,0.0053515,0.14795,-0.21377,0.071255,-1.9978,-0.28502,4.3086e-08,-0.99889,0,0,0.25,-0,-0,0.66667
0.83333,0.19865,3.3333,-0.45203,-2.7787,3.4859,4.018,-1.3393,-1.2728,5.3574,-4.7907e-10,-0.63638,0,0,0.25,-0,-0,0.66667
0.62051,0.48939,2.482,-0.015914,-0.1995,12.885,0.10533,-0.03511,-1.9985,0.14044,-1.3538e-13,-0.99925,0,0,0.25,1.1842e-15,0,0.66667
0.49211,0.53688,1.9684,0.055317,0.86222,21.166,-0.29037,0.09679,-1.9888,-0.38716,7.5495e-14,-0.99441,0,0,0.25,1.1842e-15,0,0.66667
0.52358,0.46563,2.0943,-0.051553,-0.76837,18.995,0.28791,-0.095971,-1.9906,0.38389,-8.249e-14,-0.99532,0,0,0.25,1.4803e-16,0,0.66667
0.93153,0.69868,3.7261,0.29802,0.69437,0.92594,-2.9612,0.98706,-1.6834,-3.9483,2.2855e-09,-0.84171,0,0,0.25,-0,-0,0.66667
0.15835,0.40239,0.63339,-0.14642,-2.9632,48.265,0.24731,-0.082437,-1.9244,0.32975,4.7198e-10,-0.96222,0,0,0.25,-7.4015e-17,0,0.66667
0.59051,0.34256,2.362,-0.23616,-3.1573,14.735,1.4875,-0.49585,-1.8026,1.9834,1.5115e-12,-0.9013,0,0,0.25,-1.1842e-15,0,0.66667
0.63801,0.24598,2.552,-0.38104,-4.655,12.049,2.5931,-0.86437,-1.4843,3.4575,1.283e-12,-0.74214,0,0,0.25,-0,-0,0.66667
0.90792,0.27379,3.6317,-0.33932,-1.1142,1.4088,3.2861,-1.0954,-1.5909,4.3815,-2.848e-11,-0.79545,0,0,0.25,-1.1842e-15,0,0.66667
0.2694,0.3406,1.0776,-0.2391,-4.6053,38.624,0.68707,-0.22902,-1.7972,0.9161,4.4631e-11,-0.89858,0,0,0.25,4.4409e-16,0,0.66667
0.71075,0.50843,2.843,0.012651,0.12617,8.0904,-0.095914,0.031971,-1.9988,-0.12788,2.5041e-12,-0.99939,0,0,0.25,-0,-0,0.66667
0.35033,0.7624,1.4013,0.3936,7.1999,31.995,-1.4708,0.49027,-1.4483,-1.9611,4.9316e-13,-0.72414,0,0,0.25,-5.9212e-16,0,0.66667
0.36439,0.96919,1.4575,0.70378,12.971,31.094,-2.7354,0.91182,-0.23968,-3.6473,3.5283e-13,-0.11984,0,0,0.25,-0,-0,0.66667
0.081405,0.23915,0.32562,-0.39128,-8.1259,55.185,0.33976,-0.11325,-1.4552,0.45301,-2.8397e-09,-0.72762,0,0,0.25,-0,-0,0.66667
0.3283,0.55945,1.3132,0.08917,1.646,33.691,-0.31226,0.10409,-1.9731,-0.41635,-3.3915e-12,-0.98654,0,0,0.25,-0,-0,0.66667
0.32443,0.42529,1.2977,-0.11206,-2.0751,34.011,0.3878,-0.12927,-1.9548,0.51706,3.8643e-12,-0.9774,0,0,0.25,-0,-0,0.66667
0.029581,0.22891,0.11832,-0.40663,-8.4997,59.873,0.1283,-0.042768,-1.4121,0.17107,-5.5909e-09,-0.70605,0,0,0.25,-0,-0,0.66667
0.54957,0.33671,2.1983,-0.24494,-3.5196,17.325,1.4359,-0.47862,-1.7868,1.9145,8.501e-13,-0.89338,0,0,0.25,-0,-0,0.66667
0.70674,0.3877,2.827,-0.16844,-1.7053,8.3187,1.2698,-0.42328,-1.8985,1.6931,-1.8243e-11,-0.94927,0,0,0.25,1.1842e-15,0,0.66667
0.4985,0.88039,1.994,0.57059,9.0074,21.004,-3.034,1.0113,-0.843,-4.0453,-3.1619e-13,-0.4215,0,0,0.25,1.1842e-15,-3.7178e-16,0.66667
0.5273,0.29545,2.1092,-0.30682,-4.5765,18.83,1.7257,-0.57525,-1.6646,2.301,4.6074e-13,-0.83231,0,0,0.25,1.1842e-15,0,0.66667
0.10581,0.53832,0.42326,0.057485,1.1793,52.961,-0.064883,0.021628,-1.9881,-0.08651,2.5161e-08,-0.99407,0,0,0.25,-0,-0,0.66667
0.68474,0.87934,2.739,0.56901,6.3064,9.7703,-4.156,1.3853,-0.84923,-5.5414,6.2528e-13,-0.42462,0,0,0.25,-0,5.7135e-18,0.66667
0.47114,0.11289,1.8846,-0.58066,-9.502,22.939,2.9181,-0.97271,-0.80089,3.8908,-1.7053e-13,-0.40045,0,0,0.25,-5.9212e-16,0,0.66667
0.22927,0.8793,0.91708,0.56895,11.359,42.167,-1.3914,0.4638,-0.84909,-1.8552,-4.3585e-11,-0.42454,0,0,0.25,-5.9212e-16,0,0.66667
0.85572,0.85186,3.4229,0.52778,2.8592,2.9322,-4.8175,1.6058,-1.0093,-6.4233,1.6749e-09,-0.50467,0,0,0.25,-0,-0,0.66667
0.56519,0.76802,2.2608,0.40204,5.6699,16.421,-2.4238,0.80792,-1.4249,-3.2317,-1.4546e-12,-0.71245,0,0,0.25,-0,-0,0.66667
0.99916,0.89649,3.9967,0.59473,-0.10753,0.63308,-6.3384,2.1128,-0.74267,-8.4513,-2.4073e-07,-0.37134,0,0,0.25,-0,-0,0.66667
0.077097,0.31797,0.30839,-0.27304,-5.6521,55.563,0.22454,-0.074847,-1.7356,0.29939,3.1379e-09,-0.86781,0,0,0.25,-0,-0,0.66667
0.515,0.17398,2.06,-0.48903,-7.5017,19.795,2.6864,-0.89548,-1.1498,3.5819,4.7296e-14,-0.5749,0,0,0.25,-0,5.5436e-17,0.66667
0.30396,0.20562,1.2158,-0.44158,-8.3817,35.8,1.4317,-0.47722,-1.3058,1.9089,8.6718e-12,-0.65288,0,0,0.25,-5.9212e-16,0,0.66667
0.86161,0.78636,3.4464,0.42953,2.1924,2.6257,-3.9476,1.3159,-1.3444,-5.2635,1.8623e-09,-0.67222,0,0,0.25,-0,-0,0.66667
0.16178,0.44413,0.6471,-0.083803,-1.6927,47.956,0.14461,-0.048203,-1.9747,0.19281,2.0132e-10,-0.98735,0,0,0.25,5.9212e-16,0,0.66667
0.0013843,0.43984,0.0055371,-0.090236,-1.8732,62.43,0.0013316,-0.00044718,-1.9722,0.0017738,-4.976e-06,-0.98608,0,0,0.25,-0,-0,0.66667
0.44299,0.16485,1.7719,-0.50272,-8.4586,24.915,2.3755,-0.79182,-1.1009,3.1673,-1.1586e-12,-0.55043,0,0,0.25,1.1842e-15,0,0.66667
0.67716,0.99973,2.7086,0.7496,8.6582,10.443,-5.4144,1.8048,-0.0029174,-7.2192,-2.367e-13,-0.0014587,0,0,0.25,2.1834e-15,0,0.66667
0.96791,0.35873,3.8716,-0.2119,-0.17175,0.34606,2.1877,-0.72925,-1.8404,2.917,-2.4458e-08,-0.92019,0,0,0.25,-0,-0,0.66667
0.62011,0.12849,2.4804,-0.55726,-7.1711,13.251,3.686,-1.2287,-0.89607,4.9147,1.1475e-12,-0.44804,0,0,0.25,2.3685e-15,0,0.66667
0.19035,0.92635,0.76142,0.63953,13.047,45.568,-1.2985,0.43284,-0.54544,-1.7314,-9.0216e-11,-0.27272,0,0,0.25,-0,-0,0.66667
0.36217,0.29186,1.4487,-0.31221,-5.6363,31.012,1.2061,-0.40204,-1.6531,1.6082,-8.4022e-13,-0.82656,0,0,0.25,-0,-0,0.66667
0.78006,0.16497,3.1202,-0.50254,-4.0358,5.4219,4.1815,-1.3938,-1.1023,5.5753,-1.2434e-10,-0.55116,0,0,0.25,-0,-0,0.66667
0.32974,0.15921,1.319,-0.51119,-9.5599,33.722,1.798,-0.59933,-1.0718,2.3973,-4.9005e-13,-0.53591,0,0,0.25,1.1842e-15,0,0.66667
0.16424,0.31847,0.65697,-0.27229,-5.5143,47.757,0.47704,-0.15901,-1.736,0.63605,4.7771e-10,-0.86801,0,0,0.25,-0,-0,0.66667
0.28507,0.99317,1.1403,0.73975,14.487,37.55,-2.2494,0.7498,-0.054176,-2.9992,5.4912e-13,-0.027088,0,0,0.25,-0,-0,0.66667
0.04034,0.82931,0.16136,0.49397,10.358,58.904,-0.21256,0.070852,-1.1315,-0.28341,-8.3818e-09,-0.56573,0,0,0.25,-0,-0,0.66667
0.75512,0.97231,3.0205,0.70847,6.4514,6.7609,-5.7064,1.9021,-0.21554,-7.6086,-3.8991e-12,-0.10777,0,0,0.25,2.3685e-15,0,0.66667
0.28529,0.94636,1.1411,0.66953,13.042,37.482,-2.0374,0.67914,-0.40575,-2.7166,-8.0203e-13,-0.20288,0,0,0.25,-0,-0,0.66667
0.7645,0.31156,3.058,-0.28265,-2.3643,5.8043,2.3049,-0.76831,-1.7174,3.0733,-1.2123e-10,-0.8587,0,0,0.25,-1.1842e-15,0,0.66667
0.84257,0.63037,3.3703,0.19556,1.1039,2.9533,-1.7576,0.58586,-1.8647,-2.3434,-8.2426e-11,-0.93235,0,0,0.25,-2.3685e-15,0,0.66667
0.45502,0.68833,1.8201,0.28249,4.6373,23.893,-1.3711,0.45702,-1.7175,-1.8281,9.6623e-13,-0.85877,0,0,0.25,1.1842e-15,0,0.66667
0.85839,0.65863,3.4336,0.23794,1.211,2.5193,-2.1786,0.72621,-1.7999,-2.9048,-4.1663e-10,-0.89996,0,0,0.25,-0,-0,0.66667
0.99143,0.94876,3.9657,0.67314,0.1687,0.85344,-7.1186,2.3729,-0.38807,-9.4915,2.1103e-06,-0.19404,0,0,0.25,-0,-0,0.66667
0.94175,0.82043,3.767,0.48064,0.99449,1.0007,-4.8282,1.6094,-1.1783,-6.4376,-2.546e-09,-0.58915,0,0,0.25,-0,-0,0.66667
0.97927,0.49542,3.9171,-0.0068697,-0.0020003,0.15394,0.071759,-0.023919,-1.9998,0.095679,6.3437e-07,-0.99992,0,0,0.25,-3.5527e-15,0,0.66667
0.95065,0.89175,3.8026,0.58762,1.0743,1.0676,-5.9587,1.9862,-0.77188,-7.9449,-5.2449e-08,-0.38594,0,0,0.25,1.1842e-15,0,0.66667
0.96389,0.84945,3.8555,0.52417,0.63666,0.78541,-5.3893,1.7964,-1.023,-7.1857,-4.0327e-08,-0.51148,0,0,0.25,-0,-0,0.66667
0.69794,0.65299,2.7917,0.22948,2.3895,8.7791,-1.7084,0.56947,-1.813,-2.2779,1.5754e-11,-0.90649,0,0,0.25,1.1842e-15,0,0.66667
0.15618,0.43843,0.62474,-0.092353,-1.8691,48.454,0.15386,-0.051286,-1.9715,0.20514,-1.3191e-09,-0.98573,0,0,0.25,-0,-0,0.66667
0.64676,0.28654,2.587,-0.32019,-3.8207,11.514,2.2089,-0.7363,-1.6353,2.9452,1.652e-13,-0.81764,0,0,0.25,-2.3685e-15,0,0.66667
0.99073,0.98547,3.9629,0.7282,0.26247,0.99383,-7.6954,2.5651,-0.11364,-10.261,-6.678e-07,-0.056822,0,0,0.25,-1.1842e-15,0,0.66667
0.24429,0.35672,0.97716,-0.21492,-4.1962,40.76,0.56002,-0.18667,-1.8349,0.74669,8.0694e-11,-0.91746,0,0,0.25,-0,-0,0.66667
0.68176,0.52694,2.7271,0.040405,0.43783,9.5307,-0.29383,0.097944,-1.9942,-0.39177,1.7717e-12,-0.99709,0,0,0.25,1.1842e-15,0,0.66667
0.12926,0.94433,0.51705,0.66649,13.899,50.956,-0.91895,0.30632,-0.42039,-1.2253,-1.3321e-09,-0.2102,0,0,0.25,-0,-0,0.66667
0.99818,0.4018,3.9927,-0.1473,0.07121,0.049079,1.5683,-0.52278,-1.9235,2.0911,-1.089e-06,-0.96175,0,0,0.25,1.7764e-15,0,0.66667
0.41986,0.3835,1.6794,-0.17476,-2.9745,26.477,0.78265,-0.26088,-1.8915,1.0435,-1.307e-12,-0.94574,0,0,0.25,-0,-0,0.66667
0.35068,0.69955,1.4027,0.29933,5.4535,31.926,-1.1197,0.37322,-1.6805,-1.4929,-5.7032e-13,-0.84027,0,0,0.25,-5.9212e-16,0,0.66667
0.20659,0.19178,0.82636,-0.46233,-9.2749,44.085,1.0188,-0.3396,-1.2403,1.3584,2.2902e-10,-0.62015,0,0,0.25,-5.9212e-16,0,0.66667
0.85016,0.0082616,3.4006,-0.73761,-4.3483,3.4917,6.6889,-2.2296,-0.064964,8.9185,-3.1309e-09,-0.032482,0,0,0.25,-0,-0,0.66667
0.6124,0.82578,2.4496,0.48866,6.3511,13.62,-3.1921,1.064,-1.1505,-4.2561,-1.9049e-12,-0.57524,0,0,0.25,-0,-0,0.66667
0.57534,0.67458,2.3013,0.26187,3.6032,15.687,-1.6071,0.53569,-1.7558,-2.1428,-1.6722e-12,-0.87788,0,0,0.25,-0,-0,0.66667
0.24805,0.19061,0.99219,-0.46409,-9.1244,40.512,1.2279,-0.4093,-1.235,1.6372,6.8095e-11,-0.61751,0,0,0.25,5.9212e-16,0,0.66667
0.13351,0.054195,0.53403,-0.66871,-13.932,50.58,0.95229,-0.31743,-0.40944,1.2697,-2.8498e-09,-0.20472,0,0,0.25,-0,-0,0.66667
0.064967,0.69842,0.25987,0.29763,6.1763,56.662,-0.20625,0.068749,-1.6848,-0.275,4.9445e-10,-0.8424,0,0,0.25,-1.4803e-16,0,0.66667
0.60725,0.31245,2.429,-0.28132,-3.6474,13.751,1.8222,-0.60741,-1.72,2.4296,1.8252e-12,-0.86,0,0,0.25,-1.6718e-15,0,0.66667
0.72959,0.57936,2.9184,0.11904,1.12,7.2278,-0.92642,0.30881,-1.9488,-1.2352,2.6431e-11,-0.97441,0,0,0.25,-0,-0,0.66667
0.4249,0.43766,1.6996,-0.093517,-1.5811,26.078,0.42384,-0.14128,-1.9701,0.56512,-6.5162e-13,-0.98503,0,0,0.25,-0,-0,0.66667
0.099,0.91922,0.396,0.62883,13.175,53.644,-0.66405,0.22135,-0.59321,-0.88539,1.6165e-09,-0.2966,0,0,0.25,-0,-0,0.66667
0.089276,0.6007,0.3571,0.15104,3.112,54.455,-0.14383,0.047945,-1.9186,-0.19178,-3.3311e-08,-0.95932,0,0,0.25,-0,-0,0.66667
0.52952,0.48026,2.1181,-0.029606,-0.43726,18.593,0.16722,-0.05574,-1.9968,0.22296,1.5318e-13,-0.99839,0,0,0.25,-0,-0,0.66667
0.33597,0.25846,1.3439,-0.36231,-6.6947,33.139,1.2984,-0.4328,-1.5326,1.7312,1.8809e-12,-0.76632,0,0,0.25,-0,-0,0.66667
0.6614,0.58679,2.6456,0.13019,1.4888,10.618,-0.91849,0.30616,-1.9394,-1.2247,2.3322e-12,-0.9697,0,0,0.25,-0,-0,0.66667
0.9539,0.7147,3.8156,0.32206,0.46569,0.61573,-3.2769,1.0923,-1.6322,-4.3692,-5.6821e-09,-0.81611,0,0,0.25,-1.7764e-15,0,0.66667
0.048989,0.1339,0.19596,-0.54915,-11.538,58.127,0.28696,-0.095652,-0.92779,0.38261,-1.0678e-09,-0.4639,0,0,0.25,1.4803e-16,0,0.66667
0.12125,0.59496,0.485,0.14244,2.914,51.577,-0.18423,0.061409,-1.9287,-0.24564,-1.0214e-08,-0.96433,0,0,0.25,-0,-0,0.66667
0.60823,0.069076,2.4329,-0.64639,-8.5912,14.059,4.1936,-1.3979,-0.51495,5.5915,4.9516e-13,-0.25748,0,0,0.25,-0,-1.9676e-16,0.66667
0.29619,0.84512,1.1848,0.51768,9.9167,36.482,-1.6355,0.54518,-1.0487,-2.1807,-7.2718e-12,-0.52433,0,0,0.25,1.1842e-15,3.2026e-16,0.66667
0.71874,0.77776,2.875,0.41664,4.1287,7.9331,-3.1942,1.0647,-1.3841,-4.259,2.5557e-11,-0.69206,0,0,0.25,1.7764e-15,0,0.66667
0.48481,0.8088,1.9393,0.4632,7.3918,21.864,-2.3953,0.79845,-1.2383,-3.1938,-1.3767e-13,-0.61915,0,0,0.25,7.4015e-16,0,0.66667
0.95416,0.90269,3.8166,0.60404,1.0305,1.0552,-6.1477,2.0492,-0.70371,-8.197,3.5643e-07,-0.35186,0,0,0.25,-0,-0,0.66667
0.35878,0.25036,1.4351,-0.37446,-6.7962,31.31,1.433,-0.47768,-1.5032,1.9107,-1.3129e-12,-0.75159,0,0,0.25,1.1842e-15,0,0.66667
0.72512,0.76654,2.9005,0.39981,3.8776,7.6205,-3.0924,1.0308,-1.4307,-4.1232,3.3866e-11,-0.71535,0,0,0.25,-0,-0,0.66667
0.59297,0.27261,2.3719,-0.34108,-4.5601,14.649,2.1573,-0.7191,-1.5868,2.8764,1.9074e-12,-0.79338,0,0,0.25,-0,-0,0.66667
0.70173,0.86943,2.8069,0.55415,5.8537,8.9103,-4.1479,1.3826,-0.90874,-5.5305,3.904e-12,-0.45437,0,0,0.25,-5.9212e-16,0,0.66667
0.28609,0.64282,1.1443,0.21423,4.0815,37.211,-0.65375,0.21792,-1.836,-0.87167,-2.605e-11,-0.91802,0,0,0.25,-2.9606e-16,0,0.66667
0.55036,0.0073181,2.2015,-0.73902,-10.978,17.749,4.3385,-1.4462,-0.057994,5.7846,1.3056e-13,-0.028997,0,0,0.25,-0,-0,0.66667
0.0072068,0.9965,0.028827,0.74475,15.881,61.907,-0.05728,0.019082,-0.027966,-0.076378,-1.62e-05,-0.013983,0,0,0.25,-9.2519e-18,0,0.66667
0.95089,0.73424,3.8036,0.35136,0.55819,0.68944,-3.5638,1.1879,-1.5607,-4.7517,-2.393e-09,-0.78035,0,0,0.25,-1.1842e-15,0,0.66667
0.43824,0.37122,1.7529,-0.19317,-3.2242,25.099,0.90295,-0.30098,-1.8684,1.2039,-1.1825e-12,-0.93419,0,0,0.25,1.4803e-16,0,0.66667
0.35615,0.7316,1.4246,0.34739,6.3119,31.508,-1.3197,0.4399,-1.5704,-1.7596,7.9736e-13,-0.7852,0,0,0.25,-0,-0,0.66667
0.10194,0.58169,0.40776,0.12254,2.5175,53.312,-0.13325,0.044415,-1.9457,-0.17766,-9.3521e-10,-0.97285,0,0,0.25,-0,-0,0.66667
0.23738,0.33081,0.94952,-0.25378,-4.9778,41.362,0.64258,-0.21419,-1.7705,0.85678,1.0666e-10,-0.88527,0,0,0.25,2.9606e-16,0,0.66667
0.29709,0.17858,1.1883,-0.48213,-9.2126,36.389,1.5278,-0.50928,-1.1741,2.0371,8.855e-12,-0.58703,0,0,0.25,-2.9606e-16,0,0.66667
0.47856,0.18239,1.9143,-0.47641,-7.67,22.317,2.4319,-0.81064,-1.1929,3.2426,-7.061e-13,-0.59643,0,0,0.25,5.9212e-16,0,0.66667
0.41502,0.63324,1.6601,0.19986,3.421,26.852,-0.88475,0.29492,-1.8574,-1.1797,1.2096e-12,-0.92869,0,0,0.25,-0,-0,0.66667
0.056184,0.26058,0.22474,-0.35913,-7.4759,57.461,0.21523,-0.071742,-1.5406,0.28697,-2.8886e-09,-0.77032,0,0,0.25,-1.4803e-16,0,0.66667
0.58894,0.62004,2.3557,0.18006,2.41,14.807,-1.1311,0.37704,-1.8847,-1.5082,-1.4667e-12,-0.94235,0,0,0.25,-0,-0,0.66667
0.067005,0.13597,0.26802,-0.54605,-11.447,56.502,0.39027,-0.13009,-0.93921,0.52036,-2.1797e-08,-0.46961,0,0,0.25,1.4803e-16,0,0.66667
0.27883,0.90532,1.1153,0.60798,11.84,37.982,-1.8082,0.60275,-0.68687,-2.411,-3.3815e-12,-0.34344,0,0,0.25,-9.0385e-17,0,0.66667
0.93135,0.66958,3.7254,0.25437,0.58819,0.88913,-2.5271,0.84235,-1.769,-3.3694,-1.1777e-08,-0.88451,0,0,0.25,2.3685e-15,0,0.66667
0.70165,0.30499,2.8066,-0.29252,-3.0234,8.6376,2.1893,-0.72976,-1.6961,2.919,-1.8684e-11,-0.84804,0,0,0.25,5.9212e-16,0,0.66667
0.68369,0.22207,2.7348,-0.41689,-4.5684,9.641,3.0403,-1.0134,-1.3824,4.0537,-5.7869e-12,-0.69122,0,0,0.25,2.3685e-15,0,0.66667
0.35623,0.23193,1.4249,-0.4021,-7.3225,31.527,1.5279,-0.5093,-1.4246,2.0372,-1.2365e-12,-0.71231,0,0,0.25,-0,-0,0.66667
0.59594,0.52362,2.3837,0.035423,0.4667,14.347,-0.22517,0.075057,-1.9957,-0.30023,-4.6856e-13,-0.99783,0,0,0.25,-0,-0,0.66667
0.82071,0.68626,3.2828,0.27939,1.8053,3.709,-2.4459,0.81529,-1.7229,-3.2611,2.7424e-10,-0.86145,0,0,0.25,-0,-0,0.66667
0.77901,0.60893,3.1161,0.16339,1.2796,5.1496,-1.3577,0.45257,-1.9047,-1.8103,1.0301e-10,-0.95237,0,0,0.25,-0,-0,0.66667
0.75092,0.77838,3.0037,0.41756,3.7169,6.499,-3.3446,1.1149,-1.3812,-4.4594,7.197e-11,-0.6906,0,0,0.25,1.1842e-15,0,0.66667
0.53154,0.056081,2.1262,-0.66588,-10.11,18.876,3.7754,-1.2585,-0.42428,5.0338,-8.0158e-14,-0.21214,0,0,0.25,2.9606e-16,0,0.66667
0.74519,0.8227,2.9808,0.48404,4.4272,6.8242,-3.8475,1.2825,-1.1663,-5.13,4.6809e-11,-0.58317,0,0,0.25,-0,-0,0.66667
0.21772,0.41978,0.87088,-0.12033,-2.3769,43.042,0.27944,-0.093146,-1.9485,0.37258,9.1649e-11,-0.97426,0,0,0.25,-2.9606e-16,0,0.66667
0.51855,0.57939,2.0742,0.11908,1.7896,19.347,-0.65865,0.21955,-1.9491,-0.87821,-4.1572e-13,-0.97455,0,0,0.25,-0,-0,0.66667
0.81265,0.86599,3.2506,0.54898,3.8287,4.3053,-4.7587,1.5862,-0.92898,-6.3449,3.6245e-10,-0.46449,0,0,0.25,5.9212e-16,0,0.66667
0.27694,0.25652,1.1078,-0.36522,-7.0312,38.024,1.0789,-0.35962,-1.5256,1.4385,3.5154e-11,-0.7628,0,0,0.25,-0,-0,0.66667
0.50368,0.54304,2.0147,0.064559,0.99048,20.359,-0.34684,0.11561,-1.9846,-0.46246,-1.1208e-13,-0.99232,0,0,0.25,-0,-0,0.66667
0.65239,0.09754,2.6096,-0.60369,-7.2734,11.509,4.201,-1.4003,-0.70452,5.6013,9.6456e-13,-0.35226,0,0,0.25,-0,-0,0.66667
0.08124,0.28293,0.32496,-0.32561,-6.7463,55.193,0.28216,-0.094052,-1.6239,0.37621,-2.1324e-09,-0.81193,0,0,0.25,-0,-0,0.66667
0.14553,0.27324,0.5821,-0.34014,-6.945,49.43,0.52798,-0.17599,-1.5882,0.70398,8.3895e-10,-0.79412,0,0,0.25,1.4803e-16,0,0.66667
0.59348,0.93421,2.3739,0.65132,8.9074,14.942,-4.1231,1.3744,-0.49296,-5.4975,-5.5556e-13,-0.24648,0,0,0.25,5.9212e-16,-1.1152e-16,0.66667
0.41393,0.024229,1.6557,-0.71366,-12.577,27.28,3.1509,-1.0503,-0.18865,4.2013,1.6076e-13,-0.094325,0,0,0.25,-0,-0,0.66667
0.13115,0.39261,0.52458,-0.16109,-3.2878,50.692,0.22534,-0.075114,-1.9068,0.30046,-1.2128e-09,-0.95341,0,0,0.25,-1.4803e-16,0,0.66667
0.80877,0.86814,3.2351,0.55221,3.9272,4.4436,-4.7638,1.5879,-0.91568,-6.3518,2.3722e-10,-0.45784,0,0,0.25,1.1842e-15,0,0.66667
0.71564,0.28785,2.8626,-0.31823,-3.1598,7.9864,2.4292,-0.80973,-1.64,3.2389,-2.9654e-11,-0.81998,0,0,0.25,-0,-0,0.66667
0.97583,0.28545,3.9033,-0.32183,-0.17471,0.36608,3.3498,-1.1166,-1.6317,4.4665,-2.7943e-09,-0.81583,0,0,0.25,-0,-0,0.66667
0.040034,0.77323,0.16013,0.40984,8.5615,58.926,-0.17501,0.058337,-1.4022,-0.23335,2.4083e-09,-0.7011,0,0,0.25,-0,-0,0.66667
0.80309,0.78713,3.2124,0.43069,3.0938,4.4721,-3.6895,1.2298,-1.3402,-4.9193,3.4154e-10,-0.67008,0,0,0.25,-0,-0,0.66667
0.49155,0.76403,1.9662,0.39604,6.2408,21.34,-2.0765,0.69218,-1.4413,-2.7687,2.9532e-14,-0.72067,0,0,0.25,-0,-0,0.66667
0.19478,0.51431,0.77911,0.02147,0.42813,45.041,-0.044606,0.014869,-1.9974,-0.059474,-8.6659e-11,-0.99869,0,0,0.25,-0,-0,0.66667
0.14213,0.99615,0.56853,0.74423,15.549,49.843,-1.1283,0.3761,-0.031492,-1.5044,2.0296e-09,-0.015746,0,0,0.25,7.4015e-17,0,0.66667
0.19893,0.33177,0.79573,-0.25234,-5.0397,44.699,0.53546,-0.17849,-1.773,0.71394,2.002e-10,-0.88648,0,0,0.25,2.9606e-16,0,0.66667
0.0073553,0.33649,0.029421,-0.24526,-5.1042,61.887,0.019242,-0.0064141,-1.7856,0.025656,2.3389e-08,-0.89281,0,0,0.25,-4.6259e-18,0,0.66667
0.12102,0.53567,0.48409,0.053511,1.0938,51.594,-0.069077,0.023026,-1.99,-0.092103,-1.2945e-08,-0.995,0,0,0.25,-0,-0,0.66667
0.69054,0.31819,2.7622,-0.27271,-2.9056,9.174,2.0087,-0.66958,-1.7357,2.6783,-1.224e-11,-0.86787,0,0,0.25,-0,-0,0.66667
0.2922,0.89439,1.1688,0.59159,11.413,36.857,-1.8438,0.61462,-0.75494,-2.4585,-3.3747e-12,-0.37747,0,0,0.25,2.9606e-16,0,0.66667
0.49257,0.89587,1.9703,0.5938,9.4649,21.44,-3.1199,1.04,-0.74552,-4.1598,-1.2657e-14,-0.37276,0,0,0.25,-0,-0,0.66667
0.88095,0.81143,3.5238,0.46714,2.0649,2.1779,-4.3896,1.4632,-1.2247,-5.8528,6.0629e-09,-0.61233,0,0,0.25,-1.7764e-15,0,0.66667
0.5238,0.641,2.0952,0.2115,3.1605,19.019,-1.1817,0.39389,-1.84,-1.5756,-5.1648e-13,-0.91998,0,0,0.25,-0,-0,0.66667
0.70601,0.66852,2.8241,0.25279,2.574,8.3986,-1.9037,0.63456,-1.7724,-2.5382,2.1341e-11,-0.8862,0,0,0.25,-0,-0,0.66667
0.15105,0.79881,0.60421,0.44821,9.1757,48.962,-0.72218,0.24073,-1.2849,-0.9629,-1.3944e-09,-0.64244,0,0,0.25,-0,-0,0.66667
0.43644,0.12165,1.7458,-0.56753,-9.6596,25.454,2.642,-0.88068,-0.85582,3.5227,-8.2956e-13,-0.42791,0,0,0.25,1.4803e-16,1.1339e-16,0.66667
0.89086,0.94844,3.5635,0.67266,2.8845,2.3145,-6.3919,2.1306,-0.3916,-8.5226,-1.5173e-08,-0.1958,0,0,0.25,-0,-0,0.66667
0.15977,0.19566,0.63908,-0.45651,-9.3226,48.192,0.77799,-0.25933,-1.2588,1.0373,7.7521e-10,-0.6294,0,0,0.25,-0,-0,0.66667
0.11866,0.40741,0.47462,-0.13889,-2.843,51.809,0.17578,-0.058595,-1.9319,0.23438,9.4336e-09,-0.96596,0,0,0.25,-0,-0,0.66667
0.82221,0.86054,3.2888,0.54081,3.5863,3.9726,-4.743,1.581,-0.95918,-6.324,4.849e-10,-0.47959,0,0,0.25,1.1842e-15,0,0.66667
0.058073,0.36444,0.23229,-0.20334,-4.2133,57.281,0.12596,-0.041985,-1.8524,0.16794,-4.6772e-08,-0.92621,0,0,0.25,7.4015e-17,0,0.66667
0.23225,0.68184,0.92898,0.27276,5.3669,41.808,-0.6757,0.22523,-1.7359,-0.90093,-1.3012e-10,-0.86793,0,0,0.25,-2.9606e-16,0,0.66667
0.59496,0.98912,2.3798,0.73367,10.093,14.974,-4.656,1.552,-0.086216,-6.208,-4.4409e-15,-0.043108,0,0,0.25,-0,-0,0.66667
0.71146,0.41434,2.8458,-0.12848,-1.2808,8.0771,0.97506,-0.32502,-1.9407,1.3001,-1.7012e-11,-0.97035,0,0,0.25,-0,-0,0.66667
0.43296,0.072959,1.7318,-0.64056,-11.003,25.781,2.9582,-0.98608,-0.5405,3.9443,-2.4425e-13,-0.27025,0,0,0.25,-0,-0,0.66667
0.47992,0.005084,1.9197,-0.74237,-12.181,22.497,3.8003,-1.2668,-0.04048,5.0671,-1.8874e-14,-0.02024,0,0,0.25,-0,-1.6915e-16,0.66667
0.086929,0.78992,0.34772,0.43489,9.0391,54.693,-0.40325,0.13442,-1.3269,-0.53766,-8.6768e-10,-0.66345,0,0,0.25,-0,-0,0.66667
0.61004,0.94796,2.4401,0.67194,8.9228,13.989,-4.3724,1.4575,-0.39493,-5.8298,-4.3698e-13,-0.19746,0,0,0.25,-0,-0,0.66667
0.28032,0.88183,1.1213,0.57274,11.119,37.836,-1.7125,0.57085,-0.83421,-2.2834,-8.0803e-12,-0.4171,0,0,0.25,-5.9212e-16,2.0222e-16,0.66667
0.91892,0.34558,3.6757,-0.23163,-0.64663,1.093,2.2704,-0.7568,-1.8101,3.0272,3.1168e-09,-0.90503,0,0,0.25,-0,-0,0.66667
0.23822,0.098807,0.95287,-0.60179,-11.985,41.416,1.5291,-0.50971,-0.71247,2.0389,2.7903e-11,-0.35623,0,0,0.25,5.9212e-16,0,0.66667
0.75065,0.098175,3.0026,-0.60274,-5.4884,6.7623,4.8261,-1.6087,-0.70926,6.4348,-1.5363e-11,-0.35463,0,0,0.25,-2.3685e-15,0,0.66667
0.70514,0.74125,2.8206,0.36188,3.7194,8.5247,-2.7219,0.90729,-1.5344,-3.6291,1.8736e-11,-0.76722,0,0,0.25,-0,-0,0.66667
0.12278,0.10137,0.49113,-0.59794,-12.437,51.513,0.78311,-0.26104,-0.72888,1.0441,-6.6952e-09,-0.36444,0,0,0.25,-0,-0,0.66667
0.20873,0.73491,0.83491,0.35236,7.0294,43.866,-0.78451,0.2615,-1.5576,-1.046,-2.4666e-10,-0.77882,0,0,0.25,-0,-0,0.66667
0.19717,0.33817,0.78868,-0.24274,-4.8504,44.852,0.51053,-0.17018,-1.7903,0.6807,1.6856e-10,-0.89513,0,0,0.25,-0,-0,0.66667
0.78433,0.68777,3.1373,0.28165,2.1711,5.0165,-2.3563,0.78544,-1.7191,-3.1418,1.6323e-10,-0.85954,0,0,0.25,2.3685e-15,0,0.66667
0.55115,0.047646,2.2046,-0.67853,-10.006,17.614,3.989,-1.3297,-0.36227,5.3187,2.9354e-13,-0.18114,0,0,0.25,-1.1842e-15,0,0.66667
0.50799,0.84727,2.0319,0.5209,8.0877,20.303,-2.8225,0.94083,-1.0353,-3.7633,-2.105e-13,-0.51764,0,0,0.25,-0,-0,0.66667
0.74258,0.32315,2.9703,-0.26527,-2.4032,6.7212,2.1011,-0.70038,-1.749,2.8015,-6.4927e-11,-0.87449,0,0,0.25,1.1842e-15,0,0.66667
0.87749,0.77433,3.51,0.41149,1.8514,2.1869,-3.8515,1.2838,-1.3981,-5.1353,4.2494e-10,-0.69904,0,0,0.25,5.9212e-16,0,0.66667
0.070046,0.20967,0.28018,-0.4355,-9.0766,56.215,0.32538,-0.10846,-1.325,0.43384,-4.3641e-09,-0.66248,0,0,0.25,-7.4015e-17,0,0.66667
0.37632,0.79928,1.5053,0.44891,8.0525,29.961,-1.802,0.60066,-1.2834,-2.4027,2.0014e-12,-0.6417,0,0,0.25,5.9212e-16,0,0.66667
0.34177,0.35177,1.3671,-0.22235,-4.071,32.62,0.81058,-0.27019,-1.8244,1.0808,2.1911e-12,-0.91218,0,0,0.25,-0,-0,0.66667
0.84428,0.24471,3.3771,-0.38294,-2.181,3.0643,3.4486,-1.1495,-1.4795,4.5981,-8.6287e-10,-0.73974,0,0,0.25,1.1842e-15,0,0.66667
0.76885,0.67753,3.0754,0.2663,2.187,5.6148,-2.1839,0.72798,-1.7475,-2.9119,1.2818e-10,-0.87376,0,0,0.25,-5.9212e-16,0,0.66667
0.5325,0.78639,2.13,0.42958,6.3974,18.568,-2.44,0.81334,-1.3445,-3.2534,-9.2326e-13,-0.67227,0,0,0.25,1.1842e-15,0,0.66667
0.089548,0.037124,0.35819,-0.69431,-14.635,54.504,0.66319,-0.22106,-0.28591,0.88426,-1.1056e-07,-0.14295,0,0,0.25,-0,-0,0.66667
0.92511,0.70405,3.7004,0.30607,0.79258,1.0451,-3.0202,1.0067,-1.6664,-4.027,-5.8009e-10,-0.83318,0,0,0.25,-0,-0,0.66667
0.55794,0.054578,2.2318,-0.66813,-9.7359,17.166,3.9763,-1.3254,-0.41243,5.3018,6.2395e-14,-0.20622,0,0,0.25,5.9212e-16,-1.9026e-17,0.66667
0.023909,0.61852,0.095638,0.17778,3.6926,60.382,-0.04534,0.015113,-1.8872,-0.060453,3.5368e-09,-0.94361,0,0,0.25,3.2661e-17,0,0.66667
0.64606,0.72693,2.5843,0.34039,4.073,11.567,-2.3458,0.78192,-1.5875,-3.1277,-2.9687e-13,-0.79377,0,0,0.25,-0,-0,0.66667
0.27371,0.95235,1.0948,0.67852,13.319,38.455,-1.981,0.66033,-0.36206,-2.6413,-1.2503e-12,-0.18103,0,0,0.25,-0,-0,0.66667
0.45368,0.64093,1.8147,0.21139,3.468,23.963,-1.023,0.34099,-1.8412,-1.364,8.6453e-13,-0.92062,0,0,0.25,-0,-0,0.66667
0.89562,0.55546,3.5825,0.083191,0.30324,1.4999,-0.79474,0.26491,-1.9751,-1.0597,1.6218e-08,-0.98754,0,0,0.25,-0,-0,0.66667
0.20404,0.24962,0.81617,-0.37557,-7.5145,44.28,0.81742,-0.27247,-1.5001,1.0899,2.6432e-10,-0.75006,0,0,0.25,-1.3878e-16,0,0.66667
0.11364,0.12572,0.45455,-0.56142,-11.678,52.32,0.68052,-0.22684,-0.88014,0.90736,5.6669e-09,-0.44007,0,0,0.25,-2.9606e-16,0,0.66667
0.61817,0.82868,2.4727,0.49303,6.3354,13.289,-3.2509,1.0836,-1.1347,-4.3346,-1.7777e-12,-0.56737,0,0,0.25,-1.1842e-15,0,0.66667
0.67549,0.37953,2.7019,-0.1807,-1.9967,9.8924,1.302,-0.434,-1.8841,1.736,-5.9639e-12,-0.94207,0,0,0.25,-0,-0,0.66667
0.98885,0.48398,3.9554,-0.024031,0.002636,0.074754,0.25347,-0.084496,-1.9972,0.33796,-6.9954e-06,-0.99859,0,0,0.25,-0,-0,0.66667
0.32157,0.57126,1.2863,0.10689,1.9834,34.245,-0.36663,0.12221,-1.9587,-0.48884,-4.6125e-12,-0.97937,0,0,0.25,-0,-0,0.66667
0.90723,0.6197,3.6289,0.17955,0.57904,1.2895,-1.7375,0.57918,-1.8861,-2.3167,-1.5868e-08,-0.94306,0,0,0.25,-0,-0,0.66667
0.59047,0.84133,2.3619,0.512,6.955,14.954,-3.2248,1.0749,-1.0686,-4.2997,-1.4562e-12,-0.53429,0,0,0.25,2.9606e-16,0,0.66667
0.076837,0.81593,0.30735,0.47389,9.884,55.607,-0.3884,0.12947,-1.2025,-0.51787,1.0601e-08,-0.60123,0,0,0.25,-0,-0,0.66667
0.93059,0.025954,3.7224,-0.71107,-1.9908,1.6314,7.0583,-2.3528,-0.20201,9.411,-1.8481e-07,-0.101,0,0,0.25,-0,-0,0.66667
0.54246,0.74558,2.1699,0.36837,5.383,17.863,-2.1315,0.7105,-1.5176,-2.842,-1.2153e-12,-0.75882,0,0,0.25,2.9606e-16,0,0.66667
0.47386,0.94375,1.8954,0.66563,10.929,22.834,-3.3644,1.1215,-0.42443,-4.4859,1.6209e-13,-0.21222,0,0,0.25,-1.1842e-15,0,0.66667
0.54448,0.051543,2.1779,-0.67268,-10.02,18.038,3.9068,-1.3023,-0.39087,5.209,1.7053e-13,-0.19543,0,0,0.25,-5.9212e-16,0,0.66667
0.52734,0.99163,2.1094,0.73745,11.343,19.249,-4.1481,1.3827,-0.066054,-5.5308,1.3944e-13,-0.033027,0,0,0.25,-5.9212e-16,-2.3215e-16,0.66667
0.66148,0.11325,2.6459,-0.58013,-6.825,10.99,4.0933,-1.3644,-0.80262,5.4577,9.0417e-13,-0.40131,0,0,0.25,-0,-0,0.66667
0.64445,0.93366,2.5778,0.65049,8.0198,12.009,-4.4716,1.4905,-0.49581,-5.9621,-8.0957e-13,-0.24791,0,0,0.25,2.9606e-16,0,0.66667
0.17293,0.29964,0.69173,-0.30054,-6.0726,46.994,0.55438,-0.18479,-1.6789,0.73917,4.1228e-10,-0.83944,0,0,0.25,2.9606e-16,0,0.66667
0.50754,0.067573,2.0301,-0.64864,-10.178,20.468,3.5116,-1.1705,-0.50384,4.6821,9.7256e-14,-0.25192,0,0,0.25,-1.1842e-15,0,0.66667
0.17819,0.88408,0.71275,0.57612,11.763,46.607,-1.095,0.36501,-0.81918,-1.46,-3.6901e-10,-0.40959,0,0,0.25,-0,-0,0.66667
0.46566,0.75635,1.8627,0.38453,6.2591,23.175,-1.91,0.63666,-1.4743,-2.5467,8.9229e-13,-0.73717,0,0,0.25,-1.1842e-15,0,0.66667
0.095605,0.1393,0.38242,-0.54106,-11.286,53.93,0.55176,-0.18392,-0.9589,0.73568,3.6542e-09,-0.47945,0,0,0.25,-0,-0,0.66667
0.90893,0.29188,3.6357,-0.31218,-1.0072,1.3597,3.0267,-1.0089,-1.6532,4.0356,1.159e-09,-0.82661,0,0,0.25,-0,-0,0.66667
0.84302,0.68888,3.3721,0.28332,1.607,3.0028,-2.5477,0.84922,-1.7161,-3.3969,2.2223e-10,-0.85804,0,0,0.25,-2.3685e-15,0,0.66667
0.20466,0.17407,0.81864,-0.48889,-9.8288,44.262,1.0673,-0.35576,-1.15,1.423,2.0705e-10,-0.57502,0,0,0.25,2.9606e-16,0,0.66667
0.22201,0.42071,0.88803,-0.11894,-2.3446,42.67,0.28165,-0.093884,-1.9492,0.37554,8.0506e-11,-0.97458,0,0,0.25,2.9606e-16,0,0.66667
0.56481,0.059662,2.2592,-0.66051,-9.5093,16.721,3.9793,-1.3264,-0.4496,5.3057,-1.974e-13,-0.2248,0,0,0.25,1.3323e-15,0,0.66667
0.041276,0.55519,0.1651,0.082792,1.7155,58.802,-0.036451,0.01215,-1.9752,-0.048602,-1.9203e-07,-0.98761,0,0,0.25,-3.7007e-17,0,0.66667
0.97916,0.80337,3.9166,0.45505,0.23269,0.51536,-4.7527,1.5842,-1.2632,-6.3369,2.05e-08,-0.63159,0,0,0.25,-1.1842e-15,0,0.66667
0.34441,0.22292,1.3777,-0.41563,-7.647,32.482,1.5269,-0.50897,-1.3868,2.0359,-2.5546e-13,-0.6934,0,0,0.25,-0,-0,0.66667
0.29624,0.012106,1.185,-0.73184,-14.222,36.619,2.3126,-0.77086,-0.095857,3.0834,-9.1482e-14,-0.047929,0,0,0.25,-1.1842e-15,0,0.66667
0.92794,0.47992,3.7118,-0.030121,-0.071729,0.84222,0.29814,-0.099381,-1.996,0.39752,-4.8475e-08,-0.99799,0,0,0.25,-0,-0,0.66667
0.24446,0.30123,0.97783,-0.29816,-5.8341,40.764,0.77746,-0.25915,-1.6832,1.0366,9.1875e-11,-0.84158,0,0,0.25,2.9606e-16,0,0.66667
0.40519,0.92071,1.6207,0.63107,11.145,27.863,-2.7275,0.90916,-0.58398,-3.6366,6.0263e-13,-0.29199,0,0,0.25,5.9212e-16,0,0.66667
0.1838,0.8968,0.7352,0.59519,12.14,46.122,-1.1669,0.38897,-0.74005,-1.5559,-7.9212e-11,-0.37002,0,0,0.25,-1.4803e-16,0,0.66667
0.086017,0.79136,0.34407,0.43704,9.0862,54.775,-0.40099,0.13366,-1.3201,-0.53466,-1.8996e-09,-0.66004,0,0,0.25,-0,-0,0.66667
0.91325,0.62485,3.653,0.18727,0.56063,1.172,-1.8243,0.6081,-1.876,-2.4324,-2.7727e-08,-0.93799,0,0,0.25,1.6653e-15,0,0.66667
0.27731,0.32441,1.1092,-0.26338,-5.052,37.961,0.77907,-0.25969,-1.7528,1.0388,3.6669e-11,-0.87638,0,0,0.25,-5.9212e-16,0,0.66667
0.7783,0.62723,3.1132,0.19084,1.5009,5.1908,-1.5843,0.52811,-1.8713,-2.1124,1.167e-10,-0.93563,0,0,0.25,-2.3685e-15,0,0.66667
0.16216,0.50909,0.64862,0.013641,0.2754,47.921,-0.023595,0.0078649,-1.9987,-0.03146,-5.2161e-10,-0.99936,0,0,0.25,5.9212e-16,0,0.66667
0.66577,0.30113,2.6631,-0.2983,-3.3966,10.47,2.1184,-0.70613,-1.6828,2.8245,-3.4293e-12,-0.8414,0,0,0.25,-0,-0,0.66667
0.27436,0.80006,1.0974,0.45009,8.7111,38.275,-1.3172,0.43906,-1.2788,-1.7562,-2.8659e-11,-0.63941,0,0,0.25,-0,-0,0.66667
0.72525,0.54699,2.901,0.070492,0.67207,7.4148,-0.54533,0.18178,-1.9814,-0.72711,1.459e-11,-0.99068,0,0,0.25,1.1842e-15,0,0.66667
0.057234,0.30616,0.22894,-0.29077,-6.0385,57.361,0.17751,-0.059171,-1.6991,0.23668,-1.3063e-08,-0.84957,0,0,0.25,1.1102e-16,0,0.66667
0.66212,0.32105,2.6485,-0.26843,-3.0795,10.644,1.8958,-0.63194,-1.7432,2.5277,-2.9161e-12,-0.87162,0,0,0.25,-0,-0,0.66667
0.056097,0.61804,0.22439,0.17707,3.668,57.459,-0.10595,0.035317,-1.8881,-0.14127,2.4915e-08,-0.94404,0,0,0.25,-3.7007e-17,0,0.66667
0.65752,0.77573,2.6301,0.41359,4.8407,11.007,-2.9007,0.96691,-1.3924,-3.8676,9.6811e-14,-0.69621,0,0,0.25,-2.9606e-16,0,0.66667
0.34971,0.85953,1.3988,0.53929,9.9459,32.129,-2.0117,0.67056,-0.96499,-2.6823,1.2421e-12,-0.48249,0,0,0.25,5.9212e-16,0,0.66667
0.73581,0.79016,2.9433,0.43524,4.0895,7.1761,-3.416,1.1387,-1.3266,-4.5547,4.3848e-11,-0.66332,0,0,0.25,-0,-0,0.66667
0.41791,0.029688,1.6716,-0.70547,-12.374,26.972,3.1448,-1.0483,-0.23115,4.193,2.2027e-13,-0.11558,0,0,0.25,-0,-5.6223e-17,0.66667
0.55544,0.54425,2.2217,0.066382,0.94084,16.889,-0.39329,0.1311,-1.9834,-0.52439,-5.5655e-13,-0.99169,0,0,0.25,-0,-0,0.66667
0.18966,0.79106,0.75863,0.43659,8.8104,45.555,-0.88322,0.29441,-1.3222,-1.1776,-3.5634e-10,-0.6611,0,0,0.25,-0,-0,0.66667
0.27767,0.57146,1.1107,0.1072,2.0493,37.902,-0.3175,0.10583,-1.9588,-0.42334,-1.9259e-11,-0.97942,0,0,0.25,-5.9212e-16,0,0.66667
0.48609,0.32394,1.9444,-0.26408,-4.1677,21.649,1.3693,-0.45642,-1.7519,1.8257,-2.9632e-13,-0.87597,0,0,0.25,-1.1842e-15,0,0.66667
0.04653,0.67694,0.18612,0.26541,5.5145,58.33,-0.13173,0.04391,-1.7499,-0.17564,-5.1072e-09,-0.87495,0,0,0.25,-7.4015e-17,0,0.66667
0.84893,0.83095,3.3957,0.49643,2.7954,3.0773,-4.4953,1.4984,-1.123,-5.9938,4.8805e-10,-0.56148,0,0,0.25,-0,-0,0.66667
0.43861,0.11627,1.7545,-0.57559,-9.779,25.3,2.6929,-0.89765,-0.82231,3.5906,-7.1765e-13,-0.41115,0,0,0.25,-0,-0,0.66667
0.1903,0.8332,0.7612,0.4998,10.114,45.519,-1.0145,0.33818,-1.1115,-1.3527,-3.3532e-10,-0.55576,0,0,0.25,-0,-0,0.66667
0.1496,0.48883,0.59838,-0.016748,-0.33952,49.038,0.026724,-0.0089081,-1.9982,0.035632,-1.9258e-09,-0.99908,0,0,0.25,-1.4803e-16,0,0.66667
0.12624,0.20331,0.50495,-0.44503,-9.1745,51.17,0.59925,-0.19975,-1.2957,0.799,1.5038e-09,-0.64786,0,0,0.25,1.4803e-16,0,0.66667
0.48221,0.23428,1.9288,-0.39858,-6.359,22,2.0501,-0.68338,-1.4348,2.7335,-4.492e-13,-0.71741,0,0,0.25,-0,-0,0.66667
0.99442,0.70979,3.9777,0.31468,-0.076527,0.20934,-3.3379,1.1126,-1.6473,-4.4505,8.8881e-09,-0.82366,0,0,0.25,-0,-0,0.66667
0.83565,0.99353,3.3426,0.7403,4.7535,3.9242,-6.5987,2.1996,-0.051007,-8.7983,-1.2449e-09,-0.025503,0,0,0.25,-5.9212e-16,0,0.66667
0.87993,0.21715,3.5197,-0.42427,-1.8747,2.1429,3.9822,-1.3274,-1.3605,5.3096,-8.8371e-11,-0.68027,0,0,0.25,1.7764e-15,0,0.66667
0.51326,0.48015,2.0531,-0.029782,-0.45063,19.696,0.16305,-0.05435,-1.9966,0.2174,-1.8498e-13,-0.9983,0,0,0.25,1.1842e-15,0,0.66667
0.013105,0.87556,0.05242,0.56333,11.872,61.37,-0.078747,0.026249,-0.87285,-0.105,8.9746e-08,-0.43642,0,0,0.25,-0,-0,0.66667
0.78924,0.063982,3.157,-0.65403,-5.1701,5.3186,5.506,-1.8353,-0.4795,7.3413,-5.8576e-11,-0.23975,0,0,0.25,-0,-0,0.66667
0.91445,0.39321,3.6578,-0.16019,-0.47055,1.1333,1.5625,-0.52084,-1.9078,2.0834,-1.8121e-08,-0.9539,0,0,0.25,1.0132e-16,0,0.66667
0.063162,0.50324,0.25265,0.0048624,0.10048,56.815,-0.003276,0.0010924,-2.0011,-0.0043678,6.1404e-07,-1.0005,0,0,0.25,-0,-0,0.66667
0.17499,0.31232,0.69997,-0.28153,-5.6809,46.808,0.52549,-0.17516,-1.7193,0.70066,3.9548e-10,-0.85967,0,0,0.25,-3.3769e-16,0,0.66667
0.50956,0.72985,2.0382,0.34477,5.2868,20.057,-1.8739,0.62464,-1.5766,-2.4986,-1.4e-13,-0.78828,0,0,0.25,-1.1842e-15,0,0.66667
0.43088,0.94451,1.7235,0.66676,11.502,25.962,-3.0644,1.0215,-0.41885,-4.0859,2.5246e-13,-0.20943,0,0,0.25,-0,-0,0.66667
0.95888,0.52057,3.8355,0.030855,0.035061,0.37699,-0.31559,0.1052,-1.9959,-0.42079,4.2485e-07,-0.99794,0,0,0.25,-0,-0,0.66667
0.98461,0.16511,3.9384,-0.50233,-0.16573,0.54901,5.2758,-1.7586,-1.1033,7.0344,2.3794e-08,-0.55167,0,0,0.25,-0,-0,0.66667
0.15433,0.54281,0.61732,0.064213,1.3001,48.617,-0.10571,0.035236,-1.9852,-0.14094,-6.5389e-10,-0.9926,0,0,0.25,-0,-0,0.66667
0.3531,0.004495,1.4124,-0.74326,-13.871,32.022,2.7994,-0.93315,-0.035713,3.7326,-4.2988e-13,-0.017856,0,0,0.25,-0,-0,0.66667
0.57686,0.067872,2.3074,-0.64819,-9.1309,15.953,3.9884,-1.3295,-0.50677,5.3179,1.5543e-13,-0.25338,0,0,0.25,1.1842e-15,-1.6857e-16,0.66667
0.42223,0.36136,1.6889,-0.20796,-3.5335,26.306,0.93658,-0.31219,-1.8464,1.2488,-1.3767e-12,-0.92322,0,0,0.25,5.9212e-16,0,0.66667
0.5079,0.84339,2.0316,0.51509,7.9952,20.303,-2.7905,0.93018,-1.0573,-3.7207,-2.0761e-13,-0.52864,0,0,0.25,-1.1842e-15,0,0.66667
0.87702,0.051475,3.5081,-0.67279,-3.2365,2.6403,6.2938,-2.0979,-0.39046,8.3918,-8.8632e-09,-0.19523,0,0,0.25,1.1842e-15,0,0.66667
0.060464,0.9197,0.24186,0.62954,13.273,57.102,-0.40602,0.13534,-0.59059,-0.54136,-5.7038e-08,-0.29529,0,0,0.25,-1.4803e-16,0,0.66667
0.91535,0.011289,3.6614,-0.73307,-2.5164,1.9483,7.1575,-2.3858,-0.088455,9.5433,-6.7532e-08,-0.044227,0,0,0.25,-0,-0,0.66667
0.31256,0.86811,1.2502,0.55217,10.481,35.151,-1.8409,0.61364,-0.91675,-2.4546,-1.608e-12,-0.45837,0,0,0.25,2.9606e-16,0,0.66667
0.72914,0.59123,2.9165,0.13685,1.2902,7.2545,-1.0643,0.35478,-1.9338,-1.4191,2.988e-11,-0.96688,0,0,0.25,1.7764e-15,0,0.66667
0.27511,0.53398,1.1004,0.050977,0.97559,38.114,-0.14959,0.049864,-1.991,-0.19946,-1.1946e-11,-0.99549,0,0,0.25,-0,-0,0.66667
0.72986,0.26527,2.9195,-0.35209,-3.3499,7.358,2.7411,-0.9137,-1.5585,3.6548,-4.5074e-11,-0.77923,0,0,0.25,1.1842e-15,0,0.66667
0.78436,0.72778,3.1374,0.34168,2.6468,5.0678,-2.8586,0.95287,-1.5847,-3.8115,2.0581e-10,-0.79234,0,0,0.25,-0,-0,0.66667
0.56721,0.29885,2.2688,-0.30172,-4.2184,16.222,1.8255,-0.60849,-1.6755,2.434,1.4351e-12,-0.83777,0,0,0.25,-5.9212e-16,0,0.66667
0.11097,0.68494,0.44387,0.27741,5.7055,52.511,-0.32836,0.10945,-1.7274,-0.43781,-9.613e-10,-0.8637,0,0,0.25,-0,-0,0.66667
0.1247,0.32071,0.4988,-0.26894,-5.5115,51.279,0.35773,-0.11924,-1.7434,0.47697,-6.4266e-10,-0.87171,0,0,0.25,2.9606e-16,0,0.66667
0.85571,0.090777,3.4228,-0.61383,-3.3882,3.0821,5.6028,-1.8676,-0.66078,7.4704,-1.3558e-09,-0.33039,0,0,0.25,5.494e-16,-2.6795e-18,0.66667
0.93388,0.010177,3.7355,-0.73474,-1.9869,1.6357,7.319,-2.4397,-0.080164,9.7587,1.132e-08,-0.040082,0,0,0.25,-0,-0,0.66667
0.64865,0.4219,2.5946,-0.11715,-1.381,11.307,0.81056,-0.27019,-1.9502,1.0808,-8.3439e-13,-0.9751,0,0,0.25,-1.9524e-15,0,0.66667
0.18497,0.72501,0.7399,0.33751,6.7969,45.94,-0.66593,0.22198,-1.5952,-0.88791,-4.186e-10,-0.79759,0,0,0.25,-0,-0,0.66667
0.72233,0.58377,2.8893,0.12566,1.2108,7.5642,-0.96816,0.32272,-1.9435,-1.2909,2.327e-11,-0.97173,0,0,0.25,-0,-0,0.66667
0.22405,0.94462,0.89619,0.66693,13.432,42.664,-1.5938,0.53128,-0.41815,-2.1251,-1.1739e-11,-0.20908,0,0,0.25,-0,-0,0.66667
0.75275,0.83358,3.011,0.50037,4.4641,6.523,-4.0176,1.3392,-1.1095,-5.3569,5.1799e-11,-0.55477,0,0,0.25,-1.1842e-15,0,0.66667
0.99863,0.73645,3.9945,0.35467,-0.13986,0.23126,-3.7779,1.2593,-1.5527,-5.0373,-4.7715e-09,-0.77633,0,0,0.25,-0,-0,0.66667
0.92131,0.72646,3.6852,0.33969,0.93813,1.1495,-3.3382,1.1127,-1.5903,-4.451,-2.2194e-09,-0.79514,0,0,0.25,-0,-0,0.66667
0.52727,0.85522,2.1091,0.53282,8.0529,19.01,-2.9967,0.9989,-0.99,-3.9956,-5.5889e-13,-0.495,0,0,0.25,-0,-0,0.66667
0.62264,0.69028,2.4906,0.28543,3.5861,12.851,-1.8957,0.63189,-1.7111,-2.5276,-1.5472e-12,-0.85556,0,0,0.25,-0,-0,0.66667
0.31542,0.25648,1.2617,-0.36528,-6.8548,34.82,1.229,-0.40965,-1.5257,1.6386,7.1773e-12,-0.76284,0,0,0.25,-0,-0,0.66667
0.88054,0.50339,3.5221,0.0050788,0.021374,1.8464,-0.047702,0.015901,-2.0001,-0.063602,-2.5483e-08,-1,0,0,0.25,-0,-0,0.66667
0.86029,0.74133,3.4412,0.36199,1.8451,2.5801,-3.3218,1.1073,-1.5344,-4.429,7.8157e-10,-0.76722,0,0,0.25,1.1842e-15,0,0.66667
0.060565,0.46919,0.24226,-0.04621,-0.95535,57.051,0.029853,-0.0099506,-1.9938,0.039804,5.3361e-07,-0.99688,0,0,0.25,-0,-0,0.66667
0.54964,0.49547,2.1986,-0.006794,-0.097185,17.261,0.039832,-0.013277,-2.0002,0.05311,-3.4353e-13,-1.0001,0,0,0.25,-2.9606e-16,0,0.66667
0.38057,0.38521,1.5223,-0.17219,-3.0462,29.512,0.69897,-0.23299,-1.8939,0.93196,-9.3719e-13,-0.94695,0,0,0.25,-0,-0,0.66667
0.55684,0.59003,2.2274,0.13504,1.9113,16.812,-0.80208,0.26736,-1.9353,-1.0694,-9.5218e-13,-0.96763,0,0,0.25,1.6486e-16,0,0.66667
0.18217,0.57512,0.72869,0.11268,2.2598,46.154,-0.21895,0.072984,-1.954,-0.29194,-2.4316e-11,-0.97702,0,0,0.25,2.9606e-16,0,0.66667
0.79219,0.59841,3.1688,0.14761,1.09,4.6381,-1.2473,0.41578,-1.9226,-1.6631,1.3153e-10,-0.96129,0,0,0.25,-2.3685e-15,0,0.66667
0.11789,0.92298,0.47158,0.63447,13.242,51.958,-0.79786,0.26595,-0.56774,-1.0638,-5.7672e-09,-0.28387,0,0,0.25,8.4155e-18,0,0.66667
0.20303,0.13783,0.81212,-0.54325,-10.961,44.424,1.1765,-0.39217,-0.951,1.5687,1.7001e-10,-0.4755,0,0,0.25,-2.9606e-16,-3.3652e-16,0.66667
0.02395,0.25079,0.095799,-0.37382,-7.8063,60.382,0.095498,-0.031833,-1.5037,0.12733,3.0835e-09,-0.75184,0,0,0.25,-7.4015e-17,0,0.66667
0.058498,0.37725,0.23399,-0.18413,-3.8137,57.241,0.11489,-0.038297,-1.88,0.15319,-7.4789e-08,-0.94001,0,0,0.25,-0,-0,0.66667
0.11918,0.33199,0.47671,-0.25201,-5.1695,51.772,0.32037,-0.10679,-1.7734,0.42715,1.9084e-09,-0.88669,0,0,0.25,1.4803e-16,0,0.66667
0.45136,0.15015,1.8055,-0.52478,-8.7581,24.318,2.5266,-0.84219,-1.0213,3.3687,-8.9195e-13,-0.51063,0,0,0.25,-8.8818e-16,0,0.66667
0.89569,0.94915,3.5827,0.67372,2.7663,2.2101,-6.4367,2.1456,-0.38541,-8.5823,-1.2269e-08,-0.19271,0,0,0.25,-0,-0,0.66667
0.10377,0.30876,0.41508,-0.28686,-5.9108,53.16,0.31751,-0.10584,-1.7075,0.42335,2.8318e-09,-0.85376,0,0,0.25,-1.4803e-16,0,0.66667
0.99739,0.48015,3.9895,-0.029776,0.014023,0.016966,0.31678,-0.10558,-1.9966,0.42237,1.6396e-05,-0.99828,0,0,0.25,-0,-0,0.66667
0.92242,0.27988,3.6897,-0.33017,-0.89525,1.1187,3.2486,-1.0829,-1.6139,4.3315,4.0647e-09,-0.80697,0,0,0.25,-1.6283e-15,0,0.66667
0.12597,0.54934,0.50388,0.074016,1.5112,51.15,-0.099454,0.033151,-1.9806,-0.13261,2.109e-09,-0.99028,0,0,0.25,-1.4803e-16,0,0.66667
0.56161,0.92168,2.2464,0.63252,9.1312,16.887,-3.7891,1.263,-0.57752,-5.0521,-3.7526e-13,-0.28876,0,0,0.25,-0,2.9601e-16,0.66667
0.57872,0.79049,2.3149,0.43574,6.0141,15.6,-2.6898,0.89661,-1.3253,-3.5864,-1.7017e-12,-0.66265,0,0,0.25,-0,-0,0.66667
0.78149,0.63883,3.1259,0.20824,1.6173,5.0762,-1.7359,0.57863,-1.8461,-2.3145,1.376e-10,-0.92303,0,0,0.25,1.1842e-15,0,0.66667
0.099377,0.19821,0.39751,-0.45268,-9.394,53.576,0.47986,-0.15995,-1.2707,0.63981,-6.503e-10,-0.63533,0,0,0.25,-0,-0,0.66667
0.089059,0.7685,0.35624,0.40274,8.3565,54.497,-0.38259,0.12753,-1.4225,-0.51012,2.2513e-09,-0.71127,0,0,0.25,1.4803e-16,0,0.66667
0.94471,0.51726,3.7788,0.025891,0.044305,0.57048,-0.2609,0.086968,-1.9966,-0.34787,-3.2861e-07,-0.99832,0,0,0.25,-0,-0,0.66667
0.42548,0.32683,1.7019,-0.25975,-4.4049,26.079,1.1789,-0.39296,-1.7595,1.5718,-1.5942e-12,-0.87974,0,0,0.25,-0,-0,0.66667
0.81916,0.75611,3.2766,0.38416,2.5308,3.8622,-3.3567,1.1189,-1.4749,-4.4756,4.6781e-10,-0.73747,0,0,0.25,-0,-0,0.66667
0.78299,0.12535,3.132,-0.56198,-4.495,5.3973,4.6936,-1.5645,-0.8785,6.2581,-1.3796e-10,-0.43925,0,0,0.25,-2.3685e-15,0,0.66667
0.8379,0.22923,3.3516,-0.40616,-2.414,3.2854,3.6301,-1.21,-1.4127,4.8401,-8.66e-10,-0.70637,0,0,0.25,-0,-0,0.66667
0.13975,0.37112,0.55901,-0.19332,-3.9383,49.925,0.28818,-0.09606,-1.8681,0.38424,1.9899e-09,-0.93405,0,0,0.25,7.4015e-17,0,0.66667
0.091732,0.80778,0.36693,0.46167,9.5989,54.265,-0.45174,0.15058,-1.2427,-0.60231,-9.7876e-09,-0.62135,0,0,0.25,-1.4803e-16,0,0.66667
0.44285,0.43537,1.7714,-0.096951,-1.607,24.734,0.45797,-0.15266,-1.967,0.61063,-7.1143e-13,-0.98349,0,0,0.25,2.2204e-16,0,0.66667
0.8081,0.926,3.2324,0.63901,4.6278,4.6154,-5.5081,1.836,-0.54753,-7.3441,7.945e-11,-0.27377,0,0,0.25,1.1842e-15,0,0.66667
0.14031,0.93136,0.56125,0.64705,13.435,49.97,-0.96842,0.32281,-0.51223,-1.2912,1.8191e-09,-0.25611,0,0,0.25,2.2204e-16,0,0.66667
0.17975,0.85749,0.71898,0.53624,10.917,46.456,-1.0281,0.34271,-0.97662,-1.3708,-4.1605e-10,-0.48831,0,0,0.25,-0,-0,0.66667
0.1606,0.044473,0.64239,-0.68329,-14.133,48.192,1.1705,-0.39017,-0.33925,1.5607,1.2985e-10,-0.16963,0,0,0.25,-0,-0,0.66667
0.23062,0.062793,0.92248,-0.65581,-13.156,42.094,1.6133,-0.53775,-0.47179,2.151,-1.7367e-12,-0.2359,0,0,0.25,-5.9212e-16,0,0.66667
0.32804,0.40405,1.3122,-0.14392,-2.6591,33.72,0.50361,-0.16787,-1.9279,0.67148,4.5355e-12,-0.96394,0,0,0.25,-8.8818e-16,0,0.66667
0.06778,0.081351,0.27112,-0.62797,-13.226,56.444,0.45401,-0.15134,-0.59707,0.60535,-2.5349e-08,-0.29854,0,0,0.25,-6.2525e-18,0,0.66667
0.38652,0.61918,1.5461,0.17877,3.1456,29.046,-0.73706,0.24569,-1.8863,-0.98274,9.1416e-13,-0.94317,0,0,0.25,-0,-0,0.66667
0.28048,0.76723,1.1219,0.40084,7.7116,37.739,-1.1993,0.39975,-1.4288,-1.599,-2.8306e-11,-0.71439,0,0,0.25,-0,-0,0.66667
0.15318,0.87575,0.61274,0.56363,11.599,48.805,-0.92095,0.30698,-0.87151,-1.2279,-3.0533e-09,-0.43576,0,0,0.25,-5.9212e-16,1.7118e-19,0.66667
0.31327,0.55583,1.2531,0.083742,1.5629,34.926,-0.27983,0.093277,-1.9757,-0.37311,-5.2778e-12,-0.98784,0,0,0.25,-0,-0,0.66667
0.49926,0.70099,1.997,0.30148,4.6811,20.743,-1.6055,0.53518,-1.6769,-2.1407,-7.8382e-14,-0.83846,0,0,0.25,-0,-0,0.66667
0.67091,0.26949,2.6836,-0.34577,-3.8973,10.235,2.4745,-0.82482,-1.575,3.2993,-3.8864e-12,-0.7875,0,0,0.25,-1.1842e-15,0,0.66667
0.29158,0.70152,1.1663,0.30228,5.7527,36.775,-0.94013,0.31338,-1.6743,-1.2535,-2.3734e-11,-0.83714,0,0,0.25,-0,-0,0.66667
0.48683,0.93705,1.9473,0.65557,10.581,21.908,-3.4043,1.1348,-0.47314,-4.539,1.843e-14,-0.23657,0,0,0.25,-7.7716e-16,0,0.66667
0.69406,0.034591,2.7762,-0.69811,-7.6644,9.5076,5.1684,-1.7228,-0.26724,6.8911,6.7502e-14,-0.13362,0,0,0.25,2.3685e-15,0,0.66667
0.94232,0.17582,3.7693,-0.48626,-0.99782,1.0014,4.8876,-1.6292,-1.1586,6.5168,1.4486e-08,-0.57929,0,0,0.25,-0,-0,0.66667
0.11331,0.60785,0.45325,0.16178,3.317,52.291,-0.19554,0.06518,-1.9063,-0.26072,-2.0297e-09,-0.95314,0,0,0.25,-0,-0,0.66667
0.37705,0.53276,1.5082,0.049137,0.87068,29.77,-0.19762,0.065874,-1.9925,-0.2635,-2.1511e-14,-0.99626,0,0,0.25,-0,-0,0.66667
0.86667,0.21037,3.4667,-0.43445,-2.1383,2.4958,4.0162,-1.3387,-1.3283,5.355,-1.5107e-09,-0.66414,0,0,0.25,-0,-0,0.66667
0.76793,0.81183,3.0717,0.46774,3.9273,5.854,-3.8314,1.2771,-1.2233,-5.1085,9.091e-11,-0.61166,0,0,0.25,7.4015e-17,0,0.66667
0.82594,0.12599,3.3038,-0.56102,-3.6597,3.8838,4.9426,-1.6475,-0.88209,6.5901,-1.9637e-10,-0.44104,0,0,0.25,-0,-0,0.66667
0.036904,0.38288,0.14762,-0.17568,-3.6458,59.201,0.069154,-0.023051,-1.8898,0.092205,-2.1997e-08,-0.94489,0,0,0.25,-0,-0,0.66667
0.80406,0.38067,3.2162,-0.17899,-1.2513,4.2184,1.5351,-0.5117,-1.8858,2.0468,-2.2754e-10,-0.94289,0,0,0.25,-0,-0,0.66667
0.095263,0.42336,0.38105,-0.11496,-2.3647,53.913,0.11681,-0.038938,-1.9529,0.15575,2.5818e-09,-0.97643,0,0,0.25,1.4803e-16,0,0.66667
0.35271,0.098327,1.4108,-0.60251,-11.13,31.935,2.2668,-0.75559,-0.70915,3.0224,-1.5012e-12,-0.35458,0,0,0.25,-0,-0,0.66667
0.23302,0.85235,0.9321,0.52852,10.508,41.826,-1.3137,0.4379,-1.007,-1.7516,-7.9951e-11,-0.50352,0,0,0.25,-0,2.2405e-17,0.66667
0.98438,0.12663,3.9375,-0.56006,-0.22582,0.65814,5.8806,-1.9602,-0.88642,7.8408,3.2684e-08,-0.44321,0,0,0.25,-0,-0,0.66667
0.48234,0.089524,1.9294,-0.61571,-9.9622,22.18,3.1678,-1.0559,-0.65269,4.2238,-2.2249e-13,-0.32635,0,0,0.25,-0,-0,0.66667
0.28033,0.85604,1.1213,0.53407,10.345,37.814,-1.597,0.53232,-0.98595,-2.1293,-1.2275e-11,-0.49297,0,0,0.25,-0,3.9154e-16,0.66667
0.42077,0.1314,1.6831,-0.5529,-9.5596,26.613,2.4815,-0.82718,-0.91363,3.3087,-9.0772e-13,-0.45682,0,0,0.25,-0,-0,0.66667
0.13901,0.42191,0.55602,-0.11714,-2.384,49.986,0.17368,-0.057895,-1.951,0.23158,1.4335e-10,-0.97551,0,0,0.25,1.3144e-16,0,0.66667
0.78121,0.59495,3.1249,0.14243,1.104,5.0548,-1.1868,0.39561,-1.9296,-1.5825,1.2634e-10,-0.96481,0,0,0.25,-0,-0,0.66667
0.82105,0.86609,3.2842,0.54913,3.6689,4.0237,-4.8092,1.6031,-0.92717,-6.4123,5.2926e-10,-0.46359,0,0,0.25,-5.9212e-16,0,0.66667
0.0059699,0.80743,0.02388,0.46114,9.67,62.015,-0.029365,0.0097882,-1.2438,-0.039153,-9.7231e-09,-0.62188,0,0,0.25,1.1565e-17,0,0.66667
0.35861,0.90751,1.4344,0.61127,11.244,31.472,-2.3382,0.77941,-0.67296,-3.1176,7.1454e-13,-0.33648,0,0,0.25,1.1842e-15,0,0.66667
0.92793,0.57732,3.7117,0.11597,0.27772,0.86312,-1.1479,0.38264,-1.9512,-1.5305,4.6458e-08,-0.97562,0,0,0.25,-0,-0,0.66667
0.55859,0.34121,2.2344,-0.23818,-3.3708,16.738,1.4191,-0.47305,-1.7988,1.8922,1.3065e-12,-0.89941,0,0,0.25,-1.0189e-15,0,0.66667
0.17029,0.65394,0.68118,0.23091,4.6614,47.215,-0.41945,0.13982,-1.8115,-0.55927,2.755e-11,-0.90574,0,0,0.25,7.4015e-17,0,0.66667
0.39769,0.27575,1.5907,-0.33638,-5.8843,28.235,1.4269,-0.47563,-1.5974,1.9025,-2.032e-12,-0.79871,0,0,0.25,-8.8818e-16,0,0.66667
0.63071,0.012783,2.5228,-0.73083,-9.3674,12.896,4.9167,-1.6389,-0.1001,6.5556,-5.0626e-14,-0.050052,0,0,0.25,2.3685e-15,0,0.66667
0.7635,0.13408,3.054,-0.54888,-4.7349,6.1456,4.4701,-1.49,-0.92882,5.9601,-5.3674e-11,-0.46441,0,0,0.25,-0,-1.4897e-16,0.66667
0.98548,0.12831,3.9419,-0.55753,-0.19739,0.64476,5.8607,-1.9536,-0.8958,7.8142,2.9511e-08,-0.4479,0,0,0.25,-0,-0,0.66667
0.97769,0.7979,3.9107,0.44685,0.25255,0.51568,-4.66,1.5533,-1.2891,-6.2134,1.1679e-08,-0.64454,0,0,0.25,-0,-0,0.66667
0.44414,0.81817,1.7765,0.47725,8.0073,24.811,-2.2609,0.75365,-1.1899,-3.0146,8.8041e-13,-0.59494,0,0,0.25,-1.1842e-15,0,0.66667
0.91798,0.25069,3.6719,-0.37396,-1.0911,1.2514,3.6617,-1.2206,-1.5037,4.8823,1.3078e-09,-0.75183,0,0,0.25,-0,-0,0.66667
0.72376,0.76704,2.895,0.40056,3.902,7.6839,-3.0924,1.0308,-1.4287,-4.1232,3.224e-11,-0.71434,0,0,0.25,-0,-0,0.66667
0.15494,0.29825,0.61976,-0.30262,-6.1531,48.587,0.50013,-0.16671,-1.6743,0.66684,4.3404e-10,-0.83715,0,0,0.25,-4.7954e-16,0,0.66667
0.56932,0.47383,2.2773,-0.039254,-0.54317,15.998,0.23838,-0.07946,-1.9943,0.31784,1.2713e-13,-0.99716,0,0,0.25,-0,-0,0.66667
0.52955,0.08678,2.1182,-0.61983,-9.4003,18.952,3.5012,-1.1671,-0.63431,4.6682,-4.6629e-14,-0.31716,0,0,0.25,8.8818e-16,-2.0522e-16,0.66667
0.93954,0.47528,3.7582,-0.037087,-0.071199,0.65051,0.37167,-0.12389,-1.9954,0.49557,-2.0308e-07,-0.9977,0,0,0.25,-0,-0,0.66667
0.69262,0.80615,2.7705,0.45922,4.9295,9.2377,-3.3927,1.1309,-1.2499,-4.5236,6.6618e-12,-0.62497,0,0,0.25,-0,-0,0.66667
0.53942,0.84989,2.1577,0.52484,7.7824,18.197,-3.0198,1.0066,-1.0202,-4.0265,-6.426e-13,-0.51011,0,0,0.25,-0,-0,0.66667
0.91872,0.2421,3.6749,-0.38684,-1.1213,1.2534,3.791,-1.2637,-1.4678,5.0546,2.6627e-09,-0.7339,0,0,0.25,5.9212e-16,0,0.66667
0.080916,0.2071,0.32367,-0.43935,-9.1431,55.235,0.37921,-0.1264,-1.3133,0.50561,2.4125e-09,-0.65666,0,0,0.25,-7.4015e-17,0,0.66667
0.30942,0.1449,1.2377,-0.53265,-10.121,35.397,1.758,-0.586,-0.99085,2.344,2.5204e-12,-0.49543,0,0,0.25,-0,-0,0.66667
0.36636,0.72165,1.4654,0.33247,5.9848,30.688,-1.2992,0.43307,-1.6071,-1.7323,1.092e-12,-0.80357,0,0,0.25,-0,-0,0.66667
0.011747,0.3301,0.046988,-0.25485,-5.3045,61.488,0.031933,-0.010644,-1.7684,0.042577,3.0763e-08,-0.88422,0,0,0.25,-0,-0,0.66667
0.54516,0.50094,2.1806,0.0014064,0.020265,17.555,-0.0081783,0.0027261,-2.0013,-0.010904,-7.1813e-14,-1.0006,0,0,0.25,-0,-0,0.66667
0.38558,0.59638,1.5423,0.14457,2.5445,29.113,-0.59459,0.1982,-1.926,-0.79279,9.8166e-13,-0.96301,0,0,0.25,-0,-0,0.66667
0.46514,0.19373,1.8606,-0.4594,-7.5127,23.265,2.2793,-0.75978,-1.2496,3.0391,-8.6575e-13,-0.6248,0,0,0.25,-0,-0,0.66667
0.052614,0.35369,0.21046,-0.21947,-4.552,57.776,0.12317,-0.041057,-1.8281,0.16423,-1.3326e-08,-0.91403,0,0,0.25,1.4803e-16,0,0.66667
0.98055,0.26454,3.9222,-0.35319,-0.12992,0.35975,3.694,-1.2313,-1.5558,4.9254,-7.9107e-09,-0.77791,0,0,0.25,-0,-0,0.66667
0.87537,0.80673,3.5015,0.4601,2.1267,2.306,-4.2961,1.432,-1.2482,-5.7281,3.5091e-09,-0.62409,0,0,0.25,5.9212e-16,0,0.66667
0.31262,0.25213,1.2505,-0.37181,-6.9932,35.053,1.2398,-0.41328,-1.51,1.6531,8.4346e-12,-0.755,0,0,0.25,-0,-0,0.66667
0.081769,0.19176,0.32708,-0.46237,-9.6306,55.161,0.40328,-0.13443,-1.2402,0.5377,4.3192e-09,-0.62008,0,0,0.25,-0,-0,0.66667
0.1066,0.10151,0.4264,-0.59774,-12.48,52.957,0.67968,-0.22656,-0.72959,0.90624,2.712e-08,-0.36479,0,0,0.25,2.9606e-16,-1.6735e-16,0.66667
0.11128,0.15852,0.44511,-0.51222,-10.633,52.52,0.60799,-0.20266,-1.0681,0.81065,6.1513e-09,-0.53406,0,0,0.25,-0,-0,0.66667
0.31416,0.97084,1.2567,0.70625,13.533,35.127,-2.3667,0.7889,-0.2276,-3.1556,2.3759e-13,-0.1138,0,0,0.25,-0,-0,0.66667
0.74672,0.34448,2.9869,-0.23328,-2.0788,6.5195,1.8581,-0.61937,-1.8075,2.4775,-6.9567e-11,-0.90375,0,0,0.25,-2.3685e-15,0,0.66667
0.86782,0.0019669,3.4713,-0.74705,-3.9312,3.0352,6.9153,-2.3051,-0.016015,9.2204,9.5285e-09,-0.0080074,0,0,0.25,-0,-0,0.66667
0.45038,0.92507,1.8015,0.6376,10.74,24.495,-3.0631,1.021,-0.55415,-4.0841,2.5002e-13,-0.27707,0,0,0.25,-0,-3.3054e-16,0.66667
0.7354,0.7774,2.9416,0.41609,3.908,7.1732,-3.264,1.088,-1.3854,-4.3519,4.6643e-11,-0.69268,0,0,0.25,1.7764e-15,0,0.66667
0.19541,0.90556,0.78165,0.60834,12.361,45.114,-1.268,0.42267,-0.68472,-1.6907,-2.1701e-10,-0.34236,0,0,0.25,3.3307e-16,0,0.66667
0.1939,0.052008,0.77562,-0.67199,-13.719,45.273,1.3899,-0.46329,-0.39365,1.8532,1.8574e-11,-0.19683,0,0,0.25,2.9606e-16,0,0.66667
0.36744,0.091851,1.4698,-0.61222,-11.178,30.774,2.3995,-0.79985,-0.66763,3.1994,-1.2061e-12,-0.33382,0,0,0.25,-5.9212e-16,0,0.66667
0.34924,0.47648,1.397,-0.035287,-0.64043,31.987,0.13145,-0.043817,-1.9951,0.17527,5.749e-13,-0.99756,0,0,0.25,-0,-0,0.66667
0.30208,0.6383,1.2083,0.20745,3.9099,35.874,-0.66843,0.22281,-1.8462,-0.89124,-1.5297e-11,-0.92309,0,0,0.25,5.9212e-16,0,0.66667
0.54976,0.12317,2.199,-0.56524,-8.2715,17.566,3.3146,-1.1049,-0.86487,4.4195,2.6601e-13,-0.43243,0,0,0.25,1.3323e-15,0,0.66667
0.012695,0.45907,0.050781,-0.061393,-1.2739,61.4,0.0083146,-0.0027742,-1.9863,0.011085,-3.9919e-06,-0.99317,0,0,0.25,-0,-0,0.66667
0.35923,0.86273,1.4369,0.54409,9.959,31.373,-2.0848,0.69495,-0.94777,-2.7798,1.6407e-12,-0.47388,0,0,0.25,-5.9212e-16,-3.2812e-16,0.66667
0.68499,0.67585,2.74,0.26377,2.852,9.4483,-1.9273,0.64242,-1.7523,-2.5697,9.7591e-12,-0.87616,0,0,0.25,-0,-0,0.66667
0.20754,0.64976,0.83017,0.22464,4.4666,43.942,-0.4973,0.16577,-1.8204,-0.66306,-1.7652e-10,-0.9102,0,0,0.25,1.4803e-16,0,0.66667
0.18084,0.94673,0.72335,0.6701,13.749,46.412,-1.2926,0.43086,-0.40275,-1.7234,-2.1678e-10,-0.20137,0,0,0.25,-0,-0,0.66667
0.29412,0.78172,1.1765,0.42259,8.0671,36.608,-1.3257,0.44192,-1.3662,-1.7677,-1.5809e-11,-0.6831,0,0,0.25,-1.1842e-15,0,0.66667
0.0056085,0.85954,0.022434,0.53931,11.353,62.048,-0.032264,0.010755,-0.96494,-0.043018,8.9561e-09,-0.48247,0,0,0.25,-0,-1.5121e-16,0.66667
0.34478,0.093471,1.3791,-0.60979,-11.342,32.574,2.2426,-0.74755,-0.6795,2.9902,-1.4955e-12,-0.33975,0,0,0.25,2.5905e-16,0,0.66667
0.8284,0.54598,3.3136,0.068969,0.42173,3.3483,-0.60943,0.20314,-1.9833,-0.81257,8.2398e-11,-0.99165,0,0,0.25,-0,-0,0.66667
0.022289,0.46279,0.089157,-0.055819,-1.1578,60.528,0.013271,-0.0044227,-1.9886,0.017696,1.5918e-06,-0.9943,0,0,0.25,1.8504e-17,0,0.66667
0.030319,0.51366,0.12128,0.020497,0.42492,59.797,-0.0066298,0.0022117,-1.9985,-0.0088388,2.7267e-06,-0.99927,0,0,0.25,-0,-0,0.66667
0.37436,0.48691,1.4974,-0.019641,-0.34884,29.982,0.07843,-0.026143,-1.9988,0.10457,-1.0996e-13,-0.99938,0,0,0.25,-0,-0,0.66667
0.06536,0.46196,0.26144,-0.057059,-1.179,56.616,0.03978,-0.01326,-1.9885,0.05304,2.4818e-08,-0.99425,0,0,0.25,-3.7007e-17,0,0.66667
0.85305,0.87188,3.4122,0.55782,3.0952,3.0571,-5.0757,1.6919,-0.89377,-6.7676,2.3059e-09,-0.44689,0,0,0.25,-1.1842e-15,0,0.66667
0.36355,0.95926,1.4542,0.68889,12.691,31.146,-2.6714,0.89047,-0.31221,-3.5619,4.1478e-13,-0.1561,0,0,0.25,2.9606e-16,0,0.66667
0.70869,0.054388,2.8347,-0.66842,-7.0177,8.7521,5.0528,-1.6843,-0.41094,6.7371,-1.088e-13,-0.20547,0,0,0.25,-5.9212e-16,0,0.66667
0.34251,0.84271,1.37,0.51407,9.5213,32.691,-1.8781,0.62604,-1.0618,-2.5041,1.0557e-12,-0.53089,0,0,0.25,3.7007e-17,0,0.66667
0.28541,0.31991,1.1417,-0.27014,-5.1563,37.281,0.8224,-0.27413,-1.7403,1.0965,2.8381e-11,-0.87015,0,0,0.25,-5.9212e-16,0,0.66667
0.0054914,0.54289,0.021966,0.064328,1.335,62.056,-0.0037679,0.001253,-1.9845,-0.0050254,-4.4924e-06,-0.99225,0,0,0.25,-0,-0,0.66667
0.27003,0.96627,1.0801,0.69941,13.78,38.777,-2.0146,0.67152,-0.26116,-2.6861,-1.1324e-13,-0.13058,0,0,0.25,2.9606e-16,0,0.66667
0.55821,0.31488,2.2328,-0.27767,-3.9381,16.783,1.6533,-0.55111,-1.7263,2.2044,1.0519e-12,-0.86317,0,0,0.25,-0,-0,0.66667
0.39521,0.10285,1.5808,-0.59572,-10.595,28.597,2.5113,-0.8371,-0.73771,3.3484,-1.2848e-12,-0.36885,0,0,0.25,1.1842e-15,0,0.66667
0.84515,0.74048,3.3806,0.36073,2.037,3.0135,-3.2519,1.084,-1.5375,-4.3359,7.6768e-10,-0.76874,0,0,0.25,-0,-0,0.66667
0.25356,0.77002,1.0143,0.40503,7.9177,40.019,-1.0955,0.36515,-1.4162,-1.4606,-6.7268e-11,-0.70812,0,0,0.25,-2.9606e-16,0,0.66667
0.92019,0.55431,3.6808,0.081458,0.21936,0.99221,-0.79954,0.26651,-1.9766,-1.0661,4.1626e-08,-0.9883,0,0,0.25,5.9212e-16,0,0.66667
0.14496,0.19467,0.57983,-0.458,-9.3978,49.505,0.70817,-0.23606,-1.2539,0.94422,1.5271e-09,-0.62697,0,0,0.25,-0,-0,0.66667
0.48392,0.9817,1.9357,0.72256,11.775,22.192,-3.7297,1.2432,-0.14389,-4.9729,1.2146e-13,-0.071947,0,0,0.25,-0,-0,0.66667
0.20199,0.34741,0.80794,-0.22888,-4.5626,44.428,0.49314,-0.16438,-1.8147,0.65751,1.4834e-10,-0.90734,0,0,0.25,-5.9212e-16,0,0.66667
0.11218,0.70238,0.44873,0.30357,6.2467,52.406,-0.36326,0.12109,-1.6719,-0.48434,4.8313e-10,-0.83593,0,0,0.25,-1.4803e-16,0,0.66667
0.078936,0.89002,0.31574,0.58504,12.269,55.434,-0.49259,0.1642,-0.78309,-0.65679,-5.3912e-09,-0.39155,0,0,0.25,1.4803e-16,0,0.66667
0.097961,0.085307,0.39185,-0.62204,-13.03,53.735,0.64998,-0.21666,-0.62387,0.86664,1.383e-10,-0.31193,0,0,0.25,7.4015e-17,0,0.66667
0.44342,0.31687,1.7737,-0.27469,-4.5692,24.743,1.2993,-0.43309,-1.7317,1.7324,-1.411e-12,-0.86583,0,0,0.25,-0,-0,0.66667
0.49394,0.86576,1.9757,0.54864,8.6999,21.299,-2.8906,0.96352,-0.92912,-3.8541,-1.0902e-13,-0.46456,0,0,0.25,-0,-0,0.66667
0.29445,0.90543,1.1778,0.60815,11.727,36.68,-1.9101,0.63669,-0.68615,-2.5468,-1.9952e-12,-0.34307,0,0,0.25,7.0314e-16,0,0.66667
0.71033,0.70738,2.8413,0.31106,3.1374,8.2324,-2.3569,0.78563,-1.6551,-3.1425,2.4818e-11,-0.82755,0,0,0.25,-0,-0,0.66667
0.0215,0.4948,0.086001,-0.007805,-0.16187,60.599,0.0017889,-0.00059783,-1.9996,0.0023845,-2.2821e-06,-0.99981,0,0,0.25,3.4789e-18,0,0.66667
0.30959,0.66677,1.2384,0.25015,4.6954,35.261,-0.82609,0.27536,-1.7772,-1.1014,-1.1885e-11,-0.8886,0,0,0.25,-0,-0,0.66667
0.84278,0.99771,3.3711,0.74657,4.6103,3.7246,-6.7114,2.2371,-0.019506,-8.9485,1.2576e-09,-0.0097529,0,0,0.25,1.6283e-15,8.0367e-17,0.66667
0.54746,0.3655,2.1898,-0.20176,-2.9049,17.444,1.1782,-0.39272,-1.8556,1.5709,8.793e-13,-0.92782,0,0,0.25,-5.9212e-16,0,0.66667
0.05517,0.16096,0.22068,-0.50857,-10.656,57.565,0.29928,-0.09976,-1.0802,0.39904,-6.2927e-08,-0.54011,0,0,0.25,1.4803e-16,0,0.66667
0.51017,0.8193,2.0407,0.47895,7.3928,20.115,-2.6063,0.86878,-1.184,-3.4751,-3.9635e-13,-0.59202,0,0,0.25,-0,-0,0.66667
0.29425,0.90758,1.177,0.61137,11.794,36.699,-1.9189,0.63964,-0.67201,-2.5586,-2.2302e-12,-0.33601,0,0,0.25,-0,3.197e-16,0.66667
0.16633,0.020615,0.66531,-0.71908,-14.882,47.704,1.2758,-0.42525,-0.1608,1.701,-3.6376e-10,-0.080399,0,0,0.25,2.9606e-16,0,0.66667
0.67928,0.38913,2.7171,-0.1663,-1.8185,9.6897,1.205,-0.40166,-1.9007,1.6067,-6.6607e-12,-0.95034,0,0,0.25,-0,-0,0.66667
0.19682,0.54707,0.78727,0.070602,1.407,44.864,-0.14822,0.049407,-1.9813,-0.19763,-5.5894e-11,-0.99066,0,0,0.25,-0,-0,0.66667
0.39589,0.89271,1.5836,0.58907,10.466,28.538,-2.4875,0.82918,-0.76539,-3.3167,1.0374e-12,-0.38269,0,0,0.25,-0,-0,0.66667
0.72776,0.28688,2.9111,-0.31969,-3.0552,7.4252,2.4817,-0.82723,-1.6363,3.3089,-4.3319e-11,-0.81817,0,0,0.25,-0,-0,0.66667
0.80994,0.72485,3.2397,0.33727,2.3182,4.1282,-2.9138,0.97125,-1.5958,-3.885,3.4638e-10,-0.79789,0,0,0.25,-0,-0,0.66667
0.60148,0.7141,2.4059,0.32115,4.2196,14.12,-2.0605,0.68682,-1.6331,-2.7473,-2.0164e-12,-0.81656,0,0,0.25,-0,-0,0.66667
0.13081,0.80871,0.52323,0.46306,9.5424,50.765,-0.6461,0.21537,-1.2377,-0.86147,-7.1708e-10,-0.61883,0,0,0.25,-0,-0,0.66667
0.01089,0.87638,0.043562,0.56457,11.9,61.571,-0.065584,0.021861,-0.86731,-0.087445,6.0658e-08,-0.43365,0,0,0.25,-3.7007e-17,0,0.66667
0.29257,0.67485,1.1703,0.26227,4.9819,36.68,-0.81849,0.27283,-1.7547,-1.0913,-2.2748e-11,-0.87737,0,0,0.25,-0,-0,0.66667
0.48388,0.98115,1.9355,0.72172,11.761,22.193,-3.7251,1.2417,-0.14818,-4.9668,1.2434e-14,-0.07409,0,0,0.25,-0,2.8344e-16,0.66667
0.075671,0.54659,0.30268,0.069881,1.4418,55.682,-0.056405,0.018802,-1.9822,-0.075206,2.8346e-08,-0.99112,0,0,0.25,-1.4803e-16,0,0.66667
0.083491,0.55471,0.33396,0.082062,1.6912,54.975,-0.073082,0.024361,-1.9756,-0.097443,-1.0372e-09,-0.9878,0,0,0.25,-0,-0,0.66667
0.97949,0.95961,3.918,0.68942,0.53466,0.97949,-7.203,2.401,-0.30951,-9.604,-2.9439e-06,-0.15476,0,0,0.25,-0,-0,0.66667
0.62427,0.98317,2.4971,0.72475,9.4079,13.25,-4.826,1.6087,-0.13246,-6.4347,-2.3404e-13,-0.066231,0,0,0.25,1.1842e-15,-2.9429e-16,0.66667
0.82291,0.23267,3.2916,-0.401,-2.5946,3.757,3.5199,-1.1733,-1.4274,4.6931,-4.6907e-10,-0.71371,0,0,0.25,-1.1842e-15,0,0.66667
0.78101,0.77624,3.124,0.41436,3.2797,5.2729,-3.4519,1.1506,-1.3906,-4.6025,1.7194e-10,-0.69528,0,0,0.25,2.2388e-15,0,0.66667
0.51024,0.88808,2.041,0.58212,9.0505,20.21,-3.1682,1.0561,-0.79431,-4.2243,-2.9998e-13,-0.39715,0,0,0.25,-0,-0,0.66667
0.60696,0.87777,2.4278,0.56665,7.4932,14.029,-3.6687,1.2229,-0.85911,-4.8915,-1.5952e-12,-0.42955,0,0,0.25,2.3685e-15,0,0.66667
0.28245,0.58043,1.1298,0.12065,2.3,37.501,-0.3635,0.12117,-1.9482,-0.48466,-1.9484e-11,-0.9741,0,0,0.25,-2.9606e-16,0,0.66667
0.936,0.6952,3.744,0.2928,0.62922,0.84745,-2.9233,0.97442,-1.6955,-3.8977,-2.4255e-09,-0.84773,0,0,0.25,-0,-0,0.66667
0.61687,0.87202,2.4675,0.55803,7.2293,13.439,-3.6718,1.2239,-0.89291,-4.8958,-1.4586e-12,-0.44645,0,0,0.25,-1.3323e-15,0,0.66667
0.40685,0.23849,1.6274,-0.39227,-6.8169,27.559,1.7023,-0.56744,-1.4531,2.2698,-1.9341e-12,-0.72656,0,0,0.25,-0,-0,0.66667
0.050178,0.86192,0.20071,0.54289,11.402,58.019,-0.29057,0.096857,-0.95157,-0.38743,-2.7418e-08,-0.47578,0,0,0.25,7.4015e-17,0,0.66667
0.10484,0.33565,0.41938,-0.24652,-5.073,53.059,0.2757,-0.091898,-1.7835,0.36759,-5.3668e-09,-0.89177,0,0,0.25,7.4015e-17,0,0.66667
0.44394,0.88971,1.7758,0.58457,9.8792,24.915,-2.7682,0.92272,-0.78402,-3.6909,6.2994e-13,-0.39201,0,0,0.25,-5.9212e-16,0,0.66667
0.023763,0.31514,0.095051,-0.2773,-5.7727,60.397,0.070286,-0.023429,-1.7268,0.093714,-7.695e-09,-0.86339,0,0,0.25,-0,-0,0.66667
0.28857,0.67346,1.1543,0.26019,4.9549,37.014,-0.80088,0.26696,-1.7583,-1.0678,-2.5903e-11,-0.87916,0,0,0.25,-0,-0,0.66667
0.2149,0.54192,0.85958,0.062874,1.243,43.284,-0.14412,0.04804,-1.9854,-0.19216,-6.8335e-11,-0.99272,0,0,0.25,-0,-0,0.66667
0.22151,0.077142,0.88604,-0.63429,-12.762,42.866,1.4987,-0.49956,-0.56908,1.9982,3.1164e-11,-0.28454,0,0,0.25,-0,-0,0.66667
0.19268,0.10631,0.77074,-0.59054,-11.999,45.344,1.2137,-0.40457,-0.75927,1.6183,1.8717e-10,-0.37964,0,0,0.25,-0,-0,0.66667
0.83915,0.32154,3.3566,-0.26769,-1.5531,3.1077,2.3961,-0.7987,-1.7447,3.1948,-3.35e-10,-0.87237,0,0,0.25,2.3685e-15,0,0.66667
0.46604,0.14617,1.8642,-0.53074,-8.7088,23.258,2.6384,-0.87947,-0.9982,3.5179,-5.9219e-13,-0.4991,0,0,0.25,-0,-0,0.66667
0.54314,0.98238,2.1726,0.72357,10.853,18.193,-4.192,1.3973,-0.13788,-5.5893,-1.2434e-14,-0.068938,0,0,0.25,-0,2.9122e-16,0.66667
0.58082,0.14268,2.3233,-0.53598,-7.4239,15.571,3.3206,-1.1069,-0.97818,4.4274,1.0203e-12,-0.48909,0,0,0.25,-0,-0,0.66667
0.094346,0.70767,0.37738,0.31151,6.436,54.01,-0.31349,0.1045,-1.6552,-0.41799,4.0416e-11,-0.82761,0,0,0.25,-1.4803e-16,0,0.66667
0.064011,0.39216,0.25604,-0.16175,-3.3466,56.741,0.11044,-0.036814,-1.9068,0.14726,-8.3839e-09,-0.95342,0,0,0.25,-0,-0,0.66667
0.98681,0.23433,3.9472,-0.39851,-0.055955,0.36812,4.1947,-1.3982,-1.435,5.5929,-5.8532e-09,-0.71748,0,0,0.25,1.1842e-15,0,0.66667
0.28383,0.89667,1.1353,0.595,11.542,37.556,-1.8014,0.60046,-0.74107,-2.4019,-4.6066e-12,-0.37053,0,0,0.25,-0,-0,0.66667
0.1419,0.27554,0.56761,-0.33669,-6.8813,49.752,0.50962,-0.16987,-1.5975,0.67949,6.695e-10,-0.79877,0,0,0.25,7.4015e-17,0,0.66667
0.018779,0.25641,0.075116,-0.36538,-7.6295,60.851,0.073189,-0.024396,-1.5254,0.097586,6.5692e-09,-0.76269,0,0,0.25,3.7007e-17,0,0.66667
0.87071,0.11263,3.4828,-0.58105,-2.8626,2.6203,5.3965,-1.7988,-0.79891,7.1954,-2.9832e-09,-0.39945,0,0,0.25,-0,-0,0.66667
0.17375,0.67566,0.69498,0.26349,5.3168,46.915,-0.48833,0.16278,-1.753,-0.65111,-4.0297e-10,-0.8765,0,0,0.25,-2.9606e-16,0,0.66667
0.17154,0.66201,0.68614,0.24301,4.9048,47.107,-0.44464,0.14821,-1.7909,-0.59285,-1.4687e-10,-0.89545,0,0,0.25,-0,-0,0.66667
0.3727,0.75567,1.4908,0.38351,6.8799,30.21,-1.5246,0.5082,-1.4774,-2.0328,1.8001e-12,-0.73869,0,0,0.25,-0,-0,0.66667
0.18251,0.071959,0.73003,-0.64206,-13.141,46.254,1.2499,-0.41665,-0.53368,1.6666,2.1348e-10,-0.26684,0,0,0.25,-0,-0,0.66667
0.44101,0.26331,1.764,-0.35503,-5.9402,24.962,1.6701,-0.5567,-1.5513,2.2268,-1.4942e-12,-0.77563,0,0,0.25,-0,-0,0.66667
0.57868,0.74507,2.3147,0.36761,5.0532,15.547,-2.2691,0.75635,-1.5204,-3.0254,-1.8825e-12,-0.76022,0,0,0.25,-0,-0,0.66667
0.83616,0.99925,3.3446,0.74887,4.8048,3.9276,-6.6792,2.2264,-0.0065552,-8.9056,-1.5719e-09,-0.0032776,0,0,0.25,1.3323e-15,0,0.66667
0.58829,0.88145,2.3532,0.57217,7.8423,15.155,-3.5905,1.1968,-0.83569,-4.7873,-9.448e-13,-0.41785,0,0,0.25,-0,-0,0.66667
0.92403,0.29377,3.6961,-0.30934,-0.81483,1.0677,3.049,-1.0163,-1.6595,4.0653,1.9619e-09,-0.82976,0,0,0.25,-0,-0,0.66667
0.48128,0.086455,1.9251,-0.62032,-10.054,22.259,3.1845,-1.0615,-0.6318,4.246,-2.5469e-13,-0.3159,0,0,0.25,-0,-0,0.66667
0.62184,0.13831,2.4874,-0.54254,-6.9477,13.133,3.5987,-1.1996,-0.95292,4.7982,1.5192e-12,-0.47646,0,0,0.25,-0,-0,0.66667
0.44171,0.99171,1.7668,0.73757,12.651,25.239,-3.4751,1.1584,-0.065396,-4.6334,1.9984e-15,-0.032698,0,0,0.25,5.9212e-16,0,0.66667
0.91251,0.81749,3.65,0.47623,1.5341,1.4978,-4.6354,1.5451,-1.1935,-6.1805,8.5159e-09,-0.59673,0,0,0.25,-0,-0,0.66667
0.71041,0.32137,2.8416,-0.26794,-2.695,8.1972,2.0304,-0.6768,-1.7441,2.7072,-2.5128e-11,-0.87203,0,0,0.25,-0,-0,0.66667
0.6028,0.34505,2.4112,-0.23242,-3.0341,13.989,1.4944,-0.49814,-1.8084,1.9926,1.467e-12,-0.9042,0,0,0.25,-0,-0,0.66667
0.84339,0.48622,3.3736,-0.020668,-0.11524,2.8718,0.18593,-0.061977,-1.9987,0.24791,5.4609e-10,-0.99934,0,0,0.25,-1.1842e-15,0,0.66667
0.9065,0.013038,3.626,-0.73044,-2.7559,2.1125,7.0629,-2.3543,-0.10321,9.4172,-2.6155e-08,-0.051603,0,0,0.25,-0,-0,0.66667
0.57799,0.65976,2.3119,0.23964,3.2789,15.51,-1.4774,0.49247,-1.7971,-1.9699,-1.4679e-12,-0.89855,0,0,0.25,-2.3685e-15,0,0.66667
0.2076,0.6129,0.83038,0.16935,3.3634,43.929,-0.375,0.125,-1.8973,-0.5,-1.4577e-10,-0.94867,0,0,0.25,-0,-0,0.66667
0.33309,0.014867,1.3324,-0.7277,-13.777,33.609,2.5855,-0.86183,-0.11634,3.4473,-9.1926e-14,-0.05817,0,0,0.25,-0,-0,0.66667
0.92001,0.49872,3.68,-0.0019155,-0.0051566,0.9847,0.018798,-0.006266,-2.0012,0.025064,-1.6727e-07,-1.0006,0,0,0.25,-1.6283e-15,0,0.66667
0.49116,0.22704,1.9646,-0.40944,-6.46,21.377,2.1451,-0.71503,-1.4033,2.8601,-1.8718e-13,-0.70166,0,0,0.25,-1.1842e-15,0,0.66667
0.84515,0.33226,3.3806,-0.25161,-1.4034,2.9131,2.2682,-0.75607,-1.7749,3.0243,-5.9556e-10,-0.88745,0,0,0.25,-1.1842e-15,0,0.66667
0.49158,0.99983,1.9663,0.74975,12.129,21.692,-3.9313,1.3104,-0.0020032,-5.2417,4.6674e-13,-0.0010016,0,0,0.25,-8.8818e-16,0,0.66667
0.048249,0.91957,0.19299,0.62936,13.286,58.202,-0.3239,0.10797,-0.5916,-0.43187,-1.5391e-07,-0.2958,0,0,0.25,-7.4015e-17,0,0.66667
0.58842,0.035467,2.3537,-0.6968,-9.6625,15.312,4.3735,-1.4578,-0.27371,5.8313,-1.3767e-13,-0.13686,0,0,0.25,-0,-0,0.66667
0.97989,0.095195,3.9196,-0.60721,-0.39377,0.79054,6.3466,-2.1155,-0.6897,8.4622,7.236e-07,-0.34485,0,0,0.25,-2.3685e-15,0,0.66667
0.15147,0.91791,0.60586,0.62686,12.956,48.977,-1.0128,0.33759,-0.60212,-1.3504,2.4501e-10,-0.30106,0,0,0.25,-0,-0,0.66667
0.62692,0.7816,2.5077,0.4224,5.3012,12.713,-2.8247,0.94155,-1.367,-3.7662,-1.954e-12,-0.68349,0,0,0.25,-0,-0,0.66667
0.64441,0.94021,2.5777,0.66032,8.1503,12.025,-4.5389,1.513,-0.45022,-6.0518,-6.5281e-13,-0.22511,0,0,0.25,-0,-0,0.66667
0.10623,0.51827,0.4249,0.027401,0.56199,52.923,-0.031047,0.010349,-1.9968,-0.041396,-7.117e-09,-0.99842,0,0,0.25,-2.9606e-16,0,0.66667
0.29898,0.936,1.1959,0.654,12.613,36.336,-2.0857,0.69522,-0.48032,-2.7809,4.5897e-13,-0.24016,0,0,0.25,-2.2204e-16,0,0.66667
0.38954,0.42618,1.5581,-0.11073,-1.9406,28.797,0.4601,-0.15337,-1.9565,0.61346,-6.6716e-13,-0.97825,0,0,0.25,-0,-0,0.66667
0.95436,0.18962,3.8175,-0.46557,-0.71894,0.80139,4.7394,-1.5798,-1.2305,6.3192,3.6544e-08,-0.61526,0,0,0.25,-0,-0,0.66667
0.57675,0.84837,2.307,0.52255,7.2826,15.808,-3.2147,1.0716,-1.0299,-4.2863,-1.1848e-12,-0.51493,0,0,0.25,-0,-0,0.66667
0.087358,0.64723,0.34943,0.22084,4.5576,54.632,-0.20578,0.068595,-1.8259,-0.27438,-1.6694e-10,-0.91297,0,0,0.25,-7.4015e-17,0,0.66667
0.10716,0.037267,0.42864,-0.6941,-14.579,52.931,0.79338,-0.26446,-0.28734,1.0578,2.6957e-08,-0.14367,0,0,0.25,-0,1.8412e-16,0.66667
0.95368,0.43728,3.8147,-0.094083,-0.1276,0.45771,0.95707,-0.31902,-1.9703,1.2761,-5.0194e-07,-0.98515,0,0,0.25,-1.2953e-16,0,0.66667
0.80534,0.53954,3.2214,0.059309,0.41025,4.1316,-0.50949,0.16983,-1.9869,-0.67932,-6.3698e-12,-0.99344,0,0,0.25,-0,-0,0.66667
0.4283,0.67811,1.7132,0.26717,4.518,25.869,-1.2206,0.40686,-1.7455,-1.6274,1.6191e-12,-0.87276,0,0,0.25,-0,-0,0.66667
0.67249,0.83457,2.69,0.50186,5.7028,10.311,-3.6,1.2,-1.1049,-4.7999,5.8153e-13,-0.55244,0,0,0.25,-0,-0,0.66667
0.21193,0.078488,0.84772,-0.63227,-12.776,43.691,1.4293,-0.47643,-0.57764,1.9057,4.5624e-11,-0.28882,0,0,0.25,4.5085e-17,0,0.66667
0.52016,0.56299,2.0807,0.09449,1.4161,19.232,-0.52427,0.17476,-1.9691,-0.69903,-5.8981e-13,-0.98454,0,0,0.25,2.3685e-15,0,0.66667
0.97554,0.0057962,3.9022,-0.74131,-0.75419,1.1423,7.7139,-2.5713,-0.045787,10.285,-3.9183e-06,-0.022894,0,0,0.25,-0,-0,0.66667
0.83042,0.74754,3.3217,0.37132,2.2953,3.4796,-3.2891,1.0964,-1.5106,-4.3854,5.2161e-10,-0.75532,0,0,0.25,-0,-0,0.66667
0.21598,0.68595,0.86392,0.27893,5.5327,43.218,-0.64259,0.2142,-1.7243,-0.85679,-1.6307e-10,-0.86215,0,0,0.25,4.0708e-16,0,0.66667
0.44842,0.3499,1.7937,-0.22516,-3.718,24.354,1.077,-0.35899,-1.8196,1.436,-1.1314e-12,-0.90979,0,0,0.25,-0,-0,0.66667
0.57268,0.07627,2.2907,-0.63559,-9.0079,16.195,3.8826,-1.2942,-0.56277,5.1768,4.3121e-13,-0.28138,0,0,0.25,-1.1842e-15,0,0.66667
0.5708,0.13038,2.2832,-0.55443,-7.8275,16.215,3.3757,-1.1252,-0.90677,4.5009,6.5437e-13,-0.45339,0,0,0.25,-0,-0,0.66667
0.93053,0.94964,3.7221,0.67447,1.8546,1.5486,-6.6945,2.2315,-0.38166,-8.926,6.1511e-08,-0.19083,0,0,0.25,-2.3685e-15,0,0.66667
0.2551,0.60925,1.0204,0.16388,3.1776,39.826,-0.44592,0.14864,-1.9037,-0.59456,-5.0922e-11,-0.95183,0,0,0.25,-5.9212e-16,0,0.66667
0.65634,0.52892,2.6254,0.04338,0.50156,10.873,-0.3037,0.10123,-1.9948,-0.40494,6.0213e-13,-0.99741,0,0,0.25,1.4803e-15,0,0.66667
0.78125,0.10612,3.125,-0.59082,-4.7804,5.5101,4.9235,-1.6412,-0.75926,6.5646,-6.6008e-11,-0.37963,0,0,0.25,-0,-0,0.66667
0.11597,0.14207,0.46389,-0.53689,-11.147,52.106,0.66415,-0.22138,-0.97414,0.88554,5.6188e-09,-0.48707,0,0,0.25,1.4803e-16,0,0.66667
0.52639,0.76906,2.1056,0.40359,6.057,18.955,-2.2661,0.75537,-1.4201,-3.0215,-7.2164e-13,-0.71005,0,0,0.25,5.9212e-16,0,0.66667
0.41234,0.50357,1.6494,0.0053589,0.091754,27.027,-0.02357,0.0078567,-2,-0.031427,1.55e-13,-0.99999,0,0,0.25,2.3685e-15,0,0.66667
0.50229,0.04608,2.0092,-0.68088,-10.791,20.866,3.648,-1.216,-0.3513,4.864,-9.77e-14,-0.17565,0,0,0.25,-0,-0,0.66667
0.065315,0.70099,0.26126,0.30149,6.2568,56.63,-0.21004,0.070015,-1.6764,-0.28006,1.0379e-10,-0.83819,0,0,0.25,-0,-0,0.66667
0.26954,0.92971,1.0781,0.64456,12.653,38.784,-1.8532,0.61772,-0.52255,-2.4709,-3.7313e-12,-0.26127,0,0,0.25,-2.9606e-16,0,0.66667
0.25,0.74757,1,0.37135,7.2635,40.311,-0.99028,0.33009,-1.5112,-1.3204,-8.0787e-11,-0.7556,0,0,0.25,1.4803e-16,0,0.66667
0.66868,0.45537,2.6747,-0.066951,-0.75091,10.216,0.47753,-0.15918,-1.9835,0.63671,-2.1309e-12,-0.99177,0,0,0.25,-0,-0,0.66667
0.050074,0.06621,0.2003,-0.65069,-13.753,58.04,0.34755,-0.11585,-0.49505,0.4634,8.043e-08,-0.24753,0,0,0.25,-1.4803e-16,0,0.66667
0.97313,0.305,3.8925,-0.2925,-0.1861,0.36129,3.0362,-1.0121,-1.6955,4.0483,6.1709e-09,-0.84775,0,0,0.25,1.7764e-15,0,0.66667
0.37569,0.52209,1.5027,0.033132,0.58776,29.877,-0.13277,0.044257,-1.9965,-0.17703,-6.0202e-14,-0.99823,0,0,0.25,-5.9212e-16,0,0.66667
0.87187,0.85284,3.4875,0.52926,2.5531,2.5014,-4.9221,1.6407,-1.0038,-6.5628,1.1427e-09,-0.50189,0,0,0.25,-0,-0,0.66667
0.69429,0.93895,2.7772,0.65843,7.1874,9.4298,-4.8762,1.6254,-0.45899,-6.5016,-3.5527e-15,-0.2295,0,0,0.25,-0,-0,0.66667
0.029579,0.41966,0.11832,-0.1205,-2.5,59.865,0.03802,-0.012673,-1.9482,0.050694,-1.2392e-07,-0.9741,0,0,0.25,-0,-0,0.66667
0.087271,0.76168,0.34908,0.39252,8.1436,54.657,-0.36539,0.1218,-1.4513,-0.48718,1.7585e-09,-0.72567,0,0,0.25,1.4803e-16,0,0.66667
0.094963,0.37423,0.37985,-0.18865,-3.8851,53.944,0.19109,-0.063697,-1.8749,0.25479,-1.0629e-08,-0.93747,0,0,0.25,-5.5511e-17,0,0.66667
0.56423,0.50795,2.2569,0.011919,0.16637,16.32,-0.071734,0.023911,-1.9997,-0.095645,-3.0309e-14,-0.99985,0,0,0.25,-2.3685e-15,0,0.66667
0.56604,0.2336,2.2642,-0.39961,-5.6266,16.365,2.4127,-0.80424,-1.4316,3.217,1.4491e-12,-0.71581,0,0,0.25,-1.1842e-15,0,0.66667
0.31061,0.384,1.2424,-0.174,-3.2578,35.159,0.57648,-0.19216,-1.8924,0.76865,9.9707e-12,-0.9462,0,0,0.25,-0,-0,0.66667
0.11319,0.87245,0.45277,0.55867,11.621,52.359,-0.67454,0.22485,-0.89079,-0.89939,-4.7829e-09,-0.4454,0,0,0.25,1.4803e-16,0,0.66667
0.76861,0.52494,3.0744,0.037417,0.30491,5.5298,-0.30676,0.10225,-1.9951,-0.40902,1.0793e-11,-0.99756,0,0,0.25,-0,-0,0.66667
0.1382,0.84383,0.5528,0.51574,10.634,50.12,-0.76026,0.25342,-1.0556,-1.0137,-4.965e-09,-0.52778,0,0,0.25,-5.9212e-16,0,0.66667
0.58503,0.095523,2.3401,-0.60672,-8.391,15.396,3.7861,-1.262,-0.69154,5.0481,4.0878e-13,-0.34577,0,0,0.25,2.3685e-15,0,0.66667
0.50868,0.97428,2.0347,0.71142,11.208,20.467,-3.8601,1.2867,-0.20019,-5.1468,1.4211e-13,-0.10009,0,0,0.25,-1.1842e-15,0,0.66667
0.51012,0.013825,2.0405,-0.72926,-11.486,20.393,3.9681,-1.3227,-0.10821,5.2909,-4.5386e-13,-0.054103,0,0,0.25,2.3685e-15,0,0.66667
0.35934,0.72806,1.4373,0.34209,6.1975,31.25,-1.3112,0.43707,-1.5845,-1.7483,6.8079e-13,-0.79224,0,0,0.25,-0,-0,0.66667
0.055479,0.14494,0.22192,-0.53259,-11.173,57.54,0.31518,-0.10506,-0.99058,0.42023,1.4885e-08,-0.49529,0,0,0.25,7.4015e-17,0,0.66667
0.33619,0.049735,1.3448,-0.6754,-12.705,33.315,2.422,-0.80734,-0.37715,3.2294,-6.648e-13,-0.18857,0,0,0.25,-0,-0,0.66667
0.94985,0.013907,3.7994,-0.72914,-1.4977,1.3929,7.3875,-2.4625,-0.10916,9.85,-5.3661e-08,-0.054582,0,0,0.25,4.737e-15,0,0.66667
0.94833,0.78205,3.7933,0.42308,0.74031,0.81843,-4.2797,1.4266,-1.3643,-5.7063,-1.4551e-08,-0.68215,0,0,0.25,-0,-0,0.66667
0.42932,0.44979,1.7173,-0.075315,-1.2671,25.743,0.3449,-0.11497,-1.9789,0.45987,-5.0823e-13,-0.98945,0,0,0.25,-0,-0,0.66667
0.74205,0.14857,2.9682,-0.52714,-4.8978,7.0181,4.1724,-1.3908,-1.0114,5.5632,-3.1779e-11,-0.50571,0,0,0.25,-5.9212e-16,0,0.66667
0.55762,0.17284,2.2305,-0.49073,-7.0501,16.983,2.9188,-0.97294,-1.1429,3.8918,8.3356e-13,-0.57147,0,0,0.25,-0,-0,0.66667
0.914,0.87556,3.656,0.56334,1.8349,1.616,-5.4922,1.8307,-0.87222,-7.3229,5.0575e-08,-0.43611,0,0,0.25,-0,-0,0.66667
0.73641,0.39326,2.9456,-0.16011,-1.4742,6.9352,1.2577,-0.41923,-1.9086,1.6769,-4.0371e-11,-0.9543,0,0,0.25,-0,-0,0.66667
0.39393,0.63678,1.5757,0.20517,3.587,28.476,-0.86211,0.28737,-1.8499,-1.1495,1.4077e-12,-0.92493,0,0,0.25,-0,-0,0.66667
0.060535,0.75189,0.24214,0.37783,7.8664,57.069,-0.24397,0.081324,-1.4935,-0.32529,4.1636e-09,-0.74673,0,0,0.25,-1.4803e-16,0,0.66667
0.81061,0.58738,3.2425,0.13107,0.88471,3.9654,-1.1333,0.37777,-1.9393,-1.5111,2.0903e-10,-0.96963,0,0,0.25,-5.9212e-16,0,0.66667
0.31642,0.97422,1.2657,0.71133,13.614,34.947,-2.4008,0.80028,-0.20099,-3.2011,1.3656e-13,-0.10049,0,0,0.25,-1.1842e-15,0,0.66667
0.49421,0.68121,1.9768,0.27181,4.2447,21.081,-1.4329,0.47762,-1.737,-1.9105,1.5121e-13,-0.8685,0,0,0.25,-0,-0,0.66667
0.54153,0.6435,2.1661,0.21525,3.1302,17.838,-1.2433,0.41445,-1.8344,-1.6578,-8.9684e-13,-0.91722,0,0,0.25,-0,-0,0.66667
0.51753,0.78627,2.0701,0.42941,6.5388,19.573,-2.3705,0.79016,-1.3449,-3.1606,-5.7954e-13,-0.67245,0,0,0.25,-0,-0,0.66667
0.14619,0.13214,0.58477,-0.5518,-11.372,49.42,0.86046,-0.28682,-0.91702,1.1473,1.9747e-09,-0.45851,0,0,0.25,-0,-0,0.66667
0.35934,0.096238,1.4374,-0.60564,-11.129,31.409,2.3214,-0.77381,-0.69731,3.0953,-1.6063e-12,-0.34865,0,0,0.25,1.1842e-15,8.6771e-17,0.66667
0.36131,0.63708,1.4452,0.20562,3.7029,31.045,-0.79244,0.26415,-1.8495,-1.0566,-9.2426e-14,-0.92475,0,0,0.25,5.9212e-16,0,0.66667
0.2158,0.83074,0.86318,0.49611,9.9281,43.298,-1.142,0.38065,-1.1244,-1.5226,-1.4109e-10,-0.56221,0,0,0.25,-2.9606e-16,0,0.66667
0.036849,0.61652,0.1474,0.17478,3.6272,59.206,-0.068699,0.0229,-1.8908,-0.091598,2.9846e-08,-0.94542,0,0,0.25,-0,-0,0.66667
0.92418,0.69037,3.6967,0.28556,0.74636,1.0418,-2.815,0.93834,-1.7108,-3.7534,5.1471e-09,-0.85542,0,0,0.25,-2.3685e-15,0,0.66667
0.35432,0.80691,1.4173,0.46037,8.4209,31.711,-1.7399,0.57997,-1.2463,-2.3199,1.4395e-12,-0.62315,0,0,0.25,-2.9606e-16,0,0.66667
0.1958,0.54138,0.78319,0.062064,1.2373,44.953,-0.12962,0.043207,-1.9855,-0.17283,-8.6195e-14,-0.99276,0,0,0.25,-0,-0,0.66667
0.86409,0.83363,3.4564,0.50044,2.5428,2.6596,-4.6125,1.5375,-1.109,-6.15,3.4813e-09,-0.55448,0,0,0.25,-1.1842e-15,0,0.66667
0.49805,0.99137,1.9922,0.73706,11.809,21.228,-3.9157,1.3052,-0.068513,-5.2209,-6.5947e-14,-0.034256,0,0,0.25,5.9212e-16,-2.3671e-16,0.66667
0.81993,0.12919,3.2797,-0.55622,-3.7428,4.0724,4.8646,-1.6215,-0.8999,6.4862,-5.9755e-10,-0.44995,0,0,0.25,-0,-0,0.66667
0.76332,0.76385,3.0533,0.39578,3.3572,5.9568,-3.2225,1.0742,-1.4427,-4.2967,1.1058e-10,-0.72136,0,0,0.25,-0,-0,0.66667
0.11672,0.11806,0.4669,-0.57291,-11.916,52.047,0.71331,-0.23777,-0.8325,0.95108,6.1536e-09,-0.41625,0,0,0.25,2.2204e-16,0,0.66667
0.51608,0.038475,2.0643,-0.69229,-10.776,19.942,3.8109,-1.2703,-0.2966,5.0812,-6.839e-14,-0.1483,0,0,0.25,-0,-0,0.66667
0.33424,0.051297,1.337,-0.67305,-12.678,33.471,2.3996,-0.79987,-0.38852,3.1995,-5.9464e-13,-0.19426,0,0,0.25,-0,-0,0.66667
0.68594,0.59465,2.7438,0.14198,1.5239,9.3397,-1.0388,0.34628,-1.9297,-1.3851,7.8708e-12,-0.96484,0,0,0.25,-0,-0,0.66667
0.78722,0.7192,3.1489,0.3288,2.5126,4.9466,-2.761,0.92032,-1.6163,-3.6813,2.202e-10,-0.80814,0,0,0.25,-0,-0,0.66667
0.28471,0.056333,1.1388,-0.6655,-12.964,37.528,2.0211,-0.67369,-0.4253,2.6947,6.9078e-13,-0.21265,0,0,0.25,-0,-0,0.66667
0.42001,0.21253,1.68,-0.4312,-7.4078,26.581,1.9318,-0.64394,-1.3393,2.5758,-1.8037e-12,-0.66963,0,0,0.25,1.1369e-15,0,0.66667
0.88235,0.1231,3.5294,-0.56535,-2.5285,2.3028,5.3209,-1.7736,-0.8639,7.0946,-1.2004e-08,-0.43195,0,0,0.25,-1.4803e-15,0,0.66667
0.764,0.17385,3.056,-0.48922,-4.1808,6.0411,3.9869,-1.329,-1.1489,5.3158,-8.1378e-11,-0.57443,0,0,0.25,-9.0476e-16,0,0.66667
0.2849,0.58467,1.1396,0.127,2.4175,37.295,-0.38595,0.12865,-1.9423,-0.51459,-1.9147e-11,-0.97116,0,0,0.25,-2.9606e-16,0,0.66667
0.72388,0.24783,2.8955,-0.37826,-3.6765,7.6559,2.9207,-0.97356,-1.4917,3.8942,-3.515e-11,-0.74585,0,0,0.25,-1.6283e-15,0,0.66667
0.02714,0.88026,0.10856,0.57039,12.019,60.102,-0.16512,0.055042,-0.84327,-0.22017,-1.112e-08,-0.42164,0,0,0.25,-0,-0,0.66667
0.5633,0.13067,2.2532,-0.554,-7.9218,16.687,3.3287,-1.1096,-0.90948,4.4383,5.6688e-13,-0.45474,0,0,0.25,-0,-0,0.66667
0.041077,0.30632,0.16431,-0.29052,-6.0433,58.826,0.12729,-0.042432,-1.6996,0.16973,1.0735e-08,-0.8498,0,0,0.25,-3.7007e-17,0,0.66667
0.12608,0.92068,0.50432,0.63102,13.14,51.228,-0.84863,0.28288,-0.58422,-1.1315,5.7586e-10,-0.29211,0,0,0.25,-0,-0,0.66667
0.8206,0.68309,3.2824,0.27464,1.7749,3.7088,-2.4039,0.8013,-1.7317,-3.2052,2.972e-10,-0.86585,0,0,0.25,2.9606e-16,0,0.66667
0.68161,0.36204,2.7264,-0.20694,-2.2522,9.5886,1.5046,-0.50152,-1.8469,2.0061,-8.137e-12,-0.92343,0,0,0.25,-0,-0,0.66667
0.43883,0.27458,1.7553,-0.33813,-5.6671,25.115,1.5827,-0.52758,-1.5939,2.1103,-1.5312e-12,-0.79697,0,0,0.25,-0,-0,0.66667
0.39571,0.61688,1.5828,0.17532,3.0579,28.33,-0.74002,0.24667,-1.8903,-0.98669,1.3526e-12,-0.94513,0,0,0.25,-5.9212e-16,0,0.66667
0.8758,0.4865,3.5032,-0.02025,-0.088841,1.9664,0.18917,-0.063056,-1.9986,0.25222,6.1055e-09,-0.99931,0,0,0.25,-1.1842e-15,0,0.66667
0.23877,0.5567,0.95507,0.085047,1.6619,41.218,-0.2166,0.072201,-1.9742,-0.2888,-4.1278e-11,-0.9871,0,0,0.25,2.9606e-16,0,0.66667
0.39398,0.001837,1.5759,-0.74724,-13.464,28.834,3.1403,-1.0468,-0.01542,4.1871,2.6645e-15,-0.0077098,0,0,0.25,-2.3685e-15,0,0.66667
0.14348,0.50665,0.57391,0.0099806,0.20271,49.583,-0.015275,0.0050915,-1.9997,-0.020366,-1.0416e-09,-0.99987,0,0,0.25,-0,-0,0.66667
0.67243,0.68583,2.6897,0.27874,3.1176,10.106,-1.9993,0.66643,-1.7252,-2.6657,5.3305e-12,-0.86262,0,0,0.25,2.9606e-16,0,0.66667
0.17561,0.1644,0.70244,-0.5034,-10.247,46.808,0.94295,-0.31432,-1.0987,1.2573,4.7237e-10,-0.54936,0,0,0.25,-5.9212e-16,0,0.66667
0.99975,0.58791,3.999,0.13187,-0.073157,0.032308,-1.4063,0.46876,-1.9391,-1.875,-6.5905e-08,-0.96953,0,0,0.25,-0,-0,0.66667
0.96443,0.061345,3.8577,-0.65798,-0.89236,1.0505,6.7689,-2.2563,-0.46138,9.0251,1.8432e-07,-0.23069,0,0,0.25,-1.3375e-15,4.0463e-19,0.66667
0.067754,0.62595,0.27101,0.18893,3.9087,56.403,-0.13654,0.045513,-1.8737,-0.18205,-2.5062e-08,-0.93687,0,0,0.25,-2.9606e-16,0,0.66667
0.070849,0.68179,0.2834,0.27268,5.65,56.128,-0.20607,0.068691,-1.7353,-0.27476,-6.7614e-10,-0.86766,0,0,0.25,-6.9071e-17,0,0.66667
0.24709,0.98977,0.98836,0.73466,14.698,40.736,-1.9363,0.64543,-0.080702,-2.5817,-9.8145e-12,-0.040351,0,0,0.25,-0,-0,0.66667
0.31125,0.94493,1.245,0.66739,12.777,35.336,-2.2157,0.73858,-0.4167,-2.9543,4.6141e-13,-0.20835,0,0,0.25,-0,-2.1457e-16,0.66667
0.79794,0.47305,3.1917,-0.040429,-0.28982,4.3968,0.3441,-0.1147,-1.9951,0.4588,4.3488e-11,-0.99753,0,0,0.25,-2.3685e-15,0,0.66667
0.75286,0.039929,3.0115,-0.69011,-6.3159,6.8203,5.5419,-1.8473,-0.30653,7.3892,8.5132e-13,-0.15327,0,0,0.25,-0,-0,0.66667
0.1789,0.62924,0.71562,0.19387,3.8979,46.45,-0.36996,0.12332,-1.8663,-0.49328,-6.4434e-11,-0.93314,0,0,0.25,-5.9212e-16,0,0.66667
0.74052,0.97561,2.9621,0.71342,6.834,7.3889,-5.6352,1.8784,-0.18993,-7.5136,1.3656e-12,-0.094964,0,0,0.25,-0,-0,0.66667
0.37683,0.39631,1.5073,-0.15553,-2.76,29.802,0.62517,-0.20839,-1.914,0.83356,-6.2977e-13,-0.95699,0,0,0.25,-2.9606e-16,0,0.66667
0.31534,0.70013,1.2614,0.30019,5.6202,34.802,-1.0097,0.33658,-1.6792,-1.3463,-9.4653e-12,-0.83959,0,0,0.25,5.9212e-16,0,0.66667
0.20011,0.44566,0.80044,-0.081505,-1.6222,44.576,0.17397,-0.057991,-1.9763,0.23196,1.3883e-10,-0.98813,0,0,0.25,-0,-0,0.66667
0.55685,0.91835,2.2274,0.62753,9.1263,17.184,-3.7273,1.2424,-0.59904,-4.9698,-2.3714e-13,-0.29952,0,0,0.25,-1.1842e-15,0,0.66667
0.50796,0.50437,2.0318,0.0065619,0.10004,20.059,-0.035554,0.011851,-1.9997,-0.047405,7.4319e-14,-0.99986,0,0,0.25,-0,-0,0.66667
0.90452,0.70466,3.6181,0.30699,1.0419,1.4458,-2.9619,0.9873,-1.6647,-3.9492,-2.093e-12,-0.83236,0,0,0.25,-0,-0,0.66667
0.16445,0.34793,0.65779,-0.22811,-4.614,47.732,0.40013,-0.13338,-1.8149,0.53351,6.4615e-11,-0.90745,0,0,0.25,-5.9212e-16,0,0.66667
0.026083,0.59446,0.10433,0.14169,2.941,60.183,-0.03942,0.01314,-1.9293,-0.052561,-5.0923e-07,-0.96466,0,0,0.25,-0,-0,0.66667
0.13921,0.95529,0.55682,0.68293,14.219,50.08,-1.0141,0.33802,-0.34162,-1.3521,6.5032e-10,-0.17081,0,0,0.25,1.4803e-16,0,0.66667
0.036355,0.54886,0.14542,0.073286,1.519,59.249,-0.028419,0.0094731,-1.9801,-0.037892,2.4718e-07,-0.99004,0,0,0.25,-0,-0,0.66667
0.56867,0.14428,2.2747,-0.53358,-7.5481,16.325,3.2366,-1.0789,-0.98686,4.3155,6.4415e-13,-0.49343,0,0,0.25,-0,-0,0.66667
0.77158,0.8076,3.0863,0.4614,3.8159,5.6998,-3.7974,1.2658,-1.2429,-5.0632,1.0748e-10,-0.62147,0,0,0.25,1.9372e-15,0,0.66667
0.98718,0.43122,3.9487,-0.10317,0.0029627,0.10531,1.0864,-0.36212,-1.9623,1.4485,-1.2566e-06,-0.98115,0,0,0.25,-0,-0,0.66667
0.84725,0.28018,3.389,-0.32974,-1.8297,2.9191,2.9799,-0.99331,-1.6143,3.9732,-7.9481e-10,-0.80715,0,0,0.25,1.3323e-15,0,0.66667
0.16958,0.98056,0.67831,0.72084,14.904,47.419,-1.3039,0.43462,-0.15225,-1.7385,3.8778e-10,-0.076123,0,0,0.25,-0,-0,0.66667
0.97796,0.71129,3.9118,0.31693,0.1429,0.34068,-3.3061,1.102,-1.6424,-4.4081,6.4164e-11,-0.82119,0,0,0.25,-5.9212e-16,0,0.66667
0.57851,0.90904,2.314,0.61356,8.5904,15.806,-3.7861,1.262,-0.6628,-5.0482,-6.1684e-13,-0.3314,0,0,0.25,-0,-0,0.66667
0.81024,0.79035,3.241,0.43552,3.0232,4.2269,-3.764,1.2547,-1.3255,-5.0187,3.5597e-10,-0.66277,0,0,0.25,-0,-0,0.66667
0.011419,0.15292,0.045677,-0.52062,-10.948,61.522,0.063414,-0.021138,-1.0366,0.084552,5.1986e-08,-0.51832,0,0,0.25,4.6259e-18,0,0.66667
0.19796,0.603,0.79183,0.15449,3.0804,44.771,-0.32622,0.10874,-1.9146,-0.43496,-8.0679e-11,-0.95728,0,0,0.25,-0,-0,0.66667
0.92504,0.52199,3.7002,0.032981,0.082333,0.89408,-0.32543,0.10848,-1.9959,-0.4339,-2.2934e-08,-0.99794,0,0,0.25,-0,-0,0.66667
0.24256,0.74135,0.97024,0.36202,7.1068,40.945,-0.93667,0.31222,-1.5333,-1.2489,-1.0097e-10,-0.76667,0,0,0.25,-0,-0,0.66667
0.53957,0.25709,2.1583,-0.36437,-5.3478,18.05,2.0971,-0.69903,-1.5275,2.7961,7.4918e-13,-0.76373,0,0,0.25,-0,-0,0.66667
0.72603,0.70667,2.9041,0.31001,2.9774,7.4965,-2.4008,0.80027,-1.6574,-3.2011,4.0913e-11,-0.82869,0,0,0.25,-0,-0,0.66667
0.10091,0.60359,0.40364,0.15539,3.1944,53.406,-0.16726,0.055752,-1.9134,-0.22301,1.1165e-08,-0.9567,0,0,0.25,-2.9606e-16,0,0.66667
0.57273,0.81592,2.2909,0.47388,6.6273,16.009,-2.895,0.965,-1.2017,-3.86,-1.3198e-12,-0.60086,0,0,0.25,-0,-0,0.66667
0.21267,0.59838,0.85068,0.14757,2.9231,43.484,-0.33477,0.11159,-1.9225,-0.44636,-1.5019e-10,-0.96124,0,0,0.25,-5.9212e-16,0,0.66667
0.35815,0.26562,1.4326,-0.35157,-6.3782,31.35,1.3431,-0.4477,-1.5604,1.7908,-9.3059e-13,-0.78022,0,0,0.25,-0,-0,0.66667
0.44382,0.0011254,1.7753,-0.74831,-12.817,25.096,3.5426,-1.1809,-0.0095081,4.7234,2.558e-13,-0.0047541,0,0,0.25,-0,-0,0.66667
0.74936,0.8214,2.9974,0.48211,4.3446,6.6429,-3.8535,1.2845,-1.174,-5.138,5.6091e-11,-0.587,0,0,0.25,-0,-0,0.66667
0.91396,0.3715,3.6559,-0.19275,-0.57211,1.1614,1.8791,-0.62638,-1.8679,2.5055,2.2845e-08,-0.93396,0,0,0.25,2.9606e-16,0,0.66667
0.96955,0.19833,3.8782,-0.4525,-0.41115,0.60384,4.6797,-1.5599,-1.2722,6.2396,1.1971e-08,-0.63609,0,0,0.25,-0,-0,0.66667
0.38163,0.5754,1.5265,0.1131,1.9969,29.417,-0.4604,0.15347,-1.9536,-0.61387,6.9722e-13,-0.9768,0,0,0.25,-0,-0,0.66667
0.2518,0.72976,1.0072,0.34464,6.7275,40.149,-0.92563,0.30854,-1.5776,-1.2342,-7.7591e-11,-0.78881,0,0,0.25,-0,-0,0.66667
0.27102,0.27498,1.0841,-0.33753,-6.5148,38.514,0.97575,-0.32525,-1.5947,1.301,4.4345e-11,-0.79733,0,0,0.25,-1.4803e-16,0,0.66667
0.76456,0.37618,3.0583,-0.18573,-1.5444,5.7398,1.5147,-0.5049,-1.8788,2.0196,-9.7339e-11,-0.93939,0,0,0.25,2.3685e-15,0,0.66667
0.84258,0.21958,3.3703,-0.42063,-2.4347,3.1609,3.7804,-1.2601,-1.3724,5.0406,-6.8301e-10,-0.68619,0,0,0.25,-0,-0,0.66667
0.16474,0.29683,0.65898,-0.30476,-6.1767,47.718,0.53555,-0.17852,-1.6688,0.71407,5.7379e-10,-0.83438,0,0,0.25,-0,-0,0.66667
0.029941,0.43297,0.11976,-0.10055,-2.0855,59.832,0.032112,-0.010704,-1.9648,0.042815,-8.6261e-07,-0.98241,0,0,0.25,-3.7007e-17,0,0.66667
0.84738,0.81486,3.3895,0.4723,2.6745,3.0874,-4.2689,1.423,-1.2075,-5.6919,1.8806e-09,-0.60374,0,0,0.25,2.3685e-15,0,0.66667
0.15971,0.19924,0.63882,-0.45114,-9.2109,48.196,0.76853,-0.25618,-1.2759,1.0247,7.4969e-10,-0.63793,0,0,0.25,-0,-0,0.66667
0.94524,0.14806,3.781,-0.5279,-1.0442,1.0298,5.3226,-1.7742,-1.0085,7.0968,7.544e-09,-0.50426,0,0,0.25,-0,-0,0.66667
0.96751,0.35581,3.87,-0.21629,-0.17927,0.35366,2.2321,-0.74404,-1.8337,2.9761,-2.8901e-08,-0.91684,0,0,0.25,-0,-0,0.66667
0.57819,0.83392,2.3127,0.50088,6.9515,15.696,-3.0891,1.0297,-1.1085,-4.1188,-1.3238e-12,-0.55424,0,0,0.25,-5.9212e-16,0,0.66667
0.48604,0.63591,1.9441,0.20386,3.2116,21.628,-1.0569,0.3523,-1.8522,-1.4092,1.622e-13,-0.92609,0,0,0.25,-0,-0,0.66667
0.35393,0.35613,1.4157,-0.21581,-3.9117,31.638,0.81473,-0.27158,-1.8336,1.0863,6.3111e-13,-0.9168,0,0,0.25,-5.9212e-16,0,0.66667
0.6594,0.29794,2.6376,-0.30309,-3.5065,10.813,2.1318,-0.7106,-1.6728,2.8424,-1.9702e-12,-0.83642,0,0,0.25,-1.1842e-15,0,0.66667
0.38436,0.38127,1.5374,-0.1781,-3.1401,29.216,0.73018,-0.24339,-1.8869,0.97357,-7.8276e-13,-0.94344,0,0,0.25,-1.1842e-15,0,0.66667
0.4349,0.90146,1.7396,0.60219,10.292,25.6,-2.7935,0.93117,-0.71102,-3.7247,5.1892e-13,-0.35551,0,0,0.25,-3.8549e-17,0,0.66667
0.6133,0.52098,2.4532,0.031468,0.40049,13.308,-0.20586,0.06862,-1.996,-0.27448,-2.3793e-13,-0.998,0,0,0.25,-0,-0,0.66667
0.034635,0.203,0.13854,-0.4455,-9.3245,59.417,0.16459,-0.054862,-1.2937,0.21945,-2.5115e-08,-0.64687,0,0,0.25,-0,-0,0.66667
0.2188,0.11224,0.87522,-0.58163,-11.679,43.074,1.3575,-0.45249,-0.7975,1.81,8.3847e-11,-0.39875,0,0,0.25,-2.9606e-16,0,0.66667
0.020192,0.93538,0.080768,0.65307,13.834,60.734,-0.14066,0.046886,-0.48404,-0.18754,-4.8561e-07,-0.24202,0,0,0.25,-0,-0,0.66667
0.76313,0.32398,3.0525,-0.26403,-2.2174,5.8465,2.1492,-0.7164,-1.7519,2.8656,-1.1163e-10,-0.87593,0,0,0.25,-0,-0,0.66667
0.38987,0.84046,1.5595,0.51069,9.079,28.944,-2.1238,0.70792,-1.0738,-2.8317,1.9349e-12,-0.53691,0,0,0.25,8.8818e-16,0,0.66667
0.42267,0.73317,1.6907,0.34975,5.9687,26.332,-1.5768,0.52562,-1.5651,-2.1025,1.7092e-12,-0.78256,0,0,0.25,5.9212e-16,0,0.66667
0.54968,0.94503,2.1987,0.66754,9.8571,17.694,-3.914,1.3047,-0.41558,-5.2187,-2.5979e-14,-0.20779,0,0,0.25,-0,-0,0.66667
0.38846,0.4312,1.5538,-0.1032,-1.8104,28.88,0.42764,-0.14255,-1.9624,0.57018,-6.8506e-13,-0.98121,0,0,0.25,5.2607e-16,0,0.66667
0.81063,0.04767,3.2425,-0.67849,-4.8911,4.6034,5.8668,-1.9556,-0.36294,7.8224,-5.7575e-11,-0.18147,0,0,0.25,-0,2.9529e-16,0.66667
0.4359,0.39591,1.7436,-0.15614,-2.6109,25.263,0.72598,-0.24199,-1.9133,0.96797,-1.0954e-12,-0.95667,0,0,0.25,-0,-0,0.66667
0.58016,0.32005,2.3206,-0.26993,-3.6832,15.391,1.6704,-0.5568,-1.7411,2.2272,1.6436e-12,-0.87055,0,0,0.25,-0,-0,0.66667
0.97117,0.91384,3.8847,0.62076,0.63849,0.8989,-6.4306,2.1435,-0.62996,-8.5741,-5.1453e-07,-0.31498,0,0,0.25,-0,-0,0.66667
0.9921,0.033589,3.9684,-0.69962,-0.18191,0.91336,7.4036,-2.4679,-0.25992,9.8715,-4.8209e-06,-0.12996,0,0,0.25,-2.3685e-15,0,0.66667
0.20287,0.55308,0.81149,0.079624,1.5828,44.334,-0.17231,0.057435,-1.9779,-0.22974,-1.1246e-10,-0.98897,0,0,0.25,-0,-0,0.66667
0.44452,0.55972,1.7781,0.089585,1.482,24.609,-0.42477,0.14159,-1.9716,-0.56636,7.5392e-13,-0.98582,0,0,0.25,-0,-0,0.66667
0.47475,0.43021,1.899,-0.10468,-1.6699,22.406,0.53009,-0.1767,-1.9606,0.70679,-5.1692e-13,-0.9803,0,0,0.25,5.9212e-16,0,0.66667
0.29764,0.31278,1.1906,-0.28082,-5.3193,36.262,0.89156,-0.29719,-1.7213,1.1887,1.9108e-11,-0.86065,0,0,0.25,-0,-0,0.66667
0.2835,0.33054,1.134,-0.25418,-4.8555,37.437,0.76867,-0.25622,-1.77,1.0249,2.9728e-11,-0.88499,0,0,0.25,2.9606e-16,0,0.66667
0.83962,0.2301,3.3585,-0.40485,-2.3808,3.231,3.6258,-1.2086,-1.4167,4.8344,-8.5536e-10,-0.70833,0,0,0.25,-0,-0,0.66667
0.96209,0.37044,3.8484,-0.19434,-0.20259,0.40046,1.9944,-0.66479,-1.8656,2.6592,-9.2615e-08,-0.9328,0,0,0.25,-1.1842e-15,0,0.66667
0.21069,0.41499,0.84276,-0.12752,-2.5273,43.655,0.28657,-0.095524,-1.9415,0.3821,1.1273e-10,-0.97076,0,0,0.25,-0,-0,0.66667
0.89173,0.15768,3.5669,-0.51348,-2.0844,1.9956,4.8841,-1.628,-1.0639,6.5122,-1.3918e-08,-0.53195,0,0,0.25,-0,-0,0.66667
0.39198,0.69947,1.5679,0.2992,5.2555,28.661,-1.251,0.41699,-1.6817,-1.668,1.8754e-12,-0.84084,0,0,0.25,-0,-0,0.66667
0.65143,0.76837,2.6057,0.40255,4.7763,11.327,-2.7971,0.93238,-1.4231,-3.7295,-5.4601e-13,-0.71154,0,0,0.25,1.1842e-15,0,0.66667
0.28386,0.45812,1.1354,-0.062823,-1.1958,37.377,0.19022,-0.063406,-1.9857,0.25363,1.0051e-11,-0.99286,0,0,0.25,-0,-0,0.66667
0.94108,0.78644,3.7643,0.42966,0.8799,0.93312,-4.313,1.4377,-1.3438,-5.7507,-1.2602e-08,-0.67188,0,0,0.25,-0,-0,0.66667
0.78682,0.96331,3.1473,0.69497,5.5902,5.4862,-5.8327,1.9442,-0.28257,-7.7769,-1.3691e-11,-0.14129,0,0,0.25,-1.1842e-15,0,0.66667
0.19277,0.17672,0.77109,-0.48492,-9.7958,45.298,0.99711,-0.33237,-1.1632,1.3295,3.3283e-10,-0.58161,0,0,0.25,-2.9606e-16,0,0.66667
0.61504,0.38579,2.4602,-0.17132,-2.1776,13.237,1.1239,-0.37464,-1.8949,1.4986,8.1413e-13,-0.94745,0,0,0.25,1.1842e-15,0,0.66667
0.9688,0.42481,3.8752,-0.11279,-0.083513,0.28095,1.1656,-0.38852,-1.9551,1.5541,1.8268e-07,-0.97756,0,0,0.25,1.1842e-15,0,0.66667
0.28459,0.53069,1.1383,0.046028,0.87565,37.315,-0.13972,0.046574,-1.9935,-0.18629,-7.6648e-12,-0.99674,0,0,0.25,-6.6613e-16,0,0.66667
0.36153,0.84654,1.4461,0.51981,9.4823,31.174,-2.0046,0.66819,-1.0401,-2.6728,1.5414e-12,-0.52006,0,0,0.25,-1.1842e-15,0,0.66667
0.20361,0.49983,0.81445,-0.00025463,-0.005058,44.267,0.00055301,-0.00018434,-2.0018,0.00073735,1.4645e-10,-1.0009,0,0,0.25,-5.7824e-16,0,0.66667
0.63877,0.44604,2.5551,-0.080933,-0.97543,11.849,0.55144,-0.18381,-1.9768,0.73525,-4.2139e-13,-0.98841,0,0,0.25,-0,-0,0.66667
0.89282,0.80222,3.5713,0.45332,1.7941,1.8788,-4.3172,1.4391,-1.2692,-5.7563,-2.2137e-10,-0.6346,0,0,0.25,-0,-0,0.66667
0.3417,0.99116,1.3668,0.73675,13.867,32.926,-2.6853,0.89509,-0.070094,-3.5803,-1.9207e-13,-0.035047,0,0,0.25,4.0465e-16,2.4018e-16,0.66667
0.1244,0.22631,0.4976,-0.41054,-8.4549,51.327,0.54475,-0.18158,-1.4013,0.72633,8.3669e-10,-0.70065,0,0,0.25,-0,-0,0.66667
0.34768,0.83832,1.3907,0.50749,9.3572,32.272,-1.882,0.62735,-1.0843,-2.5094,1.4797e-12,-0.54217,0,0,0.25,1.4803e-16,0,0.66667
0.62672,0.4387,2.5069,-0.091952,-1.1383,12.535,0.61471,-0.2049,-1.9712,0.81961,1.4883e-13,-0.98559,0,0,0.25,-0,-0,0.66667
0.73484,0.11031,2.9394,-0.58453,-5.6025,7.4185,4.5817,-1.5272,-0.7853,6.109,-1.2679e-11,-0.39265,0,0,0.25,-0,-0,0.66667
0.60653,0.35974,2.4261,-0.21039,-2.724,13.756,1.3611,-0.45371,-1.8421,1.8148,1.1213e-12,-0.92107,0,0,0.25,1.1842e-15,0,0.66667
0.076207,0.20659,0.30483,-0.44012,-9.1664,55.66,0.35776,-0.11925,-1.3111,0.47701,-9.8879e-10,-0.65555,0,0,0.25,-0,-0,0.66667
0.93982,0.37668,3.7593,-0.18498,-0.35934,0.70101,1.8544,-0.61814,-1.8793,2.4725,7.3415e-08,-0.93967,0,0,0.25,-2.3685e-15,0,0.66667
0.18939,0.16917,0.75757,-0.49625,-10.044,45.597,1.0025,-0.33417,-1.1242,1.3367,3.49e-10,-0.5621,0,0,0.25,-2.9606e-16,0,0.66667
0.57409,0.40738,2.2963,-0.13893,-1.9087,15.715,0.85073,-0.28358,-1.9321,1.1343,5.8409e-13,-0.96607,0,0,0.25,2.3685e-15,0,0.66667
0.90683,0.96701,3.6273,0.70051,2.6027,2.0367,-6.7759,2.2586,-0.25671,-9.0346,-1.0033e-07,-0.12835,0,0,0.25,-1.4803e-16,0,0.66667
0.97339,0.91148,3.8935,0.61722,0.57534,0.86995,-6.4084,2.1361,-0.64546,-8.5446,-6.7767e-07,-0.32273,0,0,0.25,-0,-0,0.66667
0.85777,0.33699,3.4311,-0.24451,-1.2508,2.5415,2.2372,-0.74573,-1.7878,2.9829,-5.9219e-11,-0.8939,0,0,0.25,-0,-0,0.66667
0.12909,0.67561,0.51636,0.26341,5.391,50.885,-0.36271,0.1209,-1.7527,-0.48361,1.7141e-10,-0.87635,0,0,0.25,-0,-0,0.66667
0.90702,0.55242,3.6281,0.078634,0.2521,1.2518,-0.76078,0.25359,-1.9783,-1.0144,-2.3257e-08,-0.98914,0,0,0.25,-1.1842e-15,0,0.66667
0.32751,0.93172,1.3101,0.64759,12.237,33.995,-2.2623,0.75411,-0.50969,-3.0164,6.144e-13,-0.25485,0,0,0.25,1.4803e-16,1.7842e-16,0.66667
0.58239,0.57344,2.3295,0.11016,1.4901,15.19,-0.68432,0.22811,-1.9563,-0.91243,-8.3938e-13,-0.97814,0,0,0.25,-1.1842e-15,0,0.66667
0.14046,0.33923,0.56184,-0.24115,-4.917,49.867,0.3613,-0.12043,-1.7943,0.48174,-5.9415e-10,-0.89717,0,0,0.25,-0,-0,0.66667
0.51272,0.75428,2.0509,0.38142,5.833,19.864,-2.086,0.69534,-1.4831,-2.7814,-3.6082e-13,-0.74157,0,0,0.25,-0,-0,0.66667
0.46733,0.73781,1.8693,0.35671,5.7868,23.037,-1.7781,0.59271,-1.5475,-2.3709,7.4474e-13,-0.77377,0,0,0.25,-5.9212e-16,0,0.66667
0.005313,0.8455,0.021252,0.51825,10.898,62.075,-0.02937,0.0097899,-1.0455,-0.03916,-9.2632e-08,-0.52276,0,0,0.25,1.8504e-17,-6.5281e-16,0.66667
0.28621,0.26495,1.1448,-0.35258,-6.7453,37.241,1.0764,-0.3588,-1.5572,1.4352,2.5836e-11,-0.77859,0,0,0.25,5.9212e-16,0,0.66667
0.14345,0.76977,0.5738,0.40465,8.2876,49.627,-0.61916,0.20639,-1.4175,-0.82555,-9.3068e-10,-0.70873,0,0,0.25,1.4803e-16,0,0.66667
0.35352,0.5611,1.4141,0.091657,1.6583,31.647,-0.34563,0.11521,-1.9706,-0.46084,-8.1901e-13,-0.98531,0,0,0.25,2.2204e-16,0,0.66667
0.27167,0.78087,1.0867,0.42131,8.1564,38.49,-1.2209,0.40696,-1.3696,-1.6278,-3.5349e-11,-0.68479,0,0,0.25,9.2519e-17,0,0.66667
0.47113,0.40292,1.8845,-0.14562,-2.3353,22.675,0.7318,-0.24393,-1.9253,0.97573,-5.3335e-13,-0.96264,0,0,0.25,2.9606e-16,0,0.66667
0.77155,0.78178,3.0862,0.42266,3.4809,5.6539,-3.4785,1.1595,-1.3655,-4.638,1.4461e-10,-0.68274,0,0,0.25,-0,-0,0.66667
0.020636,0.78947,0.082546,0.43421,9.0908,60.685,-0.09558,0.03186,-1.3292,-0.12744,-5.5959e-09,-0.66459,0,0,0.25,-0,-0,0.66667
0.22758,0.69633,0.91032,0.29449,5.8117,42.216,-0.71488,0.23829,-1.691,-0.95317,-1.4944e-10,-0.8455,0,0,0.25,-0,-0,0.66667
0.98353,0.72375,3.9341,0.33562,0.077315,0.3133,-3.521,1.1737,-1.6003,-4.6946,1.1115e-08,-0.80016,0,0,0.25,-0,-0,0.66667
0.059609,0.94837,0.23844,0.67256,14.22,57.185,-0.42763,0.14254,-0.39135,-0.57018,-1.6433e-08,-0.19568,0,0,0.25,1.4803e-16,0,0.66667
0.59551,0.4806,2.382,-0.029103,-0.38374,14.372,0.18487,-0.061622,-1.9969,0.24649,1.022e-13,-0.99843,0,0,0.25,-0,-0,0.66667
0.99828,0.55498,3.9931,0.082467,-0.041479,0.022061,-0.87814,0.29271,-1.9761,-1.1709,1.0926e-06,-0.98803,0,0,0.25,-0,-0,0.66667
0.60079,0.1093,2.4031,-0.58606,-7.8567,14.419,3.7557,-1.2519,-0.77781,5.0076,9.317e-13,-0.38891,0,0,0.25,-0,-0,0.66667
0.052634,0.76507,0.21053,0.3976,8.2919,57.785,-0.22322,0.074408,-1.437,-0.29763,1.1753e-08,-0.7185,0,0,0.25,-0,-0,0.66667
0.12467,0.73391,0.4987,0.35087,7.2089,51.293,-0.4666,0.15553,-1.5625,-0.62213,-7.4114e-10,-0.78124,0,0,0.25,-0,-0,0.66667
0.89515,0.24952,3.5806,-0.37573,-1.4286,1.7242,3.5875,-1.1958,-1.4989,4.7834,1.2512e-10,-0.74945,0,0,0.25,-1.2953e-15,0,0.66667
0.86842,0.58992,3.4737,0.13488,0.6313,2.1864,-1.2494,0.41648,-1.9353,-1.6659,-1.7795e-09,-0.96766,0,0,0.25,2.9606e-16,0,0.66667
0.54878,0.017173,2.1951,-0.72424,-10.769,17.829,4.2394,-1.4131,-0.13478,5.6526,-6.6613e-15,-0.067391,0,0,0.25,-0,-0,0.66667
0.26258,0.71088,1.0503,0.31632,6.1313,39.222,-0.88598,0.29533,-1.6441,-1.1813,-5.7825e-11,-0.82207,0,0,0.25,-0,-0,0.66667
0.51035,0.25884,2.0414,-0.36175,-5.5453,20.014,1.9692,-0.65641,-1.5342,2.6257,3.2152e-13,-0.76709,0,0,0.25,-1.1842e-15,0,0.66667
0.25377,0.88673,1.0151,0.58009,11.442,40.079,-1.5703,0.52342,-0.80299,-2.0937,-2.1977e-11,-0.4015,0,0,0.25,-0,-0,0.66667
0.69013,0.83257,2.7605,0.49885,5.4112,9.4083,-3.6722,1.2241,-1.1149,-4.8963,3.898e-12,-0.55745,0,0,0.25,-5.9212e-16,0,0.66667
0.60412,0.32563,2.4165,-0.26155,-3.4093,13.925,1.6854,-0.5618,-1.756,2.2472,1.6307e-12,-0.87798,0,0,0.25,-0,-0,0.66667
0.78798,0.0058695,3.1519,-0.7412,-5.9841,5.5358,6.2299,-2.0766,-0.046368,8.3065,-8.4174e-11,-0.023184,0,0,0.25,-0,-0,0.66667
0.48764,0.90576,1.9506,0.60864,9.7756,21.8,-3.1658,1.0553,-0.6839,-4.2211,2.8866e-14,-0.34195,0,0,0.25,1.6653e-16,0,0.66667
0.038361,0.48819,0.15344,-0.01771,-0.36692,59.066,0.0072469,-0.0024147,-1.998,0.009663,1.4266e-06,-0.999,0,0,0.25,-4.5428e-17,0,0.66667
0.79002,0.70615,3.1601,0.30923,2.3298,4.8233,-2.6058,0.8686,-1.6591,-3.4744,2.1081e-10,-0.82955,0,0,0.25,-1.1842e-15,0,0.66667
0.20938,0.27453,0.8375,-0.33821,-6.7416,43.806,0.75533,-0.25178,-1.5929,1.0071,2.3853e-10,-0.79645,0,0,0.25,-0,-0,0.66667
0.22664,0.40856,0.90655,-0.13716,-2.6985,42.27,0.33158,-0.11053,-1.9333,0.44211,6.7193e-11,-0.96667,0,0,0.25,-0,-0,0.66667
0.54164,0.76662,2.1666,0.39992,5.8618,17.94,-2.3105,0.77018,-1.4305,-3.0807,-1.1733e-12,-0.71524,0,0,0.25,1.1842e-15,0,0.66667
0.82259,0.0084223,3.2904,-0.73737,-5.0719,4.3273,6.4699,-2.1566,-0.066281,8.6265,-2.4438e-10,-0.033141,0,0,0.25,-0,-0,0.66667
0.94909,0.71515,3.7964,0.32272,0.52971,0.68158,-3.2671,1.089,-1.63,-4.3561,-3.5167e-09,-0.815,0,0,0.25,-1.1842e-15,0,0.66667
0.24077,0.50711,0.96309,0.010662,0.20805,41.042,-0.027383,0.0091276,-1.9991,-0.03651,2.1844e-12,-0.99957,0,0,0.25,-0,-0,0.66667
0.8962,0.13221,3.5848,-0.55168,-2.1689,1.9608,5.2738,-1.7579,-0.91745,7.0317,1.2086e-08,-0.45873,0,0,0.25,-0,-0,0.66667
0.91103,0.70208,3.6441,0.30312,0.95151,1.3084,-2.9456,0.98186,-1.6725,-3.9275,-3.526e-09,-0.83626,0,0,0.25,-0,-0,0.66667
0.74442,0.56573,2.9777,0.0986,0.88128,6.5603,-0.78293,0.26098,-1.9656,-1.0439,3.3917e-11,-0.98281,0,0,0.25,-2.3685e-15,0,0.66667
0.37426,0.45901,1.497,-0.061478,-1.0922,29.991,0.24543,-0.08181,-1.9869,0.32724,-2.2367e-13,-0.99343,0,0,0.25,-0,-0,0.66667
0.54785,0.78507,2.1914,0.42761,6.2159,17.556,-2.4988,0.83295,-1.3508,-3.3318,-1.1795e-12,-0.67542,0,0,0.25,-0,-0,0.66667
0.13763,0.7112,0.55053,0.31681,6.4787,50.13,-0.4651,0.15503,-1.6431,-0.62013,-4.7825e-10,-0.82155,0,0,0.25,-0,-0,0.66667
0.57527,0.60766,2.3011,0.16149,2.2151,15.648,-0.99092,0.33031,-1.9068,-1.3212,-1.2143e-12,-0.95341,0,0,0.25,-0,-0,0.66667
0.57561,0.7919,2.3025,0.43786,6.0776,15.796,-2.6884,0.89613,-1.3181,-3.5845,-1.4215e-12,-0.65905,0,0,0.25,-1.1842e-15,0,0.66667
0.58347,0.96086,2.3339,0.69129,9.6662,15.605,-4.3024,1.4341,-0.30042,-5.7365,-1.7275e-13,-0.15021,0,0,0.25,5.9212e-16,0,0.66667
0.92023,0.62228,3.6809,0.18341,0.49876,1.0356,-1.8003,0.60011,-1.8814,-2.4005,1.4452e-08,-0.94068,0,0,0.25,1.1842e-15,0,0.66667
0.5331,0.60474,2.1324,0.15711,2.3115,18.376,-0.89338,0.29779,-1.9121,-1.1912,-5.5739e-13,-0.95607,0,0,0.25,-0,-0,0.66667
0.24089,0.49877,0.96358,-0.0018469,-0.036035,41.032,0.0047458,-0.0015819,-2.0005,0.0063277,-1.0052e-11,-1.0002,0,0,0.25,6.2778e-16,0,0.66667
0.54523,0.50459,2.1809,0.0068881,0.099239,17.55,-0.04006,0.013353,-2.0005,-0.053413,2.2343e-14,-1.0002,0,0,0.25,-0,-0,0.66667
0.12737,0.98434,0.5095,0.72651,15.221,51.143,-0.98708,0.32903,-0.12295,-1.3161,-9.0073e-10,-0.061473,0,0,0.25,-2.9606e-16,0,0.66667
0.074781,0.44489,0.29912,-0.082665,-1.706,55.763,0.065938,-0.021979,-1.9756,0.087918,7.574e-08,-0.9878,0,0,0.25,-0,-0,0.66667
0.83061,0.94063,3.3224,0.66094,4.2861,3.9151,-5.8558,1.9519,-0.44749,-7.8077,-5.0263e-10,-0.22375,0,0,0.25,-0,-0,0.66667
0.72316,0.23692,2.8926,-0.39463,-3.8496,7.7056,3.044,-1.0147,-1.4456,4.0587,-3.2492e-11,-0.72279,0,0,0.25,1.1842e-15,0,0.66667
0.083912,0.90251,0.33565,0.60377,12.666,54.991,-0.54041,0.18014,-0.70394,-0.72054,3.3232e-08,-0.35197,0,0,0.25,-1.8504e-16,0,0.66667
0.55758,0.55523,2.2303,0.082841,1.1701,16.753,-0.4927,0.16423,-1.9753,-0.65693,-6.6322e-13,-0.98763,0,0,0.25,3.3015e-16,0,0.66667
0.52511,0.32076,2.1004,-0.26886,-4.0175,18.957,1.5059,-0.50198,-1.7424,2.0079,5.4678e-13,-0.87121,0,0,0.25,-0,-0,0.66667
0.50731,0.95254,2.0292,0.67881,10.683,20.52,-3.6732,1.2244,-0.36068,-4.8977,-1.8985e-13,-0.18034,0,0,0.25,-0,-0,0.66667
0.032405,0.61453,0.12962,0.1718,3.5662,59.609,-0.059382,0.019794,-1.8952,-0.079176,6.2744e-08,-0.94759,0,0,0.25,3.7007e-17,0,0.66667
0.96037,0.12888,3.8415,-0.55668,-0.77678,0.88589,5.7026,-1.9009,-0.89814,7.6034,2.3713e-07,-0.44907,0,0,0.25,2.3685e-15,0,0.66667
0.92765,0.54602,3.7106,0.069027,0.16545,0.85374,-0.68302,0.22767,-1.9821,-0.91069,-6.2999e-08,-0.99107,0,0,0.25,1.1842e-15,0,0.66667
0.96441,0.47711,3.8577,-0.03433,-0.031217,0.31045,0.35315,-0.11772,-1.9954,0.47087,-2.5614e-07,-0.99772,0,0,0.25,-0,-0,0.66667
0.53338,0.30599,2.1335,-0.29102,-4.2979,18.414,1.6557,-0.5519,-1.6991,2.2076,7.4607e-13,-0.84957,0,0,0.25,-5.9212e-16,0,0.66667
0.12664,0.59951,0.50656,0.14926,3.0495,51.094,-0.20162,0.067208,-1.9213,-0.26883,-1.6999e-09,-0.96064,0,0,0.25,-0,-0,0.66667
0.73229,0.44414,2.9292,-0.083789,-0.7807,7.0962,0.65448,-0.21816,-1.9753,0.87264,-2.1461e-11,-0.98765,0,0,0.25,-0,-0,0.66667
0.94973,0.71303,3.7989,0.31954,0.51555,0.66926,-3.2371,1.079,-1.6371,-4.3162,-4.7416e-09,-0.81853,0,0,0.25,-1.7764e-15,0,0.66667
0.25927,0.054636,1.0371,-0.66805,-13.213,39.664,1.8475,-0.61583,-0.41267,2.4633,1.8144e-12,-0.20634,0,0,0.25,-0,-0,0.66667
0.28377,0.82477,1.1351,0.48716,9.3916,37.502,-1.4746,0.49152,-1.1558,-1.9661,-1.5884e-11,-0.57792,0,0,0.25,-5.9212e-16,0,0.66667
0.44706,0.55404,1.7882,0.081064,1.337,24.42,-0.38656,0.12885,-1.9761,-0.51541,6.232e-13,-0.98803,0,0,0.25,-2.9606e-16,0,0.66667
0.15862,0.62229,0.63447,0.18343,3.7142,48.244,-0.31035,0.10345,-1.8812,-0.41381,9.4924e-11,-0.94058,0,0,0.25,-7.4015e-17,0,0.66667
0.56858,0.50253,2.2743,0.0037911,0.052516,16.043,-0.022993,0.0076642,-2.0002,-0.030657,-2.1189e-13,-1.0001,0,0,0.25,-0,-0,0.66667
0.44953,0.50934,1.7981,0.014017,0.23043,24.232,-0.067213,0.022404,-1.999,-0.089617,1.9405e-13,-0.99948,0,0,0.25,-0,-0,0.66667
0.88742,0.349,3.5497,-0.2265,-0.90662,1.7598,2.144,-0.71466,-1.8178,2.8586,1.2036e-09,-0.9089,0,0,0.25,-0,-0,0.66667
0.21483,0.29622,0.85933,-0.30566,-6.0712,43.324,0.70044,-0.23348,-1.6671,0.93392,1.8877e-10,-0.83356,0,0,0.25,2.9606e-16,0,0.66667
0.16795,0.5515,0.6718,0.077251,1.5569,47.409,-0.13839,0.046131,-1.9783,-0.18452,-3.3495e-10,-0.98913,0,0,0.25,1.4803e-16,0,0.66667
0.49563,0.8242,1.9825,0.4863,7.6615,21.124,-2.571,0.85699,-1.1585,-3.4279,-1.8341e-13,-0.57925,0,0,0.25,-0,-0,0.66667
0.51663,0.25116,2.0665,-0.37326,-5.6737,19.593,2.0569,-0.68563,-1.5061,2.7425,1.9407e-13,-0.75304,0,0,0.25,-0,-0,0.66667
0.4062,0.61194,1.6248,0.16791,2.898,27.518,-0.72751,0.2425,-1.9001,-0.97001,1.2715e-12,-0.95004,0,0,0.25,-0,-0,0.66667
0.2368,0.32077,0.94719,-0.26885,-5.2771,41.415,0.67906,-0.22635,-1.743,0.90541,1.1262e-10,-0.8715,0,0,0.25,-0,-0,0.66667
0.53636,0.87708,2.1455,0.56562,8.4529,18.441,-3.236,1.0787,-0.86293,-4.3147,-3.6837e-13,-0.43146,0,0,0.25,-0,-0,0.66667
0.96214,0.73626,3.8486,0.35439,0.40105,0.55012,-3.637,1.2123,-1.5525,-4.8494,-6.8525e-09,-0.77625,0,0,0.25,1.1842e-15,0,0.66667
0.25644,0.95506,1.0257,0.68259,13.536,39.912,-1.8671,0.62237,-0.34241,-2.4895,-2.9202e-12,-0.1712,0,0,0.25,-2.9606e-16,0,0.66667
0.28319,0.24158,1.1328,-0.38763,-7.4406,37.507,1.1709,-0.39031,-1.4658,1.5612,2.6764e-11,-0.73292,0,0,0.25,2.9606e-16,0,0.66667
0.031465,0.052704,0.12586,-0.67094,-14.221,59.718,0.22519,-0.075063,-0.39987,0.30025,1.8363e-07,-0.19994,0,0,0.25,-3.7007e-17,0,0.66667
0.87611,0.46468,3.5044,-0.052978,-0.23195,1.9622,0.49509,-0.16503,-1.9909,0.66012,-9.7993e-09,-0.99546,0,0,0.25,1.7764e-15,0,0.66667
0.27438,0.46598,1.0975,-0.051032,-0.97709,38.175,0.14936,-0.049787,-1.9909,0.19915,1.1846e-11,-0.99546,0,0,0.25,7.4015e-16,0,0.66667
0.059762,0.85756,0.23905,0.53633,11.248,57.154,-0.3419,0.11397,-0.9768,-0.45586,-1.6999e-08,-0.4884,0,0,0.25,-0,-0,0.66667
0.75205,0.16012,3.0082,-0.50983,-4.5649,6.5651,4.0898,-1.3633,-1.0765,5.453,-4.4946e-11,-0.53825,0,0,0.25,-0,-0,0.66667
0.92919,0.20933,3.7168,-0.436,-1.1023,1.1331,4.3214,-1.4405,-1.3234,5.7618,3.9918e-09,-0.66168,0,0,0.25,-0,-0,0.66667
0.42393,0.7859,1.6957,0.42884,7.3361,26.284,-1.9392,0.6464,-1.3467,-2.5856,1.425e-12,-0.67333,0,0,0.25,1.1842e-15,0,0.66667
0.32511,0.2952,1.3004,-0.30719,-5.7117,34.003,1.0653,-0.35509,-1.664,1.4204,5.5648e-12,-0.83199,0,0,0.25,-0,-0,0.66667
0.68882,0.61071,2.7553,0.16606,1.7696,9.2029,-1.2201,0.40671,-1.9019,-1.6269,9.6113e-12,-0.95093,0,0,0.25,-0,-0,0.66667
0.20706,0.41949,0.82824,-0.12076,-2.3972,43.971,0.26673,-0.088908,-1.9475,0.35563,9.0594e-11,-0.97375,0,0,0.25,-0,-0,0.66667
0.55152,0.052301,2.2061,-0.67155,-9.891,17.581,3.9506,-1.3169,-0.39594,5.2675,9.2371e-14,-0.19797,0,0,0.25,-0,-0,0.66667
0.49453,0.83767,1.9781,0.50651,8.0022,21.219,-2.6719,0.89062,-1.0876,-3.5625,-1.3478e-13,-0.54378,0,0,0.25,5.9212e-16,0,0.66667
0.58736,0.97762,2.3494,0.71643,9.9745,15.406,-4.4886,1.4962,-0.17439,-5.9847,-8.9706e-14,-0.087194,0,0,0.25,1.1842e-15,0,0.66667
0.83524,0.090806,3.341,-0.61379,-3.8411,3.6823,5.4684,-1.8228,-0.66062,7.2912,-1.0668e-09,-0.33031,0,0,0.25,-2.9606e-16,0,0.66667
0.68413,0.90375,2.7365,0.60562,6.7501,9.8537,-4.4194,1.4731,-0.69652,-5.8926,-1.914e-13,-0.34826,0,0,0.25,4.4409e-16,0,0.66667
0.88239,0.43633,3.5295,-0.095512,-0.39629,1.8149,0.89897,-0.29966,-1.968,1.1986,1.1604e-08,-0.98401,0,0,0.25,1.1842e-15,0,0.66667
0.27936,0.75831,1.1174,0.38746,7.4551,37.829,-1.1546,0.38485,-1.4663,-1.5394,-3.0893e-11,-0.73317,0,0,0.25,-0,-0,0.66667
0.24996,0.66143,0.99982,0.24215,4.7165,40.28,-0.64561,0.2152,-1.7926,-0.86081,-7.8667e-11,-0.89628,0,0,0.25,-5.9212e-16,0,0.66667
0.18811,0.33757,0.75245,-0.24365,-4.8867,45.647,0.48889,-0.16296,-1.7897,0.65185,3.1262e-10,-0.89483,0,0,0.25,1.4803e-16,0,0.66667
0.008355,0.78295,0.03342,0.42443,8.8856,61.798,-0.037825,0.012608,-1.3599,-0.050434,-1.9158e-08,-0.67993,0,0,0.25,-0,-0,0.66667
0.65746,0.6255,2.6298,0.18826,2.1773,10.852,-1.3202,0.44007,-1.8755,-1.7603,2.1108e-12,-0.93776,0,0,0.25,-0,-0,0.66667
0.37182,0.28747,1.4873,-0.3188,-5.7085,30.25,1.2644,-0.42146,-1.6387,1.6858,-1.5383e-12,-0.81935,0,0,0.25,-0,-0,0.66667
0.16613,0.63802,0.6645,0.20704,4.1833,47.581,-0.36687,0.12229,-1.8467,-0.48916,-4.7412e-10,-0.92336,0,0,0.25,2.9606e-16,0,0.66667
0.25918,0.63243,1.0367,0.19865,3.8454,39.484,-0.54917,0.18306,-1.8592,-0.73223,-5.5169e-11,-0.9296,0,0,0.25,5.9212e-16,0,0.66667
0.1825,0.91907,0.73001,0.62861,12.855,46.249,-1.2237,0.4079,-0.59424,-1.6316,-6.0732e-11,-0.29712,0,0,0.25,-2.9606e-16,0,0.66667
0.17807,0.60414,0.71229,0.15621,3.1396,46.519,-0.29671,0.098902,-1.9125,-0.39561,-2.8537e-10,-0.95624,0,0,0.25,-2.9606e-16,0,0.66667
0.22777,0.66862,0.91107,0.25292,4.985,42.191,-0.61449,0.20483,-1.7717,-0.81932,-1.26e-10,-0.88583,0,0,0.25,5.9212e-16,0,0.66667
0.096411,0.63322,0.38564,0.19983,4.1152,53.815,-0.2055,0.068501,-1.858,-0.27401,1.3806e-10,-0.92898,0,0,0.25,-0,-0,0.66667
0.54411,0.1649,2.1764,-0.50265,-7.3871,17.868,2.9173,-0.97243,-1.1015,3.8897,6.1418e-13,-0.55077,0,0,0.25,-0,-0,0.66667
0.8362,0.28579,3.3448,-0.32132,-1.9087,3.2463,2.866,-0.95532,-1.6328,3.8213,-5.085e-10,-0.81638,0,0,0.25,-0,-0,0.66667
0.34664,0.87965,1.3866,0.56948,10.548,32.396,-2.1057,0.70188,-0.84726,-2.8075,1.2994e-12,-0.42363,0,0,0.25,-0,-0,0.66667
0.9126,0.72889,3.6504,0.34334,1.0661,1.3194,-3.3422,1.1141,-1.5801,-4.4563,5.0715e-10,-0.79006,0,0,0.25,2.3685e-15,0,0.66667
0.68392,0.50132,2.7357,0.0019736,0.021256,9.4183,-0.014398,0.0047992,-2.0008,-0.019197,-1.4262e-13,-1.0004,0,0,0.25,4.737e-15,0,0.66667
0.82604,0.59318,3.3041,0.13978,0.86853,3.4472,-1.2316,0.41053,-1.9318,-1.6421,-5.5608e-11,-0.96591,0,0,0.25,1.1842e-15,0,0.66667
0.92485,0.033422,3.6994,-0.69987,-2.1069,1.701,6.9043,-2.3014,-0.2592,9.2057,-4.5158e-07,-0.1296,0,0,0.25,-0,-0,0.66667
0.71895,0.17543,2.8758,-0.48685,-4.8534,8.0047,3.7336,-1.2445,-1.1576,4.9781,-1.7973e-11,-0.57878,0,0,0.25,-0,-0,0.66667
0.77043,0.47319,3.0817,-0.040215,-0.32531,5.4563,0.33048,-0.11016,-1.9943,0.44064,-8.5342e-12,-0.99716,0,0,0.25,-1.8247e-15,0,0.66667
0.074018,0.61092,0.29607,0.16638,3.4378,55.835,-0.13136,0.043788,-1.9009,-0.17515,1.4837e-08,-0.95044,0,0,0.25,-0,-0,0.66667
0.18869,0.72992,0.75474,0.34488,6.9369,45.616,-0.69412,0.23137,-1.5772,-0.9255,-3.6037e-10,-0.78858,0,0,0.25,-2.9606e-16,0,0.66667
0.31405,0.81501,1.2562,0.47252,8.92,34.983,-1.5829,0.52763,-1.2072,-2.1105,-3.9013e-12,-0.60359,0,0,0.25,-1.1842e-15,0,0.66667
0.33439,0.44806,1.3376,-0.077912,-1.4313,33.193,0.2779,-0.092633,-1.9776,0.37053,1.8453e-12,-0.98882,0,0,0.25,-0,-0,0.66667
0.4653,0.025686,1.8612,-0.71147,-11.85,23.497,3.5312,-1.1771,-0.20032,4.7083,1.0814e-13,-0.10016,0,0,0.25,-0,1.7332e-16,0.66667
0.095259,0.88944,0.38103,0.58416,12.215,53.969,-0.59356,0.19785,-0.78655,-0.79141,-1.2689e-08,-0.39328,0,0,0.25,-0,-0,0.66667
0.34423,0.71265,1.3769,0.31898,5.8461,32.453,-1.1712,0.3904,-1.639,-1.5616,-1.0459e-12,-0.81951,0,0,0.25,-0,-0,0.66667
0.073158,0.40136,0.29263,-0.14797,-3.0567,55.912,0.11547,-0.038488,-1.9221,0.15395,-8.0677e-08,-0.96107,0,0,0.25,-1.1102e-16,0,0.66667
0.32341,0.54665,1.2937,0.06998,1.2963,34.09,-0.24141,0.080471,-1.9818,-0.32188,-3.162e-12,-0.99089,0,0,0.25,-0,-0,0.66667
0.6615,0.7247,2.646,0.33706,3.8872,10.726,-2.3783,0.79276,-1.5959,-3.171,1.9047e-12,-0.79793,0,0,0.25,-0,-0,0.66667
0.0029211,0.10146,0.011684,-0.59781,-12.626,62.292,0.018627,-0.0062089,-0.72926,0.024836,1.9111e-08,-0.36463,0,0,0.25,-0,-0,0.66667
0.28436,0.25204,1.1375,-0.37194,-7.1296,37.402,1.1282,-0.37606,-1.5089,1.5042,2.6796e-11,-0.75444,0,0,0.25,-0,-0,0.66667
0.072846,0.45065,0.29139,-0.074032,-1.5282,55.938,0.057525,-0.019175,-1.9797,0.0767,-1.4459e-08,-0.98984,0,0,0.25,-0,-0,0.66667
0.71076,0.6475,2.843,0.22125,2.2177,8.1515,-1.6774,0.55913,-1.8253,-2.2365,2.3882e-11,-0.91264,0,0,0.25,-0,-0,0.66667
0.84127,0.39577,3.3651,-0.15634,-0.88754,2.9723,1.4029,-0.46764,-1.9129,1.8705,-1.6847e-10,-0.95644,0,0,0.25,-1.1842e-15,0,0.66667
0.97833,0.89073,3.9133,0.5861,0.40291,0.76003,-6.1163,2.0388,-0.77769,-8.155,-5.2181e-07,-0.38884,0,0,0.25,-1.1842e-15,0,0.66667
0.61717,0.25578,2.4687,-0.36634,-4.6757,13.227,2.4116,-0.80388,-1.5225,3.2155,1.8623e-12,-0.76126,0,0,0.25,-0,-0,0.66667
0.2249,0.6899,0.8996,0.28486,5.6274,42.446,-0.68335,0.22778,-1.7118,-0.91114,-1.5581e-10,-0.85588,0,0,0.25,-0,-0,0.66667
0.22831,0.26414,0.91324,-0.35379,-6.9936,42.169,0.86159,-0.2872,-1.554,1.1488,1.4118e-10,-0.77702,0,0,0.25,-0,-0,0.66667
0.49353,0.036673,1.9741,-0.69499,-11.158,21.488,3.6586,-1.2195,-0.28239,4.8782,-1.6476e-13,-0.14119,0,0,0.25,-0,-0,0.66667
0.93135,0.709,3.7254,0.31351,0.73588,0.94477,-3.1145,1.0382,-1.6498,-4.1526,-1.1527e-09,-0.82492,0,0,0.25,1.1842e-15,0,0.66667
0.62806,0.62162,2.5122,0.18244,2.2566,12.486,-1.2222,0.4074,-1.8822,-1.6296,-7.5373e-13,-0.94109,0,0,0.25,5.9212e-16,0,0.66667
0.1814,0.49029,0.7256,-0.01456,-0.2919,46.218,0.028172,-0.0093908,-1.9986,0.037563,-3.4558e-10,-0.99928,0,0,0.25,-4.4409e-16,0,0.66667
0.51601,0.12173,2.064,-0.5674,-8.74,19.802,3.123,-1.041,-0.85654,4.1641,1.6875e-14,-0.42827,0,0,0.25,-1.4803e-16,0,0.66667
0.40912,0.8039,1.6365,0.45585,7.9294,27.424,-1.9893,0.66311,-1.261,-2.6524,1.6228e-12,-0.63051,0,0,0.25,-0,-0,0.66667
0.86907,0.3015,3.4763,-0.29776,-1.4082,2.278,2.7602,-0.92008,-1.684,3.6803,-9.3753e-10,-0.84199,0,0,0.25,1.1842e-15,0,0.66667
0.10442,0.9808,0.41766,0.7212,15.186,53.183,-0.80325,0.26775,-0.14992,-1.071,1.8865e-09,-0.07496,0,0,0.25,-0,-0,0.66667
0.21763,0.476,0.87051,-0.035993,-0.71055,43.045,0.083553,-0.027851,-1.9958,0.1114,4.3645e-11,-0.99792,0,0,0.25,-0,-0,0.66667
0.75933,0.064672,3.0373,-0.65299,-5.8063,6.4856,5.2889,-1.763,-0.48423,7.0519,-1.3423e-11,-0.24212,0,0,0.25,-0,-0,0.66667
0.97325,0.54082,3.893,0.061235,0.033478,0.21862,-0.6357,0.2119,-1.9862,-0.8476,1.9602e-06,-0.99308,0,0,0.25,-0,-0,0.66667
0.80883,0.11109,3.2353,-0.58336,-4.169,4.4925,5.033,-1.6777,-0.78939,6.7106,-2.1356e-10,-0.39469,0,0,0.25,2.2639e-16,0,0.66667
0.57043,0.53734,2.2817,0.056008,0.77355,15.929,-0.34079,0.1136,-1.9885,-0.45438,-6.5564e-13,-0.99424,0,0,0.25,1.1842e-15,0,0.66667
0.80961,0.67375,3.2384,0.26062,1.7819,4.0737,-2.2506,0.75021,-1.758,-3.0009,2.5515e-10,-0.87902,0,0,0.25,1.1842e-15,0,0.66667
0.37864,0.82315,1.5146,0.48473,8.6937,29.802,-1.9577,0.65258,-1.1641,-2.6103,2.0073e-12,-0.58206,0,0,0.25,-0,-0,0.66667
0.23981,0.65583,0.95923,0.23375,4.5768,41.149,-0.59792,0.19931,-1.8065,-0.79723,-9.828e-11,-0.90323,0,0,0.25,3.5157e-16,0,0.66667
0.44234,0.028268,1.7693,-0.7076,-12.096,25.159,3.3386,-1.1129,-0.22006,4.4515,-1.6365e-13,-0.11003,0,0,0.25,5.9212e-16,0,0.66667
0.29305,0.53837,1.1722,0.05755,1.0889,36.606,-0.17989,0.059964,-1.9881,-0.23986,-6.8579e-12,-0.99403,0,0,0.25,-5.9212e-16,0,0.66667
0.64436,0.15151,2.5774,-0.52273,-6.3646,11.842,3.5928,-1.1976,-1.0286,4.7904,1.5126e-12,-0.51432,0,0,0.25,-1.1842e-15,0,0.66667
0.91612,0.28807,3.6645,-0.3179,-0.93784,1.2234,3.1065,-1.0355,-1.6403,4.142,2.2123e-09,-0.82015,0,0,0.25,-2.3685e-15,0,0.66667
0.6714,0.85817,2.6856,0.53725,6.1423,10.412,-3.8476,1.2825,-0.97389,-5.1301,-1.6631e-13,-0.48694,0,0,0.25,-0,-0,0.66667
0.78373,0.73189,3.1349,0.34784,2.7033,5.0976,-2.9079,0.96929,-1.5695,-3.8772,2.0202e-10,-0.78473,0,0,0.25,-0,-0,0.66667
0.9199,0.35328,3.6796,-0.22009,-0.6047,1.066,2.1596,-0.71985,-1.8278,2.8794,7.3797e-09,-0.91388,0,0,0.25,-0,-0,0.66667
0.73198,0.51299,2.9279,0.019487,0.18162,7.1016,-0.15215,0.050716,-1.9983,-0.20286,5.4615e-12,-0.99916,0,0,0.25,-2.3685e-15,0,0.66667
0.45633,0.46793,1.8253,-0.048108,-0.78464,23.734,0.23417,-0.078056,-1.9928,0.31222,-5.1545e-13,-0.99638,0,0,0.25,-2.5905e-16,0,0.66667
0.7422,0.56875,2.9688,0.10312,0.92909,6.6591,-0.81641,0.27214,-1.9618,-1.0885,3.3902e-11,-0.9809,0,0,0.25,-0,-0,0.66667
0.99059,0.28398,3.9624,-0.32403,0.024233,0.24577,3.4238,-1.1413,-1.6269,4.5651,-1.0453e-08,-0.81344,0,0,0.25,2.3685e-15,0,0.66667
0.67386,0.21786,2.6954,-0.42322,-4.7606,10.153,3.042,-1.014,-1.3644,4.056,-2.754e-12,-0.6822,0,0,0.25,-4.4409e-16,0,0.66667
0.72714,0.38533,2.9085,-0.17201,-1.6343,7.3601,1.3341,-0.44471,-1.894,1.7788,-3.3471e-11,-0.947,0,0,0.25,-0,-0,0.66667
0.13533,0.76684,0.54133,0.40027,8.2156,50.349,-0.5778,0.1926,-1.4295,-0.7704,-1.5736e-09,-0.71475,0,0,0.25,1.4803e-16,0,0.66667
0.81734,0.63433,3.2694,0.20149,1.3178,3.7677,-1.7567,0.58556,-1.8551,-2.3422,9.145e-11,-0.92755,0,0,0.25,-2.3685e-15,0,0.66667
0.92918,0.5976,3.7167,0.14641,0.34458,0.85463,-1.4511,0.48369,-1.9238,-1.9348,-7.9208e-08,-0.96188,0,0,0.25,-2.3685e-15,0,0.66667
0.082941,0.033855,0.33176,-0.69922,-14.761,55.096,0.6186,-0.2062,-0.26204,0.8248,-1.5802e-08,-0.13102,0,0,0.25,-0,-0,0.66667
0.92221,0.87325,3.6889,0.55988,1.6413,1.4576,-5.5075,1.8358,-0.88701,-7.3433,-4.2917e-08,-0.4435,0,0,0.25,1.4803e-15,0,0.66667
0.76001,0.14426,3.0401,-0.53361,-4.6545,6.2662,4.3259,-1.442,-0.98679,5.7678,-5.5155e-11,-0.49339,0,0,0.25,-9.0004e-16,0,0.66667
0.25267,0.75756,1.0107,0.38634,7.5501,40.088,-1.0413,0.34709,-1.4693,-1.3883,-7.2395e-11,-0.73466,0,0,0.25,-0,-0,0.66667
0.03478,0.67228,0.13912,0.25841,5.3733,59.396,-0.095868,0.031956,-1.762,-0.12782,1.543e-08,-0.88098,0,0,0.25,7.4015e-17,0,0.66667
0.59333,0.70625,2.3733,0.30937,4.1267,14.605,-1.958,0.65266,-1.6599,-2.6106,-1.9182e-12,-0.82996,0,0,0.25,-7.0264e-16,0,0.66667
0.14,0.62224,0.55999,0.18336,3.7344,49.902,-0.27381,0.09127,-1.8817,-0.36508,-2.195e-09,-0.94086,0,0,0.25,7.4015e-17,0,0.66667
0.88064,0.77223,3.5226,0.40835,1.7879,2.1048,-3.8358,1.2786,-1.4065,-5.1144,2.5059e-10,-0.70326,0,0,0.25,1.1842e-15,0,0.66667
0.64348,0.1922,2.5739,-0.4617,-5.6039,11.822,3.169,-1.0563,-1.2424,4.2253,1.4175e-12,-0.62122,0,0,0.25,-0,-0,0.66667
0.041189,0.84822,0.16476,0.52233,10.967,58.829,-0.22949,0.076495,-1.0299,-0.30598,-1.6043e-08,-0.51496,0,0,0.25,-0,-0,0.66667
0.19441,0.39428,0.77765,-0.15858,-3.1668,45.082,0.32885,-0.10962,-1.9097,0.43847,1.1461e-10,-0.95485,0,0,0.25,-2.9606e-16,0,0.66667
0.62451,0.53799,2.4981,0.056992,0.70858,12.657,-0.37965,0.12655,-1.9891,-0.5062,-3.1425e-13,-0.99457,0,0,0.25,1.1842e-15,0,0.66667
0.52665,0.45775,2.1066,-0.063379,-0.94035,18.789,0.35604,-0.11868,-1.9851,0.47472,1.1097e-13,-0.99254,0,0,0.25,-0,-0,0.66667
0.29026,0.019888,1.161,-0.72017,-14.036,37.105,2.2297,-0.74323,-0.1551,2.9729,-2.0139e-13,-0.077548,0,0,0.25,-0,-0,0.66667
0.39512,0.075653,1.5805,-0.63652,-11.355,28.639,2.6827,-0.89422,-0.55871,3.5769,-6.5326e-13,-0.27936,0,0,0.25,5.9212e-16,0,0.66667
0.24657,0.21184,0.98627,-0.43224,-8.4921,40.626,1.1368,-0.37894,-1.3357,1.5157,7.397e-11,-0.66783,0,0,0.25,-1.4803e-16,0,0.66667
0.99839,0.95592,3.9936,0.68388,-0.020269,0.83948,-7.283,2.4277,-0.33695,-9.7107,-1.2294e-05,-0.16847,0,0,0.25,-0,-0,0.66667
0.88329,0.29313,3.5332,-0.3103,-1.3049,1.9296,2.9236,-0.97452,-1.6568,3.8981,2.7146e-10,-0.82838,0,0,0.25,-0,-0,0.66667
0.74097,0.82559,2.9639,0.48839,4.5345,7.0132,-3.8601,1.2867,-1.151,-5.1467,3.9123e-11,-0.5755,0,0,0.25,-1.1842e-15,0,0.66667
0.24654,0.84546,0.98615,0.51818,10.225,40.665,-1.3627,0.45423,-1.046,-1.8169,-4.253e-11,-0.52302,0,0,0.25,-0,-0,0.66667
0.088881,0.35991,0.35552,-0.21013,-4.3344,54.494,0.19922,-0.066406,-1.8422,0.26562,-8.7669e-09,-0.92109,0,0,0.25,-0,-0,0.66667
0.096131,0.070874,0.38453,-0.64369,-13.506,53.904,0.66004,-0.22001,-0.5268,0.88005,1.4169e-08,-0.2634,0,0,0.25,-0,-0,0.66667
0.88147,0.090076,3.5259,-0.61489,-2.8077,2.4156,5.7814,-1.9271,-0.65573,7.7085,9.7589e-09,-0.32787,0,0,0.25,-1.1842e-15,0,0.66667
0.22391,0.4644,0.89565,-0.053407,-1.0512,42.5,0.12756,-0.042519,-1.9899,0.17008,2.7567e-11,-0.99495,0,0,0.25,3.7007e-16,0,0.66667
0.055036,0.94558,0.22014,0.66836,14.135,57.596,-0.39236,0.13079,-0.4111,-0.52315,-8.8451e-08,-0.20555,0,0,0.25,-0,-0,0.66667
0.60875,0.47549,2.435,-0.036769,-0.47233,13.578,0.23875,-0.079584,-1.9958,0.31834,9.2371e-14,-0.99792,0,0,0.25,-0,-0,0.66667
0.75404,0.80218,3.0162,0.45328,4.004,6.4083,-3.6457,1.2152,-1.269,-4.861,7.4464e-11,-0.63449,0,0,0.25,5.9212e-16,0,0.66667
0.90554,0.18437,3.6221,-0.47345,-1.6519,1.6336,4.573,-1.5243,-1.2042,6.0974,-8.0373e-09,-0.60209,0,0,0.25,-1.1842e-15,-2.9712e-18,0.66667
0.48403,0.70618,1.9361,0.30927,4.9022,21.817,-1.5967,0.53224,-1.6602,-2.129,3.8469e-13,-0.83009,0,0,0.25,-0,-0,0.66667
0.71854,0.10451,2.8742,-0.59323,-5.9919,8.1701,4.5468,-1.5156,-0.74912,6.0624,-5.3735e-12,-0.37456,0,0,0.25,-0,-0,0.66667
0.046842,0.66656,0.18737,0.24983,5.1885,58.301,-0.12483,0.04161,-1.7786,-0.16644,5.3437e-09,-0.88928,0,0,0.25,-0,-0,0.66667
0.30454,0.83813,1.2182,0.50719,9.6561,35.785,-1.6476,0.5492,-1.085,-2.1968,-5.2559e-12,-0.54252,0,0,0.25,-0,-0,0.66667
0.087153,0.047862,0.34861,-0.67821,-14.286,54.715,0.63048,-0.21016,-0.36361,0.84064,-9.3426e-09,-0.1818,0,0,0.25,-2.5124e-16,0,0.66667
0.40034,0.78815,1.6013,0.43223,7.5746,28.083,-1.8457,0.61524,-1.3354,-2.461,2.2361e-12,-0.66768,0,0,0.25,-0,-0,0.66667
0.19936,0.032605,0.79742,-0.70109,-14.311,44.814,1.4908,-0.49695,-0.25311,1.9878,7.6863e-11,-0.12655,0,0,0.25,-0,-0,0.66667
0.49854,0.11921,1.9941,-0.57118,-9.0167,21.002,3.0374,-1.0125,-0.84055,4.0498,-2.1894e-13,-0.42027,0,0,0.25,2.9606e-16,-3.7525e-16,0.66667
0.24179,0.37391,0.96717,-0.18913,-3.6956,40.97,0.48779,-0.1626,-1.8733,0.65039,7.3178e-11,-0.93665,0,0,0.25,3.7007e-17,0,0.66667
0.19127,0.6201,0.76509,0.18014,3.6035,45.36,-0.36754,0.12251,-1.8848,-0.49005,-1.6563e-10,-0.94238,0,0,0.25,-3.7007e-16,0,0.66667
0.60179,0.17706,2.4071,-0.48441,-6.427,14.243,3.1095,-1.0365,-1.1649,4.1459,1.757e-12,-0.58243,0,0,0.25,-5.9212e-16,0,0.66667
0.48061,0.05945,1.9224,-0.66083,-10.755,22.351,3.3877,-1.1292,-0.44778,4.5169,-6.3061e-14,-0.22389,0,0,0.25,8.8818e-16,0,0.66667
0.38153,0.7681,1.5261,0.40215,7.1632,29.526,-1.6366,0.54553,-1.4241,-2.1821,1.9875e-12,-0.71203,0,0,0.25,-0,-0,0.66667
0.41901,0.46244,1.676,-0.056342,-0.95824,26.52,0.25182,-0.083939,-1.9888,0.33576,-2.9587e-14,-0.99442,0,0,0.25,-2.9606e-16,0,0.66667
0.94696,0.10093,3.7878,-0.5986,-1.1921,1.1396,6.0464,-2.0155,-0.72551,8.0619,1.6838e-07,-0.36276,0,0,0.25,-0,-0,0.66667
0.61125,0.60044,2.445,0.15066,1.9289,13.453,-0.98232,0.32744,-1.9196,-1.3098,-1.1266e-12,-0.9598,0,0,0.25,-0,-0,0.66667
0.2018,0.14639,0.80719,-0.53041,-10.7,44.527,1.1417,-0.38057,-0.99983,1.5223,2.4105e-10,-0.49992,0,0,0.25,-0,-0,0.66667
0.26679,0.73983,1.0671,0.35975,6.9668,38.879,-1.0237,0.34125,-1.54,-1.365,-4.9351e-11,-0.77,0,0,0.25,-2.9606e-16,0,0.66667
0.29971,0.4323,1.1988,-0.10155,-1.9136,36.053,0.32463,-0.10821,-1.9636,0.43284,9.7353e-12,-0.98181,0,0,0.25,-2.9606e-16,0,0.66667
0.71146,0.17728,2.8458,-0.48407,-4.9349,8.3525,3.6736,-1.2245,-1.166,4.8981,-1.3274e-11,-0.58302,0,0,0.25,-5.9212e-16,0,0.66667
0.50952,0.084347,2.0381,-0.62348,-9.7355,20.304,3.3885,-1.1295,-0.61719,4.518,-1.3634e-13,-0.30859,0,0,0.25,5.9212e-16,0,0.66667
0.21262,0.44045,0.85047,-0.089324,-1.7681,43.484,0.20258,-0.067527,-1.9718,0.27011,2.4403e-11,-0.98591,0,0,0.25,5.9212e-16,0,0.66667
0.58056,0.6026,2.3222,0.15389,2.0905,15.315,-0.95301,0.31767,-1.9157,-1.2707,-1.212e-12,-0.95786,0,0,0.25,-0,-0,0.66667
0.87572,0.12346,3.5029,-0.5648,-2.6662,2.4643,5.2759,-1.7586,-0.86722,7.0345,-1.0821e-08,-0.43361,0,0,0.25,-1.3323e-15,0,0.66667
0.12633,0.85927,0.50532,0.5389,11.161,51.182,-0.72618,0.24206,-0.9673,-0.96824,-1.7362e-09,-0.48365,0,0,0.25,-2.9606e-16,0,0.66667
0.99245,0.1879,3.9698,-0.46814,0.016525,0.43428,4.9558,-1.6519,-1.2214,6.6078,-1.8709e-08,-0.61069,0,0,0.25,-2.3685e-15,0,0.66667
0.57331,0.26331,2.2932,-0.35504,-4.9239,15.873,2.1712,-0.72372,-1.551,2.8949,1.5603e-12,-0.77552,0,0,0.25,-0,-0,0.66667
0.075515,0.74022,0.30206,0.36033,7.4814,55.713,-0.29024,0.096747,-1.5382,-0.38699,3.5889e-09,-0.76909,0,0,0.25,-7.4015e-17,0,0.66667
0.9247,0.52843,3.6988,0.04264,0.10705,0.90141,-0.42058,0.14019,-1.9942,-0.56077,-1.8211e-07,-0.9971,0,0,0.25,-0,-0,0.66667
0.6613,0.52629,2.6452,0.039431,0.45039,10.605,-0.27814,0.092713,-1.9944,-0.37085,8.0702e-13,-0.99721,0,0,0.25,-0,-0,0.66667
0.25836,0.64804,1.0335,0.22205,4.3028,39.558,-0.61195,0.20398,-1.8241,-0.81594,-5.8069e-11,-0.91203,0,0,0.25,2.9606e-16,0,0.66667
0.011312,0.80925,0.045247,0.46387,9.7276,61.531,-0.05597,0.018657,-1.2353,-0.074627,-2.3913e-08,-0.61763,0,0,0.25,-1.9781e-17,0,0.66667
0.82783,0.24416,3.3113,-0.38376,-2.4111,3.5767,3.3886,-1.1295,-1.4773,4.5182,-5.233e-10,-0.73863,0,0,0.25,-5.9212e-16,0,0.66667
0.19681,0.63224,0.78724,0.19836,3.9602,44.876,-0.41643,0.13881,-1.8596,-0.55523,-2.5826e-10,-0.92982,0,0,0.25,-5.9212e-16,0,0.66667
0.91039,0.78621,3.6416,0.42932,1.3995,1.4708,-4.1691,1.3897,-1.3447,-5.5588,-1.7578e-09,-0.67237,0,0,0.25,2.3685e-15,0,0.66667
0.26207,0.64751,1.0483,0.22127,4.2784,39.242,-0.61853,0.20618,-1.8256,-0.82471,-5.2349e-11,-0.91282,0,0,0.25,-0,-0,0.66667
0.30754,0.49221,1.2301,-0.011683,-0.21884,35.397,0.038324,-0.012775,-1.9991,0.051098,5.2002e-13,-0.99956,0,0,0.25,-0,-0,0.66667
0.429,0.64334,1.716,0.21501,3.6276,25.797,-0.9839,0.32797,-1.8347,-1.3119,1.508e-12,-0.91734,0,0,0.25,-0,-0,0.66667
0.84952,0.52675,3.3981,0.04013,0.21493,2.6905,-0.36364,0.12121,-1.9942,-0.48486,1.5914e-09,-0.99711,0,0,0.25,-0,-0,0.66667
0.37631,0.37417,1.5052,-0.18875,-3.3533,29.851,0.75763,-0.25254,-1.8748,1.0102,-7.8765e-13,-0.93738,0,0,0.25,-7.4015e-17,0,0.66667
0.66908,0.8686,2.6763,0.5529,6.3676,10.553,-3.946,1.3153,-0.9132,-5.2613,-5.9264e-13,-0.4566,0,0,0.25,3.9618e-16,0,0.66667
0.73119,0.59031,2.9247,0.13547,1.2685,7.1609,-1.0565,0.35218,-1.9352,-1.4087,3.0721e-11,-0.96762,0,0,0.25,1.7764e-15,0,0.66667
0.89467,0.62265,3.5787,0.18397,0.6824,1.5642,-1.7557,0.58523,-1.8802,-2.3409,1.1967e-08,-0.9401,0,0,0.25,5.9212e-16,0,0.66667
0.93853,0.92277,3.7541,0.63416,1.5068,1.3352,-6.3485,2.1162,-0.57009,-8.4647,1.0689e-07,-0.28504,0,0,0.25,1.1842e-15,0,0.66667
0.87235,0.034354,3.4894,-0.69847,-3.5072,2.8112,6.4993,-2.1664,-0.26605,8.6657,1.8131e-09,-0.13303,0,0,0.25,-0,-0,0.66667
0.45255,0.87015,1.8102,0.55523,9.2726,24.258,-2.6802,0.89339,-0.90483,-3.5736,5.1537e-13,-0.45242,0,0,0.25,-0,-0,0.66667
0.55083,0.5097,2.2033,0.014555,0.20781,17.184,-0.085521,0.028507,-1.9988,-0.11403,-5.6657e-13,-0.9994,0,0,0.25,2.3685e-15,0,0.66667
0.57742,0.59246,2.3097,0.13869,1.894,15.506,-0.85419,0.28473,-1.9331,-1.1389,-1.3161e-12,-0.96656,0,0,0.25,1.4918e-15,0,0.66667
0.48558,0.16027,1.9423,-0.5096,-8.1481,21.849,2.6395,-0.87983,-1.0775,3.5193,-2.4425e-13,-0.53876,0,0,0.25,-1.1842e-15,0,0.66667
0.91406,0.59597,3.6562,0.14395,0.4243,1.1329,-1.4035,0.46785,-1.9266,-1.8714,3.9032e-08,-0.96329,0,0,0.25,2.3685e-15,0,0.66667
0.78635,0.18571,3.1454,-0.47144,-3.6721,5.1393,3.9543,-1.3181,-1.2103,5.2724,-2.1504e-10,-0.60513,0,0,0.25,-2.9606e-16,0,0.66667
0.093327,0.43908,0.37331,-0.091375,-1.8798,54.087,0.090963,-0.030321,-1.9719,0.12128,-4.9229e-08,-0.98593,0,0,0.25,-0,-0,0.66667
0.99093,0.33241,3.9637,-0.25138,0.033356,0.1697,2.6571,-0.8857,-1.7745,3.5428,-2.4794e-08,-0.88724,0,0,0.25,-0,-0,0.66667
0.19126,0.7397,0.76504,0.35955,7.2284,45.394,-0.73353,0.24451,-1.5399,-0.97804,-3.4096e-10,-0.76994,0,0,0.25,2.9606e-16,0,0.66667
0.26939,0.24188,1.0776,-0.38717,-7.4946,38.669,1.1125,-0.37085,-1.4668,1.4834,4.211e-11,-0.73338,0,0,0.25,2.9606e-16,0,0.66667
0.15118,0.96321,0.60474,0.69481,14.426,49.026,-1.1205,0.37349,-0.28337,-1.494,2.8151e-10,-0.14168,0,0,0.25,-0,-0,0.66667
0.26352,0.17172,1.0541,-0.49243,-9.6122,39.21,1.3841,-0.46138,-1.1375,1.8455,3.2161e-11,-0.56876,0,0,0.25,-0,-0,0.66667
0.37276,0.77219,1.4911,0.40828,7.3322,30.218,-1.6234,0.54113,-1.4073,-2.1645,2.0236e-12,-0.70363,0,0,0.25,2.9606e-16,0,0.66667
0.97389,0.51343,3.8955,0.02015,0.010409,0.20635,-0.20932,0.069771,-1.9977,-0.2791,-4.1721e-06,-0.99887,0,0,0.25,-4.737e-15,0,0.66667
0.16693,0.92485,0.66771,0.63728,13.113,47.618,-1.1347,0.37824,-0.55525,-1.513,-1.4378e-10,-0.27762,0,0,0.25,-0,-0,0.66667
0.61018,0.0055709,2.4407,-0.74164,-9.9213,14.088,4.8271,-1.609,-0.04507,6.4361,-2.176e-14,-0.022535,0,0,0.25,-0,-0,0.66667
0.44789,0.90494,1.7915,0.6074,10.237,24.647,-2.9018,0.96728,-0.68878,-3.8691,2.649e-13,-0.34439,0,0,0.25,-0,-0,0.66667
0.58703,0.91303,2.3481,0.61954,8.5475,15.291,-3.8793,1.2931,-0.63484,-5.1724,-5.278e-13,-0.31742,0,0,0.25,-1.1842e-15,0,0.66667
0.053649,0.45305,0.2146,-0.070432,-1.4575,57.678,0.040306,-0.013435,-1.9814,0.053741,1.5445e-07,-0.99069,0,0,0.25,-7.4015e-17,0,0.66667
0.30933,0.17926,1.2373,-0.48111,-9.1165,35.376,1.5874,-0.52915,-1.1768,2.1166,4.6118e-12,-0.58842,0,0,0.25,-0,-0,0.66667
0.090911,0.37388,0.36365,-0.18918,-3.8991,54.31,0.18345,-0.06115,-1.8738,0.2446,-2.683e-08,-0.93688,0,0,0.25,-1.8504e-16,0,0.66667
0.46345,0.02857,1.8538,-0.70715,-11.8,23.625,3.4957,-1.1652,-0.22233,4.661,3.1752e-13,-0.11117,0,0,0.25,-5.9212e-16,0,0.66667
0.89199,0.63494,3.5679,0.20241,0.77297,1.6368,-1.9259,0.64195,-1.8544,-2.5678,4.4144e-09,-0.92722,0,0,0.25,-0,-0,0.66667
0.82138,0.32526,3.2855,-0.2621,-1.6849,3.6728,2.2964,-0.76547,-1.7548,3.0619,-3.6173e-10,-0.87741,0,0,0.25,-1.1842e-15,0,0.66667
0.87215,0.678,3.4886,0.267,1.2273,2.1703,-2.4839,0.82796,-1.7463,-3.3118,-2.1106e-10,-0.87316,0,0,0.25,-1.1842e-15,0,0.66667
0.3996,0.87241,1.5984,0.55862,9.8692,28.229,-2.381,0.79368,-0.8907,-3.1747,1.4635e-12,-0.44535,0,0,0.25,-5.9212e-16,0,0.66667
0.50934,0.78161,2.0374,0.42241,6.5054,20.126,-2.2949,0.76498,-1.3663,-3.0599,-5.4312e-13,-0.68313,0,0,0.25,-0,-0,0.66667
0.25721,0.7528,1.0288,0.3792,7.3898,39.7,-1.0404,0.34678,-1.4889,-1.3871,-6.313e-11,-0.74444,0,0,0.25,-0,-0,0.66667
0.60699,0.23631,2.428,-0.39554,-5.1627,13.85,2.5609,-0.85364,-1.4434,3.4145,2.0743e-12,-0.72169,0,0,0.25,-1.1842e-15,0,0.66667
0.44631,0.86443,1.7852,0.54665,9.1894,24.707,-2.6024,0.86747,-0.9367,-3.4699,5.2069e-13,-0.46835,0,0,0.25,-0,-0,0.66667
0.49641,0.1338,1.9856,-0.5493,-8.6823,21.128,2.9086,-0.96952,-0.92687,3.8781,-2.649e-13,-0.46343,0,0,0.25,-0,-0,0.66667
0.54096,0.077607,2.1639,-0.63359,-9.4552,18.217,3.656,-1.2187,-0.57175,4.8746,1.37e-13,-0.28588,0,0,0.25,-0,-0,0.66667
0.58046,0.78111,2.3218,0.42167,5.7964,15.48,-2.6108,0.87027,-1.3691,-3.4811,-1.7564e-12,-0.68456,0,0,0.25,-3.0531e-16,0,0.66667
0.46466,0.17761,1.8586,-0.48359,-7.9242,23.318,2.3968,-0.79895,-1.168,3.1958,-5.6843e-13,-0.58402,0,0,0.25,-5.9212e-16,0,0.66667
0.79849,0.22844,3.1939,-0.40735,-2.9819,4.6099,3.4694,-1.1565,-1.4101,4.6259,-3.0671e-10,-0.70504,0,0,0.25,-0,-0,0.66667
0.40923,0.14912,1.6369,-0.52633,-9.1921,27.466,2.2975,-0.76583,-1.015,3.0633,-1.1833e-12,-0.50752,0,0,0.25,-2.9606e-16,0,0.66667
0.043632,0.37543,0.17453,-0.18685,-3.8763,58.59,0.086961,-0.028987,-1.8769,0.11595,1.2037e-07,-0.93846,0,0,0.25,-0,-0,0.66667
0.83341,0.74806,3.3336,0.3721,2.2609,3.3858,-3.3078,1.1026,-1.5082,-4.4105,5.3877e-10,-0.75408,0,0,0.25,1.4803e-15,0,0.66667
0.48479,0.98389,1.9392,0.72583,11.818,22.134,-3.7534,1.2511,-0.12698,-5.0045,-4.0856e-14,-0.063492,0,0,0.25,-5.9212e-16,0,0.66667
0.47847,0.9387,1.9139,0.65805,10.736,22.499,-3.3585,1.1195,-0.46089,-4.478,-2.0473e-13,-0.23044,0,0,0.25,1.1842e-15,0,0.66667
0.17683,0.54051,0.70734,0.060764,1.2205,46.622,-0.11462,0.038205,-1.9863,-0.15282,-1.4401e-10,-0.99316,0,0,0.25,-0,-0,0.66667
0.443,0.81566,1.772,0.47349,7.9526,24.892,-2.2374,0.7458,-1.2031,-2.9832,7.9314e-13,-0.60154,0,0,0.25,-0,-0,0.66667
0.14347,0.67351,0.57389,0.26027,5.3046,49.601,-0.39831,0.13277,-1.7587,-0.53108,-5.6206e-10,-0.87934,0,0,0.25,-0,-0,0.66667
0.041238,0.90283,0.16495,0.60425,12.745,58.832,-0.26579,0.088597,-0.70195,-0.35439,-5.2181e-07,-0.35097,0,0,0.25,-9.2519e-17,0,0.66667
0.96316,0.75195,3.8527,0.37792,0.41857,0.56768,-3.8827,1.2942,-1.4926,-5.1769,-5.4841e-09,-0.74629,0,0,0.25,-0,-0,0.66667
0.26195,0.74864,1.0478,0.37295,7.2466,39.294,-1.0421,0.34736,-1.5062,-1.3894,-5.5158e-11,-0.75311,0,0,0.25,-6.2913e-16,0,0.66667
0.1361,0.86276,0.5444,0.54413,11.243,50.314,-0.78993,0.26331,-0.94657,-1.0532,3.2981e-10,-0.47329,0,0,0.25,1.4803e-16,0,0.66667
0.68806,0.48984,2.7522,-0.015242,-0.16233,9.2082,0.11187,-0.037288,-1.9995,0.14915,-8.1472e-13,-0.99975,0,0,0.25,-5.9212e-16,0,0.66667
0.37393,0.092253,1.4957,-0.61162,-11.104,30.264,2.4395,-0.81317,-0.6713,3.2527,-1.0985e-12,-0.33565,0,0,0.25,2.2204e-16,0,0.66667
0.62308,0.2787,2.4923,-0.33195,-4.1767,12.858,2.2062,-0.73541,-1.6091,2.9416,1.4557e-12,-0.80457,0,0,0.25,1.4803e-15,0,0.66667
0.70645,0.33904,2.8258,-0.24144,-2.4539,8.3706,1.8193,-0.60644,-1.793,2.4258,-2.1312e-11,-0.8965,0,0,0.25,-1.4803e-15,0,0.66667
0.66211,0.47136,2.6484,-0.042962,-0.48976,10.562,0.30342,-0.10114,-1.9937,0.40456,-1.0505e-12,-0.99685,0,0,0.25,-0,-0,0.66667
0.22691,0.73541,0.90765,0.35312,6.985,42.289,-0.85469,0.2849,-1.5557,-1.1396,-1.4659e-10,-0.77783,0,0,0.25,-2.9606e-16,0,0.66667
0.78337,0.81728,3.1335,0.47591,3.7565,5.2583,-3.9767,1.3256,-1.1952,-5.3023,1.875e-10,-0.5976,0,0,0.25,-0,-0,0.66667
0.07097,0.90321,0.28388,0.60482,12.715,56.154,-0.45786,0.15262,-0.69946,-0.61048,-1.7354e-07,-0.34973,0,0,0.25,1.1102e-16,0,0.66667
0.78814,0.58143,3.1526,0.12214,0.91778,4.781,-1.0268,0.34228,-1.946,-1.3691,1.001e-10,-0.97302,0,0,0.25,-0,-0,0.66667
0.16235,0.17138,0.64938,-0.49294,-10.075,47.974,0.85361,-0.28454,-1.1351,1.1381,9.5746e-10,-0.56756,0,0,0.25,2.9606e-16,0,0.66667
0.40501,0.55042,1.62,0.075625,1.305,27.593,-0.32671,0.1089,-1.9797,-0.43561,5.0893e-13,-0.98984,0,0,0.25,-5.9212e-16,0,0.66667
0.0061978,0.37221,0.024791,-0.19169,-3.9846,61.992,0.012672,-0.0042242,-1.8696,0.016897,-8.3623e-08,-0.93478,0,0,0.25,1.8349e-18,0,0.66667
0.16285,0.26133,0.65141,-0.358,-7.2736,47.896,0.62189,-0.2073,-1.5434,0.82918,5.2712e-10,-0.77172,0,0,0.25,2.9606e-16,0,0.66667
0.67786,0.57348,2.7114,0.11022,1.208,9.7447,-0.79695,0.26565,-1.956,-1.0626,4.556e-12,-0.97801,0,0,0.25,-0,-0,0.66667
0.75014,0.64889,3.0006,0.22334,1.9647,6.3659,-1.787,0.59568,-1.8234,-2.3827,7.5647e-11,-0.91169,0,0,0.25,-1.1842e-15,0,0.66667
0.91019,0.70456,3.6408,0.30684,0.97394,1.3289,-2.979,0.99302,-1.6646,-3.9721,-2.5258e-09,-0.83228,0,0,0.25,-0,-0,0.66667
0.42023,0.48293,1.6809,-0.025606,-0.43488,26.426,0.11478,-0.038259,-1.9975,0.15303,-1.6619e-14,-0.99875,0,0,0.25,-0,-0,0.66667
0.61033,0.52186,2.4413,0.032795,0.41993,13.484,-0.2135,0.071168,-1.9964,-0.28467,-3.4986e-13,-0.99822,0,0,0.25,-0,-0,0.66667
0.49204,0.39577,1.9682,-0.15634,-2.4406,21.19,0.82057,-0.27352,-1.9123,1.0941,-3.1669e-13,-0.95614,0,0,0.25,-0,-0,0.66667
0.025408,0.65798,0.10163,0.23697,4.9277,60.246,-0.064226,0.021408,-1.8008,-0.085634,-5.215e-08,-0.90038,0,0,0.25,7.4015e-17,0,0.66667
0.44827,0.95793,1.7931,0.6869,11.645,24.701,-3.2845,1.0948,-0.32172,-4.3793,1.1635e-13,-0.16086,0,0,0.25,-0,-1.2658e-16,0.66667
0.68945,0.66929,2.7578,0.25393,2.7111,9.2166,-1.8675,0.62249,-1.7705,-2.49,1.1693e-11,-0.88525,0,0,0.25,-0,-0,0.66667
0.67687,0.89353,2.7075,0.59029,6.6923,10.2,-4.2619,1.4206,-0.76032,-5.6825,-3.5039e-13,-0.38016,0,0,0.25,1.1842e-15,0,0.66667
0.29344,0.72719,1.1737,0.34079,6.4864,36.632,-1.0667,0.35555,-1.5868,-1.4222,-2.1231e-11,-0.79342,0,0,0.25,-0,-0,0.66667
0.87748,0.2359,3.5099,-0.39615,-1.7775,2.1678,3.7079,-1.236,-1.4416,4.9438,-9.7109e-10,-0.72081,0,0,0.25,1.1842e-15,0,0.66667
0.77122,0.94106,3.0849,0.66159,5.6335,6.0221,-5.4425,1.8142,-0.44386,-7.2566,1.8159e-12,-0.22193,0,0,0.25,-0,-0,0.66667
0.85372,0.43231,3.4149,-0.10153,-0.52919,2.5814,0.92458,-0.30819,-1.9632,1.2328,7.8288e-10,-0.9816,0,0,0.25,1.7764e-15,0,0.66667
0.93715,0.13402,3.7486,-0.54897,-1.2772,1.1882,5.4877,-1.8292,-0.92895,7.3169,-3.1961e-08,-0.46447,0,0,0.25,-0,-2.6778e-16,0.66667
0.235,0.6695,0.94002,0.25426,4.9933,41.566,-0.63735,0.21245,-1.7703,-0.8498,-1.1287e-10,-0.88514,0,0,0.25,-0,-0,0.66667
0.71728,0.81253,2.8691,0.4688,4.6889,8.0601,-3.5868,1.1956,-1.2202,-4.7824,1.9215e-11,-0.61008,0,0,0.25,-2.3685e-15,0,0.66667
0.043952,0.86911,0.17581,0.55367,11.642,58.582,-0.25958,0.086525,-0.91021,-0.3461,1.7827e-07,-0.45511,0,0,0.25,-0,-0,0.66667
0.30362,0.79505,1.2145,0.44257,8.4028,35.828,-1.4333,0.47778,-1.3026,-1.9111,-9.2429e-12,-0.65131,0,0,0.25,-0,-0,0.66667
0.48305,0.92466,1.9322,0.63698,10.315,22.153,-3.2821,1.094,-0.55729,-4.3761,-8.3045e-14,-0.27864,0,0,0.25,2.0075e-17,0,0.66667
0.36442,0.80167,1.4577,0.4525,8.2035,30.903,-1.759,0.58632,-1.2713,-2.3453,1.7518e-12,-0.63564,0,0,0.25,-0,-0,0.66667
0.19847,0.22597,0.79389,-0.41105,-8.2558,44.776,0.8702,-0.29007,-1.399,1.1603,3.4741e-10,-0.69948,0,0,0.25,-0,-0,0.66667
0.69868,0.42282,2.7947,-0.11577,-1.1982,8.6935,0.86281,-0.2876,-1.9516,1.1504,-1.047e-11,-0.97579,0,0,0.25,-0,-0,0.66667
0.9253,0.78752,3.7012,0.43128,1.1548,1.1935,-4.2567,1.4189,-1.3387,-5.6756,1.0677e-09,-0.66933,0,0,0.25,2.3685e-15,0,0.66667
0.099858,0.00096794,0.39943,-0.74855,-15.808,53.596,0.79732,-0.26577,-0.0082981,1.0631,-5.298e-08,-0.0041491,0,0,0.25,5.9212e-16,0,0.66667
0.23014,0.6117,0.92055,0.16755,3.2922,41.971,-0.4113,0.1371,-1.8995,-0.54839,-9.2972e-11,-0.94975,0,0,0.25,-0,-0,0.66667
0.28485,0.40123,1.1394,-0.14815,-2.821,37.303,0.45013,-0.15004,-1.9221,0.60017,2.1304e-11,-0.96106,0,0,0.25,-0,-0,0.66667
0.66797,0.87084,2.6719,0.55626,6.4261,10.615,-3.9634,1.3211,-0.90005,-5.2845,-7.9026e-13,-0.45003,0,0,0.25,8.8818e-16,0,0.66667
0.38662,0.087595,1.5465,-0.61861,-11.109,29.28,2.5511,-0.85036,-0.63931,3.4014,-9.2459e-13,-0.31966,0,0,0.25,-0,-1.1484e-17,0.66667
0.7656,0.041936,3.0624,-0.6871,-6.002,6.2931,5.6111,-1.8704,-0.32188,7.4814,-1.0044e-11,-0.16094,0,0,0.25,-0,-0,0.66667
0.095646,0.59141,0.38259,0.13712,2.8211,53.88,-0.13989,0.04663,-1.9341,-0.18652,-1.353e-08,-0.96707,0,0,0.25,-1.8504e-16,0,0.66667
0.46018,0.46724,1.8407,-0.049146,-0.79788,23.453,0.24124,-0.080413,-1.9918,0.32165,-7.7995e-13,-0.99591,0,0,0.25,7.4015e-16,0,0.66667
0.29262,0.89562,1.1705,0.59343,11.446,36.823,-1.8522,0.61741,-0.74731,-2.4696,-3.1233e-12,-0.37365,0,0,0.25,-0,-0,0.66667
0.51342,0.20598,2.0537,-0.44103,-6.7603,19.862,2.4153,-0.8051,-1.3081,3.2204,2.4802e-13,-0.65406,0,0,0.25,-1.2001e-15,0,0.66667
0.13575,0.89206,0.54298,0.58809,12.183,50.357,-0.85152,0.28384,-0.76952,-1.1354,-2.9645e-09,-0.38476,0,0,0.25,-1.4803e-16,0,0.66667
0.446,0.69126,1.784,0.28688,4.7599,24.558,-1.3648,0.45493,-1.7074,-1.8197,1.0523e-12,-0.85368,0,0,0.25,-0,-0,0.66667
0.51639,0.36523,2.0656,-0.20216,-3.0534,19.519,1.1135,-0.37118,-1.855,1.4847,2.0395e-13,-0.92749,0,0,0.25,-0,-0,0.66667
0.34421,0.82876,1.3768,0.49314,9.1106,32.542,-1.8106,0.60353,-1.1355,-2.4141,8.0258e-13,-0.56775,0,0,0.25,-5.9212e-16,0,0.66667
0.55465,0.76869,2.2186,0.40304,5.7859,17.096,-2.3845,0.79484,-1.4215,-3.1793,-1.2348e-12,-0.71074,0,0,0.25,-0,-0,0.66667
0.71429,0.66933,2.8572,0.25399,2.5227,8.0033,-1.9352,0.64506,-1.7699,-2.5802,2.8031e-11,-0.88496,0,0,0.25,-0,-0,0.66667
0.66388,0.75389,2.6555,0.38083,4.3788,10.636,-2.6968,0.89894,-1.4843,-3.5958,1.5938e-12,-0.74214,0,0,0.25,-0,-0,0.66667
0.35567,0.59937,1.4227,0.14906,2.6942,31.483,-0.56551,0.1885,-1.9211,-0.75402,-6.1684e-13,-0.96053,0,0,0.25,-0,-0,0.66667
0.076579,0.96099,0.30632,0.69149,14.605,55.665,-0.56484,0.18828,-0.30015,-0.75312,-2.4262e-07,-0.15007,0,0,0.25,7.4015e-17,0,0.66667
0.83367,0.51761,3.3347,0.026408,0.15644,3.1734,-0.23483,0.078277,-1.9967,-0.31311,2.4852e-10,-0.99833,0,0,0.25,2.3685e-15,0,0.66667
0.92624,0.11474,3.705,-0.57789,-1.6145,1.4206,5.7095,-1.9032,-0.81205,7.6127,-9.0638e-09,-0.40602,0,0,0.25,1.1842e-15,0,0.66667
0.23416,0.23332,0.93665,-0.40003,-7.899,41.679,0.99916,-0.33305,-1.4313,1.3322,1.1921e-10,-0.71564,0,0,0.25,-0,-0,0.66667
0.0015237,0.90798,0.006095,0.61196,12.936,62.418,-0.0099448,0.0033154,-0.66964,-0.01326,6.393e-07,-0.33482,0,0,0.25,-4.6259e-18,0,0.66667
0.47964,0.20775,1.9185,-0.43837,-7.0321,22.211,2.2427,-0.74758,-1.3161,2.9903,-5.3979e-13,-0.65804,0,0,0.25,-5.9212e-16,0,0.66667
0.61534,0.84279,2.4614,0.51418,6.6568,13.476,-3.3749,1.125,-1.0605,-4.4999,-2.0226e-12,-0.53027,0,0,0.25,1.4803e-15,0,0.66667
0.65285,0.19172,2.6114,-0.46241,-5.4932,11.309,3.2201,-1.0734,-1.24,4.2935,7.1365e-13,-0.62002,0,0,0.25,2.3685e-15,0,0.66667
0.60356,0.52104,2.4142,0.031566,0.40972,13.887,-0.20322,0.067741,-1.9957,-0.27096,-5.1832e-13,-0.99787,0,0,0.25,-0,-0,0.66667
0.67867,0.19472,2.7147,-0.45792,-5.1019,9.9413,3.3149,-1.105,-1.254,4.4199,-2.8095e-12,-0.62698,0,0,0.25,-0,-0,0.66667
0.73325,0.6589,2.933,0.23835,2.226,7.1179,-1.8642,0.6214,-1.7991,-2.4856,4.829e-11,-0.89957,0,0,0.25,-2.3685e-15,0,0.66667
0.84341,0.81726,3.3736,0.47589,2.7647,3.2101,-4.2813,1.4271,-1.1958,-5.7084,1.3981e-09,-0.59789,0,0,0.25,-2.3685e-15,0,0.66667
0.57512,0.82441,2.3005,0.48662,6.7831,15.873,-2.9852,0.99508,-1.1576,-3.9803,-1.4626e-12,-0.57882,0,0,0.25,1.1842e-15,0,0.66667
0.033325,0.7909,0.1333,0.43635,9.13,59.535,-0.15511,0.051703,-1.323,-0.20681,1.8466e-08,-0.66149,0,0,0.25,-0,-0,0.66667
0.93264,0.028532,3.7305,-0.7072,-1.9184,1.5895,7.0353,-2.3451,-0.22209,9.3804,-5.2095e-08,-0.11105,0,0,0.25,-0,3.4084e-16,0.66667
0.41723,0.58885,1.6689,0.13327,2.2729,26.667,-0.59311,0.1977,-1.9369,-0.79081,1.081e-12,-0.96843,0,0,0.25,-0,-0,0.66667
0.46721,0.33871,1.8688,-0.24194,-3.9083,22.989,1.2057,-0.40191,-1.7925,1.6076,-7.2387e-13,-0.89625,0,0,0.25,-0,-0,0.66667
0.61906,0.97474,2.4763,0.7121,9.3286,13.527,-4.7023,1.5674,-0.19673,-6.2697,-1.8519e-13,-0.098363,0,0,0.25,-0,-0,0.66667
0.27646,0.49105,1.1058,-0.013427,-0.25672,37.999,0.039595,-0.013198,-1.9989,0.052794,4.3903e-13,-0.99943,0,0,0.25,2.9606e-16,0,0.66667
0.90942,0.73548,3.6377,0.35323,1.1429,1.394,-3.4265,1.1422,-1.5558,-4.5686,6.9506e-11,-0.77792,0,0,0.25,1.1842e-15,0,0.66667
0.6579,0.68892,2.6316,0.28338,3.2871,10.88,-1.9887,0.66289,-1.7157,-2.6516,1.9557e-12,-0.85784,0,0,0.25,-0,-0,0.66667
0.13349,0.75606,0.53396,0.38408,7.8825,50.511,-0.54689,0.1823,-1.4751,-0.72919,-1.0814e-09,-0.73757,0,0,0.25,-0,-0,0.66667
0.37351,0.26203,1.4941,-0.35696,-6.3917,30.133,1.4222,-0.47406,-1.5469,1.8962,-1.7442e-12,-0.77345,0,0,0.25,-5.9212e-16,0,0.66667
0.21324,0.5171,0.85297,0.025649,0.50736,43.427,-0.058341,0.019447,-1.9968,-0.077789,-1.0617e-12,-0.99839,0,0,0.25,-5.0506e-16,0,0.66667
0.44333,0.22543,1.7733,-0.41186,-6.8917,24.825,1.9476,-0.6492,-1.3965,2.5968,-1.4582e-12,-0.69826,0,0,0.25,1.1842e-15,0,0.66667
0.20627,0.73535,0.82509,0.35302,7.0504,44.08,-0.77674,0.25891,-1.5564,-1.0356,-2.5941e-10,-0.77818,0,0,0.25,-0,-0,0.66667
0.097915,0.20319,0.39166,-0.44521,-9.2386,53.706,0.46499,-0.155,-1.2945,0.61999,1.3132e-10,-0.64726,0,0,0.25,-0,-0,0.66667
0.32046,0.4094,1.2818,-0.13589,-2.5247,34.34,0.46452,-0.15484,-1.9344,0.61936,6.0945e-12,-0.96721,0,0,0.25,-1.1842e-15,0,0.66667
0.13448,0.34687,0.53793,-0.22969,-4.6901,50.399,0.32949,-0.10983,-1.8126,0.43932,-1.2692e-09,-0.90628,0,0,0.25,-0,-0,0.66667
0.035025,0.019489,0.1401,-0.72077,-15.325,59.402,0.26928,-0.089759,-0.15232,0.35904,-1.3322e-07,-0.076162,0,0,0.25,-0,-0,0.66667
0.49839,0.64258,1.9936,0.21388,3.3147,20.764,-1.137,0.379,-1.8372,-1.516,-2.2515e-13,-0.9186,0,0,0.25,5.9212e-16,0,0.66667
0.60463,0.69489,2.4185,0.29233,3.8119,13.913,-1.8854,0.62845,-1.6958,-2.5138,-1.9797e-12,-0.84791,0,0,0.25,-0,-0,0.66667
0.19647,0.84492,0.78588,0.51738,10.453,44.986,-1.0843,0.36142,-1.0487,-1.4457,-3.5898e-10,-0.52436,0,0,0.25,-5.9212e-16,0,0.66667
0.35053,0.25142,1.4021,-0.37287,-6.8135,31.969,1.3941,-0.46472,-1.5061,1.8589,-4.3621e-13,-0.75304,0,0,0.25,-1.1842e-15,0,0.66667
0.45356,0.39422,1.8143,-0.15867,-2.6001,23.956,0.76763,-0.25588,-1.9107,1.0235,-8.2762e-13,-0.95537,0,0,0.25,-5.9212e-16,0,0.66667
0.25284,0.94633,1.0114,0.66949,13.29,40.208,-1.8056,0.60186,-0.40618,-2.4074,-4.3501e-12,-0.20309,0,0,0.25,-0,-0,0.66667
0.33803,0.19921,1.3521,-0.45119,-8.3576,33.016,1.6268,-0.54228,-1.2754,2.1691,-3.8192e-14,-0.63769,0,0,0.25,-5.9212e-16,0,0.66667
0.26085,0.77415,1.0434,0.41122,8.0081,39.402,-1.1442,0.38139,-1.3984,-1.5256,-5.3207e-11,-0.69922,0,0,0.25,-4.4409e-16,0,0.66667
0.66262,0.034337,2.6505,-0.69849,-8.3047,11.108,4.9369,-1.6456,-0.2654,6.5825,3.4017e-13,-0.1327,0,0,0.25,-2.3685e-15,0,0.66667
0.38944,0.52973,1.5577,0.04459,0.78107,28.798,-0.18523,0.061742,-1.9943,-0.24697,1.7301e-13,-0.99713,0,0,0.25,-0,-0,0.66667
0.46579,0.52334,1.8631,0.035004,0.56437,23.044,-0.17391,0.057971,-1.9956,-0.23188,7.2331e-14,-0.99778,0,0,0.25,-0,-0,0.66667
0.25898,0.74408,1.0359,0.36611,7.1239,39.545,-1.0114,0.33712,-1.5231,-1.3485,-6.0884e-11,-0.76155,0,0,0.25,3.0137e-16,0,0.66667
0.57889,0.11708,2.3156,-0.57438,-8.0086,15.734,3.5467,-1.1822,-0.82744,4.729,7.3741e-13,-0.41372,0,0,0.25,-0,-0,0.66667
0.41565,0.79434,1.6626,0.44151,7.6233,26.918,-1.9575,0.6525,-1.306,-2.61,1.6482e-12,-0.653,0,0,0.25,-5.9212e-16,0,0.66667
0.45718,0.89451,1.8287,0.59177,9.8554,23.955,-2.8858,0.96194,-0.75429,-3.8478,2.2005e-13,-0.37714,0,0,0.25,5.9212e-16,0,0.66667
0.20956,0.98251,0.83826,0.72377,14.733,43.942,-1.6179,0.53929,-0.13651,-2.1572,-2.6114e-11,-0.068254,0,0,0.25,4.9635e-16,0,0.66667
0.51169,0.50405,2.0468,0.006078,0.092165,19.803,-0.033174,0.011058,-2.0001,-0.044232,6.1492e-14,-1.0001,0,0,0.25,-0,-0,0.66667
0.42103,0.47639,1.6841,-0.035419,-0.60105,26.365,0.15907,-0.053023,-1.996,0.21209,-8.2226e-14,-0.99801,0,0,0.25,-0,-0,0.66667
0.53816,0.18836,2.1527,-0.46746,-6.9175,18.225,2.6834,-0.89448,-1.2236,3.5779,3.5616e-13,-0.61179,0,0,0.25,2.3685e-15,0,0.66667
0.51553,0.88346,2.0621,0.5752,8.8714,19.843,-3.163,1.0543,-0.82427,-4.2173,-2.7511e-13,-0.41214,0,0,0.25,-0,-0,0.66667
0.71232,0.1739,2.8493,-0.48915,-4.9765,8.3183,3.7166,-1.2389,-1.1483,4.9555,-1.337e-11,-0.57416,0,0,0.25,3.4069e-16,0,0.66667
0.34543,0.73174,1.3817,0.34762,6.3717,32.368,-1.2808,0.42694,-1.5702,-1.7078,-5.7854e-13,-0.7851,0,0,0.25,-0,-0,0.66667
0.22924,0.70296,0.91696,0.30444,6.0052,42.075,-0.74444,0.24815,-1.6696,-0.99259,-1.4245e-10,-0.8348,0,0,0.25,-2.9606e-16,0,0.66667
0.91895,0.74021,3.6758,0.36031,1.0339,1.2169,-3.5318,1.1773,-1.5381,-4.7091,-8.0191e-10,-0.76907,0,0,0.25,-0,-0,0.66667
0.39408,0.018967,1.5763,-0.72155,-12.971,28.8,3.0331,-1.011,-0.14834,4.0441,-4.1278e-13,-0.074168,0,0,0.25,1.1842e-15,0,0.66667
0.81515,0.54034,3.2606,0.060503,0.39802,3.7891,-0.52607,0.17536,-1.9868,-0.70142,2.2599e-10,-0.99342,0,0,0.25,-2.3685e-15,0,0.66667
0.88049,0.10059,3.522,-0.59911,-2.7459,2.4093,5.6268,-1.8756,-0.72344,7.5024,9.2261e-09,-0.36172,0,0,0.25,-0,-0,0.66667
0.65189,0.73021,2.6076,0.34532,4.0774,11.252,-2.4012,0.80039,-1.5754,-3.2015,3.2707e-13,-0.7877,0,0,0.25,-0,-0,0.66667
0.76748,0.18938,3.0699,-0.46592,-3.9181,5.87,3.8142,-1.2714,-1.2292,5.0857,-9.2028e-11,-0.61461,0,0,0.25,-0,-0,0.66667
0.89753,0.70632,3.5901,0.30949,1.1339,1.5988,-2.9629,0.98764,-1.6585,-3.9506,5.5931e-10,-0.82926,0,0,0.25,-0,-0,0.66667
0.49849,0.80594,1.9939,0.45891,7.1899,20.903,-2.4401,0.81337,-1.2516,-3.2535,-2.0917e-13,-0.62581,0,0,0.25,-0,-0,0.66667
0.42176,0.59375,1.687,0.14062,2.3872,26.324,-0.63263,0.21088,-1.9317,-0.84351,9.1288e-13,-0.96583,0,0,0.25,-2.0217e-16,0,0.66667
0.72854,0.76544,2.9142,0.39816,3.8188,7.4628,-3.0941,1.0314,-1.4354,-4.1255,3.8338e-11,-0.71771,0,0,0.25,-1.1842e-15,0,0.66667
0.57844,0.42862,2.3138,-0.10707,-1.4587,15.434,0.66061,-0.2202,-1.9598,0.88082,6.1484e-13,-0.97988,0,0,0.25,-0,-0,0.66667
0.070112,0.92544,0.28045,0.63816,13.444,56.236,-0.47726,0.15909,-0.55109,-0.63635,1.0655e-07,-0.27554,0,0,0.25,-0,-0,0.66667
0.80706,0.25358,3.2282,-0.36963,-2.5861,4.2617,3.182,-1.0607,-1.5143,4.2427,-3.3728e-10,-0.75717,0,0,0.25,-0,-0,0.66667
0.20204,0.24198,0.80818,-0.38703,-7.7539,44.458,0.8341,-0.27803,-1.4678,1.1121,2.7633e-10,-0.73389,0,0,0.25,-0,-0,0.66667
0.21501,0.11833,0.86003,-0.57251,-11.51,43.398,1.313,-0.43767,-0.83452,1.7507,1.2349e-10,-0.41726,0,0,0.25,-2.9606e-16,0,0.66667
0.87429,0.12618,3.4972,-0.56072,-2.6742,2.4931,5.2292,-1.7431,-0.88363,6.9722,-7.7827e-09,-0.44181,0,0,0.25,2.3685e-15,-4.3612e-17,0.66667
0.81023,0.13172,3.2409,-0.55242,-3.901,4.3935,4.7743,-1.5914,-0.91517,6.3657,-2.8929e-10,-0.45759,0,0,0.25,-0,-0,0.66667
0.78716,0.30499,3.1486,-0.29251,-2.229,4.9174,2.456,-0.81868,-1.6953,3.2747,-1.8349e-10,-0.84765,0,0,0.25,-5.9212e-16,0,0.66667
0.97848,0.71176,3.9139,0.31764,0.1365,0.33672,-3.3152,1.1051,-1.6409,-4.4203,3.7618e-10,-0.82043,0,0,0.25,-0,-0,0.66667
0.93575,0.91383,3.743,0.62074,1.533,1.3499,-6.1958,2.0653,-0.63022,-8.261,-5.7397e-08,-0.31511,0,0,0.25,-0,-0,0.66667
0.12932,0.10887,0.51726,-0.5867,-12.174,50.928,0.80927,-0.26976,-0.7754,1.079,3.1068e-09,-0.3877,0,0,0.25,-2.9606e-16,0,0.66667
0.46825,0.41579,1.873,-0.12631,-2.0323,22.878,0.63089,-0.2103,-1.9437,0.84119,-5.6538e-13,-0.97183,0,0,0.25,-0,-0,0.66667
0.30416,0.10865,1.2167,-0.58702,-11.232,35.863,1.9046,-0.63485,-0.77377,2.5394,1.5292e-12,-0.38688,0,0,0.25,-0,-0,0.66667
0.89049,0.0028373,3.562,-0.74574,-3.2888,2.487,7.0835,-2.3612,-0.024032,9.4446,2.6953e-08,-0.012016,0,0,0.25,-0,-0,0.66667
0.13731,0.18525,0.54925,-0.47213,-9.7159,50.188,0.69151,-0.2305,-1.2081,0.92202,-9.2723e-11,-0.60406,0,0,0.25,-3.7007e-17,0,0.66667
0.047972,0.52968,0.19189,0.04452,0.9217,58.193,-0.022781,0.007594,-1.9943,-0.030374,5.4089e-07,-0.99715,0,0,0.25,-3.7007e-17,0,0.66667
0.97746,0.31795,3.9098,-0.27307,-0.12148,0.30033,2.8471,-0.94905,-1.7346,3.7962,-1.0865e-09,-0.8673,0,0,0.25,-0,-0,0.66667
0.56486,0.76435,2.2595,0.39653,5.5935,16.438,-2.3892,0.79638,-1.4406,-3.1855,-1.5015e-12,-0.72029,0,0,0.25,-0,-0,0.66667
0.28488,0.94533,1.1395,0.668,13.014,37.515,-2.0299,0.67663,-0.41322,-2.7065,-1.031e-12,-0.20661,0,0,0.25,-0,-0,0.66667
0.33181,0.20233,1.3272,-0.44651,-8.3086,33.518,1.5803,-0.52677,-1.2905,2.1071,8.2068e-13,-0.64525,0,0,0.25,5.9212e-16,0,0.66667
0.13838,0.077767,0.55353,-0.63335,-13.147,50.137,0.93488,-0.31163,-0.57342,1.2465,9.7293e-10,-0.28671,0,0,0.25,2.9606e-16,-2.959e-16,0.66667
0.99127,0.13503,3.9651,-0.54745,-0.053911,0.58413,5.7885,-1.9295,-0.93362,7.718,2.7016e-08,-0.46681,0,0,0.25,-0,-0,0.66667
0.87071,0.91708,3.4829,0.62562,3.1169,2.7033,-5.8105,1.9368,-0.60778,-7.7474,3.9311e-10,-0.30389,0,0,0.25,2.3685e-15,0,0.66667
0.24165,0.65454,0.96659,0.23181,4.5343,40.99,-0.59751,0.19917,-1.8093,-0.79669,-9.4669e-11,-0.90465,0,0,0.25,4.4409e-16,0,0.66667
0.33244,0.2656,1.3298,-0.3516,-6.5118,33.422,1.2468,-0.4156,-1.5597,1.6624,2.8408e-12,-0.77985,0,0,0.25,5.9212e-16,0,0.66667
0.16541,0.25694,0.66166,-0.36459,-7.4027,47.671,0.64329,-0.21443,-1.5269,0.85773,5.2469e-10,-0.76347,0,0,0.25,-0,-0,0.66667
0.51303,0.97731,2.0521,0.71596,11.217,20.178,-3.918,1.306,-0.17733,-5.224,-1.7986e-13,-0.088667,0,0,0.25,-0,-0,0.66667
0.97972,0.097678,3.9189,-0.60348,-0.39282,0.78412,6.3066,-2.1022,-0.70526,8.4088,7.2517e-07,-0.35263,0,0,0.25,-0,-0,0.66667
0.59628,0.15725,2.3851,-0.51412,-6.9094,14.605,3.27,-1.09,-1.0613,4.36,1.1393e-12,-0.53064,0,0,0.25,2.3685e-15,0,0.66667
0.66446,0.059258,2.6578,-0.66111,-7.7908,10.95,4.6857,-1.5619,-0.44604,6.2476,3.4683e-13,-0.22302,0,0,0.25,1.4803e-15,0,0.66667
0.67117,0.20017,2.6847,-0.44975,-5.1045,10.32,3.2198,-1.0733,-1.2809,4.2931,-1.5332e-12,-0.64047,0,0,0.25,-0,-0,0.66667
0.19112,0.94306,0.76447,0.66458,13.577,45.512,-1.3548,0.45161,-0.42969,-1.8064,-6.3829e-11,-0.21485,0,0,0.25,5.9212e-16,0,0.66667
0.24088,0.36424,0.96354,-0.20364,-3.9821,41.05,0.52323,-0.17441,-1.8518,0.69764,8.1405e-11,-0.92588,0,0,0.25,-2.9606e-16,0,0.66667
0.50091,0.16016,2.0036,-0.50976,-7.9863,20.779,2.7237,-0.9079,-1.077,3.6316,-2.9532e-13,-0.53852,0,0,0.25,-0,-0,0.66667
0.46695,0.04271,1.8678,-0.68593,-11.377,23.35,3.4165,-1.1388,-0.32698,4.5553,-1.3434e-13,-0.16349,0,0,0.25,1.1842e-15,-2.7502e-16,0.66667
0.32409,0.63384,1.2964,0.20076,3.7244,34.054,-0.69404,0.23135,-1.8563,-0.92539,-6.3103e-12,-0.92816,0,0,0.25,-0,-0,0.66667
0.72003,0.15895,2.8801,-0.51157,-5.0959,7.9858,3.9291,-1.3097,-1.0706,5.2388,-1.4488e-11,-0.53528,0,0,0.25,-0,-0,0.66667
0.27597,0.20702,1.1039,-0.43946,-8.4929,38.135,1.2936,-0.43121,-1.3126,1.7248,2.7605e-11,-0.65628,0,0,0.25,2.9606e-16,0,0.66667
0.89558,0.50801,3.5823,0.012018,0.043732,1.4899,-0.11481,0.038269,-1.9991,-0.15308,5.0349e-08,-0.99953,0,0,0.25,-4.737e-15,0,0.66667
0.12274,0.80724,0.49097,0.46085,9.5161,51.485,-0.60337,0.20112,-1.2453,-0.8045,-4.5257e-09,-0.62263,0,0,0.25,-1.4803e-16,0,0.66667
0.92163,0.81815,3.6865,0.47722,1.3675,1.3276,-4.6914,1.5638,-1.1912,-6.2552,-6.9544e-09,-0.59559,0,0,0.25,-0,-0,0.66667
0.10352,0.98292,0.41407,0.72438,15.259,53.264,-0.79984,0.26661,-0.1334,-1.0665,1.1668e-08,-0.0667,0,0,0.25,9.7147e-17,0,0.66667
0.19298,0.15219,0.77193,-0.52172,-10.558,45.292,1.0739,-0.35798,-1.0323,1.4319,3.007e-10,-0.51613,0,0,0.25,4.4409e-16,0,0.66667
0.45235,0.78545,1.8094,0.42817,7.0969,24.172,-2.0659,0.68864,-1.3491,-2.7546,8.5576e-13,-0.67456,0,0,0.25,1.1842e-15,0,0.66667
0.88235,0.31956,3.5294,-0.27066,-1.1414,1.9164,2.5474,-0.84914,-1.739,3.3966,3.9639e-10,-0.86952,0,0,0.25,-0,-0,0.66667
0.30753,0.56002,1.2301,0.090036,1.6873,35.402,-0.29535,0.098449,-1.9716,-0.3938,-6.8178e-12,-0.98578,0,0,0.25,2.2204e-16,0,0.66667
0.65742,0.57882,2.6297,0.11823,1.3648,10.829,-0.82907,0.27636,-1.9502,-1.1054,1.8107e-12,-0.97512,0,0,0.25,-1.1842e-15,0,0.66667
0.33893,0.81709,1.3557,0.47563,8.8153,32.956,-1.7196,0.57318,-1.1957,-2.2927,2.7955e-13,-0.59784,0,0,0.25,-1.1842e-15,0,0.66667
0.016138,0.50406,0.064554,0.0060839,0.1262,61.087,-0.0010457,0.00033906,-2.0009,-0.001399,-1.4244e-05,-1.0005,0,0,0.25,-7.4015e-17,0,0.66667
0.62443,0.33254,2.4977,-0.25119,-3.1391,12.728,1.673,-0.55768,-1.7759,2.2307,9.7378e-13,-0.88796,0,0,0.25,5.9212e-16,0,0.66667
0.23807,0.99076,0.95228,0.73614,14.798,41.504,-1.8693,0.62312,-0.072899,-2.4925,-9.2903e-13,-0.03645,0,0,0.25,2.9606e-16,0,0.66667
0.19454,0.27031,0.77814,-0.34453,-6.9133,45.103,0.71492,-0.23831,-1.5771,0.95323,3.0195e-10,-0.78856,0,0,0.25,2.9606e-16,0,0.66667
0.80885,0.463,3.2354,-0.0555,-0.37717,4.0068,0.47884,-0.15961,-1.9891,0.63845,-5.7037e-11,-0.99455,0,0,0.25,5.9212e-16,0,0.66667
0.61735,0.18407,2.4694,-0.47389,-6.0906,13.316,3.1206,-1.0402,-1.2015,4.1608,2.053e-12,-0.60077,0,0,0.25,-1.4803e-15,0,0.66667
0.79544,0.85,3.1818,0.525,3.9573,4.8763,-4.4544,1.4848,-1.0205,-5.9393,2.2349e-10,-0.51024,0,0,0.25,-0,-0,0.66667
0.26534,0.7397,1.0614,0.35954,6.9687,39.002,-1.0176,0.33921,-1.5408,-1.3568,-5.1548e-11,-0.77039,0,0,0.25,-2.9606e-16,0,0.66667
0.047177,0.7115,0.18871,0.31725,6.6009,58.274,-0.15965,0.053215,-1.6428,-0.21286,5.8944e-09,-0.82142,0,0,0.25,-3.7007e-17,0,0.66667
0.85345,0.52958,3.4138,0.044363,0.23128,2.5765,-0.40386,0.13462,-1.9934,-0.53848,1.0013e-09,-0.99672,0,0,0.25,2.9606e-16,0,0.66667
0.76433,0.44983,3.0573,-0.07525,-0.62404,5.7103,0.6135,-0.2045,-1.9798,0.818,-4.1128e-11,-0.98992,0,0,0.25,-1.1842e-15,0,0.66667
0.0045005,0.36677,0.018002,-0.19984,-4.1548,62.146,0.0095934,-0.0031978,-1.8576,0.012791,-6.7924e-08,-0.92881,0,0,0.25,4.6259e-18,0,0.66667
0.69985,0.38001,2.7994,-0.17998,-1.8601,8.6597,1.3436,-0.44785,-1.885,1.7914,-1.5238e-11,-0.94252,0,0,0.25,-0,-0,0.66667
0.24166,0.68772,0.96664,0.28158,5.5152,41,-0.72584,0.24195,-1.7187,-0.96778,-9.8645e-11,-0.85937,0,0,0.25,5.9212e-16,0,0.66667
0.35967,0.78951,1.4387,0.43426,7.8974,31.269,-1.6661,0.55535,-1.3301,-2.2214,1.3866e-12,-0.66503,0,0,0.25,-0,-0,0.66667
0.78074,0.57833,3.123,0.1175,0.91181,5.0641,-0.9785,0.32617,-1.951,-1.3047,8.4626e-11,-0.97552,0,0,0.25,-0,-0,0.66667
0.98652,0.59454,3.9461,0.14181,0.0012663,0.12711,-1.4923,0.49742,-1.9297,-1.9897,-2.1617e-07,-0.96486,0,0,0.25,-0,-0,0.66667
0.24556,0.09409,0.98225,-0.60886,-12.085,40.792,1.5948,-0.53161,-0.68277,2.1264,1.2474e-11,-0.34139,0,0,0.25,-0,-0,0.66667
0.4675,0.46054,1.87,-0.059187,-0.95239,22.922,0.29515,-0.098383,-1.9878,0.39353,-4.2624e-13,-0.99392,0,0,0.25,-2.9606e-16,0,0.66667
0.40034,0.24305,1.6013,-0.38542,-6.7391,28.056,1.6458,-0.54861,-1.4714,2.1945,-2.0051e-12,-0.73571,0,0,0.25,-2.9606e-16,0,0.66667
0.55826,0.97012,2.233,0.70518,10.308,17.196,-4.1992,1.3997,-0.23259,-5.5989,-2.9221e-13,-0.11629,0,0,0.25,-0,3.2032e-16,0.66667
0.52926,0.33967,2.1171,-0.2405,-3.5676,18.664,1.3577,-0.45258,-1.795,1.8103,1.4633e-13,-0.8975,0,0,0.25,8.8818e-16,0,0.66667
0.65803,0.67544,2.6321,0.26316,3.0486,10.861,-1.8471,0.61571,-1.7536,-2.4628,2.1936e-12,-0.87681,0,0,0.25,-1.1842e-15,0,0.66667
0.49673,0.93022,1.9869,0.64534,10.273,21.207,-3.4193,1.1398,-0.51918,-4.559,-9.1038e-14,-0.25959,0,0,0.25,-8.8818e-16,0,0.66667
0.68538,0.31345,2.7415,-0.27982,-3.0248,9.439,2.0457,-0.6819,-1.7228,2.7276,-9.9547e-12,-0.8614,0,0,0.25,-0,-0,0.66667
0.31286,0.26721,1.2514,-0.34919,-6.5607,35.024,1.1653,-0.38843,-1.5667,1.5537,9.1103e-12,-0.78333,0,0,0.25,-5.9212e-16,0,0.66667
0.21438,0.67299,0.85751,0.25948,5.148,43.353,-0.59336,0.19779,-1.7599,-0.79114,-1.8192e-10,-0.87993,0,0,0.25,-2.9606e-16,0,0.66667
0.90718,0.53264,3.6287,0.048955,0.15645,1.2423,-0.47371,0.1579,-1.9929,-0.63162,7.4446e-08,-0.99645,0,0,0.25,-2.3685e-15,0,0.66667
0.5576,0.59978,2.2304,0.14967,2.1164,16.767,-0.8902,0.29673,-1.9202,-1.1869,-9.4497e-13,-0.96009,0,0,0.25,-0,-0,0.66667
0.029017,0.013314,0.11607,-0.73003,-15.538,59.943,0.22596,-0.075317,-0.10479,0.30128,2.1651e-06,-0.052393,0,0,0.25,-1.4803e-16,0,0.66667
0.12197,0.56446,0.48786,0.096696,1.9767,51.51,-0.1258,0.041933,-1.9675,-0.16773,1.2289e-08,-0.98377,0,0,0.25,-0,-0,0.66667
0.6814,0.32724,2.7256,-0.25913,-2.8283,9.6288,1.8834,-0.62782,-1.7603,2.5113,-8.3771e-12,-0.88015,0,0,0.25,-0,-0,0.66667
0.80871,0.53475,3.2348,0.052121,0.35445,4.0113,-0.44961,0.14987,-1.9907,-0.59948,5.5277e-11,-0.99536,0,0,0.25,2.3685e-15,0,0.66667
0.82348,0.99343,3.2939,0.74015,5.0711,4.3047,-6.5013,2.1671,-0.051993,-8.6684,1.6134e-10,-0.025996,0,0,0.25,3.5527e-15,0,0.66667
0.4331,0.96494,1.7324,0.69741,12.032,25.829,-3.2218,1.0739,-0.27088,-4.2957,-2.6912e-13,-0.13544,0,0,0.25,4.2428e-16,0,0.66667
0.58043,0.8931,2.3217,0.58965,8.21,15.657,-3.6507,1.2169,-0.76345,-4.8676,-6.5592e-13,-0.38172,0,0,0.25,-5.9212e-16,0,0.66667
0.80756,0.54538,3.2303,0.068067,0.46572,4.0544,-0.58633,0.19544,-1.9827,-0.78178,4.4929e-11,-0.99136,0,0,0.25,1.1842e-15,0,0.66667
0.95758,0.17055,3.8303,-0.49418,-0.71227,0.80745,5.0477,-1.6826,-1.1309,6.7302,-3.679e-09,-0.56547,0,0,0.25,-0,-0,0.66667
0.87975,0.007039,3.519,-0.73944,-3.5536,2.721,6.9389,-2.313,-0.055628,9.2519,-2.1517e-08,-0.027814,0,0,0.25,-0,-0,0.66667
0.38851,0.84028,1.554,0.51042,9.0855,29.049,-2.1152,0.70508,-1.0744,-2.8203,2.0373e-12,-0.5372,0,0,0.25,7.4015e-16,0,0.66667
0.96148,0.032333,3.8459,-0.7015,-1.0794,1.1844,7.1945,-2.3982,-0.25078,9.5926,-2.8169e-06,-0.12539,0,0,0.25,-0,-0,0.66667
0.13705,0.30939,0.54819,-0.28591,-5.8423,50.177,0.41795,-0.13932,-1.7098,0.55727,1.3291e-09,-0.85492,0,0,0.25,-2.2204e-16,0,0.66667
0.90874,0.8535,3.635,0.53024,1.8158,1.6605,-5.1398,1.7133,-1.0002,-6.853,6.3176e-10,-0.50008,0,0,0.25,-0,-0,0.66667
0.52131,0.26241,2.0852,-0.35639,-5.3758,19.264,1.9818,-0.66059,-1.5476,2.6423,3.4261e-13,-0.77378,0,0,0.25,-0,-0,0.66667
0.71489,0.51258,2.8596,0.018864,0.18577,7.8935,-0.14385,0.047949,-1.9981,-0.1918,3.0782e-12,-0.99906,0,0,0.25,-0,-0,0.66667
0.78467,0.85618,3.1387,0.53426,4.2265,5.291,-4.4717,1.4906,-0.98459,-5.9623,1.1382e-10,-0.49229,0,0,0.25,-0,-0,0.66667
0.33468,0.95295,1.3387,0.67943,12.8,33.441,-2.4255,0.80851,-0.35769,-3.234,5.8065e-13,-0.17884,0,0,0.25,-5.9212e-16,0,0.66667
0.87769,0.17375,3.5107,-0.48937,-2.2338,2.2914,4.5815,-1.5272,-1.1481,6.1087,-1.9306e-09,-0.57404,0,0,0.25,-1.1842e-15,0,0.66667
0.25801,0.39871,1.032,-0.15194,-2.9407,39.576,0.41816,-0.13939,-1.9174,0.55755,4.3277e-11,-0.95868,0,0,0.25,-1.4329e-16,0,0.66667
0.083575,0.99267,0.3343,0.73901,15.643,55.048,-0.6588,0.2196,-0.057802,-0.8784,-6.8977e-08,-0.028901,0,0,0.25,-1.4803e-16,0,0.66667
0.75937,0.67058,3.0375,0.25587,2.179,5.9966,-2.0725,0.69084,-1.7663,-2.7634,9.9986e-11,-0.88314,0,0,0.25,1.1842e-15,0,0.66667
0.89508,0.6414,3.5803,0.2121,0.78581,1.5726,-2.025,0.675,-1.8393,-2.7,2.2152e-09,-0.91965,0,0,0.25,1.1842e-15,0,0.66667
0.92645,0.20862,3.7058,-0.43707,-1.1528,1.1817,4.3192,-1.4397,-1.3202,5.7589,2.2738e-09,-0.66011,0,0,0.25,-1.1842e-15,0,0.66667
0.37407,0.017349,1.4963,-0.72398,-13.255,30.352,2.8887,-0.96291,-0.13642,3.8516,7.0832e-14,-0.068208,0,0,0.25,-1.1842e-15,-2.9245e-16,0.66667
0.34146,0.90198,1.3658,0.60297,11.239,32.836,-2.1962,0.73205,-0.70786,-2.9282,1.0241e-12,-0.35393,0,0,0.25,-0,1.4532e-16,0.66667
0.25569,0.40847,1.0227,-0.13729,-2.6599,39.772,0.37443,-0.12481,-1.9333,0.49924,4.2573e-11,-0.96667,0,0,0.25,5.9212e-16,0,0.66667
0.47079,0.10481,1.8832,-0.59278,-9.7133,22.976,2.9768,-0.99227,-0.75048,3.9691,-2.7889e-13,-0.37524,0,0,0.25,-0,-0,0.66667
0.96717,0.76345,3.8687,0.39517,0.37786,0.54547,-4.0768,1.3589,-1.4446,-5.4358,-1.5969e-09,-0.72231,0,0,0.25,-0,-0,0.66667
0.49887,0.13493,1.9955,-0.5476,-8.6257,20.956,2.9139,-0.97131,-0.93398,3.8852,-2.3004e-13,-0.46699,0,0,0.25,-0,-0,0.66667
0.23907,0.0486,0.9563,-0.6771,-13.546,41.383,1.7267,-0.57556,-0.36913,2.3022,6.48e-12,-0.18457,0,0,0.25,-0,-0,0.66667
0.20791,0.67548,0.83166,0.26322,5.238,43.917,-0.58376,0.19459,-1.7529,-0.77834,-2.1191e-10,-0.87647,0,0,0.25,2.9606e-16,0,0.66667
0.92671,0.2321,3.7068,-0.40186,-1.0435,1.1285,3.9723,-1.3241,-1.425,5.2964,-1.5857e-10,-0.71252,0,0,0.25,-0,-0,0.66667
0.68793,0.44692,2.7517,-0.079618,-0.84878,9.2219,0.58423,-0.19474,-1.9779,0.77898,-5.1987e-12,-0.98894,0,0,0.25,-0,-0,0.66667
0.70478,0.51191,2.8191,0.017863,0.18137,8.3786,-0.13429,0.044763,-1.9988,-0.17905,2.6753e-12,-0.99938,0,0,0.25,-2.3685e-15,0,0.66667
0.5889,0.30196,2.3556,-0.29706,-3.9933,14.868,1.866,-0.62199,-1.6856,2.488,1.7842e-12,-0.84281,0,0,0.25,-0,-0,0.66667
0.61873,0.89418,2.4749,0.59128,7.6545,13.373,-3.9023,1.3008,-0.75608,-5.203,-1.2323e-12,-0.37804,0,0,0.25,-0,-0,0.66667
0.045998,0.26669,0.18399,-0.34996,-7.2903,58.383,0.1717,-0.057235,-1.5646,0.22894,-3.946e-09,-0.78229,0,0,0.25,-0,-0,0.66667
0.35616,0.15751,1.4246,-0.51374,-9.4104,31.597,1.9517,-0.65057,-1.0625,2.6023,-1.7708e-12,-0.53125,0,0,0.25,-0,-0,0.66667
0.079759,0.31915,0.31904,-0.27128,-5.6129,55.322,0.23079,-0.076931,-1.7387,0.30772,1.3004e-09,-0.86936,0,0,0.25,-0,-0,0.66667
0.32577,0.26516,1.3031,-0.35227,-6.5573,33.966,1.2241,-0.40803,-1.5584,1.6321,4.3422e-12,-0.77921,0,0,0.25,-0,-0,0.66667
0.71057,0.86564,2.8423,0.54846,5.644,8.4789,-4.157,1.3857,-0.92973,-5.5427,6.7417e-12,-0.46487,0,0,0.25,-0,-0,0.66667
0.072478,0.94864,0.28991,0.67296,14.205,56.029,-0.52026,0.17342,-0.389,-0.69369,-5.6414e-09,-0.1945,0,0,0.25,-0,-0,0.66667
0.89901,0.46539,3.596,-0.051917,-0.18227,1.4176,0.49785,-0.16595,-1.9905,0.66381,2.609e-08,-0.99524,0,0,0.25,1.1842e-15,0,0.66667
0.35431,0.52119,1.4172,0.031781,0.57437,31.579,-0.12011,0.040036,-1.9958,-0.16015,-6.5267e-13,-0.99789,0,0,0.25,-0,-0,0.66667
0.089774,0.16373,0.3591,-0.5044,-10.513,54.447,0.48301,-0.161,-1.0952,0.64402,-1.1441e-08,-0.54758,0,0,0.25,-0,-0,0.66667
0.10048,0.3792,0.40191,-0.1812,-3.7271,53.447,0.1942,-0.064734,-1.8832,0.25894,5.0372e-09,-0.9416,0,0,0.25,-2.9606e-16,0,0.66667
0.14697,0.39758,0.58789,-0.15364,-3.1209,49.277,0.24086,-0.080286,-1.9155,0.32114,9.4187e-10,-0.95773,0,0,0.25,-1.4803e-16,0,0.66667
0.70481,0.67651,2.8192,0.26476,2.7073,8.4649,-1.9905,0.66349,-1.7507,-2.6539,2.0799e-11,-0.87535,0,0,0.25,-0,-0,0.66667
0.94314,0.62989,3.7726,0.19483,0.35325,0.6565,-1.9601,0.65336,-1.8649,-2.6134,-7.3938e-08,-0.93247,0,0,0.25,-0,-0,0.66667
0.76054,0.50738,3.0422,0.011072,0.093115,5.8596,-0.08982,0.02994,-1.9992,-0.11976,1.4912e-12,-0.9996,0,0,0.25,-0,-0,0.66667
0.39221,0.48698,1.5688,-0.019537,-0.34128,28.581,0.081734,-0.027245,-1.9985,0.10898,-1.8832e-13,-0.99926,0,0,0.25,-0,-0,0.66667
0.76781,0.75678,3.0713,0.38517,3.2073,5.7625,-3.1545,1.0515,-1.4727,-4.206,1.2774e-10,-0.73637,0,0,0.25,-0,-0,0.66667
0.83593,0.072058,3.3437,-0.64191,-4.0248,3.7135,5.7237,-1.9079,-0.53418,7.6316,3.4177e-12,-0.26709,0,0,0.25,-0,-0,0.66667
0.061478,0.8206,0.24591,0.4809,10.055,56.993,-0.31536,0.10512,-1.1781,-0.42047,-4.0053e-09,-0.58905,0,0,0.25,-0,-0,0.66667
0.31055,0.99724,1.2422,0.74587,14.373,35.455,-2.4707,0.82356,-0.022871,-3.2942,-1.8674e-13,-0.011436,0,0,0.25,-8.8818e-16,0,0.66667
0.74228,0.9939,2.9691,0.74086,7.0863,7.3657,-5.8658,1.9553,-0.048108,-7.8211,-4.4471e-12,-0.024054,0,0,0.25,-0,-0,0.66667
0.26043,0.072377,1.0417,-0.64143,-12.655,39.55,1.7818,-0.59394,-0.53648,2.3758,4.5901e-12,-0.26824,0,0,0.25,-0,-0,0.66667
0.91053,0.052706,3.6421,-0.67094,-2.3685,1.8984,6.5164,-2.1721,-0.39892,8.6885,-4.7949e-08,-0.19946,0,0,0.25,-0,-0,0.66667
0.24225,0.72889,0.969,0.34334,6.7364,40.966,-0.88718,0.29573,-1.5801,-1.1829,-1.0277e-10,-0.79004,0,0,0.25,-0,-0,0.66667
0.78725,0.76106,3.149,0.39159,3.0104,5.0088,-3.2883,1.0961,-1.454,-4.3844,2.1053e-10,-0.72699,0,0,0.25,-0,-0,0.66667
0.39894,0.64504,1.5958,0.21756,3.7863,28.091,-0.92579,0.3086,-1.8308,-1.2344,1.4632e-12,-0.91542,0,0,0.25,5.9212e-16,0,0.66667
0.88796,0.10982,3.5518,-0.58527,-2.5076,2.2068,5.5435,-1.8478,-0.78163,7.3913,-9.0044e-10,-0.39081,0,0,0.25,-0,-0,0.66667
0.28813,0.41267,1.1525,-0.131,-2.4885,37.025,0.4026,-0.1342,-1.9386,0.5368,1.7249e-11,-0.9693,0,0,0.25,-0,-0,0.66667
0.57639,0.28541,2.3056,-0.32189,-4.4324,15.657,1.979,-0.65968,-1.6323,2.6387,1.5483e-12,-0.81615,0,0,0.25,-0,-0,0.66667
0.015374,0.97498,0.061495,0.71246,15.155,61.171,-0.11684,0.038943,-0.19601,-0.15579,-5.0894e-06,-0.098005,0,0,0.25,-0,-0,0.66667
0.80519,0.4797,3.2208,-0.030446,-0.21069,4.1335,0.26149,-0.087163,-1.9959,0.34865,-3.4252e-11,-0.99793,0,0,0.25,-0,-0,0.66667
0.033564,0.84901,0.13426,0.52351,10.999,59.519,-0.18743,0.062476,-1.0259,-0.2499,6.8352e-08,-0.51297,0,0,0.25,-0,-0,0.66667
0.64091,0.62328,2.5636,0.18493,2.2233,11.76,-1.2642,0.42141,-1.88,-1.6856,2.2493e-13,-0.93998,0,0,0.25,1.4803e-16,0,0.66667
0.56365,0.89242,2.2546,0.58864,8.4362,16.704,-3.539,1.1797,-0.76799,-4.7187,-4.9516e-13,-0.384,0,0,0.25,-5.9212e-16,0,0.66667
0.92841,0.097254,3.7136,-0.60412,-1.6554,1.4349,5.9826,-1.9942,-0.70243,7.9768,-1.756e-07,-0.35121,0,0,0.25,-0,-0,0.66667
0.91911,0.48623,3.6765,-0.020661,-0.056377,1.0023,0.20256,-0.06752,-1.998,0.27008,-1.0252e-08,-0.99902,0,0,0.25,9.5789e-17,0,0.66667
0.24888,0.1898,0.99552,-0.4653,-9.1445,40.442,1.2352,-0.41174,-1.2314,1.647,6.5906e-11,-0.61571,0,0,0.25,-0,-0,0.66667
0.26552,0.39479,1.0621,-0.15782,-3.0415,38.938,0.44697,-0.14899,-1.9118,0.59597,3.7896e-11,-0.95591,0,0,0.25,-2.9606e-16,0,0.66667
0.65743,0.069376,2.6297,-0.64594,-7.7268,11.3,4.5297,-1.5099,-0.51698,6.0395,5.8265e-13,-0.25849,0,0,0.25,-0,-0,0.66667
0.28227,0.29315,1.1291,-0.31028,-5.9419,37.557,0.93421,-0.3114,-1.6578,1.2456,3.1788e-11,-0.82888,0,0,0.25,-0,-0,0.66667
0.17582,0.39995,0.70329,-0.15008,-3.0187,46.717,0.28147,-0.093822,-1.9198,0.37529,2.0415e-10,-0.95992,0,0,0.25,1.4803e-16,0,0.66667
0.17263,0.92572,0.69052,0.63858,13.115,47.118,-1.1759,0.39196,-0.55027,-1.5678,-1.8956e-10,-0.27514,0,0,0.25,-2.9606e-16,0,0.66667
0.027872,0.40841,0.11149,-0.13738,-2.851,60.021,0.040843,-0.013614,-1.9336,0.054458,3.804e-07,-0.96679,0,0,0.25,-0,-0,0.66667
0.46709,0.0049423,1.8683,-0.74259,-12.377,23.407,3.6998,-1.2333,-0.039945,4.933,-1.1835e-13,-0.019973,0,0,0.25,-0,-0,0.66667
0.48856,0.11444,1.9543,-0.57834,-9.2561,21.704,3.0139,-1.0046,-0.81022,4.0185,-3.0043e-13,-0.40511,0,0,0.25,5.9212e-16,0,0.66667
0.42371,0.52207,1.6948,0.033105,0.56018,26.162,-0.14962,0.049874,-1.9962,-0.19949,2.2833e-13,-0.99808,0,0,0.25,-0,-0,0.66667
0.98837,0.83094,3.9535,0.49641,0.082262,0.51042,-5.2335,1.7445,-1.1232,-6.978,2.8187e-08,-0.56159,0,0,0.25,-0,-0,0.66667
0.64354,0.43627,2.5741,-0.095602,-1.14,11.585,0.65625,-0.21875,-1.9685,0.875,-6.9228e-13,-0.98423,0,0,0.25,-7.4015e-17,0,0.66667
0.56225,0.96832,2.249,0.70247,10.198,16.94,-4.213,1.4043,-0.24727,-5.6173,-1.9895e-13,-0.12364,0,0,0.25,1.6653e-16,-1.6216e-17,0.66667
0.086457,0.071829,0.34583,-0.64226,-13.499,54.77,0.59229,-0.19743,-0.53264,0.78972,7.7301e-08,-0.26632,0,0,0.25,-0,-0,0.66667
0.45235,0.17326,1.8094,-0.49011,-8.1523,24.217,2.3648,-0.78827,-1.146,3.1531,-8.4732e-13,-0.57301,0,0,0.25,-5.9212e-16,-6.1447e-17,0.66667
0.069724,0.16381,0.27889,-0.50429,-10.545,56.252,0.37505,-0.12502,-1.0953,0.50006,2.8931e-08,-0.54763,0,0,0.25,-0,-0,0.66667
0.48716,0.80888,1.9486,0.46332,7.3713,21.699,-2.4076,0.80252,-1.2373,-3.2101,1.9318e-14,-0.61865,0,0,0.25,-1.4803e-16,0,0.66667
0.01559,0.68949,0.062361,0.28424,5.9204,61.139,-0.047269,0.015756,-1.7143,-0.063025,1.7321e-08,-0.85716,0,0,0.25,-0,-0,0.66667
0.14153,0.99532,0.56611,0.74299,15.525,49.896,-1.1216,0.37388,-0.038081,-1.4955,2.8223e-09,-0.019041,0,0,0.25,4.4409e-16,0,0.66667
0.61893,0.79952,2.4757,0.44927,5.7449,13.199,-2.9661,0.98869,-1.2814,-3.9547,-2.1889e-12,-0.64072,0,0,0.25,1.1842e-15,0,0.66667
0.67615,0.453,2.7046,-0.070506,-0.7757,9.8246,0.50851,-0.1695,-1.9816,0.67801,-2.9777e-12,-0.99079,0,0,0.25,-0,-0,0.66667
0.60372,0.039058,2.4149,-0.69141,-9.3134,14.389,4.4525,-1.4842,-0.29978,5.9367,3.7703e-13,-0.14989,0,0,0.25,-0,-0,0.66667
0.25097,0.0015909,1.0039,-0.74761,-14.942,40.416,2.0014,-0.66714,-0.01408,2.6685,5.1852e-12,-0.0070398,0,0,0.25,-0,-0,0.66667
0.066186,0.65806,0.26474,0.23709,4.9113,56.547,-0.16738,0.055794,-1.8008,-0.22318,8.2158e-09,-0.90041,0,0,0.25,1.4803e-16,0,0.66667
0.67727,0.69347,2.7091,0.29021,3.2073,9.8617,-2.0966,0.69885,-1.7003,-2.7954,6.6933e-12,-0.85016,0,0,0.25,-0,-0,0.66667
0.76834,0.83041,3.0734,0.49562,4.1685,5.8742,-4.0619,1.354,-1.1262,-5.4159,9.5552e-11,-0.5631,0,0,0.25,-0,-0,0.66667
0.11928,0.61932,0.4771,0.17898,3.6654,51.757,-0.22771,0.075902,-1.8859,-0.30361,3.792e-09,-0.94294,0,0,0.25,-7.4015e-17,0,0.66667
0.73956,0.43683,2.9582,-0.094753,-0.8614,6.7731,0.74747,-0.24916,-1.9688,0.99663,-3.1193e-11,-0.98439,0,0,0.25,-1.1295e-15,0,0.66667
0.77319,0.22674,3.0928,-0.40989,-3.3491,5.5742,3.3805,-1.1268,-1.402,4.5074,-1.508e-10,-0.70101,0,0,0.25,-2.3685e-15,0,0.66667
0.10997,0.99691,0.43989,0.74537,15.704,52.694,-0.87435,0.29145,-0.025821,-1.1658,2.1703e-08,-0.01291,0,0,0.25,-4.4409e-16,0,0.66667
0.48647,0.34491,1.9459,-0.23263,-3.6657,21.608,1.2071,-0.40238,-1.8087,1.6095,-1.2712e-13,-0.90437,0,0,0.25,-1.1842e-15,0,0.66667
0.005725,0.5176,0.0229,0.026396,0.54773,62.035,-0.001612,0.000543,-1.9966,-0.0021465,8.4972e-06,-0.99832,0,0,0.25,-0,-0,0.66667
0.62591,0.6763,2.5036,0.26446,3.2964,12.65,-1.7656,0.58854,-1.7515,-2.3542,-1.2104e-12,-0.87574,0,0,0.25,-5.9212e-16,0,0.66667
0.85898,0.92844,3.4359,0.64266,3.4944,3.0469,-5.8883,1.9628,-0.532,-7.8511,-3.832e-10,-0.266,0,0,0.25,-5.9212e-16,2.4384e-16,0.66667
0.86017,0.92623,3.4407,0.63934,3.4457,3.0081,-5.8661,1.9554,-0.54681,-7.8214,-2.2621e-10,-0.27341,0,0,0.25,-0,-0,0.66667
0.93728,0.49991,3.7491,-0.00014202,-0.00028514,0.68412,0.0014198,-0.0004727,-2.0019,0.0018934,8.727e-07,-1.001,0,0,0.25,-1.3878e-15,0,0.66667
0.78384,0.16209,3.1354,-0.50686,-4.0089,5.2829,4.2379,-1.4126,-1.0868,5.6505,-1.1225e-10,-0.54339,0,0,0.25,-2.3685e-15,0,0.66667
0.43204,0.63106,1.7282,0.19659,3.3042,25.564,-0.90595,0.30198,-1.8623,-1.2079,1.6247e-12,-0.93117,0,0,0.25,-1.1842e-15,0,0.66667
0.77402,0.82197,3.0961,0.48296,3.9656,5.631,-3.9874,1.3291,-1.1699,-5.3166,1.1601e-10,-0.58496,0,0,0.25,-0,-0,0.66667
0.98356,0.79208,3.9342,0.43813,0.13652,0.45178,-4.5965,1.5322,-1.3177,-6.1287,2.0037e-08,-0.65885,0,0,0.25,-0,-0,0.66667
0.36725,0.30389,1.469,-0.29416,-5.2839,30.601,1.1523,-0.38411,-1.6917,1.5364,-1.1988e-12,-0.84584,0,0,0.25,2.9606e-16,0,0.66667
0.035895,0.38261,0.14358,-0.17608,-3.6545,59.292,0.067417,-0.022472,-1.8894,0.08989,-2.8465e-08,-0.94471,0,0,0.25,-0,-0,0.66667
0.50774,0.93897,2.031,0.65846,10.338,20.466,-3.5661,1.1887,-0.45884,-4.7548,-1.7675e-13,-0.22942,0,0,0.25,-0,-0,0.66667
0.3525,0.28517,1.41,-0.32224,-5.867,31.789,1.2116,-0.40387,-1.6308,1.6155,-3.4417e-15,-0.81539,0,0,0.25,-1.1842e-15,0,0.66667
0.17606,0.8255,0.70425,0.48825,9.929,46.764,-0.91693,0.30564,-1.1517,-1.2226,-4.6439e-10,-0.57586,0,0,0.25,-0,-0,0.66667
0.9343,0.093621,3.7372,-0.60957,-1.5319,1.3497,6.0749,-2.025,-0.67998,8.0999,-1.6156e-08,-0.33999,0,0,0.25,-1.6943e-15,-2.9849e-16,0.66667
0.11962,0.29154,0.47847,-0.31269,-6.4247,51.74,0.39897,-0.13299,-1.6517,0.53197,1.2191e-10,-0.82583,0,0,0.25,-0,-0,0.66667
0.65426,0.067241,2.617,-0.64914,-7.8254,11.474,4.5302,-1.5101,-0.50231,6.0403,6.2306e-13,-0.25115,0,0,0.25,-0,-0,0.66667
0.16873,0.39863,0.67492,-0.15206,-3.0666,47.345,0.27368,-0.091225,-1.9177,0.3649,-2.6415e-10,-0.95885,0,0,0.25,-1.4803e-16,0,0.66667
0.79644,0.5388,3.1858,0.058205,0.42032,4.4544,-0.49447,0.16482,-1.9886,-0.65929,1.2587e-11,-0.99428,0,0,0.25,-0,-0,0.66667
0.25811,0.11011,1.0324,-0.58483,-11.511,39.714,1.6101,-0.5367,-0.78292,2.1468,1.5969e-11,-0.39146,0,0,0.25,-0,-0,0.66667
0.69801,0.40249,2.792,-0.14627,-1.518,8.7368,1.089,-0.363,-1.9241,1.452,-1.2541e-11,-0.96203,0,0,0.25,1.4803e-15,0,0.66667
0.62789,0.78602,2.5116,0.42902,5.3757,12.664,-2.8734,0.9578,-1.3459,-3.8312,-1.7695e-12,-0.67295,0,0,0.25,-2.3685e-15,0,0.66667
0.7158,0.76846,2.8632,0.40269,4.022,8.0563,-3.0746,1.0249,-1.423,-4.0995,2.4689e-11,-0.71149,0,0,0.25,-1.1842e-15,0,0.66667
0.25083,0.34714,1.0033,-0.22928,-4.4624,40.202,0.61346,-0.20449,-1.8142,0.81794,7.4684e-11,-0.90708,0,0,0.25,-0,-0,0.66667
0.50402,0.10931,2.0161,-0.58603,-9.1929,20.639,3.1507,-1.0502,-0.7782,4.2009,-1.3189e-13,-0.3891,0,0,0.25,-0,-0,0.66667
0.34213,0.071777,1.3685,-0.64233,-11.999,32.811,2.3442,-0.78138,-0.5331,3.1255,-9.5168e-13,-0.26655,0,0,0.25,-0,2.472e-16,0.66667
0.1803,0.45204,0.7212,-0.071934,-1.4431,46.317,0.13834,-0.046114,-1.9806,0.18446,8.9848e-11,-0.99031,0,0,0.25,-2.9606e-16,0,0.66667
0.47551,0.66229,1.902,0.24344,3.8921,22.393,-1.2348,0.41158,-1.7889,-1.6463,4.8517e-13,-0.89447,0,0,0.25,-1.1842e-15,0,0.66667
0.91212,0.0070378,3.6485,-0.73944,-2.6386,2.0243,7.1943,-2.3981,-0.055499,9.5924,-1.3686e-07,-0.02775,0,0,0.25,-0,-0,0.66667
0.56794,0.72272,2.2718,0.33408,4.6719,16.196,-2.0239,0.67462,-1.6032,-2.6985,-1.9018e-12,-0.80162,0,0,0.25,1.1842e-15,0,0.66667
0.63089,0.86916,2.5236,0.55374,6.9643,12.631,-3.7264,1.2421,-0.90953,-4.9685,-1.6456e-12,-0.45476,0,0,0.25,-0,-0,0.66667
0.54925,0.27158,2.197,-0.34263,-4.9462,17.402,2.0074,-0.66912,-1.5825,2.6765,1.1486e-12,-0.79123,0,0,0.25,-5.9212e-16,0,0.66667
0.04503,0.67377,0.18012,0.26065,5.4156,58.466,-0.1252,0.041732,-1.7582,-0.16693,2.6932e-09,-0.87911,0,0,0.25,7.4015e-17,0,0.66667
0.86867,0.98423,3.4747,0.72634,3.7765,2.9664,-6.7301,2.2434,-0.12323,-8.9735,-2.7456e-09,-0.061615,0,0,0.25,2.0574e-15,0,0.66667
0.12479,0.15424,0.49917,-0.51864,-10.734,51.314,0.69037,-0.23012,-1.0451,0.9205,-1.864e-09,-0.52257,0,0,0.25,-3.7007e-17,3.3044e-16,0.66667
0.73641,0.81132,2.9456,0.46697,4.3929,7.1872,-3.6681,1.2227,-1.2258,-4.8908,3.5961e-11,-0.61291,0,0,0.25,-2.9606e-16,0,0.66667
0.45176,0.65296,1.807,0.22943,3.7744,24.11,-1.1056,0.36853,-1.8138,-1.4741,9.2726e-13,-0.90689,0,0,0.25,-0,-0,0.66667
0.71027,0.3137,2.8411,-0.27946,-2.8137,8.2116,2.1172,-0.70575,-1.7228,2.823,-2.5395e-11,-0.86139,0,0,0.25,-0,-0,0.66667
0.86113,0.44997,3.4445,-0.075042,-0.37043,2.3651,0.68928,-0.22976,-1.9798,0.91905,-1.1434e-09,-0.98991,0,0,0.25,-0,-0,0.66667
0.69657,0.46552,2.7863,-0.051721,-0.53798,8.7846,0.38429,-0.1281,-1.9906,0.51239,-4.6837e-12,-0.9953,0,0,0.25,-1.7764e-15,0,0.66667
0.8539,0.69472,3.4156,0.29208,1.5431,2.6901,-2.6604,0.88679,-1.6963,-3.5471,2.2324e-10,-0.84814,0,0,0.25,-0,-0,0.66667
0.48707,0.91018,1.9483,0.61527,9.8945,21.847,-3.1966,1.0655,-0.65453,-4.2621,3.9968e-15,-0.32726,0,0,0.25,-0,-0,0.66667
0.091798,0.17658,0.36719,-0.48514,-10.098,54.262,0.47503,-0.15834,-1.1631,0.63338,5.1123e-09,-0.58153,0,0,0.25,-1.4803e-16,0,0.66667
0.37859,0.86533,1.5144,0.54799,9.8658,29.849,-2.2129,0.73765,-0.93193,-2.9506,1.6571e-12,-0.46596,0,0,0.25,-5.9212e-16,0,0.66667
0.19142,0.84459,0.76567,0.51689,10.465,45.427,-1.0554,0.35179,-1.0509,-1.4072,-2.9078e-10,-0.52545,0,0,0.25,-0,-0,0.66667
0.76352,0.74686,3.0541,0.3703,3.1311,5.9223,-3.0157,1.0052,-1.5132,-4.021,1.1719e-10,-0.75662,0,0,0.25,1.4803e-15,0,0.66667
0.69537,0.86598,2.7815,0.54896,5.8997,9.2135,-4.0718,1.3573,-0.9278,-5.4291,2.8959e-12,-0.4639,0,0,0.25,-0,-0,0.66667
0.57953,0.73197,2.3181,0.34795,4.7707,15.479,-2.1509,0.71698,-1.5694,-2.8679,-1.9271e-12,-0.78472,0,0,0.25,-0,-0,0.66667
0.76884,0.2495,3.0754,-0.37575,-3.1135,5.7113,3.0815,-1.0272,-1.499,4.1087,-1.3169e-10,-0.74952,0,0,0.25,5.181e-16,0,0.66667
0.36936,0.33561,1.4775,-0.24659,-4.4145,30.417,0.97152,-0.32384,-1.7833,1.2954,-8.1868e-13,-0.89165,0,0,0.25,-2.9606e-16,0,0.66667
0.36918,0.26958,1.4767,-0.34564,-6.2098,30.47,1.3611,-0.45369,-1.5744,1.8148,-1.5749e-12,-0.78721,0,0,0.25,5.9212e-16,0,0.66667
0.70021,0.80624,2.8008,0.45936,4.8275,8.8644,-3.4309,1.1436,-1.2499,-4.5745,9.6219e-12,-0.62494,0,0,0.25,-0,-0,0.66667
0.4523,0.48638,1.8092,-0.020432,-0.33481,24.028,0.098578,-0.032859,-1.9986,0.13144,-1.6789e-13,-0.99929,0,0,0.25,-0,-0,0.66667
0.81192,0.41743,3.2477,-0.12386,-0.83022,3.9174,1.0727,-0.35756,-1.9457,1.4303,-2.0092e-10,-0.97285,0,0,0.25,2.3685e-15,0,0.66667
0.15461,0.13783,0.61844,-0.54326,-11.162,48.672,0.89593,-0.29864,-0.95053,1.1946,1.3001e-09,-0.47526,0,0,0.25,-0,-1.0287e-16,0.66667
0.58986,0.062843,2.3594,-0.65574,-9.0317,15.167,4.1258,-1.3753,-0.47211,5.501,4.361e-13,-0.23605,0,0,0.25,-0,-0,0.66667
0.37357,0.91616,1.4943,0.62424,11.347,30.303,-2.4874,0.82914,-0.61459,-3.3166,7.776e-13,-0.30729,0,0,0.25,-0,-2.5644e-16,0.66667
0.24708,0.90333,0.98831,0.605,11.995,40.661,-1.5945,0.53149,-0.69922,-2.126,-1.4544e-11,-0.34961,0,0,0.25,7.4015e-17,0,0.66667
0.25433,0.54885,1.0173,0.073281,1.4199,39.882,-0.1988,0.066267,-1.9802,-0.26507,-2.4998e-11,-0.99009,0,0,0.25,-0,-0,0.66667
0.74375,0.974,2.975,0.711,6.7356,7.2453,-5.6406,1.8802,-0.2024,-7.5208,1.1529e-12,-0.1012,0,0,0.25,-0,-0,0.66667
0.32886,0.76158,1.3155,0.39237,7.2989,33.731,-1.3764,0.45879,-1.4528,-1.8352,-2.8587e-12,-0.7264,0,0,0.25,-0,-0,0.66667
0.22792,0.93173,0.91166,0.6476,13.002,42.322,-1.5744,0.52479,-0.50857,-2.0992,-9.9243e-12,-0.25429,0,0,0.25,-3.0914e-16,0,0.66667
0.90536,0.10871,3.6214,-0.58694,-2.1253,1.831,5.6682,-1.8894,-0.77514,7.5575,-8.3558e-09,-0.38757,0,0,0.25,-0,-0,0.66667
0.41629,0.82019,1.6652,0.48029,8.3052,26.896,-2.1327,0.7109,-1.1794,-2.8436,1.5952e-12,-0.58968,0,0,0.25,-0,-0,0.66667
0.5344,0.68411,2.1376,0.27616,4.0697,18.339,-1.5742,0.52473,-1.7293,-2.0989,-7.8781e-13,-0.86467,0,0,0.25,-7.4015e-16,0,0.66667
0.37206,0.68099,1.4882,0.27149,4.8524,30.212,-1.0774,0.35915,-1.738,-1.4366,1.4546e-12,-0.86901,0,0,0.25,-2.9606e-16,0,0.66667
0.23386,0.78922,0.93543,0.43383,8.5804,41.717,-1.0822,0.36072,-1.3314,-1.4429,-1.1632e-10,-0.66568,0,0,0.25,-0,-0,0.66667
0.10234,0.046824,0.40937,-0.67976,-14.279,53.357,0.74207,-0.24736,-0.35606,0.98943,3.837e-09,-0.17803,0,0,0.25,-1.4803e-16,0,0.66667
0.055182,0.11138,0.22073,-0.58293,-12.263,57.572,0.34312,-0.11437,-0.79084,0.45749,-6.5578e-08,-0.39542,0,0,0.25,-0,-0,0.66667
0.87287,0.84851,3.4915,0.52276,2.4985,2.4651,-4.8672,1.6224,-1.0289,-6.4897,6.2649e-10,-0.51443,0,0,0.25,-2.3685e-15,0,0.66667
0.17297,0.49719,0.69188,-0.0042215,-0.084897,46.962,0.0077887,-0.0025962,-2.001,0.010385,6.3799e-10,-1.0005,0,0,0.25,5.181e-16,0,0.66667
0.53895,0.14865,2.1558,-0.52702,-7.8217,18.23,3.0298,-1.0099,-1.0119,4.0397,4.0945e-13,-0.50594,0,0,0.25,-5.9212e-16,0,0.66667
0.97872,0.76989,3.9149,0.40483,0.19624,0.44408,-4.2263,1.4088,-1.4165,-5.6351,-5.3762e-09,-0.70825,0,0,0.25,-0,-0,0.66667
0.16733,0.61453,0.66932,0.1718,3.4675,47.471,-0.30664,0.10221,-1.8945,-0.40885,-3.5986e-10,-0.94723,0,0,0.25,-0,-0,0.66667
0.59576,0.51283,2.3831,0.019248,0.25366,14.356,-0.12232,0.040772,-1.9985,-0.16309,-5.1646e-13,-0.99923,0,0,0.25,-0,-0,0.66667
0.75137,0.4879,3.0055,-0.018156,-0.15807,6.2474,0.14551,-0.048503,-1.9988,0.19401,-1.2341e-12,-0.9994,0,0,0.25,1.1842e-15,0,0.66667
0.079887,0.045654,0.31955,-0.68152,-14.377,55.366,0.58074,-0.19358,-0.34835,0.77432,7.5026e-09,-0.17417,0,0,0.25,-0,-0,0.66667
0.45273,0.53329,1.8109,0.049934,0.81793,23.999,-0.24114,0.080379,-1.9926,-0.32152,4.0515e-13,-0.9963,0,0,0.25,-0,-0,0.66667
0.79183,0.43959,3.1673,-0.090617,-0.669,4.6326,0.76537,-0.25512,-1.9712,1.0205,-6.3176e-11,-0.98562,0,0,0.25,-0,-0,0.66667
0.72178,0.43784,2.8871,-0.093233,-0.89924,7.5805,0.7178,-0.23927,-1.9702,0.95707,-1.6114e-11,-0.98511,0,0,0.25,-2.3685e-15,0,0.66667
0.67856,0.73304,2.7143,0.34957,3.864,9.8409,-2.5302,0.84339,-1.5646,-3.3736,5.8131e-12,-0.78228,0,0,0.25,1.1842e-15,0,0.66667
0.76669,0.72132,3.0668,0.33197,2.7635,5.7561,-2.7149,0.90497,-1.6093,-3.6199,1.2802e-10,-0.80466,0,0,0.25,-2.3685e-15,0,0.66667
0.5821,0.8082,2.3284,0.4623,6.3534,15.416,-2.8705,0.95683,-1.2403,-3.8273,-1.4773e-12,-0.62015,0,0,0.25,2.9606e-16,0,0.66667
0.3749,0.9999,1.4996,0.74985,13.748,30.313,-2.9986,0.99953,-0.0027506,-3.9981,2.1916e-13,-0.0013753,0,0,0.25,-1.1681e-16,3.7738e-18,0.66667
0.44709,0.66049,1.7884,0.24073,3.9831,24.458,-1.1481,0.38269,-1.7939,-1.5308,8.5509e-13,-0.89696,0,0,0.25,-0,-0,0.66667
0.28043,0.33445,1.1217,-0.24833,-4.752,37.695,0.74279,-0.2476,-1.7811,0.99039,3.298e-11,-0.89053,0,0,0.25,-2.9606e-16,0,0.66667
0.33926,0.57442,1.357,0.11163,2.0438,32.801,-0.40398,0.13466,-1.955,-0.53863,-2.1919e-12,-0.97751,0,0,0.25,5.9212e-16,0,0.66667
0.88017,0.72153,3.5207,0.3323,1.4414,2.0283,-3.1197,1.0399,-1.6077,-4.1597,1.1669e-09,-0.80385,0,0,0.25,2.3685e-15,0,0.66667
0.53635,0.94941,2.1454,0.67411,10.169,18.57,-3.8566,1.2855,-0.3835,-5.1422,5.9286e-14,-0.19175,0,0,0.25,-0,-0,0.66667
0.073744,0.57596,0.29498,0.11395,2.3527,55.858,-0.089631,0.029877,-1.9531,-0.11951,-5.1566e-08,-0.97656,0,0,0.25,-1.4803e-16,0,0.66667
0.67227,0.53905,2.6891,0.058574,0.65087,10.025,-0.42002,0.14001,-1.9884,-0.56003,1.8338e-12,-0.9942,0,0,0.25,-0,-0,0.66667
0.72976,0.45935,2.919,-0.060976,-0.57274,7.2068,0.47464,-0.15821,-1.9863,0.63286,-1.4483e-11,-0.99313,0,0,0.25,-1.1842e-15,0,0.66667
0.39561,0.54769,1.5824,0.071529,1.2458,28.32,-0.30184,0.10061,-1.981,-0.40245,4.7401e-13,-0.99049,0,0,0.25,-0,-0,0.66667
0.34753,0.54108,1.3901,0.061626,1.1202,32.126,-0.22845,0.076149,-1.9861,-0.3046,-8.7369e-13,-0.99304,0,0,0.25,-0,-0,0.66667
0.10753,0.50883,0.43013,0.013243,0.27153,52.805,-0.01519,0.0050634,-1.9995,-0.020254,-3.84e-08,-0.99973,0,0,0.25,-0,-0,0.66667
0.54663,0.89977,2.1865,0.59965,8.844,17.808,-3.4964,1.1655,-0.72228,-4.6619,-5.4645e-13,-0.36114,0,0,0.25,5.9212e-16,-1.9465e-16,0.66667
0.26282,0.012239,1.0513,-0.73164,-14.51,39.405,2.0511,-0.6837,-0.096327,2.7348,-2.9523e-12,-0.048164,0,0,0.25,-0,-2.8216e-16,0.66667
0.91802,0.83585,3.6721,0.50377,1.5286,1.4366,-4.933,1.6443,-1.0974,-6.5773,-2.6023e-09,-0.5487,0,0,0.25,-5.9212e-16,0,0.66667
0.85065,0.4232,3.4026,-0.1152,-0.61368,2.6752,1.0453,-0.34843,-1.9518,1.3937,3.8859e-10,-0.97592,0,0,0.25,-1.1842e-15,0,0.66667
0.65361,0.49038,2.6144,-0.014427,-0.16787,11.02,0.10058,-0.033526,-1.9991,0.13411,-3.1782e-13,-0.99954,0,0,0.25,5.9212e-16,0,0.66667
0.87584,0.21553,3.5034,-0.42671,-1.9519,2.2482,3.9864,-1.3288,-1.3537,5.3153,-5.0613e-10,-0.67685,0,0,0.25,-2.9606e-16,0,0.66667
0.96891,0.19836,3.8756,-0.45247,-0.42299,0.61044,4.6763,-1.5588,-1.2725,6.235,1.4867e-08,-0.63625,0,0,0.25,-0,-0,0.66667
0.59079,0.73037,2.3631,0.34556,4.6402,14.785,-2.1776,0.72588,-1.575,-2.9035,-1.9866e-12,-0.78751,0,0,0.25,-0,-0,0.66667
0.98013,0.033586,3.9205,-0.69962,-0.5342,0.99893,7.3144,-2.4381,-0.26016,9.7525,2.1357e-06,-0.13008,0,0,0.25,-0,-0,0.66667
0.54926,0.30971,2.197,-0.28544,-4.1099,17.366,1.6723,-0.55745,-1.7111,2.2298,1.0031e-12,-0.85554,0,0,0.25,-1.3323e-15,0,0.66667
0.2936,0.073799,1.1744,-0.6393,-12.361,36.772,2.0021,-0.66736,-0.54639,2.6695,7.3963e-13,-0.27319,0,0,0.25,-0,1.2067e-16,0.66667
0.49124,0.8718,1.9649,0.55769,8.881,21.496,-2.9222,0.97408,-0.89423,-3.8963,4.2188e-14,-0.44712,0,0,0.25,-2.9606e-16,0,0.66667
0.40509,0.61358,1.6203,0.17038,2.944,27.604,-0.73619,0.2454,-1.8969,-0.98158,1.1215e-12,-0.94843,0,0,0.25,5.9212e-16,0,0.66667
0.59978,0.57004,2.3991,0.10506,1.375,14.125,-0.67215,0.22405,-1.9603,-0.8962,-8.2362e-13,-0.98014,0,0,0.25,-0,-0,0.66667
0.4807,0.31034,1.9228,-0.28449,-4.5247,22.041,1.4587,-0.48624,-1.7129,1.945,-5.6199e-13,-0.85643,0,0,0.25,-1.4803e-16,0,0.66667
0.2867,0.94749,1.1468,0.67124,13.065,37.366,-2.0527,0.68425,-0.39736,-2.737,-6.7901e-13,-0.19868,0,0,0.25,-0,-0,0.66667
0.62519,0.16494,2.5008,-0.50259,-6.3696,12.895,3.3516,-1.1172,-1.1025,4.4688,1.7735e-12,-0.55123,0,0,0.25,-0,-0,0.66667
0.8054,0.1257,3.2216,-0.56145,-4.0641,4.5759,4.8234,-1.6078,-0.87977,6.4312,-1.1027e-10,-0.43988,0,0,0.25,-0,-0,0.66667
0.078748,0.48361,0.31499,-0.024585,-0.5069,55.403,0.020651,-0.0068835,-1.998,0.027534,3.0474e-08,-0.99898,0,0,0.25,1.4803e-16,0,0.66667
0.42362,0.43576,1.6945,-0.096361,-1.6315,26.175,0.43542,-0.14514,-1.9681,0.58056,-5.7201e-13,-0.98406,0,0,0.25,-7.4015e-17,0,0.66667
0.645,0.31715,2.58,-0.27427,-3.2783,11.579,1.887,-0.62901,-1.7326,2.516,-2.3526e-13,-0.86631,0,0,0.25,-0,-0,0.66667
0.0072838,0.8853,0.029135,0.57796,12.192,61.897,-0.044904,0.014968,-0.81153,-0.059872,-2.7474e-07,-0.40576,0,0,0.25,-1.8504e-17,0,0.66667
0.87569,0.96509,3.5028,0.69764,3.4154,2.7261,-6.5164,2.1721,-0.27059,-8.6886,-6.0809e-09,-0.13529,0,0,0.25,-2.9606e-16,0,0.66667
0.69402,0.26173,2.7761,-0.3574,-3.791,9.0658,2.6458,-0.88194,-1.545,3.5278,-1.2131e-11,-0.77248,0,0,0.25,-1.1842e-15,0,0.66667
0.74977,0.22196,2.9991,-0.41706,-3.7276,6.5473,3.3355,-1.1118,-1.3828,4.4473,-7.0477e-11,-0.69142,0,0,0.25,-2.3685e-15,0,0.66667
0.5233,0.5541,2.0932,0.081157,1.2105,19.018,-0.453,0.151,-1.9759,-0.60401,-3.9721e-13,-0.98797,0,0,0.25,-5.9212e-16,0,0.66667
0.97547,0.29674,3.9019,-0.30489,-0.16677,0.35116,3.1724,-1.0575,-1.6685,4.2298,4.1642e-09,-0.83425,0,0,0.25,1.1842e-15,0,0.66667
0.15309,0.88948,0.61234,0.58421,12.037,48.82,-0.95397,0.31799,-0.78593,-1.272,-7.9524e-10,-0.39297,0,0,0.25,2.9606e-16,6.353e-17,0.66667
0.95582,0.484,3.8233,-0.023994,-0.030252,0.41548,0.24463,-0.081545,-1.9975,0.32618,-1.0046e-06,-0.99875,0,0,0.25,1.1842e-15,0,0.66667
0.9956,0.87184,3.9824,0.55776,-0.040898,0.57722,-5.9232,1.9744,-0.89422,-7.8976,4.9712e-08,-0.44711,0,0,0.25,1.7764e-15,0,0.66667
0.078553,0.7022,0.31421,0.30331,6.2826,55.434,-0.25414,0.084714,-1.6731,-0.33886,2.5602e-09,-0.83654,0,0,0.25,1.4803e-16,0,0.66667
0.33688,0.25567,1.3475,-0.36649,-6.7684,33.067,1.317,-0.43899,-1.5221,1.756,1.7549e-12,-0.76107,0,0,0.25,-0,-0,0.66667
0.99274,0.98649,3.971,0.72974,0.20242,0.98543,-7.7274,2.5758,-0.10565,-10.303,5.8576e-06,-0.052825,0,0,0.25,-1.1842e-15,0,0.66667
0.42676,0.4349,1.707,-0.097643,-1.6477,25.938,0.44448,-0.14816,-1.9665,0.59264,-4.6807e-13,-0.98323,0,0,0.25,-1.4803e-16,0,0.66667
0.82335,0.29932,3.2934,-0.30102,-1.9211,3.6398,2.6437,-0.88122,-1.6771,3.5249,-3.5191e-10,-0.83853,0,0,0.25,1.1842e-15,0,0.66667
0.28812,0.71248,1.1525,0.31872,6.0827,37.069,-0.97951,0.3265,-1.6384,-1.306,-2.6315e-11,-0.81922,0,0,0.25,-2.9606e-16,0,0.66667
0.51209,0.28474,2.0484,-0.32289,-4.9284,19.87,1.7637,-0.58791,-1.6297,2.3516,3.5105e-13,-0.81486,0,0,0.25,-0,-0,0.66667
0.4661,0.86649,1.8644,0.54973,9.0313,23.271,-2.7331,0.91104,-0.92542,-3.6442,2.8733e-13,-0.46271,0,0,0.25,-0,-0,0.66667
0.33294,0.43147,1.3318,-0.1028,-1.8911,33.314,0.36509,-0.1217,-1.9623,0.48678,2.6377e-12,-0.98113,0,0,0.25,5.9212e-16,0,0.66667
0.52708,0.20816,2.1083,-0.43776,-6.5761,18.936,2.4612,-0.8204,-1.3181,3.2816,4.1256e-13,-0.65904,0,0,0.25,-0,-0,0.66667
0.080511,0.20781,0.32205,-0.43828,-9.121,55.271,0.37639,-0.12546,-1.3168,0.50185,2.2152e-09,-0.6584,0,0,0.25,7.4015e-17,0,0.66667
0.2212,0.53078,0.88478,0.046176,0.91005,42.735,-0.10895,0.036316,-1.9936,-0.14526,-4.356e-11,-0.99682,0,0,0.25,2.2204e-16,0,0.66667
0.33596,0.6173,1.3438,0.17594,3.2328,33.08,-0.63051,0.21017,-1.8894,-0.84067,-3.3412e-12,-0.94468,0,0,0.25,2.9606e-16,0,0.66667
0.96887,0.9425,3.8755,0.66376,0.78384,1.0171,-6.8597,2.2866,-0.43457,-9.1462,7.64e-07,-0.21729,0,0,0.25,-0,-0,0.66667
0.44075,0.56262,1.763,0.09393,1.5606,24.889,-0.4416,0.1472,-1.9698,-0.5888,7.8421e-13,-0.98488,0,0,0.25,-1.1842e-15,0,0.66667
0.96131,0.79919,3.8453,0.44878,0.55839,0.68949,-4.6018,1.5339,-1.2829,-6.1357,-3.0981e-08,-0.64147,0,0,0.25,-0,-0,0.66667
0.57362,0.43295,2.2945,-0.10057,-1.3819,15.735,0.61536,-0.20512,-1.9641,0.82047,4.9211e-13,-0.98206,0,0,0.25,-8.8818e-16,0,0.66667
0.046616,0.072969,0.18646,-0.64055,-13.534,58.35,0.3185,-0.10617,-0.54156,0.42467,-1.7731e-07,-0.27078,0,0,0.25,-0,-0,0.66667
0.65871,0.64037,2.6349,0.21056,2.4297,10.794,-1.4795,0.49315,-1.842,-1.9726,2.4168e-12,-0.92099,0,0,0.25,-1.1842e-15,0,0.66667
0.014774,0.088352,0.059095,-0.61747,-13.054,61.221,0.097307,-0.032435,-0.64513,0.12974,4.1016e-07,-0.32256,0,0,0.25,9.2519e-18,0,0.66667
0.74247,0.058514,2.9699,-0.66223,-6.2544,7.2118,5.2446,-1.7482,-0.44067,6.9929,-2.5606e-12,-0.22033,0,0,0.25,4.3963e-16,0,0.66667
0.4207,0.057161,1.6828,-0.66426,-11.579,26.719,2.9809,-0.99362,-0.43183,3.9745,-1.199e-13,-0.21591,0,0,0.25,-0,1.6776e-16,0.66667
0.53388,0.85369,2.1355,0.53053,7.9374,18.568,-3.0213,1.0071,-0.99902,-4.0284,-5.4712e-13,-0.49951,0,0,0.25,-0,-0,0.66667
0.78883,0.89574,3.1553,0.59361,4.6543,5.2281,-4.9948,1.6649,-0.74629,-6.6597,7.1747e-11,-0.37314,0,0,0.25,1.1842e-15,0,0.66667
0.9056,0.80456,3.6224,0.45685,1.5857,1.6076,-4.413,1.471,-1.2584,-5.884,4.0383e-09,-0.62921,0,0,0.25,-5.9212e-16,0,0.66667
0.98688,0.4475,3.9475,-0.078753,0.0016274,0.099859,0.829,-0.27633,-1.9778,1.1053,3.7581e-07,-0.98888,0,0,0.25,-0,-0,0.66667
0.80208,0.46438,3.2083,-0.053425,-0.3755,4.2479,0.45708,-0.15236,-1.9899,0.60944,6.9824e-11,-0.99494,0,0,0.25,-2.9606e-16,0,0.66667
0.0025426,0.083103,0.01017,-0.62534,-13.229,62.326,0.016958,-0.0056524,-0.60934,0.022611,6.2034e-07,-0.30467,0,0,0.25,-2.313e-18,-1.3214e-15,0.66667
0.60009,0.70987,2.4003,0.31481,4.1462,14.2,-2.0151,0.67169,-1.647,-2.6868,-2.0528e-12,-0.82349,0,0,0.25,-0,-0,0.66667
0.28885,0.91693,1.1554,0.62539,12.117,37.157,-1.9268,0.64228,-0.60855,-2.5691,-2.1939e-12,-0.30428,0,0,0.25,5.9212e-16,0,0.66667
0.70972,0.14026,2.8389,-0.53962,-5.5615,8.5072,4.0851,-1.3617,-0.96371,5.4467,-7.347e-12,-0.48185,0,0,0.25,-0,-0,0.66667
0.30554,0.87356,1.2222,0.56034,10.693,35.733,-1.8262,0.60874,-0.88406,-2.4349,-2.4268e-12,-0.44203,0,0,0.25,-7.4015e-16,0,0.66667
0.55587,0.94912,2.2235,0.67368,9.8552,17.306,-3.9944,1.3315,-0.38546,-5.3259,-1.5188e-13,-0.19273,0,0,0.25,-0,-0,0.66667
0.91807,0.86761,3.6723,0.55142,1.7009,1.5177,-5.3999,1.8,-0.91869,-7.1999,2.0159e-08,-0.45935,0,0,0.25,-5.9212e-16,0,0.66667
0.24787,0.50561,0.99148,0.0084075,0.16343,40.433,-0.022229,0.0074097,-2.0001,-0.029639,8.4105e-12,-1.0001,0,0,0.25,-0,-0,0.66667
0.11184,0.14628,0.44737,-0.53058,-11.023,52.474,0.63297,-0.21099,-0.99889,0.84396,6.305e-09,-0.49944,0,0,0.25,1.4803e-16,0,0.66667
0.51354,0.80635,2.0542,0.45953,7.0505,19.868,-2.5172,0.83907,-1.2495,-3.3563,-4.4964e-13,-0.62475,0,0,0.25,3.0408e-16,0,0.66667
0.91372,0.69013,3.6549,0.2852,0.86235,1.2381,-2.7797,0.92656,-1.711,-3.7062,-6.9126e-09,-0.85548,0,0,0.25,-0,-0,0.66667
0.17924,0.021707,0.71695,-0.71744,-14.778,46.573,1.3717,-0.45722,-0.16915,1.8289,1.1145e-10,-0.084574,0,0,0.25,-2.9606e-16,0,0.66667
0.25588,0.41531,1.0235,-0.12704,-2.4608,39.754,0.34674,-0.11558,-1.942,0.46232,3.9986e-11,-0.971,0,0,0.25,-0,-0,0.66667
0.033996,0.77354,0.13598,0.4103,8.5753,59.473,-0.14879,0.049595,-1.4014,-0.19838,2.9547e-09,-0.7007,0,0,0.25,3.7007e-17,0,0.66667
0.015372,0.36256,0.061487,-0.20617,-4.286,61.158,0.033804,-0.011268,-1.8492,0.045072,-8.0666e-08,-0.92458,0,0,0.25,-0,-0,0.66667
0.54222,0.41705,2.1689,-0.12443,-1.8034,17.763,0.71964,-0.23988,-1.9443,0.95952,3.5766e-13,-0.97216,0,0,0.25,-0,-0,0.66667
0.85536,0.16426,3.4214,-0.50362,-2.7219,2.9045,4.5949,-1.5316,-1.0979,6.1266,-9.9971e-10,-0.54896,0,0,0.25,-0,-0,0.66667
0.44652,0.60834,1.7861,0.16251,2.6854,24.475,-0.77404,0.25801,-1.9051,-1.0321,8.9045e-13,-0.95256,0,0,0.25,-5.9212e-16,0,0.66667
0.23564,0.36975,0.94255,-0.19538,-3.8304,41.501,0.49107,-0.16369,-1.8649,0.65476,9.6135e-11,-0.93247,0,0,0.25,-4.4409e-16,0,0.66667
0.93653,0.16722,3.7461,-0.49918,-1.1466,1.111,4.9866,-1.6622,-1.1142,6.6488,3.881e-09,-0.55709,0,0,0.25,2.3685e-15,0,0.66667
0.61921,0.32406,2.4768,-0.26391,-3.3365,13.037,1.7431,-0.58102,-1.7516,2.3241,1.3846e-12,-0.87578,0,0,0.25,-0,-0,0.66667
0.86458,0.36069,3.4583,-0.20897,-1.0132,2.3288,1.9271,-0.64237,-1.8439,2.5695,-1.0705e-09,-0.92195,0,0,0.25,-1.1842e-15,0,0.66667
0.12811,0.42107,0.51245,-0.11839,-2.4168,50.96,0.16178,-0.053927,-1.9496,0.21571,1.1456e-09,-0.97482,0,0,0.25,-0,-0,0.66667
0.44124,0.88525,1.765,0.57787,9.7908,25.108,-2.7198,0.9066,-0.81222,-3.6264,3.3484e-13,-0.40611,0,0,0.25,1.1842e-15,0,0.66667
0.85755,0.79179,3.4302,0.43768,2.3023,2.7485,-4.0036,1.3345,-1.3188,-5.3381,1.49e-09,-0.65941,0,0,0.25,-2.3685e-15,0,0.66667
0.89819,0.44224,3.5928,-0.086644,-0.30734,1.4433,0.83011,-0.2767,-1.9731,1.1068,-1.6648e-08,-0.98657,0,0,0.25,-0,-0,0.66667
0.87726,0.8731,3.5091,0.55965,2.6062,2.4169,-5.2369,1.7456,-0.88734,-6.9826,1.2647e-08,-0.44367,0,0,0.25,-2.9606e-16,0,0.66667
0.62547,0.15694,2.5019,-0.51459,-6.5243,12.892,3.4332,-1.1444,-1.0602,4.5776,1.9882e-12,-0.53009,0,0,0.25,-2.3685e-15,0,0.66667
0.75811,0.024344,3.0324,-0.71348,-6.4334,6.6471,5.7696,-1.9232,-0.18954,7.6928,-1.2168e-13,-0.094771,0,0,0.25,-1.1842e-15,0,0.66667
0.6755,0.68234,2.702,0.27351,3.0342,9.9424,-1.9708,0.65692,-1.7341,-2.6277,6.4091e-12,-0.86707,0,0,0.25,-1.1842e-15,0,0.66667
0.84516,0.259,3.3807,-0.3615,-2.0414,3.014,3.259,-1.0863,-1.5355,4.3453,-7.7265e-10,-0.76776,0,0,0.25,-0,-0,0.66667
0.63245,0.49056,2.5298,-0.014166,-0.17307,12.199,0.095567,-0.031856,-1.9986,0.12742,-4.5228e-14,-0.99928,0,0,0.25,-1.7764e-15,0,0.66667
0.17189,0.57356,0.68756,0.11033,2.2213,47.062,-0.2023,0.067432,-1.9572,-0.26973,-2.2152e-10,-0.97858,0,0,0.25,-0,-0,0.66667
0.65052,0.90597,2.6021,0.60895,7.3724,11.617,-4.2254,1.4085,-0.68226,-5.6339,-1.0734e-12,-0.34113,0,0,0.25,-5.3661e-16,0,0.66667
0.45534,0.8052,1.8214,0.4578,7.5739,23.975,-2.2235,0.74117,-1.255,-2.9647,5.0404e-13,-0.62749,0,0,0.25,5.9212e-16,0,0.66667
0.058851,0.69431,0.2354,0.29147,6.052,57.215,-0.18296,0.060988,-1.6979,-0.24395,1.1613e-08,-0.84893,0,0,0.25,-0,-0,0.66667
0.53586,0.73053,2.1435,0.3458,5.0999,18.283,-1.9766,0.65885,-1.5741,-2.6354,-9.8432e-13,-0.78707,0,0,0.25,-0,-0,0.66667
0.43929,0.37989,1.7572,-0.18017,-3.0028,25.017,0.84422,-0.28141,-1.8852,1.1256,-1.1851e-12,-0.94258,0,0,0.25,-0,-0,0.66667
0.87473,0.45892,3.4989,-0.061626,-0.27305,1.999,0.57499,-0.19166,-1.9869,0.76666,-2.5607e-09,-0.99347,0,0,0.25,-1.1842e-15,0,0.66667
0.66072,0.46659,2.6429,-0.050122,-0.57336,10.637,0.35324,-0.11775,-1.9916,0.47099,-1.295e-12,-0.99579,0,0,0.25,1.3323e-15,0,0.66667
0.26079,0.53682,1.0432,0.055233,1.0661,39.33,-0.15364,0.051215,-1.989,-0.20486,-1.407e-11,-0.99452,0,0,0.25,-0,-0,0.66667
0.21677,0.18658,0.86706,-0.47012,-9.3916,43.205,1.087,-0.36234,-1.2154,1.4493,1.9868e-10,-0.6077,0,0,0.25,-3.7007e-16,0,0.66667
0.097323,0.65904,0.38929,0.23855,4.9159,53.735,-0.24765,0.082549,-1.7982,-0.3302,1.855e-09,-0.8991,0,0,0.25,2.9606e-16,0,0.66667
0.46914,0.55838,1.8766,0.087563,1.4065,22.807,-0.43818,0.14606,-1.9738,-0.58424,2.6371e-13,-0.98692,0,0,0.25,-0,-0,0.66667
0.3498,0.79795,1.3992,0.44692,8.1996,32.065,-1.6676,0.55585,-1.2889,-2.2234,1.1506e-12,-0.64444,0,0,0.25,-4.1425e-16,0,0.66667
0.57735,0.45172,2.3094,-0.07242,-0.98812,15.496,0.44599,-0.14866,-1.9814,0.59465,4.8211e-13,-0.99071,0,0,0.25,-1.1842e-15,0,0.66667
0.056942,0.55061,0.22777,0.075913,1.5704,57.38,-0.046108,0.015369,-1.9787,-0.061477,-2.9572e-08,-0.98936,0,0,0.25,-0,-0,0.66667
0.24992,0.80474,0.99967,0.45711,8.9751,40.35,-1.2186,0.40619,-1.2578,-1.6248,-6.4109e-11,-0.62888,0,0,0.25,-1.4803e-16,0,0.66667
0.51229,0.63404,2.0492,0.20106,3.0547,19.798,-1.0987,0.36622,-1.856,-1.4649,-2.3359e-13,-0.928,0,0,0.25,-0,-0,0.66667
0.37596,0.96171,1.5038,0.69256,12.627,30.175,-2.7773,0.92578,-0.29511,-3.7031,4.7695e-13,-0.14755,0,0,0.25,-0,-0,0.66667
0.6269,0.60129,2.5076,0.15194,1.8825,12.541,-1.016,0.33867,-1.9181,-1.3547,-6.4804e-13,-0.95906,0,0,0.25,-0,-0,0.66667
0.37322,0.20451,1.4929,-0.44324,-7.9703,30.202,1.7645,-0.58818,-1.3013,2.3527,-2.1296e-12,-0.65063,0,0,0.25,5.9212e-16,0,0.66667
0.46031,0.28821,1.8413,-0.31768,-5.1891,23.524,1.5598,-0.51994,-1.6407,2.0797,-9.3103e-13,-0.82035,0,0,0.25,-0,-0,0.66667
0.23422,0.70824,0.93686,0.31236,6.1476,41.648,-0.78038,0.26013,-1.6535,-1.0405,-1.2326e-10,-0.82676,0,0,0.25,2.9606e-16,0,0.66667
0.29959,0.60307,1.1984,0.15461,2.9159,36.071,-0.49407,0.16469,-1.9148,-0.65876,-1.4191e-11,-0.95742,0,0,0.25,5.9212e-16,0,0.66667
0.11528,0.094586,0.46114,-0.60812,-12.679,52.184,0.74781,-0.24927,-0.68572,0.99708,-5.4714e-09,-0.34286,0,0,0.25,-0,-0,0.66667
0.77244,0.28268,3.0898,-0.32598,-2.6507,5.5191,2.6859,-0.89529,-1.6226,3.5811,-1.4718e-10,-0.8113,0,0,0.25,2.3685e-15,0,0.66667
0.79388,0.78427,3.1755,0.4264,3.1951,4.8008,-3.6108,1.2036,-1.3541,-4.8144,2.5963e-10,-0.67707,0,0,0.25,2.3685e-15,0,0.66667
0.043936,0.23636,0.17574,-0.39546,-8.2536,58.572,0.18533,-0.061777,-1.4435,0.24711,-7.5068e-09,-0.72174,0,0,0.25,-0,-0,0.66667
0.16096,0.63162,0.64385,0.19743,3.9954,48.038,-0.33896,0.11299,-1.8612,-0.45195,-4.1437e-10,-0.93059,0,0,0.25,-0,-0,0.66667
0.80286,0.88437,3.2114,0.57656,4.2341,4.6901,-4.9376,1.6459,-0.81739,-6.5834,1.0896e-10,-0.4087,0,0,0.25,-0,-0,0.66667
0.91048,0.99515,3.6419,0.74272,2.7016,2.0637,-7.2131,2.4044,-0.038722,-9.6175,1.6014e-07,-0.019361,0,0,0.25,-2.3685e-15,0,0.66667
0.36919,0.63703,1.4768,0.20554,3.6763,30.418,-0.80942,0.26981,-1.849,-1.0792,4.2566e-13,-0.92448,0,0,0.25,5.9212e-16,0,0.66667
0.67531,0.033632,2.7012,-0.69955,-8.0648,10.45,5.0391,-1.6797,-0.26064,6.7188,-8.3045e-14,-0.13032,0,0,0.25,2.3685e-15,0,0.66667
0.18999,0.32843,0.75997,-0.25735,-5.1596,45.484,0.52155,-0.17385,-1.7641,0.6954,2.5598e-10,-0.88206,0,0,0.25,-2.9606e-16,0,0.66667
0.87123,0.85711,3.4849,0.53567,2.6004,2.5283,-4.978,1.6593,-0.97915,-6.6374,1.1409e-09,-0.48958,0,0,0.25,1.1842e-15,0,0.66667
0.82471,0.78802,3.2988,0.43203,2.7796,3.7359,-3.8005,1.2668,-1.3363,-5.0674,6.0197e-10,-0.66815,0,0,0.25,2.3685e-15,0,0.66667
0.25001,0.37891,1.0001,-0.18163,-3.5329,40.264,0.48438,-0.16146,-1.884,0.64583,5.9278e-11,-0.94198,0,0,0.25,-0,-0,0.66667
0.59285,0.94613,2.3714,0.66919,9.1789,15.005,-4.2318,1.4106,-0.40811,-5.6424,-3.535e-13,-0.20406,0,0,0.25,-0,-0,0.66667
0.73576,0.090402,2.9431,-0.6144,-5.8937,7.4244,4.8219,-1.6073,-0.65877,6.4292,-9.7944e-12,-0.32938,0,0,0.25,1.7764e-15,0,0.66667
0.88384,0.16515,3.5354,-0.50228,-2.1831,2.1614,4.7353,-1.5784,-1.1023,6.3138,6.898e-10,-0.55116,0,0,0.25,-0,-0,0.66667
0.46773,0.82289,1.8709,0.48433,7.9073,23.098,-2.4164,0.80546,-1.1661,-3.2218,5.8287e-13,-0.58306,0,0,0.25,-1.1842e-15,0,0.66667
0.13462,0.68661,0.53848,0.27991,5.7227,50.393,-0.40194,0.13398,-1.722,-0.53592,-1.3541e-09,-0.861,0,0,0.25,-3.7007e-16,0,0.66667
0.1094,0.23772,0.43758,-0.39342,-8.1262,52.668,0.45908,-0.15303,-1.45,0.6121,7.1626e-10,-0.72502,0,0,0.25,1.4803e-16,0,0.66667
0.52968,0.01156,2.1187,-0.73266,-11.225,19.087,4.1394,-1.3798,-0.091357,5.5193,1.2923e-13,-0.045679,0,0,0.25,-0,2.7603e-16,0.66667
0.049289,0.51906,0.19715,0.028594,0.59187,58.074,-0.015033,0.0050109,-1.9968,-0.020044,2.4833e-08,-0.9984,0,0,0.25,-0,-0,0.66667
0.6209,0.66251,2.4836,0.24377,3.0684,12.928,-1.6145,0.53815,-1.7886,-2.1526,-1.2998e-12,-0.89431,0,0,0.25,-0,-0,0.66667
0.033328,0.056907,0.13331,-0.66464,-14.08,59.55,0.23628,-0.07876,-0.42975,0.31504,4.3805e-07,-0.21487,0,0,0.25,-3.7007e-17,0,0.66667
0.021184,0.32907,0.084735,-0.2564,-5.3354,60.631,0.057937,-0.019312,-1.7654,0.077249,3.4442e-08,-0.88268,0,0,0.25,3.7007e-17,0,0.66667
0.075209,0.42609,0.30084,-0.11087,-2.2885,55.725,0.088941,-0.029647,-1.9559,0.11859,5.9155e-08,-0.97796,0,0,0.25,-0,-0,0.66667
0.36803,0.49041,1.4721,-0.01438,-0.25683,30.483,0.056451,-0.018817,-1.9985,0.075268,-2.0772e-14,-0.99927,0,0,0.25,-5.9212e-16,0,0.66667
0.38175,0.093219,1.527,-0.61017,-11,29.651,2.4846,-0.82821,-0.67685,3.3128,-1.1007e-12,-0.33842,0,0,0.25,1.2953e-16,0,0.66667
0.76697,0.43912,3.0679,-0.091327,-0.74975,5.6058,0.74715,-0.24905,-1.9716,0.99619,-6.566e-11,-0.9858,0,0,0.25,2.3685e-15,0,0.66667
0.84595,0.37439,3.3838,-0.18842,-1.0401,2.8475,1.7002,-0.56672,-1.875,2.2669,1.093e-09,-0.93751,0,0,0.25,4.4409e-16,0,0.66667
0.7272,0.097796,2.9088,-0.60331,-5.9401,7.7894,4.6797,-1.5599,-0.7058,6.2396,-6.2981e-12,-0.3529,0,0,0.25,-2.3685e-15,0,0.66667
0.88443,0.38569,3.5377,-0.17147,-0.70185,1.7969,1.6177,-0.53922,-1.8947,2.1569,-5.543e-10,-0.94734,0,0,0.25,-0,-0,0.66667
0.5749,0.039434,2.2996,-0.69085,-9.8059,16.132,4.2365,-1.4122,-0.30287,5.6486,1.0658e-13,-0.15143,0,0,0.25,-1.1842e-15,-2.2892e-16,0.66667
0.93988,0.11588,3.7595,-0.57618,-1.2957,1.1976,5.7765,-1.9255,-0.81954,7.7019,-4.9997e-08,-0.40977,0,0,0.25,-0,-0,0.66667
0.90679,0.31882,3.6272,-0.27176,-0.89272,1.3656,2.6286,-0.8762,-1.7381,3.5048,4.0334e-09,-0.86907,0,0,0.25,-2.3685e-15,0,0.66667
0.44844,0.65083,1.7937,0.22625,3.736,24.354,-1.0822,0.36073,-1.8179,-1.4429,9.8876e-13,-0.90897,0,0,0.25,-8.8818e-16,0,0.66667
0.47973,0.64494,1.9189,0.21741,3.4546,22.081,-1.1125,0.37084,-1.8313,-1.4834,3.1986e-13,-0.91564,0,0,0.25,-0,-0,0.66667
0.85666,0.2846,3.4266,-0.3231,-1.6809,2.6408,2.9524,-0.98413,-1.6294,3.9365,-5.1602e-10,-0.81471,0,0,0.25,-2.3685e-15,0,0.66667
0.39841,0.34605,1.5936,-0.23092,-4.0224,28.137,0.98133,-0.32711,-1.8106,1.3084,-1.4861e-12,-0.90532,0,0,0.25,-1.1842e-15,0,0.66667
0.942,0.66282,3.768,0.24423,0.45949,0.71006,-2.454,0.81799,-1.7877,-3.272,2.3725e-08,-0.89386,0,0,0.25,-0,-0,0.66667
0.29331,0.63861,1.1732,0.20792,3.942,36.604,-0.6505,0.21683,-1.8457,-0.86734,-2.0172e-11,-0.92285,0,0,0.25,-0,-0,0.66667
0.25901,0.26035,1.036,-0.35948,-6.9929,39.54,0.99315,-0.33105,-1.5398,1.3242,6.0839e-11,-0.76988,0,0,0.25,5.9212e-16,0,0.66667
0.10893,0.16492,0.43571,-0.50262,-10.434,52.729,0.584,-0.19467,-1.1023,0.77866,7.4949e-09,-0.55113,0,0,0.25,-0,-0,0.66667
0.24704,0.2299,0.98817,-0.40515,-7.9483,40.576,1.0676,-0.35587,-1.416,1.4235,7.896e-11,-0.708,0,0,0.25,5.9212e-16,0,0.66667
0.53775,0.05872,2.151,-0.66192,-9.9521,18.462,3.7968,-1.2656,-0.44219,5.0624,-6.5725e-14,-0.22109,0,0,0.25,5.9212e-16,0,0.66667
0.98024,0.80962,3.9209,0.46443,0.22071,0.52098,-4.856,1.6187,-1.2335,-6.4747,2.5377e-08,-0.61676,0,0,0.25,2.9606e-16,0,0.66667
0.20773,0.99949,0.83092,0.74924,15.293,44.114,-1.6601,0.55338,-0.0048911,-2.2135,-2.406e-11,-0.0024456,0,0,0.25,-4.6259e-17,0,0.66667
0.54702,0.60911,2.1881,0.16367,2.3558,17.459,-0.95497,0.31832,-1.905,-1.2733,-8.0824e-13,-0.9525,0,0,0.25,-1.1842e-15,0,0.66667
0.87839,0.96393,3.5136,0.6959,3.3348,2.6562,-6.5202,2.1734,-0.27836,-8.6936,-7.9952e-09,-0.13918,0,0,0.25,5.9212e-16,0,0.66667
0.58966,0.79035,2.3586,0.43552,5.8922,14.927,-2.7393,0.9131,-1.3252,-3.6524,-2.0173e-12,-0.66259,0,0,0.25,1.1842e-15,0,0.66667
0.83528,0.30487,3.3411,-0.29269,-1.7429,3.2489,2.6078,-0.86926,-1.6948,3.4771,-6.198e-10,-0.84742,0,0,0.25,-5.9212e-16,0,0.66667
0.23929,0.53627,0.95714,0.054402,1.0625,41.172,-0.13885,0.046285,-1.9894,-0.18514,-2.8067e-11,-0.99472,0,0,0.25,-0,-0,0.66667
0.07308,0.85908,0.29232,0.53862,11.277,55.954,-0.41987,0.13996,-0.96764,-0.55982,1.4634e-08,-0.48382,0,0,0.25,-0,-0,0.66667
0.95297,0.91679,3.8119,0.62519,1.1138,1.1145,-6.355,2.1183,-0.61071,-8.4733,2.0931e-07,-0.30536,0,0,0.25,-0,2.6471e-16,0.66667
0.11233,0.57609,0.44931,0.11413,2.3391,52.377,-0.13675,0.045584,-1.9532,-0.18233,2.0253e-09,-0.97661,0,0,0.25,-0,-0,0.66667
0.8024,0.95493,3.2096,0.68239,5.1163,4.8966,-5.8405,1.9468,-0.34345,-7.7874,2.5664e-11,-0.17173,0,0,0.25,-0,-0,0.66667
0.65102,0.20137,2.6041,-0.44795,-5.3381,11.394,3.1107,-1.0369,-1.2857,4.1475,9.2126e-13,-0.64285,0,0,0.25,-1.1842e-15,0,0.66667
0.86511,0.54174,3.4605,0.062611,0.29976,2.2531,-0.57777,0.19259,-1.9853,-0.77036,-2.703e-09,-0.99267,0,0,0.25,2.3685e-15,0,0.66667
0.62975,0.28445,2.519,-0.32333,-4.0086,12.469,2.1719,-0.72397,-1.6286,2.8959,1.2523e-12,-0.81429,0,0,0.25,-0,-0,0.66667
0.29818,0.96827,1.1927,0.7024,13.602,36.437,-2.234,0.74468,-0.24732,-2.9787,-2.5668e-13,-0.12366,0,0,0.25,-2.4055e-16,0,0.66667
0.93148,0.26834,3.7259,-0.3475,-0.82189,0.9797,3.4527,-1.1509,-1.5698,4.6035,5.9824e-09,-0.78488,0,0,0.25,-1.1842e-15,0,0.66667
0.6923,0.4791,2.7692,-0.031351,-0.33001,8.9954,0.23151,-0.07717,-1.9959,0.30868,-2.3999e-12,-0.99794,0,0,0.25,-1.1842e-15,0,0.66667
0.87664,0.56446,3.5065,0.096688,0.42206,1.9589,-0.90411,0.30137,-1.9679,-1.2055,-1.0595e-08,-0.98394,0,0,0.25,-0,-0,0.66667
0.81549,0.062906,3.262,-0.65564,-4.5951,4.3951,5.7031,-1.901,-0.47271,7.6042,-3.3845e-10,-0.23635,0,0,0.25,-0,-0,0.66667
0.136,0.45519,0.54401,-0.067214,-1.3685,50.252,0.097507,-0.032502,-1.9832,0.13001,-1.3587e-09,-0.99159,0,0,0.25,-0,-0,0.66667
0.69941,0.6629,2.7976,0.24435,2.5354,8.7152,-1.823,0.60766,-1.7876,-2.4306,1.6977e-11,-0.89381,0,0,0.25,-0,-0,0.66667
0.68101,0.63531,2.724,0.20296,2.2121,9.6175,-1.4743,0.49144,-1.8528,-1.9658,7.8088e-12,-0.92638,0,0,0.25,-0,-0,0.66667
0.7558,0.78704,3.0232,0.43056,3.77,6.3076,-3.4711,1.157,-1.3406,-4.6281,8.0499e-11,-0.67031,0,0,0.25,-0,-0,0.66667
0.79965,0.40427,3.1986,-0.14359,-1.0238,4.3611,1.2248,-0.40825,-1.9275,1.633,-1.8351e-11,-0.96377,0,0,0.25,1.6283e-15,0,0.66667
0.94145,0.19147,3.7658,-0.4628,-0.95518,0.97713,4.6474,-1.5491,-1.2387,6.1966,-1.1742e-08,-0.61937,0,0,0.25,-2.3685e-15,0,0.66667
0.065147,0.88475,0.26059,0.57712,12.122,56.674,-0.40105,0.13368,-0.81555,-0.53473,-4.9837e-08,-0.40777,0,0,0.25,-0,-0,0.66667
0.50862,0.23227,2.0345,-0.40159,-6.1839,20.16,2.1787,-0.72624,-1.4256,2.905,9.881e-14,-0.71281,0,0,0.25,-0,-0,0.66667
0.49966,0.59384,1.9986,0.14076,2.174,20.653,-0.75023,0.25008,-1.9314,-1.0003,-1.5427e-13,-0.96571,0,0,0.25,-0,-0,0.66667
0.70076,0.70143,2.8031,0.30215,3.1328,8.6882,-2.2585,0.75283,-1.6751,-3.0113,1.7746e-11,-0.83753,0,0,0.25,-0,-0,0.66667
0.9956,0.22599,3.9824,-0.41102,0.090815,0.32558,4.365,-1.455,-1.3991,5.8199,-2.9146e-08,-0.69953,0,0,0.25,-0,-1.7484e-16,0.66667
0.90798,0.076073,3.6319,-0.63589,-2.2774,1.8745,6.1587,-2.0529,-0.5621,8.2116,-3.0817e-08,-0.28105,0,0,0.25,-0,-0,0.66667
0.29689,0.17247,1.1875,-0.49129,-9.3934,36.411,1.5558,-0.5186,-1.1421,2.0744,8.3438e-12,-0.57105,0,0,0.25,-0,-0,0.66667
0.33575,0.44506,1.343,-0.082416,-1.5125,33.083,0.29516,-0.098387,-1.9753,0.39355,1.6533e-12,-0.98765,0,0,0.25,-0,-0,0.66667
0.82017,0.48657,3.2807,-0.020145,-0.12892,3.6138,0.17624,-0.058745,-1.9976,0.23498,1.859e-10,-0.99879,0,0,0.25,-1.1842e-15,0,0.66667
0.36161,0.93164,1.4465,0.64746,11.91,31.263,-2.4974,0.83247,-0.50981,-3.3299,7.1476e-13,-0.2549,0,0,0.25,-0,-0,0.66667
0.32537,0.59323,1.3015,0.13985,2.5888,33.938,-0.48536,0.16179,-1.9316,-0.64714,-4.7166e-12,-0.9658,0,0,0.25,-7.9566e-16,0,0.66667
0.4447,0.12857,1.7788,-0.55714,-9.3894,24.834,2.6428,-0.88093,-0.89637,3.5237,-6.3083e-13,-0.44818,0,0,0.25,-0,-0,0.66667
0.27712,0.74117,1.1085,0.36175,6.9628,38.007,-1.0693,0.35644,-1.5343,-1.4258,-3.5386e-11,-0.76716,0,0,0.25,2.9606e-16,0,0.66667
0.74901,0.10613,2.996,-0.59081,-5.4023,6.8132,4.7202,-1.5734,-0.75896,6.2936,-2.0474e-11,-0.37948,0,0,0.25,-1.1842e-15,2.8325e-16,0.66667
0.45268,0.27907,1.8107,-0.33139,-5.4654,24.089,1.6001,-0.53337,-1.611,2.1335,-1.0523e-12,-0.80548,0,0,0.25,-8.8818e-16,0,0.66667
0.16392,0.69707,0.65569,0.29561,5.9912,47.789,-0.51688,0.17229,-1.6886,-0.68917,-6.0742e-10,-0.84428,0,0,0.25,-0,-0,0.66667
0.99046,0.051395,3.9618,-0.67291,-0.19602,0.8591,7.1092,-2.3697,-0.38923,9.4789,-2.2183e-06,-0.19462,0,0,0.25,-0,-0,0.66667
0.338,0.93037,1.352,0.64555,12.101,33.147,-2.3274,0.77581,-0.51785,-3.1032,5.0404e-13,-0.25893,0,0,0.25,-0,-0,0.66667
0.30176,0.57693,1.207,0.1154,2.172,35.884,-0.37145,0.12382,-1.9518,-0.49527,-1.032e-11,-0.97592,0,0,0.25,-0,-0,0.66667
0.22533,0.64868,0.9013,0.22302,4.3977,42.396,-0.53603,0.17868,-1.8226,-0.7147,-1.253e-10,-0.91132,0,0,0.25,-2.9606e-16,0,0.66667
0.42574,0.23449,1.703,-0.39826,-6.7894,26.128,1.8086,-0.60287,-1.4354,2.4115,-1.7453e-12,-0.71769,0,0,0.25,-0,-0,0.66667
0.69512,0.84104,2.7805,0.51156,5.4805,9.1768,-3.7931,1.2644,-1.0697,-5.0574,4.2599e-12,-0.53484,0,0,0.25,1.8341e-15,0,0.66667
0.60241,0.003976,2.4096,-0.74404,-10.106,14.548,4.7809,-1.5936,-0.031643,6.3746,8.9706e-14,-0.015821,0,0,0.25,-0,-0,0.66667
0.18146,0.58104,0.72584,0.12157,2.439,46.217,-0.2353,0.078434,-1.9466,-0.31374,-1.6238e-10,-0.97329,0,0,0.25,-2.1489e-16,0,0.66667
0.26456,0.74613,1.0582,0.36919,7.1616,39.071,-1.0419,0.34728,-1.5163,-1.3891,-5.1639e-11,-0.75815,0,0,0.25,7.8326e-17,0,0.66667
0.59825,0.35817,2.393,-0.21275,-2.8001,14.253,1.3576,-0.45254,-1.8383,1.8102,1.2461e-12,-0.91915,0,0,0.25,1.1842e-15,0,0.66667
0.85805,0.25402,3.4322,-0.36897,-1.913,2.6502,3.377,-1.1257,-1.5168,4.5026,-8.6912e-10,-0.7584,0,0,0.25,-0,-0,0.66667
0.41292,0.66773,1.6517,0.2516,4.322,27.029,-1.1081,0.36938,-1.7741,-1.4775,1.4942e-12,-0.88704,0,0,0.25,-0,-0,0.66667
0.21585,0.56912,0.86339,0.10368,2.0495,43.204,-0.23872,0.079572,-1.9619,-0.31829,-4.3925e-11,-0.98093,0,0,0.25,-0,-0,0.66667
0.32339,0.9004,1.2936,0.6006,11.347,34.297,-2.0718,0.69059,-0.7173,-2.7623,5.5822e-13,-0.35865,0,0,0.25,-5.4866e-16,0,0.66667
0.69169,0.52444,2.7668,0.036663,0.38661,9.0265,-0.2705,0.090168,-1.995,-0.36067,2.7915e-12,-0.99752,0,0,0.25,-0,-0,0.66667
0.70095,0.91847,2.8038,0.62771,6.702,9.0564,-4.6932,1.5644,-0.5988,-6.2577,8.0469e-13,-0.2994,0,0,0.25,-0,-0,0.66667
0.22335,0.13333,0.8934,-0.55001,-11,42.668,1.3103,-0.43678,-0.924,1.7471,8.0298e-11,-0.462,0,0,0.25,-0,-0,0.66667
0.3965,0.12683,1.586,-0.55976,-9.9195,28.468,2.3674,-0.78912,-0.88636,3.1565,-1.0862e-12,-0.44318,0,0,0.25,-0,-0,0.66667
0.69933,0.048643,2.7973,-0.67703,-7.3066,9.2149,5.0504,-1.6835,-0.36958,6.7338,-1.8208e-14,-0.18479,0,0,0.25,-0,3.8398e-16,0.66667
0.72057,0.2263,2.8823,-0.41056,-4.0431,7.8414,3.1556,-1.0519,-1.4009,4.2074,-2.7974e-11,-0.70045,0,0,0.25,-0,-0,0.66667
0.13052,0.82631,0.52206,0.48946,10.1,50.797,-0.68141,0.22714,-1.1473,-0.90854,-2.6519e-09,-0.57367,0,0,0.25,-0,-0,0.66667
0.60937,0.96806,2.4375,0.70209,9.3654,14.073,-4.5636,1.5212,-0.24921,-6.0848,-7.5495e-14,-0.1246,0,0,0.25,-2.9606e-16,0,0.66667
0.88607,0.62622,3.5443,0.18934,0.76455,1.7677,-1.7895,0.5965,-1.8732,-2.386,-1.9914e-09,-0.93661,0,0,0.25,-0,-0,0.66667
0.58236,0.70985,2.3294,0.31477,4.2865,15.281,-1.9553,0.65177,-1.6473,-2.6071,-1.8583e-12,-0.82365,0,0,0.25,-5.9212e-16,0,0.66667
0.30721,0.081108,1.2288,-0.62834,-12.03,35.64,2.059,-0.68633,-0.59543,2.7453,3.2196e-14,-0.29772,0,0,0.25,-0,-0,0.66667
0.74514,0.96178,2.9806,0.69267,6.5129,7.1516,-5.5055,1.8352,-0.29376,-7.3406,2.2933e-12,-0.14688,0,0,0.25,-1.1842e-15,1.7876e-16,0.66667
0.9777,0.55144,3.9108,0.077155,0.028075,0.17886,-0.80463,0.26821,-1.978,-1.0728,4.3771e-07,-0.989,0,0,0.25,1.1842e-15,0,0.66667
0.90462,0.7658,3.6185,0.3987,1.3782,1.5477,-3.8472,1.2824,-1.4346,-5.1295,1.0963e-09,-0.71731,0,0,0.25,1.1842e-15,0,0.66667
0.8716,0.55652,3.4864,0.084787,0.38585,2.0853,-0.78828,0.26276,-1.9745,-1.051,-1.4044e-09,-0.98725,0,0,0.25,1.1842e-15,0,0.66667
0.00029225,0.37539,0.001169,-0.18692,-3.8854,62.529,0.00058251,-0.00019431,-1.8776,0.00077662,-2.1272e-07,-0.9388,0,0,0.25,-0,-0,0.66667
0.58262,0.84825,2.3305,0.52237,7.2043,15.445,-3.2463,1.0821,-1.0299,-4.3284,-1.2526e-12,-0.51494,0,0,0.25,-0,-0,0.66667
0.26272,0.06977,1.0509,-0.64535,-12.719,39.358,1.8085,-0.60283,-0.51921,2.4113,2.8858e-12,-0.25961,0,0,0.25,5.9212e-16,2.2742e-16,0.66667
0.81301,0.72228,3.252,0.33342,2.2554,4.0182,-2.8914,0.9638,-1.6059,-3.8552,3.9098e-10,-0.80295,0,0,0.25,-0,-0,0.66667
0.52348,0.22613,2.0939,-0.4108,-6.1945,19.156,2.2938,-0.76461,-1.3994,3.0584,3.7725e-13,-0.69972,0,0,0.25,-0,-0,0.66667
0.8939,0.33131,3.5756,-0.25303,-0.95387,1.6296,2.4126,-0.8042,-1.7719,3.2168,3.131e-09,-0.88593,0,0,0.25,1.1842e-15,0,0.66667
0.52374,0.36309,2.095,-0.20536,-3.0685,19.021,1.1473,-0.38243,-1.8491,1.5297,3.6049e-13,-0.92457,0,0,0.25,5.9212e-16,0,0.66667
0.89114,0.12556,3.5645,-0.56165,-2.3229,2.0913,5.3388,-1.7796,-0.88011,7.1183,1.2978e-08,-0.44005,0,0,0.25,-2.3685e-15,0,0.66667
0.44972,0.2729,1.7989,-0.34065,-5.6398,24.311,1.6341,-0.54471,-1.5872,2.1788,-1.3346e-12,-0.79359,0,0,0.25,5.9212e-16,0,0.66667
0.5615,0.42539,2.246,-0.11191,-1.5709,16.507,0.67028,-0.22343,-1.9555,0.89371,4.5791e-13,-0.97777,0,0,0.25,-0,-0,0.66667
0.81248,0.84382,3.2499,0.51573,3.5807,4.2597,-4.4696,1.4899,-1.0563,-5.9594,1.5284e-10,-0.52814,0,0,0.25,2.3685e-15,0,0.66667
0.40317,0.14155,1.6127,-0.53767,-9.4534,27.938,2.3122,-0.77075,-0.97161,3.083,-1.3449e-12,-0.4858,0,0,0.25,-0,-0,0.66667
0.56867,0.74954,2.2747,0.37432,5.2391,16.179,-2.2705,0.75684,-1.5025,-3.0274,-1.7293e-12,-0.75124,0,0,0.25,4.4409e-16,0,0.66667
0.89846,0.012079,3.5938,-0.73188,-2.9894,2.281,7.0141,-2.338,-0.094549,9.3521,3.0023e-08,-0.047274,0,0,0.25,-0,-0,0.66667
0.48462,0.68094,1.9385,0.27141,4.2926,21.756,-1.403,0.46767,-1.7389,-1.8707,2.9643e-13,-0.86944,0,0,0.25,8.8818e-16,0,0.66667
0.59059,0.70032,2.3624,0.30048,4.0273,14.766,-1.8929,0.63097,-1.6785,-2.5239,-2.0062e-12,-0.83924,0,0,0.25,-0,-0,0.66667
0.93638,0.18917,3.7455,-0.46624,-1.0585,1.0605,4.6568,-1.5523,-1.2284,6.2091,-9.3697e-11,-0.61421,0,0,0.25,-0,-0,0.66667
0.88325,0.71393,3.533,0.3209,1.3523,1.9411,-3.0233,1.0078,-1.6337,-4.0311,4.1449e-10,-0.81684,0,0,0.25,-5.9212e-16,0,0.66667
0.75772,0.44919,3.0309,-0.076217,-0.64844,5.9853,0.61601,-0.20534,-1.9785,0.82135,-3.3143e-11,-0.98923,0,0,0.25,-1.1842e-15,0,0.66667
0.71123,0.3525,2.8449,-0.22125,-2.2145,8.129,1.6785,-0.5595,-1.8253,2.238,-2.4364e-11,-0.91264,0,0,0.25,-0,-0,0.66667
0.8192,0.10243,3.2768,-0.59635,-4.0567,4.1639,5.211,-1.737,-0.73487,6.948,-7.9318e-11,-0.36744,0,0,0.25,-0,-0,0.66667
0.10608,0.27711,0.42433,-0.33433,-6.8959,52.957,0.37831,-0.1261,-1.6029,0.50442,-9.806e-10,-0.80146,0,0,0.25,-3.7007e-17,0,0.66667
0.38103,0.26441,1.5241,-0.35338,-6.2839,29.54,1.4363,-0.47876,-1.5551,1.915,-2.081e-12,-0.77753,0,0,0.25,-0,-0,0.66667
0.54579,0.42325,2.1832,-0.11512,-1.6588,17.526,0.67021,-0.2234,-1.9529,0.89361,3.0986e-13,-0.97643,0,0,0.25,-0,-0,0.66667
0.85851,0.27145,3.434,-0.34283,-1.765,2.6089,3.1394,-1.0465,-1.5824,4.1859,-7.4663e-10,-0.79119,0,0,0.25,1.1842e-15,0,0.66667
0.1464,0.84828,0.58561,0.52243,10.749,49.393,-0.81583,0.27194,-1.0295,-1.0878,-8.7201e-10,-0.51476,0,0,0.25,-5.9212e-16,0,0.66667
0.71404,0.54564,2.8562,0.06846,0.67624,7.9392,-0.52142,0.17381,-1.9825,-0.69522,1.0342e-11,-0.99127,0,0,0.25,-1.1842e-15,0,0.66667
0.59097,0.2553,2.3639,-0.36705,-4.9329,14.79,2.3138,-0.77125,-1.5213,3.085,1.9298e-12,-0.76063,0,0,0.25,-1.1842e-15,0,0.66667
0.60872,0.12504,2.4349,-0.56243,-7.409,13.92,3.6519,-1.2173,-0.87706,4.8692,1.2905e-12,-0.43853,0,0,0.25,-0,1.6862e-18,0.66667
0.37262,0.0050429,1.4905,-0.74244,-13.631,30.484,2.9509,-0.98363,-0.040549,3.9345,-1.5987e-13,-0.020274,0,0,0.25,-0,1.6026e-16,0.66667
0.91582,0.18974,3.6633,-0.46539,-1.4342,1.4173,4.5463,-1.5154,-1.2302,6.0617,-9.4648e-09,-0.61511,0,0,0.25,-2.3685e-15,0,0.66667
0.71391,0.00034991,2.8556,-0.74948,-7.8393,8.6526,5.7072,-1.9024,-0.0036158,7.6097,4.0412e-13,-0.0018079,0,0,0.25,-0,-0,0.66667
0.6683,0.3937,2.6732,-0.15944,-1.7935,10.261,1.1366,-0.37886,-1.9091,1.5155,-4.0271e-12,-0.95453,0,0,0.25,-0,-0,0.66667
0.22147,0.53332,0.88586,0.049978,0.98488,42.712,-0.11806,0.039355,-1.992,-0.15742,-4.18e-11,-0.99598,0,0,0.25,-5.9212e-16,0,0.66667
0.81288,0.28447,3.2515,-0.32329,-2.1861,4.013,2.8031,-0.93438,-1.6296,3.7375,-3.8923e-10,-0.81482,0,0,0.25,-0,-0,0.66667
0.49585,0.80812,1.9834,0.46219,7.2685,21.089,-2.4446,0.81485,-1.2406,-3.2594,-2.438e-13,-0.62032,0,0,0.25,-0,-0,0.66667
0.50837,0.49238,2.0335,-0.011432,-0.17418,20.031,0.061992,-0.020664,-1.999,0.082657,-2.9249e-13,-0.99949,0,0,0.25,-2.9606e-16,0,0.66667
0.084733,0.15079,0.33893,-0.52381,-10.938,54.903,0.47343,-0.15781,-1.0242,0.63124,3.7394e-11,-0.51209,0,0,0.25,-7.4015e-17,0,0.66667
0.43727,0.60212,1.7491,0.15318,2.5574,25.161,-0.71447,0.23816,-1.9172,-0.95262,1.0202e-12,-0.95858,0,0,0.25,-0,-0,0.66667
0.8632,0.82505,3.4528,0.48757,2.487,2.6641,-4.4893,1.4964,-1.1542,-5.9857,1.7236e-09,-0.57708,0,0,0.25,-2.3685e-15,0,0.66667
0.68024,0.2775,2.7209,-0.33375,-3.6693,9.7419,2.4217,-0.80722,-1.6039,3.2289,-7.0008e-12,-0.80197,0,0,0.25,5.9212e-16,0,0.66667
0.18942,0.26118,0.7577,-0.35823,-7.2068,45.554,0.72382,-0.24127,-1.5436,0.96509,3.6007e-10,-0.77179,0,0,0.25,-2.9606e-16,0,0.66667
0.58407,0.23967,2.3363,-0.3905,-5.3227,15.231,2.4329,-0.81095,-1.4571,3.2438,1.7335e-12,-0.72854,0,0,0.25,-0,-0,0.66667
0.94401,0.98578,3.776,0.72866,1.6682,1.4709,-7.3372,2.4457,-0.11122,-9.783,2.4204e-07,-0.055609,0,0,0.25,1.1842e-15,0,0.66667
0.50746,0.85823,2.0298,0.53735,8.3589,20.354,-2.9086,0.96954,-0.97236,-3.8782,-2.78e-13,-0.48618,0,0,0.25,-0,-0,0.66667
0.9674,0.60625,3.8696,0.15938,0.12928,0.3181,-1.6446,0.5482,-1.9096,-2.1928,-2.0287e-08,-0.95482,0,0,0.25,-0,-0,0.66667
0.36627,0.70819,1.4651,0.31228,5.6177,30.686,-1.22,0.40668,-1.6525,-1.6267,9.2026e-13,-0.82623,0,0,0.25,2.9606e-16,0,0.66667
0.29075,0.73922,1.163,0.35882,6.8464,36.863,-1.1128,0.37094,-1.5414,-1.4838,-2.1982e-11,-0.77071,0,0,0.25,-0,-0,0.66667
0.83985,0.49044,3.3594,-0.014336,-0.081749,2.9796,0.12843,-0.042808,-1.9988,0.17123,-5.2915e-11,-0.99942,0,0,0.25,-0,-0,0.66667
0.86973,0.26113,3.4789,-0.3583,-1.7006,2.3221,3.324,-1.108,-1.5428,4.432,-5.3207e-10,-0.77141,0,0,0.25,-0,-0,0.66667
0.20167,0.75065,0.80666,0.37597,7.5303,44.488,-0.80875,0.26958,-1.4988,-1.0783,-2.7395e-10,-0.74942,0,0,0.25,-0,-0,0.66667
0.71945,0.51063,2.8778,0.015949,0.15482,7.6784,-0.12239,0.040798,-1.9993,-0.16319,1.7481e-12,-0.99967,0,0,0.25,2.3685e-15,0,0.66667
0.59211,0.84253,2.3684,0.51379,6.9591,14.856,-3.245,1.0817,-1.0627,-4.3267,-1.3147e-12,-0.53133,0,0,0.25,-1.4063e-15,0,0.66667
0.89451,0.93034,3.578,0.64551,2.6545,2.1766,-6.1591,2.053,-0.51829,-8.2121,-3.0082e-08,-0.25915,0,0,0.25,1.1842e-15,0,0.66667
0.14945,0.91249,0.59778,0.61873,12.79,49.153,-0.98632,0.32877,-0.63845,-1.3151,8.0829e-10,-0.31923,0,0,0.25,-0,-0,0.66667
0.76303,0.2317,3.0521,-0.40244,-3.4197,5.976,3.2755,-1.0918,-1.4238,4.3673,-1.0867e-10,-0.71188,0,0,0.25,-0,-0,0.66667
0.68996,0.26555,2.7598,-0.35167,-3.7709,9.2638,2.5882,-0.86272,-1.5599,3.4509,-1.0413e-11,-0.77994,0,0,0.25,-0,-0,0.66667
0.79502,0.1713,3.1801,-0.49305,-3.707,4.8458,4.1812,-1.3937,-1.1354,5.5749,-2.0802e-10,-0.5677,0,0,0.25,-0,-0,0.66667
0.45329,0.7585,1.8131,0.38774,6.4065,24.077,-1.8748,0.62492,-1.466,-2.4997,9.67e-13,-0.73302,0,0,0.25,-0,-0,0.66667
0.22843,0.5811,0.91372,0.12165,2.3906,42.113,-0.29641,0.098802,-1.9465,-0.39521,-6.7783e-11,-0.97326,0,0,0.25,-0,-0,0.66667
0.28605,0.91735,1.1442,0.62602,12.152,37.39,-1.9101,0.63672,-0.6059,-2.5469,-2.4076e-12,-0.30295,0,0,0.25,-0,-0,0.66667
0.3043,0.45483,1.2172,-0.06775,-1.2723,35.668,0.21991,-0.073303,-1.9827,0.29321,5.6262e-12,-0.99135,0,0,0.25,-0,-0,0.66667
0.84027,0.44294,3.3611,-0.085587,-0.48744,2.9774,0.76711,-0.2557,-1.9741,1.0228,1.1557e-10,-0.98704,0,0,0.25,-0,-0,0.66667
0.53716,0.36892,2.1486,-0.19662,-2.8774,18.12,1.1265,-0.37551,-1.8623,1.5021,5.5167e-13,-0.93113,0,0,0.25,8.8818e-16,0,0.66667
0.56358,0.94969,2.2543,0.67454,9.7443,16.817,-4.0551,1.3517,-0.38224,-5.4067,-2.3093e-14,-0.19112,0,0,0.25,-1.1842e-15,0,0.66667
0.28417,0.072337,1.1367,-0.64149,-12.48,37.557,1.9444,-0.64815,-0.53658,2.5926,1.5716e-12,-0.26829,0,0,0.25,-0,-0,0.66667
0.83416,0.37351,3.3366,-0.18973,-1.1276,3.2104,1.6882,-0.56272,-1.8725,2.2509,-8.2093e-10,-0.93624,0,0,0.25,1.4803e-15,0,0.66667
0.70493,0.97027,2.8197,0.7054,7.523,8.9945,-5.3041,1.768,-0.23195,-7.0721,5.2225e-13,-0.11597,0,0,0.25,-0,-0,0.66667
0.87814,0.99427,3.5126,0.7414,3.6101,2.7644,-6.9446,2.3149,-0.04573,-9.2595,2.1043e-08,-0.022865,0,0,0.25,-1.1842e-15,0,0.66667
0.13153,0.58815,0.52611,0.13222,2.6972,50.655,-0.1855,0.061833,-1.9376,-0.24733,1.2567e-09,-0.96879,0,0,0.25,-1.4803e-16,0,0.66667
0.8496,0.42671,3.3984,-0.10994,-0.58968,2.7041,0.9963,-0.3321,-1.9563,1.3284,8.381e-10,-0.97813,0,0,0.25,-0,-0,0.66667
0.052112,0.35642,0.20845,-0.21536,-4.4667,57.822,0.11971,-0.039904,-1.8343,0.15962,-2.1997e-08,-0.91714,0,0,0.25,7.4015e-17,0,0.66667
0.87713,0.71102,3.5085,0.31654,1.4057,2.088,-2.9615,0.98718,-1.6439,-3.9487,6.488e-10,-0.82194,0,0,0.25,5.9212e-16,0,0.66667
0.23974,0.65169,0.95897,0.22753,4.4545,41.153,-0.58186,0.19395,-1.8159,-0.77581,-9.4804e-11,-0.90795,0,0,0.25,-1.4803e-16,0,0.66667
0.88566,0.19819,3.5427,-0.45272,-1.9144,2.0436,4.2769,-1.4256,-1.2706,5.7025,-3.6348e-09,-0.6353,0,0,0.25,-0,-0,0.66667
0.37931,0.60389,1.5172,0.15584,2.7592,29.607,-0.63052,0.21017,-1.9131,-0.84069,7.8781e-13,-0.95656,0,0,0.25,-1.1842e-15,0,0.66667
0.84292,0.60335,3.3717,0.15503,0.87086,2.9215,-1.3939,0.46463,-1.9148,-1.8585,3.9775e-10,-0.95742,0,0,0.25,-0,-0,0.66667
0.53961,0.25804,2.1585,-0.36294,-5.326,18.046,2.089,-0.69634,-1.5311,2.7854,9.3459e-13,-0.76553,0,0,0.25,-1.1842e-15,0,0.66667
0.56418,0.19308,2.2567,-0.46038,-6.528,16.536,2.7705,-0.9235,-1.2469,3.694,1.1169e-12,-0.62345,0,0,0.25,1.1842e-15,0,0.66667
0.98402,0.10745,3.9361,-0.58883,-0.26647,0.71876,6.1805,-2.0602,-0.76742,8.2407,2.1717e-07,-0.38371,0,0,0.25,-2.3685e-15,2.9155e-16,0.66667
0.96375,0.83041,3.855,0.49562,0.58986,0.73709,-5.095,1.6983,-1.1258,-6.7933,7.9767e-09,-0.5629,0,0,0.25,1.1842e-15,0,0.66667
0.11432,0.097176,0.4573,-0.60424,-12.598,52.269,0.73684,-0.24561,-0.70207,0.98246,-1.7967e-09,-0.35104,0,0,0.25,2.9606e-16,0,0.66667
0.36415,0.51586,1.4566,0.023785,0.42627,30.792,-0.092388,0.030796,-1.9972,-0.12318,-1.6247e-13,-0.99859,0,0,0.25,-0,-0,0.66667
0.25055,0.26194,1.0022,-0.35709,-6.9787,40.26,0.95433,-0.31811,-1.5468,1.2724,7.9144e-11,-0.77341,0,0,0.25,-0,-0,0.66667
0.4483,0.24406,1.7932,-0.3839,-6.3787,24.441,1.8358,-0.61192,-1.4758,2.4477,-1.4689e-12,-0.73791,0,0,0.25,8.8818e-16,0,0.66667
0.12635,0.2501,0.50541,-0.37485,-7.7051,51.146,0.50521,-0.1684,-1.502,0.67362,1.0945e-09,-0.75098,0,0,0.25,-0,-0,0.66667
0.51157,0.74802,2.0463,0.37203,5.696,19.937,-2.0301,0.67669,-1.5085,-2.7068,-4.7273e-13,-0.75424,0,0,0.25,-1.4803e-16,0,0.66667
0.86558,0.36385,3.4623,-0.20423,-0.98227,2.2986,1.8856,-0.62855,-1.8509,2.5142,-1.6355e-09,-0.92544,0,0,0.25,-0,-0,0.66667
0.35235,0.12157,1.4094,-0.56765,-10.465,31.938,2.1335,-0.71116,-0.85435,2.8446,-1.3249e-12,-0.42717,0,0,0.25,-7.4015e-16,0,0.66667
0.15564,0.32128,0.62256,-0.26808,-5.444,48.519,0.44505,-0.14835,-1.7449,0.5934,2.0405e-10,-0.87246,0,0,0.25,-0,-0,0.66667
0.30726,0.72654,1.229,0.33981,6.4074,35.483,-1.1137,0.37124,-1.589,-1.485,-1.2402e-11,-0.7945,0,0,0.25,-0,-0,0.66667
0.74287,0.56136,2.9715,0.092041,0.82705,6.6264,-0.72933,0.24311,-1.9704,-0.97244,3.1624e-11,-0.98518,0,0,0.25,-0,-0,0.66667
0.091276,0.13024,0.36511,-0.55464,-11.587,54.321,0.54001,-0.18,-0.90658,0.72001,4.0578e-08,-0.45329,0,0,0.25,-2.9606e-16,0,0.66667
0.73558,0.53741,2.9423,0.056109,0.51677,6.9429,-0.44024,0.14675,-1.9894,-0.58699,1.3262e-11,-0.99468,0,0,0.25,2.3685e-15,0,0.66667
0.61392,0.7415,2.4557,0.36226,4.6534,13.414,-2.3722,0.79074,-1.533,-3.163,-2.0921e-12,-0.76649,0,0,0.25,-0,-0,0.66667
0.74026,0.93412,2.961,0.65118,6.1859,7.2885,-5.1418,1.7139,-0.49243,-6.8557,2.5246e-12,-0.24622,0,0,0.25,5.9212e-16,0,0.66667
0.0090497,0.26556,0.036199,-0.35167,-7.3415,61.734,0.033946,-0.011315,-1.5593,0.045262,8.2094e-09,-0.77966,0,0,0.25,1.8504e-17,0,0.66667
0.72047,0.90883,2.8819,0.61324,6.173,8.112,-4.7128,1.5709,-0.66387,-6.2837,3.2703e-12,-0.33194,0,0,0.25,2.3685e-15,0,0.66667
0.32058,0.86544,1.2823,0.54817,10.343,34.491,-1.8745,0.62483,-0.93086,-2.4993,-4.7917e-13,-0.46543,0,0,0.25,-2.9606e-16,0,0.66667
0.63297,0.80922,2.5319,0.46383,5.7635,12.411,-3.1317,1.0439,-1.2351,-4.1755,-1.9225e-12,-0.61756,0,0,0.25,1.874e-16,0,0.66667
0.053837,0.48802,0.21535,-0.017965,-0.37168,57.661,0.010317,-0.0034392,-1.998,0.013755,-5.0898e-07,-0.99898,0,0,0.25,-7.4015e-17,0,0.66667
0.55643,0.78756,2.2257,0.43133,6.1844,17.005,-2.5601,0.85337,-1.3382,-3.4135,-1.3116e-12,-0.66908,0,0,0.25,-0,-0,0.66667
0.9416,0.29454,3.7664,-0.30819,-0.5961,0.77531,3.0953,-1.0318,-1.6616,4.1271,5.6633e-09,-0.83081,0,0,0.25,-0,-0,0.66667
0.32009,0.57024,1.2803,0.10537,1.9572,34.367,-0.35974,0.11991,-1.96,-0.47966,-4.8995e-12,-0.97998,0,0,0.25,-0,-0,0.66667
0.52274,0.47237,2.0909,-0.041452,-0.61857,19.051,0.23113,-0.077044,-1.9939,0.30817,-5.5553e-14,-0.99695,0,0,0.25,-0,-0,0.66667
0.40771,0.63552,1.6308,0.20328,3.5059,27.412,-0.88405,0.29468,-1.8531,-1.1787,1.5722e-12,-0.92656,0,0,0.25,-1.1842e-15,0,0.66667
0.56965,0.35774,2.2786,-0.21339,-2.9606,16.021,1.2966,-0.4322,-1.8371,1.7288,1.2366e-12,-0.91856,0,0,0.25,-1.1842e-15,0,0.66667
0.068319,0.51919,0.27327,0.028778,0.59431,56.348,-0.020972,0.0069905,-1.9962,-0.027962,-6.7022e-08,-0.99811,0,0,0.25,1.4803e-16,0,0.66667
0.36188,0.86321,1.4475,0.54482,9.9506,31.163,-2.103,0.70101,-0.94432,-2.804,1.684e-12,-0.47216,0,0,0.25,5.9212e-16,0,0.66667
0.52066,0.050126,2.0826,-0.67481,-10.418,19.612,3.7477,-1.2492,-0.38014,4.9969,1.8585e-13,-0.19007,0,0,0.25,-1.2087e-15,0,0.66667
0.084824,0.046696,0.3393,-0.67996,-14.331,54.924,0.61522,-0.20507,-0.35515,0.82029,-2.0536e-08,-0.17757,0,0,0.25,1.4803e-16,0,0.66667
0.46765,0.22172,1.8706,-0.41742,-6.7895,23.054,2.0822,-0.69407,-1.3815,2.7763,-7.3896e-13,-0.69077,0,0,0.25,1.1842e-15,0,0.66667
0.77223,0.17722,3.0889,-0.48416,-4.0046,5.7034,3.9881,-1.3294,-1.1658,5.3175,-1.0789e-10,-0.58288,0,0,0.25,1.1842e-15,0,0.66667
0.443,0.71653,1.772,0.32479,5.4152,24.798,-1.5348,0.51159,-1.6253,-2.0464,1.2315e-12,-0.81264,0,0,0.25,7.4015e-16,0,0.66667
0.39093,0.36022,1.5637,-0.20967,-3.6766,28.711,0.87429,-0.29143,-1.8439,1.1657,-1.4613e-12,-0.92195,0,0,0.25,5.9212e-16,0,0.66667
0.27288,0.33928,1.0915,-0.24107,-4.6338,38.33,0.70169,-0.2339,-1.7932,0.93558,4.1012e-11,-0.89662,0,0,0.25,-4.4409e-16,0,0.66667
0.051852,0.1545,0.20741,-0.51826,-10.868,57.866,0.28664,-0.095546,-1.0455,0.38219,-4.0139e-08,-0.52277,0,0,0.25,9.2519e-17,0,0.66667
0.76182,0.7215,3.0473,0.33225,2.8185,5.9557,-2.6999,0.89996,-1.608,-3.5999,1.1429e-10,-0.804,0,0,0.25,2.3685e-15,0,0.66667
0.48578,0.75677,1.9431,0.38515,6.1122,21.738,-1.9957,0.66524,-1.473,-2.661,3.1186e-13,-0.73649,0,0,0.25,-0,-0,0.66667
0.16135,0.88404,0.64539,0.57606,11.832,48.088,-0.99143,0.33048,-0.81954,-1.3219,-6.0539e-10,-0.40977,0,0,0.25,-0,-0,0.66667
0.066079,0.95797,0.26431,0.68696,14.527,56.606,-0.4842,0.1614,-0.32163,-0.64559,-3.3546e-08,-0.16081,0,0,0.25,-7.4015e-17,0,0.66667
0.7579,0.037452,3.0316,-0.69382,-6.241,6.6185,5.609,-1.8697,-0.28801,7.4787,7.7138e-13,-0.14401,0,0,0.25,-0,-0,0.66667
0.58841,0.78504,2.3536,0.42755,5.7948,14.996,-2.6835,0.8945,-1.3501,-3.578,-1.8967e-12,-0.67507,0,0,0.25,-0,-0,0.66667
0.55876,0.074462,2.2351,-0.63831,-9.263,17.075,3.8044,-1.2681,-0.55079,5.0725,6.5281e-14,-0.27539,0,0,0.25,1.1842e-15,1.1278e-16,0.66667
0.20632,0.73958,0.8253,0.35938,7.1788,44.077,-0.79091,0.26364,-1.5404,-1.0546,-2.5972e-10,-0.77022,0,0,0.25,-0,-0,0.66667
0.59434,0.29369,2.3774,-0.30947,-4.1201,14.544,1.9619,-0.65398,-1.6597,2.6159,1.8565e-12,-0.82983,0,0,0.25,-0,-0,0.66667
0.93421,0.46812,3.7369,-0.047826,-0.10204,0.73782,0.47658,-0.15886,-1.9929,0.63544,-5.9031e-08,-0.99644,0,0,0.25,1.3323e-15,0,0.66667
0.72548,0.45783,2.9019,-0.063254,-0.60255,7.4032,0.48948,-0.16316,-1.985,0.65265,-1.3847e-11,-0.99248,0,0,0.25,-0,-0,0.66667
0.5866,0.51537,2.3464,0.023059,0.30921,14.917,-0.14428,0.048093,-1.9971,-0.19237,-3.4023e-13,-0.99856,0,0,0.25,-0,-0,0.66667
0.8653,0.82494,3.4612,0.48742,2.4485,2.6077,-4.4988,1.4996,-1.1544,-5.9984,2.0045e-09,-0.57722,0,0,0.25,-0,-0,0.66667
0.99657,0.72698,3.9863,0.34047,-0.10793,0.22582,-3.6192,1.2064,-1.5876,-4.8256,-9.2818e-10,-0.79382,0,0,0.25,-0,-2.0532e-17,0.66667
0.86511,0.50145,3.4604,0.0021719,0.010388,2.2473,-0.020042,0.0066808,-2.0005,-0.026723,1.0739e-08,-1.0002,0,0,0.25,-0,-0,0.66667
0.17918,0.052346,0.71673,-0.67148,-13.787,46.557,1.2834,-0.4278,-0.39606,1.7112,1.7896e-10,-0.19803,0,0,0.25,-0,-0,0.66667
0.69466,0.17494,2.7787,-0.48758,-5.2181,9.1697,3.6129,-1.2043,-1.1538,4.8172,-5.7614e-12,-0.57689,0,0,0.25,-1.1842e-15,0,0.66667
0.29623,0.45335,1.1849,-0.069972,-1.3213,36.341,0.2211,-0.073699,-1.9827,0.2948,7.5821e-12,-0.99134,0,0,0.25,5.9212e-16,0,0.66667
0.059534,0.045189,0.23813,-0.68222,-14.434,57.193,0.43323,-0.14441,-0.34469,0.57763,-4.182e-07,-0.17235,0,0,0.25,-0,-0,0.66667
0.10804,0.69653,0.43217,0.29479,6.0701,52.776,-0.33974,0.11325,-1.6912,-0.45298,-1.1368e-09,-0.84561,0,0,0.25,-0,-0,0.66667
0.76279,0.29964,3.0512,-0.30054,-2.5337,5.8884,2.4453,-0.8151,-1.6784,3.2604,-1.1318e-10,-0.83922,0,0,0.25,1.1842e-15,0,0.66667
