xi,eta,X,Y,uX,uY,epsilon_X,epsilon_Y,gamma_XY,sigma_XX,sigma_YY,sigma_XY,fx,fy,dxidx,dxidy,detadx,detady,
0.41702,0.7655,5.0043,0.39825,62.999,641.14,-5.3145,1.7715,-1.4333,-7.086,-3.1344e-12,-0.71665,0,0,0.083333,7.8949e-16,0,0.66667
0.72032,0.30817,8.6439,-0.28774,-26.438,168.49,6.6325,-2.2108,-1.7095,8.8434,-3.8325e-13,-0.85475,0,0,0.083333,-0,-0,0.66667
0.00011437,0.73538,0.0013725,0.35307,67.628,1552.7,-0.0012906,0.00042824,-1.5637,-0.0017218,-2.9551e-06,-0.78184,0,0,0.083333,-0,-0,0.66667
0.30233,0.8122,3.628,0.4683,81.528,872.86,-4.5306,1.5102,-1.2185,-6.0408,-1.0199e-11,-0.60924,0,0,0.083333,-5.6745e-16,0,0.66667
0.14676,0.23669,1.7611,-0.39496,-74.032,1214.9,1.8548,-0.61827,-1.4415,2.4731,2.1962e-10,-0.72073,0,0,0.083333,1.9737e-16,0,0.66667
0.092339,0.062824,1.1081,-0.65576,-124.74,1339.5,1.9377,-0.64589,-0.47604,2.5836,3.2295e-08,-0.23802,0,0,0.083333,3.9475e-16,0,0.66667
0.18626,0.62204,2.2351,0.18307,33.829,1125.7,-1.0911,0.36371,-1.8858,-1.4548,1.3305e-10,-0.94289,0,0,0.083333,-0,-0,0.66667
0.34556,0.94394,4.1467,0.66591,112.5,783.46,-7.3636,2.4545,-0.42639,-9.8181,7.4669e-12,-0.21319,0,0,0.083333,-0,-0,0.66667
0.39677,0.34766,4.7612,-0.22851,-36.846,680.18,2.9013,-0.96709,-1.8114,3.8684,2.3777e-12,-0.90568,0,0,0.083333,-0,-0,0.66667
0.53882,0.43363,6.4658,-0.099561,-13.509,422.57,1.7166,-0.57221,-1.9613,2.2888,1.854e-12,-0.98063,0,0,0.083333,1.9737e-16,0,0.66667
0.41919,0.27723,5.0303,-0.33416,-52.728,636.87,4.4825,-1.4942,-1.6045,5.9767,-3.1468e-12,-0.80225,0,0,0.083333,-3.9475e-16,0,0.66667
0.68522,0.69207,8.2226,0.28811,29.201,210,-6.3174,2.1058,-1.7071,-8.4232,-1.14e-12,-0.85356,0,0,0.083333,-0,-0,0.66667
0.20445,0.18359,2.4534,-0.47461,-87.15,1085.3,3.1051,-1.035,-1.2037,4.1401,-1.3001e-10,-0.60183,0,0,0.083333,-0,-0,0.66667
0.87812,0.73211,10.537,0.34817,15.143,35.476,-9.7835,3.2612,-1.5688,-13.045,2.0908e-09,-0.78439,0,0,0.083333,-0,-0,0.66667
0.027388,0.7503,0.32865,0.37544,71.867,1489.5,-0.32904,0.10968,-1.499,-0.43872,3.2043e-06,-0.74949,0,0,0.083333,-0,-0,0.66667
0.67047,0.45507,8.0456,-0.067393,-7.0838,228.33,1.4459,-0.48197,-1.9873,1.9279,-1.109e-12,-0.99364,0,0,0.083333,-4.5011e-18,0,0.66667
0.4173,0.75403,5.0077,0.38104,60.255,640.57,-5.0883,1.6961,-1.4822,-6.7845,-2.7907e-12,-0.74112,0,0,0.083333,1.579e-15,0,0.66667
0.55869,0.15501,6.7043,-0.51748,-68.186,391.01,9.2516,-3.0839,-1.0479,12.335,-3.8742e-12,-0.52395,0,0,0.083333,1.0856e-15,0,0.66667
0.14039,0.66052,1.6846,0.24078,45.192,1229.3,-1.0817,0.36056,-1.8013,-1.4422,-1.6893e-09,-0.90066,0,0,0.083333,-0,-0,0.66667
0.1981,0.29391,2.3772,-0.30913,-56.875,1099.3,1.9597,-0.65322,-1.6573,2.6129,-6.9397e-11,-0.82865,0,0,0.083333,-0,-0,0.66667
0.80074,0.44476,9.6089,-0.082854,-5.6602,88.816,2.123,-0.70768,-1.9746,2.8307,-3.4608e-11,-0.9873,0,0,0.083333,1.579e-15,0,0.66667
0.96826,0.8319,11.619,0.49785,5.8087,4.1158,-15.425,5.1418,-1.1247,-20.567,-3.0829e-06,-0.56234,0,0,0.083333,-1.579e-15,0,0.66667
0.31342,0.90051,3.7611,0.60077,103.89,849.79,-6.0254,2.0085,-0.72204,-8.0339,3.8325e-13,-0.36102,0,0,0.083333,5.9212e-16,0,0.66667
0.69232,0.31828,8.3079,-0.27258,-27.113,201.24,6.0389,-2.013,-1.7337,8.0519,1.5987e-14,-0.86687,0,0,0.083333,-1.579e-15,0,0.66667
0.87639,0.17908,10.517,-0.48138,-21.272,36.938,13.5,-4.5,-1.1799,18,4.7384e-09,-0.58995,0,0,0.083333,-0,-0,0.66667
0.89461,0.45874,10.735,-0.061888,-2.3368,26.503,1.7717,-0.59056,-1.9849,2.3623,1.9194e-09,-0.99247,0,0,0.083333,-0,-0,0.66667
0.085044,0.67898,1.0205,0.26847,51.037,1356.1,-0.73062,0.24354,-1.7398,-0.97416,-6.3163e-08,-0.86988,0,0,0.083333,-9.8686e-17,0,0.66667
0.039055,0.41442,0.46866,-0.12837,-24.536,1462.4,0.16043,-0.053476,-1.9373,0.2139,-1.2157e-07,-0.96866,0,0,0.083333,-0,-0,0.66667
0.16983,0.056519,2.038,-0.66522,-123.96,1163,3.6152,-1.2051,-0.42916,4.8203,-2.6738e-08,-0.21458,0,0,0.083333,1.0056e-16,-6.1089e-17,0.66667
0.87814,0.85403,10.538,0.53104,23.181,36.215,-14.923,4.9742,-0.99723,-19.897,1.3288e-08,-0.49862,0,0,0.083333,-0,-0,0.66667
0.098347,0.88562,1.1802,0.57843,109.85,1325.6,-1.8204,0.6068,-0.80805,-2.4272,1.4279e-09,-0.40403,0,0,0.083333,-0,-0,0.66667
0.42111,0.88824,5.0533,0.58236,91.85,633.72,-7.8475,2.6158,-0.79927,-10.463,4.4253e-12,-0.39963,0,0,0.083333,-7.8949e-16,9.6383e-17,0.66667
0.95789,0.4772,11.495,-0.034205,-0.52155,4.75,1.0485,-0.34949,-1.9935,1.398,-7.0502e-08,-0.99675,0,0,0.083333,-0,-0,0.66667
0.53317,0.77997,6.398,0.41995,57.542,432.42,-7.1649,2.3883,-1.3766,-9.5532,-2.1507e-12,-0.68829,0,0,0.083333,1.9737e-16,0,0.66667
0.69188,0.39922,8.3025,-0.15117,-15.046,201.6,3.3469,-1.1156,-1.9171,4.4626,-1.3014e-12,-0.95853,0,0,0.083333,1.1842e-15,0,0.66667
0.31552,0.26626,3.7862,-0.35062,-60.457,845.02,3.54,-1.18,-1.5629,4.72,5.7043e-12,-0.78143,0,0,0.083333,-3.9475e-16,0,0.66667
0.6865,0.27109,8.238,-0.34337,-34.699,208.54,7.5432,-2.5144,-1.5854,10.058,-3.3822e-12,-0.79272,0,0,0.083333,7.8949e-16,0,0.66667
0.83463,0.64719,10.016,0.22078,12.744,62.566,-5.8967,1.9656,-1.8228,-7.8623,7.2234e-11,-0.91142,0,0,0.083333,-7.8949e-16,0,0.66667
0.018288,0.040255,0.21946,-0.68962,-132.3,1510.6,0.40356,-0.13453,-0.30992,0.53807,-1.7027e-05,-0.15496,0,0,0.083333,-0,-0,0.66667
0.75014,0.38441,9.0017,-0.17338,-14.461,136.22,4.1619,-1.3873,-1.9002,5.5492,1.6946e-12,-0.9501,0,0,0.083333,1.579e-15,0,0.66667
0.98886,0.68293,11.866,0.27439,1.0285,0.8711,-8.6827,2.8942,-1.7308,-11.577,4.3101e-07,-0.8654,0,0,0.083333,-1.579e-15,0,0.66667
0.74817,0.69364,8.978,0.29045,24.407,138.47,-6.9539,2.318,-1.7031,-9.2718,-6.4002e-12,-0.85153,0,0,0.083333,-0,-0,0.66667
0.28044,0.87009,3.3653,0.55513,98.056,919.49,-4.9818,1.6606,-0.91004,-6.6425,-2.7537e-11,-0.45502,0,0,0.083333,5.608e-16,-5.4748e-17,0.66667
0.78928,0.78155,9.4714,0.42232,30.404,99.452,-10.667,3.5555,-1.363,-14.222,-1.0015e-11,-0.68152,0,0,0.083333,-0,-0,0.66667
0.10323,0.17645,1.2387,-0.48532,-92.024,1314.4,1.6031,-0.53438,-1.1587,2.1375,3.7913e-08,-0.57937,0,0,0.083333,-0,-0,0.66667
0.44789,0.24052,5.3747,-0.38921,-59.572,582.81,5.5784,-1.8595,-1.4584,7.4379,-6.7084e-12,-0.72922,0,0,0.083333,3.9475e-16,0,0.66667
0.9086,0.94322,10.903,0.66483,22.186,22.358,-19.33,6.4434,-0.43037,-25.773,-6.2883e-07,-0.21519,0,0,0.083333,-0,-0,0.66667
0.29361,0.66536,3.5234,0.24804,43.39,891.06,-2.3305,0.77685,-1.781,-3.1074,-1.3721e-11,-0.89052,0,0,0.083333,-0,-0,0.66667
0.28778,0.26459,3.4533,-0.35312,-62.024,903.57,3.2518,-1.0839,-1.5525,4.3357,-3.0997e-13,-0.77625,0,0,0.083333,3.9475e-16,0,0.66667
0.13003,0.17012,1.5603,-0.49481,-93.235,1253.1,2.0589,-0.68629,-1.1265,2.7452,8.7092e-09,-0.56325,0,0,0.083333,-0,-0,0.66667
0.019367,0.14803,0.2324,-0.52795,-101.17,1508.1,0.32719,-0.10907,-1.008,0.43625,-7.9373e-06,-0.50402,0,0,0.083333,-0,-0,0.66667
0.67884,0.90997,8.146,0.61495,63.544,219.04,-13.358,4.4528,-0.65206,-17.811,3.6238e-12,-0.32603,0,0,0.083333,-0,-0,0.66667
0.21163,0.77616,2.5395,0.41424,75.804,1069.3,-2.8053,0.93509,-1.3863,-3.7404,-8.0151e-12,-0.69314,0,0,0.083333,1.2531e-16,0,0.66667
0.26555,0.28807,3.1866,-0.3179,-56.58,951.19,2.7013,-0.90045,-1.6482,3.6018,3.364e-13,-0.82411,0,0,0.083333,-0,-0,0.66667
0.49157,0.74725,5.8989,0.37088,53.838,503.65,-5.834,1.9447,-1.5077,-7.7787,-1.8545e-12,-0.75384,0,0,0.083333,3.9475e-16,0,0.66667
0.053363,0.86256,0.64035,0.54385,103.97,1429.3,-0.92867,0.30956,-0.9443,-1.2382,6.006e-07,-0.47215,0,0,0.083333,-1.6188e-16,0,0.66667
0.57412,0.61368,6.8894,0.17051,21.853,365.89,-3.1326,1.0442,-1.8951,-4.1769,1.0834e-12,-0.94753,0,0,0.083333,-0,-0,0.66667
0.14673,0.9395,1.7607,0.65924,123.76,1215.2,-3.0954,1.0318,-0.45213,-4.1271,-4.3806e-08,-0.22606,0,0,0.083333,-0,-0,0.66667
0.58931,0.60561,7.0717,0.15841,19.764,342.48,-2.9873,0.99578,-1.9086,-3.9831,1.328e-12,-0.95429,0,0,0.083333,-0,-0,0.66667
0.69976,0.10229,8.3971,-0.59657,-58.327,193.34,13.359,-4.4528,-0.73427,17.811,-2.661e-12,-0.36713,0,0,0.083333,-0,-0,0.66667
0.10233,0.98938,1.228,0.73408,139.45,1316.6,-2.4039,0.80129,-0.07984,-3.2052,-1.6593e-07,-0.03992,0,0,0.083333,1.9737e-16,0,0.66667
0.41406,0.98682,4.9687,0.73022,116.14,647.67,-9.6753,3.2251,-0.09965,-12.9,9.2015e-13,-0.049825,0,0,0.083333,-7.8949e-16,0,0.66667
0.6944,0.90075,8.3328,0.60113,59.638,199.79,-13.358,4.4525,-0.71159,-17.81,-2.4212e-12,-0.35579,0,0,0.083333,-1.1842e-15,0,0.66667
0.41418,0.73179,4.9702,0.34769,55.145,646.52,-4.6082,1.5361,-1.5658,-6.1442,-9.7478e-13,-0.78288,0,0,0.083333,-0,-0,0.66667
0.049953,0.96362,0.59944,0.69543,133.13,1437.3,-1.1117,0.37055,-0.28103,-1.4822,-3.4718e-07,-0.14051,0,0,0.083333,9.8686e-17,0,0.66667
0.5359,0.99431,6.4308,0.74146,101.47,428.95,-12.715,4.2384,-0.043404,-16.954,-2.7072e-12,-0.021702,0,0,0.083333,1.1842e-15,0,0.66667
0.66379,0.020758,7.9655,-0.71886,-77.172,238.79,15.27,-5.0899,-0.15834,20.36,4.9116e-13,-0.07917,0,0,0.083333,-0,-0,0.66667
0.51489,0.16433,6.1787,-0.50351,-70.883,463.47,8.296,-2.7653,-1.1041,11.061,3.0136e-12,-0.55207,0,0,0.083333,-1.579e-15,0,0.66667
0.94459,0.88471,11.335,0.57707,11.8,9.5615,-17.443,5.8144,-0.81183,-23.258,-2.3986e-06,-0.40591,0,0,0.083333,1.579e-15,0,0.66667
0.58656,0.11667,7.0387,-0.575,-72.279,347.62,10.793,-3.5975,-0.82041,14.39,-5.2758e-13,-0.4102,0,0,0.083333,-0,-0,0.66667
0.9034,0.45466,10.841,-0.068006,-2.3614,22.471,1.966,-0.65533,-1.9838,2.6213,-1.5571e-08,-0.99191,0,0,0.083333,-0,-0,0.66667
0.13747,0.83135,1.6497,0.49702,93.462,1236.1,-2.1865,0.72883,-1.1214,-2.9153,-1.0631e-08,-0.56072,0,0,0.083333,1.9737e-16,0,0.66667
0.13928,0.69424,1.6713,0.29136,54.712,1231.9,-1.2986,0.43285,-1.7023,-1.7314,-2.2754e-09,-0.85113,0,0,0.083333,-0,-0,0.66667
0.80739,0.69526,9.6887,0.29288,19.431,83.63,-7.5671,2.5224,-1.6924,-10.089,-6.5927e-11,-0.84618,0,0,0.083333,-0,-0,0.66667
0.39768,0.57866,4.7721,0.11799,19.004,678.32,-1.5015,0.5005,-1.9461,-2.002,-2.4425e-13,-0.97307,0,0,0.083333,-7.8949e-16,0,0.66667
0.16535,0.083831,1.9843,-0.62425,-116.47,1173,3.3031,-1.101,-0.6105,4.4042,-9.9545e-09,-0.30525,0,0,0.083333,-0,-0,0.66667
0.92751,0.26774,11.13,-0.34839,-9.1872,13.648,10.34,-3.4468,-1.5649,13.787,-2.5445e-07,-0.78245,0,0,0.083333,1.579e-15,0,0.66667
0.34777,0.76325,4.1732,0.39487,66.48,778.43,-4.3944,1.4648,-1.4439,-5.8592,7.7716e-13,-0.72196,0,0,0.083333,7.8949e-16,0,0.66667
0.75081,0.874,9.0097,0.56101,46.849,136.68,-13.479,4.4929,-0.8874,-17.972,6.6642e-11,-0.4437,0,0,0.083333,2.1711e-15,0,0.66667
0.726,0.49922,8.712,-0.0011652,-0.10512,161.84,0.027071,-0.0090236,-1.9971,0.036094,-2.9175e-12,-0.99856,0,0,0.083333,1.579e-15,0,0.66667
0.88331,0.57864,10.6,0.11796,4.9103,32.203,-3.3343,1.1114,-1.9461,-4.4457,5.5585e-09,-0.97305,0,0,0.083333,-0,-0,0.66667
0.62367,0.62708,7.4841,0.19062,22.26,291.88,-3.8044,1.2681,-1.8757,-5.0725,3.644e-12,-0.93784,0,0,0.083333,-0,-0,0.66667
0.75094,0.38512,9.0113,-0.17233,-14.333,135.4,4.141,-1.3803,-1.8992,5.5214,4.0217e-12,-0.94961,0,0,0.083333,-0,-0,0.66667
0.3489,0.51957,4.1868,0.029352,4.9325,775.83,-0.32771,0.10924,-1.9939,-0.43695,5.2417e-12,-0.99697,0,0,0.083333,-0,-0,0.66667
0.26993,0.39182,3.2391,-0.16228,-28.797,941.64,1.4017,-0.46723,-1.9043,1.8689,1.3987e-11,-0.95213,0,0,0.083333,3.9475e-16,0,0.66667
0.89589,0.25282,10.751,-0.37077,-13.888,26.534,10.629,-3.5431,-1.5091,14.173,-4.9868e-08,-0.75457,0,0,0.083333,-3.158e-15,0,0.66667
0.42809,0.5703,5.1371,0.10546,16.477,619.68,-1.4446,0.48155,-1.9569,-1.9262,-9.9681e-12,-0.97845,0,0,0.083333,7.8949e-16,0,0.66667
0.96484,0.92833,11.578,0.64249,8.4222,5.5368,-19.837,6.6123,-0.53105,-26.449,6.9039e-06,-0.26553,0,0,0.083333,-0,-0,0.66667
0.66344,0.16741,7.9613,-0.49889,-53.463,238.3,10.591,-3.5305,-1.1108,14.122,2.8031e-12,-0.5554,0,0,0.083333,-1.579e-15,0,0.66667
0.6217,0.76088,7.4603,0.39132,45.928,295.09,-7.7851,2.595,-1.4551,-10.38,-2.9976e-12,-0.72755,0,0,0.083333,-0,-0,0.66667
0.11475,0.42252,1.377,-0.11621,-21.953,1287.8,0.42672,-0.14224,-1.9487,0.56897,6.8465e-09,-0.97433,0,0,0.083333,-0,-0,0.66667
0.94949,0.59068,11.394,0.13602,2.4949,6.7317,-4.1328,1.3776,-1.9342,-5.5104,8.2914e-09,-0.9671,0,0,0.083333,-1.9737e-15,0,0.66667
0.44991,0.59821,5.3989,0.14731,22.476,578.75,-2.1209,0.70697,-1.9233,-2.8279,-6.2954e-12,-0.96165,0,0,0.083333,-0,-0,0.66667
0.57839,0.016081,6.9407,-0.72588,-92.718,360.78,13.435,-4.4783,-0.13304,17.913,-1.3394e-12,-0.066521,0,0,0.083333,-0,-0,0.66667
0.40814,0.79667,4.8976,0.44501,71.041,658.36,-5.812,1.9373,-1.2982,-7.7493,1.1329e-12,-0.64908,0,0,0.083333,-0,-0,0.66667
0.23703,0.047652,2.8443,-0.67852,-122.89,1013.7,5.1465,-1.7155,-0.36369,6.862,-8.0357e-11,-0.18184,0,0,0.083333,-0,-0,0.66667
0.90338,0.069426,10.841,-0.64586,-22.708,24.469,18.671,-6.2235,-0.51759,24.894,6.6164e-08,-0.2588,0,0,0.083333,-0,7.2946e-17,0.66667
0.57368,0.45803,6.8842,-0.062959,-8.0733,366.5,1.1558,-0.38526,-1.9838,1.541,-5.6599e-13,-0.99189,0,0,0.083333,-7.8949e-16,0,0.66667
0.0028703,0.76336,0.034444,0.39504,75.681,1546.3,-0.036283,0.012092,-1.4454,-0.048378,-2.8379e-06,-0.72269,0,0,0.083333,-0,-0,0.66667
0.61714,0.86404,7.4057,0.54606,64.762,302.11,-10.784,3.5946,-0.93547,-14.379,-1.7675e-12,-0.46774,0,0,0.083333,-0,-0,0.66667
0.32664,0.70793,3.9197,0.31189,53.343,821.79,-3.2601,1.0867,-1.6575,-4.3468,-2.0985e-12,-0.82876,0,0,0.083333,-0,-0,0.66667
0.52706,0.94802,6.3247,0.67203,93.109,443.41,-11.334,3.7781,-0.39247,-15.112,-4.9507e-12,-0.19623,0,0,0.083333,1.579e-15,0,0.66667
0.88594,0.046994,10.631,-0.67951,-27.993,32.954,19.264,-6.4214,-0.35569,25.686,4.2777e-08,-0.17784,0,0,0.083333,1.579e-15,0,0.66667
0.35727,0.87399,4.2872,0.56098,93.816,759.4,-6.4135,2.1378,-0.88433,-8.5514,3.5496e-12,-0.44217,0,0,0.083333,-2.4672e-16,-9.2404e-17,0.66667
0.90854,0.80798,10.902,0.46198,15.316,21.276,-13.431,4.477,-1.2434,-17.908,3.231e-08,-0.62171,0,0,0.083333,1.9737e-15,0,0.66667
0.62336,0.040489,7.4803,-0.68927,-80.853,293.79,13.749,-4.5831,-0.31392,18.332,1.477e-12,-0.15696,0,0,0.083333,-0,-0,0.66667
0.015821,0.82076,0.18985,0.48114,92.191,1516.3,-0.24359,0.081195,-1.1839,-0.32478,-5.5465e-07,-0.59197,0,0,0.083333,-0,-0,0.66667
0.92944,0.52135,11.153,0.032029,0.81859,12.407,-0.9526,0.31753,-1.9921,-1.2701,5.1001e-08,-0.99606,0,0,0.083333,-0,-0,0.66667
0.6909,0.64605,8.2908,0.21908,21.868,202.88,-4.8436,1.6145,-1.8288,-6.4581,1.5614e-12,-0.91441,0,0,0.083333,-7.8949e-16,0,0.66667
0.99732,0.52553,11.968,0.038299,0.017038,0.069945,-1.2223,0.40743,-1.9961,-1.6297,1.3507e-06,-0.99803,0,0,0.083333,-0,-0,0.66667
0.17234,0.77014,2.0681,0.40521,75.323,1157.1,-2.2347,0.7449,-1.4222,-2.9796,1.8753e-10,-0.71111,0,0,0.083333,-1.9737e-16,0,0.66667
0.13714,0.44245,1.6456,-0.086328,-16.214,1236.7,0.37884,-0.12628,-1.9734,0.50511,2.7063e-09,-0.98671,0,0,0.083333,3.9475e-16,0,0.66667
0.9326,0.1066,11.191,-0.5901,-14.628,13.111,17.61,-5.8701,-0.7591,23.48,-2.9121e-07,-0.37955,0,0,0.083333,-0,-0,0.66667
0.69682,0.7649,8.3618,0.39735,39.08,196.12,-8.8601,2.9534,-1.4346,-11.813,4.5031e-13,-0.7173,0,0,0.083333,-0,-0,0.66667
0.066,0.68562,0.792,0.27842,53.085,1400.1,-0.58803,0.19601,-1.7248,-0.78405,-2.3303e-07,-0.86239,0,0,0.083333,1.3569e-16,0,0.66667
0.75546,0.78652,9.0656,0.42977,35.254,131.45,-10.39,3.4632,-1.3406,-13.853,-5.4268e-13,-0.6703,0,0,0.083333,-0,-0,0.66667
0.75388,0.82434,9.0465,0.48651,40.158,133.25,-11.737,3.9122,-1.157,-15.649,2.172e-11,-0.57851,0,0,0.083333,-0,-0,0.66667
0.92302,0.66459,11.076,0.24688,6.8882,14.91,-7.2921,2.4307,-1.7877,-9.7228,1.4503e-07,-0.89385,0,0,0.083333,-0,-0,0.66667
0.71152,0.45153,8.5383,-0.072711,-6.8508,178.22,1.6555,-0.55185,-1.9768,2.2074,-2.3189e-12,-0.98841,0,0,0.083333,-0,-0,0.66667
0.12427,0.41282,1.4913,-0.13077,-24.646,1266.1,0.52002,-0.17334,-1.9449,0.69336,5.4421e-09,-0.97247,0,0,0.083333,-3.9475e-16,0,0.66667
0.01988,0.41813,0.23856,-0.12281,-23.5,1506.9,0.078128,-0.026043,-1.9444,0.10417,-4.8401e-07,-0.97221,0,0,0.083333,-4.9343e-17,0,0.66667
0.026211,0.61218,0.31453,0.16828,32.194,1492.2,-0.14114,0.047048,-1.8964,-0.18819,8.6032e-07,-0.94819,0,0,0.083333,-0,-0,0.66667
0.028306,0.29358,0.33968,-0.30963,-59.251,1487.3,0.28046,-0.093489,-1.6593,0.37395,-1.9626e-06,-0.82964,0,0,0.083333,-0,-0,0.66667
0.24621,0.89366,2.9545,0.59049,106.37,993.46,-4.6524,1.5508,-0.75893,-6.2031,2.115e-10,-0.37947,0,0,0.083333,3.9475e-16,0,0.66667
0.86003,0.69778,10.32,0.29667,14.684,45.817,-8.1647,2.7216,-1.6926,-10.886,2.0508e-09,-0.84631,0,0,0.083333,-0,-0,0.66667
0.53883,0.42705,6.466,-0.10943,-14.848,422.56,1.8868,-0.62894,-1.9531,2.5158,1.1802e-12,-0.97657,0,0,0.083333,-7.8949e-16,0,0.66667
0.55282,0.46517,6.6339,-0.052249,-6.9356,399.66,0.92429,-0.3081,-1.9875,1.2324,2.3986e-13,-0.99375,0,0,0.083333,-9.8686e-16,0,0.66667
0.84203,0.49463,10.104,-0.008057,-0.44543,57.153,0.2171,-0.072366,-2.0032,0.28946,7.6727e-10,-1.0016,0,0,0.083333,-3.9475e-16,0,0.66667
0.12417,0.052057,1.4901,-0.67191,-126.94,1266.6,2.6699,-0.88996,-0.39986,3.5598,4.74e-08,-0.19993,0,0,0.083333,-0,-0,0.66667
0.27918,0.28218,3.3502,-0.32673,-57.689,921.88,2.919,-0.973,-1.6238,3.892,5.5751e-12,-0.8119,0,0,0.083333,-7.8949e-16,0,0.66667
0.58576,0.087677,7.0291,-0.61848,-77.889,349,11.593,-3.8644,-0.63609,15.457,-4.7704e-12,-0.31804,0,0,0.083333,3.9475e-16,0,0.66667
0.9696,0.42581,11.635,-0.11128,-1.216,2.6891,3.4528,-1.1509,-1.9609,4.6037,5.3922e-07,-0.98046,0,0,0.083333,-0,-0,0.66667
0.56103,0.82255,6.7324,0.48383,63.492,387.17,-8.6862,2.8954,-1.1711,-11.582,-4.631e-12,-0.58557,0,0,0.083333,-0,-0,0.66667
0.018647,0.95834,0.22377,0.68752,131.89,1509.8,-0.41023,0.13676,-0.31941,-0.54697,2.2727e-05,-0.15971,0,0,0.083333,-0,-0,0.66667
0.80063,0.53649,9.6076,0.054737,3.741,88.894,-1.4024,0.46746,-1.9888,-1.8698,-1.1161e-10,-0.99439,0,0,0.083333,-1.579e-15,0,0.66667
0.23297,0.36165,2.7957,-0.20753,-37.571,1022,1.5472,-0.51572,-1.8503,2.0629,-1.5646e-12,-0.92516,0,0,0.083333,3.9475e-16,0,0.66667
0.80711,0.7965,9.6853,0.44475,29.598,84.346,-11.487,3.8289,-1.2934,-15.316,-1.7237e-10,-0.64668,0,0,0.083333,-0,-0,0.66667
0.38786,0.95404,4.6543,0.68106,111.02,698.55,-8.453,2.8177,-0.35122,-11.271,6.9384e-12,-0.17561,0,0,0.083333,-7.8949e-16,-9.835e-17,0.66667
0.86354,0.49395,10.363,-0.0090723,-0.43765,43.271,0.2507,-0.083566,-1.9984,0.33426,-6.6494e-09,-0.99921,0,0,0.083333,-7.8949e-16,0,0.66667
0.74712,0.21536,8.9655,-0.42696,-36.049,139.94,10.208,-3.4026,-1.3531,13.61,1.5472e-12,-0.67654,0,0,0.083333,2.2119e-16,0,0.66667
0.55624,0.57963,6.6749,0.11945,15.77,394.18,-2.1261,0.70871,-1.9453,-2.8348,-1.0529e-12,-0.97264,0,0,0.083333,7.8949e-16,0,0.66667
0.13646,0.13934,1.6375,-0.54099,-101.79,1238.5,2.3623,-0.78743,-0.95747,3.1497,-3.0416e-09,-0.47873,0,0,0.083333,1.9737e-16,0,0.66667
0.059918,0.79638,0.71901,0.44457,84.882,1414.2,-0.8524,0.28413,-1.2981,-1.1365,-3.2811e-08,-0.64903,0,0,0.083333,-0,-0,0.66667
0.12134,0.67439,1.4561,0.26159,49.352,1272.8,-1.0158,0.33859,-1.7556,-1.3543,-6.4984e-09,-0.87779,0,0,0.083333,-1.9737e-16,0,0.66667
0.044552,0.78309,0.53462,0.42464,81.2,1449.7,-0.60538,0.20179,-1.3615,-0.80718,-1.5354e-06,-0.68076,0,0,0.083333,-0,-0,0.66667
0.10749,0.66305,1.2899,0.24457,46.288,1304.5,-0.84128,0.28043,-1.7901,-1.1217,-2.6527e-08,-0.89507,0,0,0.083333,3.9475e-16,0,0.66667
0.22571,0.069303,2.7085,-0.64604,-117.62,1038.5,4.6662,-1.5554,-0.51221,6.2216,-4.0245e-10,-0.25611,0,0,0.083333,-0,-0,0.66667
0.71299,0.38368,8.5559,-0.17448,-16.374,176.63,3.9808,-1.3269,-1.8884,5.3078,-1.8241e-12,-0.94421,0,0,0.083333,-0,-0,0.66667
0.55972,0.083583,6.7166,-0.62462,-82.245,389.73,11.188,-3.7292,-0.61337,14.917,2.4487e-12,-0.30668,0,0,0.083333,-7.8949e-16,-1.3156e-16,0.66667
0.012556,0.90984,0.15067,0.61475,117.9,1523.9,-0.24699,0.082297,-0.6571,-0.32934,-5.0385e-05,-0.32855,0,0,0.083333,4.9343e-17,-1.1744e-16,0.66667
0.071974,0.96087,0.86369,0.69131,131.98,1386.4,-1.5922,0.53073,-0.29723,-2.123,-7.9216e-06,-0.14861,0,0,0.083333,4.9343e-17,0,0.66667
0.96728,0.87002,11.607,0.55503,6.7138,4.5859,-17.18,5.7265,-0.90874,-22.906,-2.894e-06,-0.45437,0,0,0.083333,1.1842e-15,0,0.66667
0.5681,0.29118,6.8172,-0.31323,-40.58,375.55,5.6943,-1.8981,-1.6478,7.5923,8.5265e-13,-0.82392,0,0,0.083333,-0,-0,0.66667
0.20329,0.30427,2.4395,-0.29359,-53.895,1087.7,1.9099,-0.63665,-1.7006,2.5466,-5.3566e-11,-0.85032,0,0,0.083333,-0,-0,0.66667
0.25233,0.6315,3.0279,0.19724,35.352,979.74,-1.5926,0.53087,-1.8636,-2.1235,1.6922e-12,-0.93178,0,0,0.083333,-0,-0,0.66667
0.74383,0.86372,8.9259,0.54558,46.645,143.82,-12.986,4.3287,-0.93783,-17.315,-2.92e-11,-0.46892,0,0,0.083333,-7.8949e-16,0,0.66667
0.19543,0.70603,2.3452,0.30905,56.921,1105.2,-1.9327,0.64423,-1.656,-2.5769,6.6616e-11,-0.828,0,0,0.083333,1.9737e-16,0,0.66667
0.58136,0.27133,6.9763,-0.34301,-43.441,354.93,6.3812,-2.1271,-1.5814,8.5083,-9.0994e-13,-0.79072,0,0,0.083333,-0,-0,0.66667
0.97002,0.50071,11.64,0.0010632,0.011435,2.5597,-0.033003,0.010999,-2.0053,-0.044005,-3.4022e-06,-1.0026,0,0,0.083333,-0,-0,0.66667
0.84683,0.79527,10.162,0.4429,23.887,54.785,-12.002,4.0006,-1.3024,-16.003,-1.6538e-09,-0.65119,0,0,0.083333,-1.579e-15,0,0.66667
0.23985,0.60418,2.8782,0.15627,28.191,1006.9,-1.1994,0.3998,-1.9099,-1.5992,1.5932e-13,-0.95497,0,0,0.083333,-0,-0,0.66667
0.49377,0.38588,5.9252,-0.17118,-24.759,499.49,2.7047,-0.90158,-1.892,3.6063,5.4488e-12,-0.94599,0,0,0.083333,-7.8949e-16,0,0.66667
0.61996,0.74546,7.4395,0.36819,43.359,297.53,-7.3044,2.4348,-1.5158,-9.7392,-2.4243e-12,-0.75792,0,0,0.083333,-0,-0,0.66667
0.82898,0.13694,9.9478,-0.54459,-32.556,67.763,14.447,-4.8156,-0.9504,19.262,-1.4413e-09,-0.4752,0,0,0.083333,-1.579e-15,0,0.66667
0.15679,0.99325,1.8815,0.73987,138.55,1192.5,-3.7122,1.2374,-0.059894,-4.9495,8.9568e-09,-0.029947,0,0,0.083333,9.8686e-17,0,0.66667
0.018576,0.083942,0.22291,-0.62409,-119.67,1509.9,0.37097,-0.12366,-0.61541,0.49463,-1.0099e-05,-0.30771,0,0,0.083333,-0,-0,0.66667
0.070022,0.79263,0.84027,0.43894,83.695,1390.8,-0.98353,0.32784,-1.3106,-1.3114,-2.9858e-07,-0.65531,0,0,0.083333,-1.9737e-16,0,0.66667
0.48635,0.22987,5.8361,-0.4052,-59.229,512.97,6.3062,-2.1021,-1.4184,8.4082,-2.2164e-12,-0.70922,0,0,0.083333,-0,-0,0.66667
0.60633,0.37903,7.276,-0.18145,-21.931,317.01,3.5205,-1.1735,-1.8838,4.6941,-3.9868e-12,-0.94188,0,0,0.083333,1.579e-15,0,0.66667
0.56885,0.14636,6.8262,-0.53046,-68.736,374.92,9.656,-3.2187,-0.99569,12.875,3.6753e-12,-0.49784,0,0,0.083333,-7.8949e-16,0,0.66667
0.31736,0.37352,3.8083,-0.18972,-32.653,841.01,1.9267,-0.64223,-1.8706,2.5689,-1.2766e-12,-0.93531,0,0,0.083333,-9.8686e-17,0,0.66667
0.98862,0.025421,11.863,-0.71187,-3.0529,3.1628,22.52,-7.5069,-0.19702,30.027,-0.00011651,-0.09851,0,0,0.083333,-1.579e-15,0,0.66667
0.57975,0.7844,6.9569,0.4266,54.209,357.62,-7.9141,2.638,-1.3569,-10.552,2.7707e-12,-0.67846,0,0,0.083333,-1.579e-15,0,0.66667
0.38014,0.34034,4.5617,-0.2395,-39.213,713,2.9134,-0.97112,-1.794,3.8845,1.7357e-12,-0.897,0,0,0.083333,-9.8686e-17,0,0.66667
0.55095,0.34642,6.6114,-0.23037,-30.683,402.84,4.0615,-1.3538,-1.8107,5.4154,1.6502e-12,-0.90534,0,0,0.083333,-0,-0,0.66667
0.74533,0.65726,8.944,0.23588,20.006,141.29,-5.626,1.8753,-1.8011,-7.5014,-4.9876e-12,-0.90054,0,0,0.083333,-0,-0,0.66667
0.66923,0.98039,8.0308,0.72058,76.355,231.76,-15.432,5.1438,-0.15461,-20.575,1.8732e-12,-0.077304,0,0,0.083333,-0,-0,0.66667
0.26492,0.49757,3.179,-0.0036445,-0.64851,952.4,0.030896,-0.010299,-2.0064,0.041195,-8.0763e-12,-1.0032,0,0,0.083333,-9.8686e-17,0,0.66667
0.066335,0.40013,0.79602,-0.1498,-28.552,1399.3,0.31799,-0.106,-1.9194,0.42398,1.1445e-07,-0.9597,0,0,0.083333,-0,-0,0.66667
0.37008,0.11586,4.441,-0.57621,-95.342,733.62,6.8238,-2.2746,-0.81693,9.0985,2.8439e-12,-0.40847,0,0,0.083333,-3.9475e-16,0,0.66667
0.62972,0.21454,7.5566,-0.4282,-49.444,283.82,8.6286,-2.8762,-1.3464,11.505,-3.3662e-12,-0.67318,0,0,0.083333,-3.9475e-16,0,0.66667
0.21017,0.31647,2.5221,-0.2753,-50.383,1072.4,1.8515,-0.61718,-1.7271,2.4687,-6.0478e-11,-0.86356,0,0,0.083333,-0,-0,0.66667
0.75276,0.78244,9.0331,0.42366,35.082,134.16,-10.205,3.4017,-1.3637,-13.607,-1.5268e-12,-0.68186,0,0,0.083333,-3.158e-15,0,0.66667
0.066536,0.79272,0.79844,0.43907,83.761,1398.9,-0.93486,0.31162,-1.3129,-1.2465,-3.0598e-07,-0.65646,0,0,0.083333,-0,-0,0.66667
0.26032,0.77512,3.1238,0.41268,73.698,962.59,-3.4377,1.1459,-1.3918,-4.5836,-9.1196e-12,-0.69591,0,0,0.083333,-0,-0,0.66667
0.80475,0.67466,9.6571,0.262,17.591,85.728,-6.747,2.249,-1.7515,-8.9959,-6.1589e-11,-0.87576,0,0,0.083333,-0,-0,0.66667
0.19343,0.05046,2.3212,-0.67431,-124.55,1110.1,4.1739,-1.3913,-0.3796,5.5652,-1.564e-09,-0.1898,0,0,0.083333,-0,-0,0.66667
0.63946,0.055376,7.6735,-0.66694,-75.609,271.15,13.647,-4.5491,-0.42299,18.196,6.9811e-13,-0.2115,0,0,0.083333,-0,-6.9475e-17,0.66667
0.52467,0.41447,6.296,-0.1283,-17.779,446.21,2.154,-0.71801,-1.9377,2.872,2.7196e-12,-0.96884,0,0,0.083333,-0,-0,0.66667
0.92481,0.049945,11.098,-0.67508,-18.685,16.226,19.978,-6.6594,-0.37976,26.638,-4.8599e-06,-0.18988,0,0,0.083333,-0,-0,0.66667
0.2633,0.1957,3.1596,-0.45646,-81.396,956.2,3.8459,-1.282,-1.2609,5.1278,-1.5734e-11,-0.63044,0,0,0.083333,-0,-0,0.66667
0.065961,0.014927,0.79153,-0.72761,-139.07,1400.3,1.5358,-0.51193,-0.11681,2.0477,-1.8038e-07,-0.058403,0,0,0.083333,-1.9737e-16,0,0.66667
0.73507,0.81244,8.8208,0.46866,41.196,152.8,-11.024,3.6746,-1.226,-14.698,-1.7082e-11,-0.61301,0,0,0.083333,-6.2913e-16,0,0.66667
0.77218,0.33477,9.2661,-0.24785,-19.084,114.63,6.1242,-2.0414,-1.7777,8.1657,1.5081e-11,-0.88886,0,0,0.083333,-0,-0,0.66667
0.90782,0.26441,10.894,-0.35339,-11.773,21.149,10.266,-3.422,-1.559,13.688,-3.2418e-08,-0.7795,0,0,0.083333,-0,-0,0.66667
0.93197,0.019914,11.184,-0.72013,-18.139,14.155,21.476,-7.1588,-0.1528,28.635,-1.9823e-06,-0.076399,0,0,0.083333,-0,-0,0.66667
0.013952,0.031277,0.16742,-0.70308,-134.92,1520.7,0.31388,-0.10456,-0.24681,0.41854,9.5461e-05,-0.1234,0,0,0.083333,4.9343e-17,0,0.66667
0.23436,0.086751,2.8123,-0.61987,-112.36,1019.4,4.6488,-1.5496,-0.64153,6.1984,3.642e-10,-0.32076,0,0,0.083333,-3.9475e-16,6.8611e-17,0.66667
0.61678,0.47309,7.4013,-0.040361,-4.7778,301.66,0.79659,-0.26553,-1.9907,1.0621,-4.054e-13,-0.99533,0,0,0.083333,-0,-0,0.66667
0.94902,0.076726,11.388,-0.63491,-12.008,8.7942,19.281,-6.4271,-0.56487,25.708,8.0106e-07,-0.28244,0,0,0.083333,1.579e-15,2.9287e-17,0.66667
0.95018,0.57818,11.402,0.11728,2.1211,6.5413,-3.5658,1.1886,-1.9512,-4.7545,-5.5461e-09,-0.97558,0,0,0.083333,-0,-0,0.66667
0.55665,0.69103,6.6798,0.28655,37.826,393.72,-5.1042,1.7014,-1.7053,-6.8056,2.685e-12,-0.85267,0,0,0.083333,-0,-0,0.66667
0.91561,0.67466,10.987,0.26199,7.9978,17.718,-7.6761,2.5587,-1.752,-10.235,6.8127e-08,-0.87599,0,0,0.083333,1.579e-15,0,0.66667
0.64157,0.022684,7.6988,-0.71597,-80.848,268.49,14.699,-4.8997,-0.18229,19.599,-1.9096e-12,-0.091146,0,0,0.083333,-0,-0,0.66667
0.39001,0.92783,4.6801,0.64175,104.37,694.21,-8.0092,2.6697,-0.54138,-10.679,9.0443e-12,-0.27069,0,0,0.083333,-0,-8.4333e-17,0.66667
0.48599,0.037084,5.8319,-0.69437,-101.77,514.42,10.799,-3.5996,-0.28924,14.398,2.1956e-12,-0.14462,0,0,0.083333,-0,-0,0.66667
0.60431,0.18248,7.2517,-0.47628,-57.884,320.62,9.2102,-3.0701,-1.1912,12.28,4.5626e-12,-0.59561,0,0,0.083333,-4.3167e-16,0,0.66667
0.54955,0.60082,6.5946,0.15123,20.183,405.03,-2.6595,0.8865,-1.9198,-3.546,2.5602e-13,-0.95989,0,0,0.083333,-0,-0,0.66667
0.92618,0.76435,11.114,0.39653,10.659,14.277,-11.752,3.9174,-1.4388,-15.67,2.4904e-07,-0.71942,0,0,0.083333,-0,-0,0.66667
0.91873,0.23191,11.025,-0.40214,-11.872,16.978,11.823,-3.9409,-1.4248,15.764,-7.4696e-08,-0.71238,0,0,0.083333,-1.579e-15,0,0.66667
0.39488,0.80231,4.7385,0.45346,73.321,684.21,-5.7299,1.91,-1.2671,-7.6399,1.9003e-12,-0.63353,0,0,0.083333,-0,-0,0.66667
0.96326,0.9542,11.559,0.6813,9.3652,6.0807,-21.001,7.0003,-0.34619,-28.001,2.4187e-05,-0.17309,0,0,0.083333,-1.579e-15,0,0.66667
0.17396,0.49282,2.0875,-0.010764,-1.9978,1153.3,0.059917,-0.019972,-2.0019,0.07989,2.167e-10,-1.001,0,0,0.083333,5.9212e-16,0,0.66667
0.12633,0.56279,1.516,0.094185,17.741,1261.3,-0.38075,0.12692,-1.9737,-0.50766,-1.4225e-09,-0.98685,0,0,0.083333,-3.9475e-16,0,0.66667
0.13508,0.38654,1.6209,-0.17019,-31.986,1241.4,0.73565,-0.24522,-1.8936,0.98086,2.4619e-09,-0.94682,0,0,0.083333,-0,-0,0.66667
0.50566,0.27933,6.0679,-0.331,-47.147,478.95,5.356,-1.7853,-1.6082,7.1413,6.9589e-12,-0.80409,0,0,0.083333,-1.1842e-15,0,0.66667
0.021525,0.19526,0.2583,-0.45711,-87.557,1503.1,0.31485,-0.10496,-1.2537,0.4198,-6.3961e-06,-0.62686,0,0,0.083333,-0,-0,0.66667
0.94797,0.55603,11.376,0.084049,1.5872,7.0492,-2.5496,0.84988,-1.9724,-3.3995,8.1507e-09,-0.98618,0,0,0.083333,-0,-0,0.66667
0.82712,0.79877,9.9254,0.44815,27.012,68.721,-11.862,3.9539,-1.2903,-15.815,1.207e-12,-0.64517,0,0,0.083333,-1.579e-15,0,0.66667
0.015019,0.87567,0.18023,0.56351,108.03,1518.2,-0.27082,0.090263,-0.87799,-0.36109,-1.288e-05,-0.439,0,0,0.083333,-4.9343e-17,0,0.66667
0.1762,0.039335,2.1144,-0.691,-128.49,1148.7,3.896,-1.2987,-0.30056,5.1947,-4.153e-10,-0.15028,0,0,0.083333,-0,-0,0.66667
0.33206,0.4427,3.9848,-0.085955,-14.634,810.41,0.91336,-0.30445,-1.9729,1.2178,1.1073e-11,-0.98645,0,0,0.083333,-0,-0,0.66667
0.131,0.50089,1.572,0.0013316,0.25051,1250.7,-0.0055821,0.0018607,-1.9977,-0.0074428,-4.2694e-09,-0.99884,0,0,0.083333,-0,-0,0.66667
0.80949,0.9747,9.7139,0.71206,47.088,83.738,-18.445,6.1483,-0.19785,-24.593,-5.7149e-10,-0.098926,0,0,0.083333,-0,-0,0.66667
0.34474,0.29184,4.1368,-0.31224,-52.675,784.51,3.4445,-1.1482,-1.658,4.5927,8.0735e-13,-0.829,0,0,0.083333,-0,-0,0.66667
0.94011,0.84743,11.281,0.52114,11.469,10.479,-15.678,5.2259,-1.0361,-20.904,-5.7769e-07,-0.51804,0,0,0.083333,-0,-0,0.66667
0.58201,0.85033,6.9842,0.52549,66.561,354.41,-9.7869,3.2623,-1.0172,-13.049,1.7444e-12,-0.50862,0,0,0.083333,-0,-0,0.66667
0.87883,0.39457,10.546,-0.15814,-6.8242,34.637,4.4474,-1.4825,-1.9098,5.9298,-7.0635e-09,-0.95488,0,0,0.083333,-0,-0,0.66667
0.84473,0.6288,10.137,0.1932,10.52,55.476,-5.2225,1.7408,-1.8727,-6.9634,1.5074e-10,-0.93637,0,0,0.083333,-0,-0,0.66667
0.90539,0.41505,10.865,-0.12742,-4.338,21.659,3.6918,-1.2306,-1.9474,4.9224,-3.1642e-08,-0.9737,0,0,0.083333,1.579e-15,0,0.66667
0.45988,0.91288,5.5186,0.61932,93.647,561.25,-9.1141,3.038,-0.63252,-12.152,-2.8182e-12,-0.31626,0,0,0.083333,-0,-0,0.66667
0.54635,0.89228,6.5562,0.58842,79.121,411.18,-10.287,3.4291,-0.77467,-13.716,-5.258e-13,-0.38734,0,0,0.083333,-7.8949e-16,0,0.66667
0.7986,0.060767,9.5832,-0.65885,-45.734,92.45,16.837,-5.6124,-0.46058,22.449,5.4747e-09,-0.23029,0,0,0.083333,1.579e-15,0,0.66667
0.28572,0.024953,3.4286,-0.71257,-125.6,908.53,6.515,-2.1717,-0.19292,8.6867,-6.8221e-12,-0.096462,0,0,0.083333,-3.9475e-16,0,0.66667
0.49025,0.70925,5.883,0.31387,45.628,505.87,-4.9241,1.6414,-1.6462,-6.5654,-2.4851e-12,-0.82311,0,0,0.083333,3.9475e-16,0,0.66667
0.59911,0.031142,7.1893,-0.70329,-86.514,329.2,13.483,-4.4944,-0.23974,17.977,4.178e-12,-0.11987,0,0,0.083333,-6.9081e-16,0,0.66667
0.015533,0.94002,0.1864,0.66003,126.61,1517,-0.32806,0.10933,-0.45913,-0.43743,-3.722e-05,-0.22957,0,0,0.083333,-0,-0,0.66667
0.59348,0.86699,7.1218,0.55048,68.317,337.03,-10.454,3.4848,-0.92942,-13.939,-9.9032e-13,-0.46471,0,0,0.083333,3.9475e-16,8.1751e-17,0.66667
0.43368,0.57866,5.2041,0.118,18.327,609.11,-1.6375,0.54583,-1.9491,-2.1833,-1.1324e-11,-0.97454,0,0,0.083333,7.8949e-16,0,0.66667
0.80736,0.82224,9.6883,0.48336,32.147,84.292,-12.488,4.1626,-1.1664,-16.65,-5.9148e-11,-0.58321,0,0,0.083333,-0,-0,0.66667
0.31524,0.61723,3.7829,0.17584,30.309,845.43,-1.7739,0.59129,-1.8909,-2.3651,-4.0218e-12,-0.94547,0,0,0.083333,-0,-0,0.66667
0.89289,0.51368,10.715,0.020517,0.7867,27.312,-0.58621,0.1954,-2,-0.78161,2.0835e-08,-0.99998,0,0,0.083333,-0,-0,0.66667
0.57786,0.70046,6.9343,0.30069,38.307,360.26,-5.5601,1.8534,-1.685,-7.4135,-1.95e-12,-0.84252,0,0,0.083333,-0,-0,0.66667
0.18401,0.33289,2.2081,-0.25067,-46.369,1130.8,1.476,-0.49201,-1.7759,1.968,-8.2052e-11,-0.88793,0,0,0.083333,-0,-0,0.66667
0.78793,0.74957,9.4552,0.37435,27.089,100.49,-9.4388,3.1463,-1.4991,-12.585,-4.1416e-12,-0.74956,0,0,0.083333,1.9737e-16,0,0.66667
0.61203,0.16101,7.3444,-0.50849,-60.899,309.39,9.9588,-3.3196,-1.0821,13.278,3.67e-12,-0.54106,0,0,0.083333,-0,-0,0.66667
0.053909,0.075316,0.64691,-0.63703,-121.85,1428.1,1.0989,-0.36631,-0.55284,1.4652,-5.4312e-06,-0.27642,0,0,0.083333,-0,-0,0.66667
0.42019,0.076161,5.0423,-0.63576,-100.41,635.61,8.5485,-2.8495,-0.56565,11.398,-5.0564e-12,-0.28283,0,0,0.083333,-0,-9.7127e-17,0.66667
0.67907,0.014685,8.1488,-0.72797,-75.293,219.29,15.819,-5.273,-0.11136,21.092,6.0387e-12,-0.05568,0,0,0.083333,-3.158e-15,0,0.66667
0.9186,0.96902,11.023,0.70354,21.046,18.66,-20.681,6.8935,-0.24125,-27.574,6.9998e-07,-0.12063,0,0,0.083333,-0,3.4371e-18,0.66667
0.00040202,0.73607,0.0048243,0.3541,67.827,1552.1,-0.0045539,0.001516,-1.5603,-0.0060729,-2.9498e-06,-0.78013,0,0,0.083333,-0,-0,0.66667
0.97676,0.16819,11.721,-0.49772,-4.2277,2.9204,15.557,-5.1856,-1.1148,20.742,1.0439e-05,-0.55742,0,0,0.083333,-1.579e-15,0,0.66667
0.37658,0.33489,4.519,-0.24766,-40.679,720.09,2.9844,-0.99482,-1.7852,3.9793,1.3154e-12,-0.89261,0,0,0.083333,-0,-0,0.66667
0.97378,0.62236,11.685,0.18354,1.7228,2.1902,-5.7193,1.9064,-1.8784,-7.6258,-1.0013e-06,-0.9392,0,0,0.083333,1.7764e-15,0,0.66667
0.60472,0.84913,7.2566,0.5237,63.624,320.17,-10.134,3.378,-1.023,-13.512,1.8865e-12,-0.51152,0,0,0.083333,-0,-0,0.66667
0.82885,0.61039,9.9461,0.16559,9.8597,66.673,-4.3919,1.464,-1.9077,-5.8559,-3.3719e-11,-0.95385,0,0,0.083333,-1.579e-15,0,0.66667
0.57471,0.63837,6.8965,0.20755,26.575,365.01,-3.817,1.2723,-1.8461,-5.0893,1.4266e-12,-0.92306,0,0,0.083333,-0,-0,0.66667
0.62808,0.19138,7.5369,-0.46293,-53.653,286.23,9.3042,-3.1014,-1.2388,12.406,2.176e-13,-0.61941,0,0,0.083333,-0,-0,0.66667
0.28558,0.93256,3.4269,0.64883,114.32,908.7,-5.9293,1.9764,-0.50181,-7.9058,-1.6322e-11,-0.25091,0,0,0.083333,-0,-0,0.66667
0.58683,0.65822,7.042,0.23733,29.75,346.34,-4.4567,1.4856,-1.7967,-5.9423,4.5786e-12,-0.89836,0,0,0.083333,-0,-0,0.66667
0.75002,0.052986,9.0003,-0.67052,-56.241,138.03,16.093,-5.3643,-0.40887,21.457,-1.2521e-10,-0.20443,0,0,0.083333,-0,-0,0.66667
0.85831,0.94407,10.3,0.66611,33.592,48.508,-18.295,6.0985,-0.42724,-24.394,-5.2728e-08,-0.21362,0,0,0.083333,-0,-0,0.66667
0.75508,0.10195,9.061,-0.59707,-49.149,132.52,14.427,-4.8089,-0.72982,19.236,2.8992e-10,-0.36491,0,0,0.083333,-1.579e-15,0,0.66667
0.69806,0.58231,8.3767,0.12346,12.084,194.1,-2.7579,0.91931,-1.9429,-3.6772,1.1067e-12,-0.97145,0,0,0.083333,-0,-0,0.66667
0.86448,0.19316,10.374,-0.46025,-22.161,43.684,12.732,-4.2441,-1.2444,16.976,-8.5733e-09,-0.62222,0,0,0.083333,-0,-0,0.66667
0.32268,0.015682,3.8722,-0.72648,-124.93,830.77,7.5014,-2.5005,-0.12009,10.002,-1.561e-11,-0.060046,0,0,0.083333,7.8949e-16,0,0.66667
0.67079,0.14898,8.0495,-0.52653,-55.451,228.89,11.302,-3.7674,-1.019,15.07,-3.7748e-13,-0.50948,0,0,0.083333,-0,1.2859e-16,0.66667
0.45087,0.66329,5.4105,0.24493,37.339,577.06,-3.5339,1.178,-1.7887,-4.7118,-1.1471e-11,-0.89434,0,0,0.083333,-0,-0,0.66667
0.3821,0.65826,4.5852,0.23738,38.798,709.1,-2.9026,0.96752,-1.7966,-3.8701,-4.4835e-12,-0.89828,0,0,0.083333,1.579e-15,0,0.66667
0.41081,0.60289,4.9297,0.15434,24.546,652.8,-2.0289,0.67632,-1.9132,-2.7053,-7.5169e-12,-0.95658,0,0,0.083333,7.8949e-16,0,0.66667
0.40148,0.65624,4.8178,0.23436,37.621,670.98,-3.0109,1.0036,-1.8037,-4.0145,-4.3565e-13,-0.90186,0,0,0.083333,2.6561e-16,0,0.66667
0.31738,0.90403,3.8086,0.60605,104.52,841.53,-6.1552,2.0517,-0.69249,-8.2069,-9.6279e-12,-0.34625,0,0,0.083333,-1.9737e-16,0,0.66667
0.62192,0.25607,7.463,-0.3659,-42.917,294.71,7.2819,-2.4273,-1.5244,9.7092,-1.4562e-12,-0.76222,0,0,0.083333,1.579e-15,0,0.66667
0.43025,0.91629,5.163,0.62444,97.587,616.46,-8.5972,2.8657,-0.6094,-11.463,-2.6885e-12,-0.3047,0,0,0.083333,-0,-0,0.66667
0.9738,0.26277,11.686,-0.35584,-3.372,2.6703,11.089,-3.6962,-1.5468,14.785,3.0674e-06,-0.77342,0,0,0.083333,-0,-0,0.66667
0.6778,0.52651,8.1336,0.039763,4.104,218.98,-0.86245,0.28748,-1.9914,-1.1499,4.686e-12,-0.99571,0,0,0.083333,-0,-0,0.66667
0.19857,0.55568,2.3828,0.083525,15.356,1098.1,-0.53074,0.17691,-1.9733,-0.70765,-3.268e-11,-0.98665,0,0,0.083333,1.9737e-16,0,0.66667
0.4267,0.66776,5.1204,0.25163,39.387,622.44,-3.4359,1.1453,-1.7722,-4.5812,-7.8846e-12,-0.88611,0,0,0.083333,-0,-0,0.66667
0.34335,0.20883,4.1202,-0.43675,-73.803,787.53,4.7986,-1.5995,-1.3281,6.3982,5.6222e-13,-0.66403,0,0,0.083333,-0,-0,0.66667
0.79764,0.69944,9.5717,0.29916,20.748,91.805,-7.6358,2.5453,-1.687,-10.181,-6.0209e-11,-0.84348,0,0,0.083333,-0,-0,0.66667
0.88,0.89083,10.56,0.58625,25.261,35.504,-16.509,5.5029,-0.77503,-22.012,7.066e-08,-0.38752,0,0,0.083333,-1.579e-15,0,0.66667
0.90384,0.68531,10.846,0.27797,9.6306,22.628,-8.0397,2.6799,-1.7277,-10.72,4.7313e-08,-0.86383,0,0,0.083333,5.9212e-16,0,0.66667
0.66272,0.6735,7.9526,0.26025,27.889,238.6,-5.5192,1.8397,-1.7551,-7.3589,-4.2681e-12,-0.87753,0,0,0.083333,7.8949e-16,0,0.66667
0.27021,0.57254,3.2425,0.1088,19.303,941.01,-0.94079,0.3136,-1.9557,-1.2544,-1.0536e-11,-0.97783,0,0,0.083333,-0,-0,0.66667
0.25237,0.90755,3.0284,0.61133,109.78,980.1,-4.9369,1.6456,-0.67385,-6.5826,8.9698e-11,-0.33693,0,0,0.083333,-0,-0,0.66667
0.8549,0.60397,10.259,0.15596,7.9723,48.741,-4.2665,1.4222,-1.9114,-5.6887,9.8024e-10,-0.95569,0,0,0.083333,-0,-0,0.66667
0.52771,0.4464,6.3326,-0.080401,-11.092,441.06,1.3577,-0.45257,-1.9764,1.8103,-2.3834e-12,-0.98818,0,0,0.083333,1.579e-15,0,0.66667
0.80216,0.39913,9.6259,-0.1513,-10.272,87.693,3.8837,-1.2946,-1.9159,5.1783,8.2315e-11,-0.95793,0,0,0.083333,7.8949e-16,0,0.66667
0.57249,0.070747,6.8699,-0.64388,-83.009,369.62,11.796,-3.9319,-0.52275,15.728,1.414e-12,-0.26137,0,0,0.083333,-0,-0,0.66667
0.73314,0.94816,8.7977,0.67224,59.618,155.78,-15.771,5.257,-0.39725,-21.028,-2.0451e-11,-0.19863,0,0,0.083333,-1.579e-15,8.8711e-17,0.66667
0.51901,0.096499,6.2281,-0.60525,-84.782,456.76,10.052,-3.3507,-0.69794,13.403,-9.3818e-12,-0.34897,0,0,0.083333,-0,-0,0.66667
0.77088,0.68874,9.2506,0.28311,21.913,115.93,-6.9837,2.3279,-1.7133,-9.3116,-1.1147e-11,-0.85663,0,0,0.083333,-0,-0,0.66667
0.56886,0.32867,6.8263,-0.257,-33.243,374.26,4.6782,-1.5594,-1.7611,6.2376,-5.338e-13,-0.88055,0,0,0.083333,-7.8949e-16,0,0.66667
0.46571,0.26073,5.5885,-0.3589,-53.802,549.98,5.3486,-1.7829,-1.5421,7.1315,2.5442e-12,-0.77104,0,0,0.083333,-0,-0,0.66667
0.34269,0.83409,4.1123,0.50114,84.757,788.98,-5.4955,1.8318,-1.1116,-7.3273,5.7354e-12,-0.5558,0,0,0.083333,-0,-0,0.66667
0.068209,0.32015,0.81851,-0.26978,-51.419,1395,0.58884,-0.19628,-1.7381,0.78512,2.2453e-07,-0.86903,0,0,0.083333,-0,-0,0.66667
0.37792,0.6022,4.5351,0.1533,25.143,717.34,-1.8539,0.61796,-1.9169,-2.4719,-9.065e-13,-0.95846,0,0,0.083333,-0,-0,0.66667
0.079626,0.7934,0.95551,0.44011,83.796,1368.7,-1.1214,0.3738,-1.3146,-1.4952,-8.2147e-08,-0.65729,0,0,0.083333,-0,-0,0.66667
0.98282,0.91129,11.794,0.61694,3.9193,2.9636,-19.403,6.4676,-0.65048,-25.87,4.0293e-06,-0.32524,0,0,0.083333,-0,5.3402e-17,0.66667
0.18161,0.26992,2.1794,-0.34513,-63.92,1136.2,2.0057,-0.66858,-1.5729,2.6743,3.1499e-12,-0.78643,0,0,0.083333,-0,-0,0.66667
0.81186,0.75257,9.7423,0.37885,24.631,80.26,-9.8424,3.2808,-1.4963,-13.123,3.1046e-11,-0.74813,0,0,0.083333,-3.158e-15,0,0.66667
0.87496,0.75787,10.5,0.3868,17.245,37.344,-10.83,3.61,-1.4756,-14.44,2.2062e-09,-0.73779,0,0,0.083333,1.579e-15,0,0.66667
0.68841,0.50119,8.261,0.0017857,0.17932,205.75,-0.039337,0.013112,-2.0061,-0.052449,-4.1313e-12,-1.0031,0,0,0.083333,3.158e-15,0,0.66667
0.56949,0.1455,6.8339,-0.53175,-68.829,373.91,9.6904,-3.2301,-0.99047,12.921,-1.3394e-12,-0.49524,0,0,0.083333,7.8949e-16,0,0.66667
0.16097,0.39547,1.9317,-0.15679,-29.237,1182.6,0.80766,-0.26922,-1.9101,1.0769,1.0087e-10,-0.95506,0,0,0.083333,1.9737e-16,0,0.66667
0.46688,0.13774,5.6026,-0.54339,-81.438,548.26,8.1183,-2.7061,-0.95251,10.824,2.7089e-12,-0.47625,0,0,0.083333,-0,-0,0.66667
0.34517,0.58735,4.1421,0.13102,22.085,783.47,-1.4472,0.48241,-1.9429,-1.9296,2.0284e-13,-0.97146,0,0,0.083333,-1.9737e-16,0,0.66667
0.22504,0.22191,2.7005,-0.41714,-75.866,1039.6,3.0039,-1.0013,-1.3784,4.0052,-1.9299e-11,-0.68919,0,0,0.083333,-0,-0,0.66667
0.59251,0.67916,7.1101,0.26873,33.346,337.76,-5.0953,1.6984,-1.7474,-6.7937,3.948e-13,-0.87371,0,0,0.083333,3.9475e-16,0,0.66667
0.31227,0.47161,3.7472,-0.042588,-7.3548,851.61,0.42557,-0.14186,-2.0013,0.56742,-2.4244e-12,-1.0006,0,0,0.083333,7.8949e-16,0,0.66667
0.91631,0.91367,10.996,0.6205,18.993,18.993,-18.194,6.0648,-0.62798,-24.259,4.7913e-08,-0.31399,0,0,0.083333,-3.158e-15,0,0.66667
0.90964,0.17183,10.916,-0.49225,-16.146,20.959,14.329,-4.7762,-1.1377,19.105,-4.4298e-08,-0.56886,0,0,0.083333,-0,-0,0.66667
0.25712,0.53442,3.0854,0.051628,9.2272,969.29,-0.42478,0.14159,-1.9872,-0.56637,-6.335e-12,-0.99361,0,0,0.083333,-0,-0,0.66667
0.11089,0.86258,1.3307,0.54387,102.99,1296.8,-1.9299,0.64332,-0.95148,-2.5733,2.7454e-08,-0.47574,0,0,0.083333,1.9737e-16,0,0.66667
0.19296,0.99456,2.3156,0.74184,137.12,1111.2,-4.5807,1.5269,-0.040587,-6.1076,-4.4845e-10,-0.020294,0,0,0.083333,5.9212e-16,0,0.66667
0.49958,0.71834,5.995,0.32751,47.032,489.51,-5.2357,1.7452,-1.6263,-6.981,-1.6716e-12,-0.81314,0,0,0.083333,2.9606e-16,0,0.66667
0.72859,0.25635,8.743,-0.36547,-32.759,159.5,8.5209,-2.8403,-1.522,11.361,-8.0558e-13,-0.761,0,0,0.083333,-0,-0,0.66667
0.20819,0.34881,2.4983,-0.22678,-41.534,1076.8,1.5109,-0.50362,-1.8149,2.0145,-5.0411e-11,-0.90745,0,0,0.083333,-0,-0,0.66667
0.24803,0.42095,2.9764,-0.11857,-21.298,989.05,0.94112,-0.31371,-1.9521,1.2548,-1.0089e-11,-0.97605,0,0,0.083333,-0,-0,0.66667
0.85167,0.62289,10.22,0.18434,9.6197,50.86,-5.0238,1.6746,-1.876,-6.6984,4.2696e-10,-0.93799,0,0,0.083333,5.9212e-16,0,0.66667
0.41585,0.92533,4.9902,0.63799,101.21,643.95,-8.4898,2.8299,-0.54901,-11.32,-2.7276e-12,-0.2745,0,0,0.083333,-0,-0,0.66667
0.61669,0.80406,7.4002,0.45609,54.099,302.47,-9.0004,3.0001,-1.2563,-12.001,-2.3688e-12,-0.62816,0,0,0.083333,-0,-0,0.66667
0.23367,0.01841,2.804,-0.72239,-131.09,1021.1,5.4015,-1.8005,-0.14983,7.202,-2.6041e-12,-0.074917,0,0,0.083333,-0,-0,0.66667
0.10197,0.34928,1.2236,-0.22608,-42.837,1317.2,0.7377,-0.2459,-1.8145,0.9836,3.511e-08,-0.90726,0,0,0.083333,-0,-0,0.66667
0.51586,0.46645,6.1903,-0.05032,-7.0612,461.13,0.83065,-0.27688,-1.9988,1.1075,5.1786e-12,-0.9994,0,0,0.083333,-1.0856e-15,0,0.66667
0.47714,0.213,5.7257,-0.43049,-63.669,529.45,6.573,-2.191,-1.3373,8.764,-3.2139e-12,-0.66867,0,0,0.083333,-0,-0,0.66667
0.15267,0.02292,1.8321,-0.71562,-134.16,1201.8,3.4962,-1.1654,-0.1785,4.6615,-4.8254e-08,-0.089249,0,0,0.083333,-0,-0,0.66667
0.62181,0.75101,7.4617,0.37651,44.175,294.9,-7.4918,2.4973,-1.4971,-9.989,-2.637e-12,-0.74854,0,0,0.083333,-0,-0,0.66667
0.54401,0.69071,6.5281,0.28607,38.528,414.24,-4.98,1.66,-1.7103,-6.64,2.3492e-13,-0.85517,0,0,0.083333,-0,-0,0.66667
0.65414,0.1128,7.8496,-0.58081,-63.662,250.89,12.158,-4.0525,-0.80243,16.21,-2.8066e-13,-0.40122,0,0,0.083333,-7.8949e-16,0,0.66667
0.14455,0.12956,1.7345,-0.55567,-104.31,1220.1,2.5702,-0.85674,-0.90146,3.4269,-8.403e-10,-0.45073,0,0,0.083333,-0,-0,0.66667
0.75153,0.27947,9.0183,-0.3308,-27.486,135.13,7.9554,-2.6518,-1.6154,10.607,7.9194e-12,-0.80768,0,0,0.083333,9.8686e-16,0,0.66667
0.22205,0.25541,2.6646,-0.36688,-66.805,1046.2,2.6069,-0.86896,-1.5216,3.4759,-1.8161e-11,-0.76079,0,0,0.083333,-0,-0,0.66667
0.51935,0.46352,6.2322,-0.05472,-7.6407,455.18,0.90941,-0.30314,-1.9888,1.2126,3.5081e-12,-0.99442,0,0,0.083333,-7.8949e-16,0,0.66667
0.7853,0.42123,9.4236,-0.11816,-8.6288,102.32,2.9693,-0.98976,-1.9486,3.9591,2.5516e-11,-0.9743,0,0,0.083333,-0,-0,0.66667
0.02233,0.58435,0.26797,0.12653,24.21,1501.2,-0.090414,0.030138,-1.9391,-0.12055,6.1677e-07,-0.96955,0,0,0.083333,-0,-0,0.66667
0.32436,0.65355,3.8923,0.23033,39.449,826.45,-2.3907,0.79691,-1.8112,-3.1876,9.3152e-12,-0.90561,0,0,0.083333,-4.9343e-16,0,0.66667
0.87292,0.19874,10.475,-0.45189,-20.482,38.742,12.623,-4.2077,-1.2759,16.831,-2.2305e-09,-0.63795,0,0,0.083333,-0,-0,0.66667
0.84471,0.51017,10.137,0.015252,0.83,55.326,-0.41228,0.13743,-2.0039,-0.54971,-1.2873e-09,-1.002,0,0,0.083333,-0,-0,0.66667
0.53844,0.56601,6.4613,0.099019,13.443,423.19,-1.7061,0.56871,-1.9618,-2.2748,-1.4762e-12,-0.98088,0,0,0.083333,1.579e-15,0,0.66667
0.86661,0.38999,10.399,-0.16502,-7.7972,41.566,4.5762,-1.5254,-1.8988,6.1016,-2.5881e-09,-0.94939,0,0,0.083333,-1.579e-15,0,0.66667
0.94981,0.8486,11.398,0.52291,9.669,7.9461,-15.893,5.2977,-1.028,-21.191,7.3127e-07,-0.51401,0,0,0.083333,-0,-0,0.66667
0.82641,0.60697,9.9169,0.16046,9.6783,68.477,-4.2433,1.4144,-1.9112,-5.6577,-5.2395e-11,-0.95558,0,0,0.083333,1.579e-15,0,0.66667
0.85412,0.52038,10.249,0.030564,1.5695,49.134,-0.83538,0.27846,-1.9936,-1.1138,8.9372e-12,-0.99681,0,0,0.083333,-0,-0,0.66667
0.098743,0.73637,1.1849,0.35456,67.252,1324.6,-1.1203,0.37345,-1.5501,-1.4938,-5.2259e-08,-0.77505,0,0,0.083333,-0,-0,0.66667
0.6513,0.435,7.8157,-0.097499,-10.723,253.54,2.0321,-0.67735,-1.9645,2.7094,-6.9345e-13,-0.98225,0,0,0.083333,-0,-0,0.66667
0.70352,0.62066,8.4422,0.18099,17.452,187.67,-4.0746,1.3582,-1.8905,-5.4328,-2.8244e-13,-0.94526,0,0,0.083333,3.9475e-16,0,0.66667
0.61024,0.35589,7.3229,-0.21617,-25.933,311.31,4.2212,-1.4071,-1.8387,5.6283,1.4677e-12,-0.91936,0,0,0.083333,-0,-0,0.66667
0.79962,0.88475,9.5954,0.57712,39.822,91.162,-14.767,4.9224,-0.81645,-19.69,9.0647e-10,-0.40822,0,0,0.083333,1.579e-15,0,0.66667
0.034571,0.93998,0.41485,0.65997,126.48,1472.9,-0.73012,0.24337,-0.45197,-0.9735,-4.6319e-06,-0.22599,0,0,0.083333,-9.8686e-17,0,0.66667
0.77024,0.15509,9.2429,-0.51737,-40.244,117.32,12.752,-4.2506,-1.0472,17.002,-4.666e-11,-0.52362,0,0,0.083333,-1.579e-15,0,0.66667
0.73173,0.61159,8.7807,0.16738,14.837,155.66,-3.9193,1.3064,-1.9011,-5.2257,-1.577e-12,-0.95053,0,0,0.083333,-0,-0,0.66667
0.2597,0.55495,3.1164,0.08243,14.712,963.7,-0.68502,0.22834,-1.9725,-0.91336,-2.8703e-12,-0.98625,0,0,0.083333,3.9475e-16,0,0.66667
0.25707,0.081222,3.0848,-0.62817,-112.53,969.93,5.1674,-1.7225,-0.5927,6.8899,3.8274e-11,-0.29635,0,0,0.083333,-0,-0,0.66667
0.6323,0.95857,7.5876,0.68785,79.202,281.17,-13.918,4.6393,-0.31349,-18.557,2.7685e-12,-0.15675,0,0,0.083333,-7.8949e-16,0,0.66667
0.3453,0.50138,4.1436,0.0020751,0.3497,783.18,-0.022929,0.0076429,-2.0045,-0.030572,1.3724e-11,-1.0022,0,0,0.083333,1.579e-15,0,0.66667
0.79659,0.49989,9.5591,-0.00016278,-0.011327,92.325,0.0041494,-0.0013831,-2.0081,0.0055326,-1.3641e-10,-1.004,0,0,0.083333,5.0577e-15,0,0.66667
0.44615,0.54442,5.3538,0.066626,10.207,585.71,-0.95119,0.31706,-1.9799,-1.2683,-1.7276e-12,-0.98996,0,0,0.083333,-7.8949e-16,0,0.66667
0.78275,0.6879,9.393,0.28185,20.818,104.89,-7.0599,2.3533,-1.7223,-9.4131,-3.9289e-11,-0.86117,0,0,0.083333,-0,-0,0.66667
0.99047,0.67713,11.886,0.2657,0.83195,0.74332,-8.4214,2.8071,-1.7453,-11.228,7.5931e-07,-0.87264,0,0,0.083333,-0,-0,0.66667
0.30025,0.3487,3.603,-0.22695,-39.526,876.99,2.1805,-0.72684,-1.817,2.9074,2.6517e-12,-0.90849,0,0,0.083333,-7.8949e-16,0,0.66667
0.14301,0.21311,1.7161,-0.43034,-80.766,1223.5,1.9693,-0.65643,-1.3434,2.6257,1.8278e-09,-0.67172,0,0,0.083333,2.9606e-16,0,0.66667
0.90131,0.60768,10.816,0.16153,5.7295,23.506,-4.6587,1.5529,-1.9044,-6.2117,2.9975e-08,-0.95218,0,0,0.083333,-1.579e-15,0,0.66667
0.54156,0.77411,6.4987,0.41117,55.624,418.51,-7.1256,2.3752,-1.3961,-9.5008,-8.4377e-13,-0.69806,0,0,0.083333,-0,-0,0.66667
0.97474,0.61732,11.697,0.17598,1.5884,2.048,-5.4892,1.8297,-1.8865,-7.3189,-9.44e-07,-0.94324,0,0,0.083333,7.8949e-16,0,0.66667
0.6366,0.46662,7.6393,-0.050077,-5.6892,273.59,1.0201,-0.34005,-1.9906,1.3602,3.3883e-12,-0.99532,0,0,0.083333,-9.8686e-16,0,0.66667
0.99391,0.27526,11.927,-0.3371,-0.62859,0.79113,10.722,-3.5739,-1.5927,14.296,-2.2013e-06,-0.79635,0,0,0.083333,1.579e-15,0,0.66667
0.54607,0.10574,6.5528,-0.59139,-79.558,411.64,10.334,-3.4447,-0.76151,13.779,3.7428e-12,-0.38075,0,0,0.083333,-1.579e-15,0,0.66667
0.52643,0.39061,6.3171,-0.16408,-22.682,443.28,2.764,-0.92134,-1.9015,3.6854,1.8183e-12,-0.95076,0,0,0.083333,-0,-0,0.66667
0.13543,0.69224,1.6251,0.28837,54.207,1240.6,-1.2497,0.41656,-1.702,-1.6662,-3.4696e-09,-0.851,0,0,0.083333,-0,-0,0.66667
0.35571,0.048348,4.2685,-0.67748,-113.54,762.84,7.7114,-2.5705,-0.36692,10.282,-4.3481e-12,-0.18346,0,0,0.083333,3.9475e-16,-1.2735e-16,0.66667
0.026219,0.56508,0.31462,0.09762,18.674,1492.2,-0.081902,0.027301,-1.9643,-0.1092,7.7325e-07,-0.98216,0,0,0.083333,-0,-0,0.66667
0.1604,0.055937,1.9247,-0.6661,-124.52,1184.3,3.4188,-1.1396,-0.42114,4.5584,-9.6485e-10,-0.21057,0,0,0.083333,1.9737e-16,0,0.66667
0.74564,0.14103,8.9476,-0.53846,-45.753,141.91,12.848,-4.2826,-0.96691,17.131,1.2844e-11,-0.48345,0,0,0.083333,-0,-0,0.66667
0.0304,0.50571,0.3648,0.0085664,1.6382,1482.5,-0.0083334,0.0027795,-2.0053,-0.01111,2.4804e-06,-1.0026,0,0,0.083333,-0,-0,0.66667
0.36654,0.95013,4.3985,0.67519,112.14,740.97,-7.9195,2.6398,-0.37477,-10.559,3.4239e-12,-0.18738,0,0,0.083333,-0,-0,0.66667
0.86235,0.0080939,10.348,-0.73786,-36.304,46.498,20.361,-6.7871,-0.064648,27.148,-3.6343e-08,-0.032324,0,0,0.083333,-0,-0,0.66667
0.69268,0.3833,8.3121,-0.17505,-17.387,200.65,3.88,-1.2933,-1.8883,5.1733,-1.1027e-12,-0.94414,0,0,0.083333,-0,-0,0.66667
0.69094,0.14015,8.2913,-0.53977,-54.008,203.73,11.934,-3.9781,-0.96327,15.913,-4.4329e-12,-0.48164,0,0,0.083333,-0,-0,0.66667
0.18864,0.91449,2.2636,0.62174,115.01,1120.7,-3.753,1.251,-0.63003,-5.0041,3.7995e-10,-0.31502,0,0,0.083333,-0,-0,0.66667
0.4419,0.37747,5.3029,-0.18379,-28.296,593.69,2.5989,-0.86631,-1.8789,3.4652,2.9283e-12,-0.93943,0,0,0.083333,-0,-0,0.66667
0.58158,0.72005,6.9789,0.33007,41.784,354.57,-6.1428,2.0476,-1.6132,-8.1905,1.1813e-13,-0.80662,0,0,0.083333,-0,-0,0.66667
0.98975,0.53793,11.877,0.056899,0.18976,0.43235,-1.8021,0.6007,-1.9857,-2.4028,-1.4071e-06,-0.99285,0,0,0.083333,-0,-0,0.66667
0.20391,0.43516,2.4469,-0.097265,-17.843,1086.3,0.63466,-0.21155,-1.9726,0.84621,2.0439e-11,-0.98631,0,0,0.083333,9.8686e-17,0,0.66667
0.24773,0.10903,2.9728,-0.58645,-105.55,990.14,4.6491,-1.5497,-0.77859,6.1987,-1.2609e-10,-0.3893,0,0,0.083333,-3.9475e-16,0,0.66667
0.26217,0.87064,3.1461,0.55596,99.262,958.77,-4.6643,1.5548,-0.90106,-6.219,4.6096e-11,-0.45053,0,0,0.083333,-0,-0,0.66667
0.75017,0.16266,9.0021,-0.50601,-42.319,137.1,12.147,-4.049,-1.0969,16.196,-3.5616e-12,-0.54847,0,0,0.083333,1.579e-15,0,0.66667
0.45698,0.75884,5.4837,0.38826,58.813,566.02,-5.6777,1.8926,-1.4629,-7.5702,-6.5175e-12,-0.73143,0,0,0.083333,-0,-0,0.66667
0.056929,0.63569,0.68315,0.20353,38.841,1421,-0.37078,0.12359,-1.8494,-0.49437,-1.0009e-07,-0.92469,0,0,0.083333,-9.8686e-17,0,0.66667
0.50852,0.45822,6.1022,-0.062668,-8.8845,473.73,1.0198,-0.33992,-1.9818,1.3597,3.9364e-12,-0.99092,0,0,0.083333,-7.8949e-16,0,0.66667
0.21196,0.051528,2.5435,-0.67271,-123.28,1068.9,4.5628,-1.5209,-0.38686,6.0837,1.4253e-09,-0.19343,0,0,0.083333,1.9737e-16,0,0.66667
0.7986,0.30729,9.5833,-0.28906,-19.96,90.957,7.3871,-2.4624,-1.7063,9.8494,5.5089e-11,-0.85315,0,0,0.083333,3.9475e-16,0,0.66667
0.29733,0.52923,3.568,0.043851,7.6495,883.08,-0.41722,0.13907,-2.0004,-0.55629,-1.9773e-11,-1.0002,0,0,0.083333,-4.9343e-16,0,0.66667
0.027606,0.46876,0.33127,-0.046866,-8.9642,1488.9,0.041401,-0.0138,-1.9928,0.055202,1.0051e-06,-0.99638,0,0,0.083333,9.8686e-17,0,0.66667
0.59343,0.62718,7.1212,0.19077,23.625,336.26,-3.6227,1.2076,-1.8782,-4.8302,-3.9102e-13,-0.93909,0,0,0.083333,-0,-0,0.66667
0.84384,0.30896,10.126,-0.28656,-15.699,56.284,7.7379,-2.5793,-1.716,10.317,-4.2777e-10,-0.85801,0,0,0.083333,1.9737e-15,0,0.66667
0.38102,0.89776,4.5722,0.59664,97.797,711.86,-7.2745,2.4248,-0.7308,-9.6994,1.0813e-11,-0.3654,0,0,0.083333,3.9475e-16,0,0.66667
0.74986,0.95443,8.9983,0.68164,57.216,138.25,-16.356,5.4521,-0.3548,-21.808,8.5372e-11,-0.1774,0,0,0.083333,-0,-0,0.66667
0.51114,0.4202,6.1337,-0.11969,-16.909,469.24,1.9578,-0.65259,-1.9467,2.6103,4.5999e-12,-0.97337,0,0,0.083333,-7.8949e-16,0,0.66667
0.54095,0.70737,6.4914,0.31106,42.096,419.3,-5.3846,1.7949,-1.6523,-7.1794,-1.7208e-12,-0.82615,0,0,0.083333,-0,-0,0.66667
0.95943,0.57324,11.513,0.10986,1.6138,4.4914,-3.3728,1.1243,-1.9532,-4.4971,4.8026e-09,-0.97661,0,0,0.083333,-0,-0,0.66667
0.80396,0.57202,9.6475,0.10803,7.2734,86.142,-2.7792,0.9264,-1.9544,-3.7056,2.3084e-11,-0.9772,0,0,0.083333,-0,-0,0.66667
0.032323,0.24778,0.38788,-0.37832,-72.398,1478,0.39132,-0.13044,-1.4966,0.52175,-1.1459e-06,-0.7483,0,0,0.083333,-0,-0,0.66667
0.70939,0.71073,8.5126,0.3161,29.998,181.05,-7.1756,2.3919,-1.6411,-9.5675,4.9827e-13,-0.82056,0,0,0.083333,7.8949e-16,0,0.66667
0.465,0.32335,5.58,-0.26497,-39.739,551.12,3.9428,-1.3143,-1.7492,5.257,-2.5187e-12,-0.87461,0,0,0.083333,-0,-0,0.66667
0.94755,0.90312,11.371,0.60468,11.736,8.9672,-18.335,6.1116,-0.69753,-24.446,-2.073e-06,-0.34876,0,0,0.083333,6.7528e-16,0,0.66667
0.22143,0.92424,2.6572,0.63635,116.09,1047.9,-4.5091,1.503,-0.5608,-6.0121,-2.7365e-12,-0.2804,0,0,0.083333,3.9475e-16,0,0.66667
0.26707,0.027346,3.2049,-0.70898,-126.37,948.47,6.0592,-2.0197,-0.21705,8.0789,-1.3673e-11,-0.10852,0,0,0.083333,1.9737e-16,0,0.66667
0.081474,0.59929,0.97769,0.14893,28.321,1364.3,-0.38828,0.12943,-1.9212,-0.51771,-6.6583e-08,-0.9606,0,0,0.083333,-0,-0,0.66667
0.42862,0.26328,5.1434,-0.35508,-55.49,618.94,4.8702,-1.6234,-1.5475,6.4936,-3.3764e-12,-0.77374,0,0,0.083333,-7.8949e-16,0,0.66667
0.10902,0.46135,1.3082,-0.057968,-10.964,1301,0.20223,-0.067409,-1.9947,0.26964,-1.3697e-09,-0.99736,0,0,0.083333,-9.8686e-17,0,0.66667
0.63379,0.33156,7.6054,-0.25267,-28.895,277.72,5.1244,-1.7081,-1.7688,6.8325,-2.1796e-12,-0.8844,0,0,0.083333,7.8949e-16,0,0.66667
0.80296,0.89313,9.6356,0.58969,40.09,88.413,-15.152,5.0507,-0.75975,-20.203,1.7946e-09,-0.37988,0,0,0.083333,-0,-0,0.66667
0.6968,0.209,8.3616,-0.4365,-42.948,196.26,9.733,-3.2443,-1.3187,12.977,4.1389e-13,-0.65937,0,0,0.083333,-7.8949e-16,0,0.66667
0.76621,0.18089,9.1945,-0.47867,-37.783,121.03,11.736,-3.9121,-1.1915,15.648,6.5333e-11,-0.59573,0,0,0.083333,1.1842e-15,0,0.66667
0.34245,0.071596,4.1094,-0.64261,-108.81,789.76,7.042,-2.3473,-0.53573,9.3894,9.4111e-12,-0.26787,0,0,0.083333,-0,-0,0.66667
0.84585,0.9988,10.15,0.74821,40.873,57.08,-20.252,6.7506,-0.012795,-27.003,-3.4928e-09,-0.0063977,0,0,0.083333,-5.033e-15,0,0.66667
0.42877,0.20554,5.1452,-0.44169,-69.046,618.81,6.0603,-2.0201,-1.3021,8.0804,-2.5584e-12,-0.65103,0,0,0.083333,7.8949e-16,0,0.66667
0.82401,0.509,9.8881,0.013498,0.82405,70.167,-0.35592,0.11864,-1.9978,-0.47456,-3.8372e-11,-0.9989,0,0,0.083333,-0,-0,0.66667
0.6265,0.23424,7.518,-0.39864,-46.331,288.28,7.9919,-2.664,-1.4382,10.656,-2.3048e-13,-0.71908,0,0,0.083333,-0,-0,0.66667
0.14342,0.33686,1.7211,-0.2447,-45.889,1222.4,1.1231,-0.37436,-1.788,1.4974,1.2916e-09,-0.89399,0,0,0.083333,9.8686e-17,0,0.66667
0.078387,0.42365,0.94064,-0.11453,-21.79,1371.4,0.28729,-0.095762,-1.9599,0.38305,7.1532e-08,-0.97993,0,0,0.083333,-0,-0,0.66667
0.018333,0.35307,0.21999,-0.2204,-42.185,1510.5,0.1293,-0.0431,-1.8281,0.1724,-8.6649e-07,-0.91404,0,0,0.083333,-4.9343e-17,0,0.66667
0.066725,0.97154,0.8007,0.70731,135.15,1398.5,-1.5102,0.50341,-0.22036,-2.0137,-1.308e-06,-0.11018,0,0,0.083333,-0,-0,0.66667
0.45858,0.0013703,5.503,-0.74794,-113.4,564.06,10.976,-3.6586,-0.0089576,14.634,-1.7568e-12,-0.0044788,0,0,0.083333,-0,-0,0.66667
0.11334,0.96778,1.3601,0.70167,132.94,1291.3,-2.5449,0.84831,-0.2493,-3.3932,-2.231e-08,-0.12465,0,0,0.083333,2.0971e-16,0,0.66667
0.027783,0.34728,0.3334,-0.22908,-43.828,1488.5,0.20367,-0.06789,-1.8136,0.27156,-1.2467e-06,-0.90679,0,0,0.083333,9.8686e-17,0,0.66667
0.75486,0.18688,9.0583,-0.46968,-38.627,132.2,11.345,-3.7818,-1.2144,15.127,-4.8805e-11,-0.60721,0,0,0.083333,2.0231e-15,0,0.66667
0.39485,0.25428,4.7382,-0.36858,-59.571,684.12,4.6571,-1.5524,-1.5159,6.2094,-1.9194e-12,-0.75794,0,0,0.083333,-0,-0,0.66667
0.74694,0.36221,8.9633,-0.20668,-17.431,139.57,4.9401,-1.6467,-1.848,6.5867,4.1429e-12,-0.92402,0,0,0.083333,-7.8949e-16,0,0.66667
0.4524,0.14295,5.4289,-0.53558,-81.632,574.77,7.7536,-2.5845,-0.98532,10.338,-1.0854e-12,-0.49266,0,0,0.083333,-0,-0,0.66667
0.45009,0.72696,5.401,0.34044,51.966,578.65,-4.9033,1.6344,-1.5882,-6.5378,-1.1114e-11,-0.79409,0,0,0.083333,7.8949e-16,0,0.66667
0.47807,0.38599,5.7369,-0.17101,-25.235,527.38,2.6161,-0.87204,-1.8921,3.4882,-7.4984e-12,-0.94607,0,0,0.083333,-0,-0,0.66667
0.474,0.36327,5.688,-0.2051,-30.421,534.73,3.111,-1.037,-1.8473,4.148,-4.3063e-12,-0.92366,0,0,0.083333,-0,-0,0.66667
0.80316,0.22394,9.638,-0.4141,-28.051,87.491,10.643,-3.5476,-1.387,14.19,1.49e-10,-0.69352,0,0,0.083333,-0,-0,0.66667
0.40239,0.26003,4.8287,-0.35996,-57.759,669.36,4.635,-1.545,-1.5381,6.18,-5.9557e-12,-0.76903,0,0,0.083333,-0,-0,0.66667
0.90469,0.54607,10.856,0.069107,2.3688,21.91,-2.0007,0.66688,-1.986,-2.6675,1.8996e-08,-0.99302,0,0,0.083333,-0,-0,0.66667
0.037061,0.36103,0.44473,-0.20845,-39.855,1467,0.24721,-0.082404,-1.8418,0.32961,-2.1086e-07,-0.92091,0,0,0.083333,-0,-0,0.66667
0.77387,0.022193,9.2865,-0.71671,-55.161,114.89,17.749,-5.9162,-0.16947,23.665,-4.3023e-11,-0.084733,0,0,0.083333,-0,-0,0.66667
0.12564,0.30208,1.5077,-0.29688,-55.954,1263,1.1936,-0.39786,-1.6922,1.5915,5.8371e-09,-0.84611,0,0,0.083333,1.9737e-16,0,0.66667
0.61851,0.73591,7.4222,0.35386,41.789,299.57,-7.0038,2.3346,-1.5507,-9.3384,4.0656e-12,-0.77533,0,0,0.083333,-1.522e-15,0,0.66667
0.010364,0.67108,0.12437,0.25662,49.133,1528.9,-0.085109,0.028369,-1.7626,-0.11348,-5.5228e-07,-0.88132,0,0,0.083333,-0,-0,0.66667
0.53863,0.61673,6.4635,0.1751,23.769,422.95,-3.018,1.006,-1.8869,-4.024,3.2894e-12,-0.94346,0,0,0.083333,-7.8949e-16,0,0.66667
0.003018,0.17081,0.036215,-0.49378,-94.642,1546,0.047682,-0.015894,-1.133,0.063576,-5.7836e-07,-0.56652,0,0,0.083333,-0,1.9646e-16,0.66667
0.95119,0.70633,11.414,0.30949,5.509,6.7146,-9.4203,3.1401,-1.6617,-12.56,2.1317e-07,-0.83084,0,0,0.083333,-1.579e-15,0,0.66667
0.9054,0.10992,10.865,-0.58512,-20.116,23.229,16.953,-5.6509,-0.78754,22.603,-1.4732e-07,-0.39377,0,0,0.083333,-0,9.8567e-17,0.66667
0.79597,0.86274,9.5516,0.54411,38.131,94.116,-13.859,4.6197,-0.95212,-18.479,1.6689e-10,-0.47606,0,0,0.083333,7.8949e-16,-1.093e-16,0.66667
0.91527,0.80119,10.983,0.45178,13.908,18.509,-13.232,4.4107,-1.2702,-17.643,2.4213e-08,-0.63512,0,0,0.083333,-0,-0,0.66667
0.14556,0.38076,1.7467,-0.17885,-33.514,1217.6,0.83308,-0.27769,-1.8841,1.1108,8.6369e-10,-0.94203,0,0,0.083333,-0,-0,0.66667
0.15773,0.45044,1.8928,-0.074336,-13.874,1189.9,0.3752,-0.12507,-1.9836,0.50027,3.4872e-11,-0.99181,0,0,0.083333,-0,-0,0.66667
0.18763,0.90376,2.2516,0.60564,112.07,1122.9,-3.6364,1.2121,-0.70389,-4.8485,2.7452e-09,-0.35194,0,0,0.083333,4.4409e-16,0,0.66667
0.6225,0.46076,7.47,-0.058862,-6.888,293.45,1.1725,-0.39084,-1.989,1.5634,3.5362e-12,-0.99451,0,0,0.083333,-3.9475e-16,0,0.66667
0.90581,0.9188,10.87,0.62819,21.542,23.307,-18.209,6.0696,-0.6029,-24.278,1.0139e-07,-0.30145,0,0,0.083333,-0,-0,0.66667
0.98996,0.98044,11.879,0.72066,2.7335,3.1444,-22.83,7.6099,-0.15032,-30.439,9.9986e-05,-0.07516,0,0,0.083333,1.579e-15,0,0.66667
0.71112,0.40281,8.5335,-0.14579,-13.754,178.75,3.3175,-1.1058,-1.921,4.4233,-1.7151e-12,-0.9605,0,0,0.083333,-9.8686e-16,0,0.66667
0.7318,0.74508,8.7816,0.36762,32.621,156,-8.6088,2.8696,-1.5211,-11.478,-1.4984e-12,-0.76054,0,0,0.083333,-0,-0,0.66667
0.90929,0.85251,10.912,0.52876,17.427,21.281,-15.386,5.1286,-1.0061,-20.514,1.0461e-07,-0.50306,0,0,0.083333,-0,-0,0.66667
0.40087,0.68436,4.8105,0.27654,44.424,672.21,-3.5475,1.1825,-1.7258,-4.73,2.1048e-12,-0.86292,0,0,0.083333,2.9606e-16,0,0.66667
0.24985,0.15918,2.9982,-0.51123,-91.869,985.42,4.0874,-1.3625,-1.0787,5.4499,-1.6551e-12,-0.53933,0,0,0.083333,7.8949e-16,-8.105e-17,0.66667
0.17343,0.79035,2.0812,0.43553,80.938,1154.6,-2.4171,0.8057,-1.3289,-3.2228,3.9272e-11,-0.66445,0,0,0.083333,-0,-0,0.66667
0.11946,0.97041,1.4335,0.70561,133.5,1277.4,-2.6973,0.8991,-0.2276,-3.5964,5.4183e-07,-0.1138,0,0,0.083333,-0,-0,0.66667
0.81261,0.84334,9.7513,0.51501,33.428,80.186,-13.392,4.464,-1.0655,-17.856,-1.0467e-09,-0.53274,0,0,0.083333,2.0724e-15,0,0.66667
0.14679,0.13326,1.7615,-0.55011,-103.2,1215,2.584,-0.86135,-0.92045,3.4454,1.9829e-10,-0.46023,0,0,0.083333,-0,-0,0.66667
0.2643,0.72521,3.1716,0.33782,60.173,953.9,-2.8571,0.95236,-1.5984,-3.8094,-1.1713e-11,-0.79921,0,0,0.083333,-0,-0,0.66667
0.81909,0.31561,9.8291,-0.27658,-17.337,74.269,7.2495,-2.4165,-1.7249,9.666,1.0244e-10,-0.86246,0,0,0.083333,-0,-0,0.66667
0.31059,0.5345,3.727,0.051749,8.9472,855.14,-0.51432,0.17144,-1.9938,-0.68576,-4.3751e-12,-0.99688,0,0,0.083333,-0,-0,0.66667
0.98242,0.3513,11.789,-0.22306,-1.3741,1.2678,7.0123,-2.3374,-1.8257,9.3498,7.7003e-07,-0.91283,0,0,0.083333,-0,-0,0.66667
0.26664,0.95957,3.1997,0.68936,122.88,949.37,-5.8819,1.9606,-0.31503,-7.8426,9.9063e-12,-0.15751,0,0,0.083333,1.9737e-16,0,0.66667
0.53365,0.017028,6.4038,-0.72446,-99.455,432.6,12.371,-4.1238,-0.13506,16.495,1.072e-12,-0.067532,0,0,0.083333,1.579e-15,0,0.66667
0.31447,0.73063,3.7736,0.34595,59.695,847.2,-3.4813,1.1604,-1.5766,-4.6417,-9.7666e-12,-0.78832,0,0,0.083333,-0,-0,0.66667
0.91077,0.55158,10.929,0.07737,2.488,19.343,-2.2549,0.75164,-1.9765,-3.0066,2.4854e-08,-0.98824,0,0,0.083333,-0,-0,0.66667
0.36656,0.39116,4.3987,-0.16327,-27.045,740.1,1.9151,-0.63836,-1.9008,2.5535,5.5149e-12,-0.95041,0,0,0.083333,-1.2236e-15,0,0.66667
0.43359,0.8565,5.2031,0.53476,83.217,609.9,-7.4197,2.4732,-0.98175,-9.893,-3.3511e-12,-0.49087,0,0,0.083333,-0,-0,0.66667
0.51229,0.034253,6.1475,-0.69862,-98.878,468.56,11.453,-3.8176,-0.26513,15.27,-1.382e-12,-0.13257,0,0,0.083333,-1.579e-15,3.5202e-17,0.66667
0.93889,0.72753,11.267,0.34129,7.6066,10.052,-10.254,3.4179,-1.5896,-13.672,2.1698e-07,-0.79482,0,0,0.083333,-0,-0,0.66667
0.030949,0.36445,0.37139,-0.20332,-38.89,1481.2,0.20136,-0.067121,-1.8596,0.26848,-7.7622e-07,-0.92978,0,0,0.083333,-0,-0,0.66667
0.71688,0.31476,8.6025,-0.27786,-25.792,172.36,6.374,-2.1247,-1.729,8.4987,-4.1416e-12,-0.86452,0,0,0.083333,1.579e-15,0,0.66667
0.89102,0.85273,10.692,0.52909,20.78,29.553,-15.086,5.0286,-1.0111,-20.114,-2.1787e-08,-0.50554,0,0,0.083333,-0,-0,0.66667
0.027287,0.27446,0.32745,-0.33831,-64.749,1489.7,0.29541,-0.09847,-1.592,0.39387,-2.5514e-06,-0.79599,0,0,0.083333,-0,-0,0.66667
0.52205,0.92251,6.2646,0.63376,88.414,451.71,-10.587,3.5291,-0.56779,-14.117,1.1262e-12,-0.28389,0,0,0.083333,-0,-0,0.66667
0.32599,0.33953,3.9119,-0.2407,-41.177,823.08,2.5109,-0.83697,-1.7966,3.3479,1.7903e-12,-0.89831,0,0,0.083333,1.9737e-16,0,0.66667
0.85949,0.25559,10.314,-0.36662,-18.229,46.363,10.083,-3.3611,-1.5297,13.444,-2.2235e-09,-0.76486,0,0,0.083333,-0,-0,0.66667
0.55852,0.69003,6.7022,0.28504,37.514,390.73,-5.0945,1.6982,-1.7107,-6.7926,-1.8625e-12,-0.85533,0,0,0.083333,1.579e-15,0,0.66667
0.69023,0.86982,8.2827,0.55472,55.619,204.66,-12.252,4.0841,-0.90714,-16.336,9.3898e-12,-0.45357,0,0,0.083333,-7.8949e-16,0,0.66667
0.45285,0.65775,5.4342,0.23663,35.991,573.39,-3.4291,1.143,-1.8088,-4.5721,-1.5328e-11,-0.90438,0,0,0.083333,1.579e-15,0,0.66667
0.62831,0.027557,7.5397,-0.70866,-82.305,286.87,14.248,-4.7494,-0.21479,18.998,-1.4424e-12,-0.1074,0,0,0.083333,-0,-0,0.66667
0.2901,0.20927,3.4812,-0.4361,-76.516,898.73,4.0483,-1.3494,-1.3198,5.3978,5.7336e-12,-0.6599,0,0,0.083333,-3.9475e-16,0,0.66667
0.0093486,0.28707,0.11218,-0.31939,-61.165,1531.3,0.095546,-0.031848,-1.6339,0.1274,1.1654e-06,-0.81697,0,0,0.083333,-0,-0,0.66667
0.57676,0.2741,6.9211,-0.33885,-43.26,362.05,6.2539,-2.0846,-1.5958,8.3385,6.2128e-13,-0.79788,0,0,0.083333,-0,-0,0.66667
0.31144,0.92233,3.7373,0.6335,109.73,854,-6.3136,2.1045,-0.57736,-8.4182,1.3838e-12,-0.28868,0,0,0.083333,-0,9.8601e-17,0.66667
0.51727,0.83517,6.2072,0.50275,70.539,459.41,-8.3218,2.7739,-1.1045,-11.096,-1.6804e-12,-0.55224,0,0,0.083333,3.9475e-16,0,0.66667
0.91641,0.69139,10.997,0.28708,8.6873,17.476,-8.4187,2.8062,-1.7045,-11.225,7.3632e-08,-0.85225,0,0,0.083333,-3.158e-15,0,0.66667
0.42647,0.36825,5.1177,-0.19762,-30.935,622.81,2.697,-0.89899,-1.8592,3.596,2.0735e-12,-0.9296,0,0,0.083333,-3.9475e-16,0,0.66667
0.2474,0.070582,2.9688,-0.64413,-116,990.97,5.0993,-1.6998,-0.52593,6.7991,1.1612e-10,-0.26296,0,0,0.083333,-0,-8.2285e-17,0.66667
0.37129,0.12777,4.4555,-0.55835,-92.279,731.15,6.634,-2.2113,-0.89146,8.8453,2.0091e-12,-0.44573,0,0,0.083333,-0,-0,0.66667
0.93186,0.72999,11.182,0.34499,8.5605,12.204,-10.287,3.4291,-1.5734,-13.717,2.8399e-07,-0.7867,0,0,0.083333,1.579e-15,0,0.66667
0.93687,0.75732,11.242,0.38599,8.8963,10.807,-11.572,3.8573,-1.4762,-15.429,2.8568e-07,-0.73809,0,0,0.083333,-0,-0,0.66667
0.84433,0.12589,10.132,-0.56116,-30.79,57,15.162,-5.0539,-0.88743,20.216,-1.115e-09,-0.44372,0,0,0.083333,3.158e-15,0,0.66667
0.92021,0.14392,11.042,-0.53411,-15.559,17.036,15.728,-5.2426,-0.98853,20.97,-7.0369e-09,-0.49426,0,0,0.083333,-0,-1.5353e-17,0.66667
0.2279,0.25044,2.7348,-0.37434,-67.976,1033.3,2.73,-0.91,-1.4992,3.64,-2.0317e-11,-0.74962,0,0,0.083333,7.8949e-16,0,0.66667
0.087482,0.79664,1.0498,0.44496,84.61,1350.6,-1.2456,0.41521,-1.292,-1.6608,-1.4883e-08,-0.64601,0,0,0.083333,-0,-0,0.66667
0.22731,0.21676,2.7277,-0.42486,-77.19,1034.7,3.0904,-1.0301,-1.3551,4.1205,-2.474e-11,-0.67757,0,0,0.083333,-1.4803e-16,0,0.66667
0.31438,0.036855,3.7725,-0.69472,-120.15,848,6.9889,-2.3296,-0.28696,9.3185,-1.314e-11,-0.14348,0,0,0.083333,-7.8949e-16,0,0.66667
0.17477,0.82128,2.0972,0.48193,89.539,1151.7,-2.6952,0.89839,-1.1747,-3.5936,-5.6784e-11,-0.58736,0,0,0.083333,-0,-0,0.66667
0.60709,0.98884,7.2851,0.73326,88.879,317.52,-14.245,4.7484,-0.089806,-18.993,-4.3956e-12,-0.044903,0,0,0.083333,1.579e-15,9.062e-17,0.66667
0.41359,0.46434,4.963,-0.053489,-8.4821,647.4,0.70792,-0.23597,-1.9863,0.94389,-8.8364e-12,-0.99314,0,0,0.083333,-3.9475e-16,0,0.66667
0.81635,0.66144,9.7962,0.24216,15.383,76.327,-6.3261,2.1087,-1.7908,-8.4348,-7.4581e-11,-0.89539,0,0,0.083333,-3.158e-15,0,0.66667
0.18513,0.28239,2.2216,-0.32641,-60.369,1128.3,1.9337,-0.64458,-1.6239,2.5783,-3.8207e-11,-0.81193,0,0,0.083333,-7.8949e-16,0,0.66667
0.70188,0.46054,8.4225,-0.059197,-5.7324,189.51,1.3296,-0.44319,-1.9917,1.7728,-1.7015e-12,-0.99586,0,0,0.083333,7.8949e-16,0,0.66667
0.24036,0.46871,2.8843,-0.046935,-8.4636,1005.8,0.36099,-0.12033,-1.99,0.48133,-2.3604e-12,-0.99502,0,0,0.083333,4.8726e-16,0,0.66667
0.57422,0.32472,6.8906,-0.26292,-33.701,365.86,4.8311,-1.6104,-1.7528,6.4415,-5.9996e-13,-0.87638,0,0,0.083333,-0,-0,0.66667
0.34899,0.81063,4.1879,0.46594,78.398,776.05,-5.2034,1.7345,-1.2262,-6.9379,-3.5971e-13,-0.61311,0,0,0.083333,9.8686e-17,0,0.66667
0.056964,0.93735,0.68357,0.65602,125.46,1421.1,-1.1958,0.39862,-0.46802,-1.5944,8.991e-06,-0.23401,0,0,0.083333,-3.7007e-17,0,0.66667
0.22881,0.50881,2.7458,0.013219,2.3975,1031.1,-0.096792,0.032264,-1.9962,-0.12906,-2.0788e-11,-0.9981,0,0,0.083333,-7.8949e-16,0,0.66667
0.6641,0.47164,7.9692,-0.042542,-4.5409,236.56,0.90407,-0.30136,-1.9902,1.2054,-3.6637e-13,-0.99511,0,0,0.083333,-0,-0,0.66667
0.49725,0.51585,5.967,0.023772,3.4218,493.31,-0.37825,0.12608,-1.9984,-0.50434,3.6328e-12,-0.99922,0,0,0.083333,-1.579e-15,0,0.66667
0.51902,0.75746,6.2282,0.3862,54.01,456.15,-6.4141,2.138,-1.4694,-8.5522,-1.5277e-13,-0.73472,0,0,0.083333,-0,-0,0.66667
0.17472,0.54071,2.0966,0.06106,11.33,1151.6,-0.34139,0.1138,-1.9873,-0.45518,2.2414e-11,-0.99364,0,0,0.083333,-0,-0,0.66667
0.57072,0.46964,6.8486,-0.045534,-5.8684,371.14,0.83158,-0.27719,-1.9897,1.1088,-5.5692e-12,-0.99485,0,0,0.083333,-0,-0,0.66667
0.99675,0.161,11.961,-0.50851,-0.47259,1.4542,16.219,-5.4064,-1.081,21.626,7.7475e-07,-0.54049,0,0,0.083333,-0,-0,0.66667
0.81684,0.28888,9.802,-0.31667,-20.082,76.129,8.2774,-2.7591,-1.6417,11.037,5.1533e-11,-0.82087,0,0,0.083333,-0,-0,0.66667
0.59437,0.87103,7.1325,0.55654,68.96,335.71,-10.585,3.5285,-0.90511,-14.114,-2.8653e-12,-0.45256,0,0,0.083333,1.9737e-16,0,0.66667
0.97599,0.78684,11.712,0.43026,3.751,2.6894,-13.438,4.4792,-1.3381,-17.917,-5.6687e-06,-0.66904,0,0,0.083333,-0,-0,0.66667
0.90156,0.92953,10.819,0.64429,23.057,25.262,-18.588,6.1959,-0.52187,-24.784,-1.5215e-07,-0.26093,0,0,0.083333,-0,-0,0.66667
0.59561,0.018087,7.1473,-0.72287,-89.525,334.52,13.777,-4.5925,-0.14445,18.37,2.3048e-12,-0.072227,0,0,0.083333,-0,-0,0.66667
0.032426,0.49057,0.38912,-0.014143,-2.7044,1477.8,0.014676,-0.0048927,-2.0035,0.019568,-1.0414e-06,-1.0018,0,0,0.083333,-4.9343e-17,0,0.66667
0.093577,0.53087,1.1229,0.046298,8.7844,1336.4,-0.13864,0.046212,-2.0007,-0.18485,-4.1325e-08,-1.0004,0,0,0.083333,-1.9121e-16,0,0.66667
0.065372,0.033657,0.78446,-0.69951,-133.68,1401.7,1.4633,-0.48777,-0.26164,1.9511,-1.8566e-06,-0.13082,0,0,0.083333,-0,-0,0.66667
0.45173,0.72381,5.4208,0.33571,51.146,575.59,-4.8528,1.6176,-1.6035,-6.4704,-8.3018e-12,-0.80176,0,0,0.083333,-0,-0,0.66667
0.37543,0.69553,4.5052,0.29329,48.229,722.43,-3.5235,1.1745,-1.7005,-4.6981,-2.0772e-12,-0.85027,0,0,0.083333,-0,-0,0.66667
0.97535,0.64852,11.704,0.22279,1.9643,2.0656,-6.9534,2.3178,-1.8198,-9.2712,-1.3246e-06,-0.90988,0,0,0.083333,-0,-0,0.66667
0.16798,0.89582,2.0158,0.59373,110.65,1167.1,-3.1916,1.0639,-0.74529,-4.2554,-2.6864e-09,-0.37265,0,0,0.083333,-1.9737e-16,0,0.66667
0.97279,0.56419,11.673,0.09629,0.93724,2.2012,-2.9974,0.99914,-1.9667,-3.9966,-7.689e-07,-0.98333,0,0,0.083333,-0,-0,0.66667
0.76747,0.86915,9.2097,0.55372,43.546,120.12,-13.599,4.533,-0.91287,-18.132,-7.3674e-11,-0.45643,0,0,0.083333,-3.9475e-16,0,0.66667
0.82424,0.22624,9.8909,-0.41063,-25.111,70.735,10.831,-3.6102,-1.3994,14.441,8.6873e-11,-0.6997,0,0,0.083333,-1.579e-15,0,0.66667
0.63262,0.8604,7.5914,0.54059,62.104,280.12,-10.944,3.6479,-0.95646,-14.592,7.9936e-15,-0.47823,0,0,0.083333,4.0324e-17,0,0.66667
0.66873,0.36484,8.0248,-0.20274,-21.409,230.7,4.3386,-1.4462,-1.8538,5.7848,-2.8986e-12,-0.92688,0,0,0.083333,7.8949e-16,0,0.66667
0.47688,0.74241,5.7226,0.36361,53.774,529.78,-5.5488,1.8496,-1.5259,-7.3984,-3.0433e-12,-0.76295,0,0,0.083333,-0,-0,0.66667
0.013136,0.46859,0.15764,-0.047109,-9.0161,1522.5,0.019803,-0.0066029,-1.9947,0.026403,-2.8024e-06,-0.99737,0,0,0.083333,-3.1418e-17,0,0.66667
0.35301,0.94008,4.2361,0.66012,110.86,768.28,-7.4569,2.4856,-0.44773,-9.9425,3.2725e-12,-0.22387,0,0,0.083333,-0,-0,0.66667
0.49207,0.4744,5.9049,-0.038396,-5.5647,502.41,0.6046,-0.20153,-1.991,0.80613,3.1504e-12,-0.99549,0,0,0.083333,-1.579e-15,0,0.66667
0.73009,0.85606,8.7611,0.53409,47.732,158.45,-12.478,4.1593,-0.98377,-16.637,3.1335e-12,-0.49188,0,0,0.083333,1.579e-15,0,0.66667
0.46863,0.0050218,5.6235,-0.74247,-111.24,545.73,11.134,-3.7114,-0.04764,14.845,4.5608e-12,-0.02382,0,0,0.083333,-0,-5.3241e-17,0.66667
0.4574,0.88319,5.4889,0.57479,87.132,565.66,-8.4131,2.8044,-0.82362,-11.218,-2.7258e-12,-0.41181,0,0,0.083333,-0,-0,0.66667
0.13766,0.26484,1.652,-0.35274,-66.283,1235.6,1.5539,-0.51797,-1.5576,2.0719,3.5484e-09,-0.77882,0,0,0.083333,-1.9737e-16,0,0.66667
0.010889,0.68672,0.13066,0.28008,53.629,1527.7,-0.097592,0.03253,-1.72,-0.13012,-5.0139e-07,-0.85998,0,0,0.083333,-1.8504e-17,0,0.66667
0.75828,0.83746,9.0993,0.50619,41.145,128.92,-12.283,4.0942,-1.0852,-16.377,-1.4149e-11,-0.54258,0,0,0.083333,1.1842e-15,0,0.66667
0.31995,0.86043,3.8394,0.54065,93.027,836.04,-5.5354,1.8451,-0.95626,-7.3806,-4.9649e-12,-0.47813,0,0,0.083333,3.9475e-16,0,0.66667
0.98438,0.31945,11.813,-0.27082,-1.474,1.2095,8.531,-2.8437,-1.747,11.375,6.0236e-07,-0.87348,0,0,0.083333,-0,-0,0.66667
0.22023,0.4353,2.6428,-0.097057,-17.675,1050.1,0.68401,-0.228,-1.971,0.91201,-1.9858e-11,-0.98549,0,0,0.083333,4.4409e-16,0,0.66667
0.33871,0.50907,4.0645,0.013607,2.305,796.7,-0.14749,0.049162,-1.9966,-0.19665,-8.1879e-12,-0.99832,0,0,0.083333,-0,-0,0.66667
0.5239,0.61367,6.2868,0.17051,23.658,447.55,-2.8586,0.95286,-1.8923,-3.8114,-2.3235e-12,-0.94616,0,0,0.083333,-0,-0,0.66667
0.75489,0.0091619,9.0587,-0.73626,-60.789,133.46,17.785,-5.9285,-0.070078,23.714,1.4211e-11,-0.035039,0,0,0.083333,3.158e-15,0,0.66667
0.46386,0.37444,5.5663,-0.18835,-28.279,553.12,2.7957,-0.93191,-1.8726,3.7276,-2.1487e-12,-0.93631,0,0,0.083333,-1.1102e-15,0,0.66667
0.12482,0.28014,1.4979,-0.32978,-62.177,1264.9,1.3173,-0.43909,-1.6215,1.7563,4.9854e-09,-0.81075,0,0,0.083333,3.7007e-17,0,0.66667
0.3125,0.29996,3.75,-0.30006,-51.838,851.27,3.0006,-1.0002,-1.6872,4.0008,2.442e-12,-0.84359,0,0,0.083333,-0,-0,0.66667
0.50452,0.52287,6.0542,0.034305,4.89,480.64,-0.55384,0.18461,-1.9938,-0.73845,2.1685e-12,-0.99689,0,0,0.083333,-0,-0,0.66667
0.67385,0.31868,8.0862,-0.27198,-28.371,224.25,5.8648,-1.9549,-1.7397,7.8197,-9.8188e-13,-0.86984,0,0,0.083333,-0,-0,0.66667
0.77015,0.54256,9.2418,0.063843,4.9504,116.32,-1.5734,0.52447,-1.9832,-2.0979,-1.1005e-11,-0.99162,0,0,0.083333,-1.579e-15,0,0.66667
0.13034,0.17934,1.564,-0.48099,-90.615,1252.4,2.0061,-0.66869,-1.1745,2.6748,7.8558e-09,-0.58726,0,0,0.083333,-9.8686e-17,0,0.66667
0.022915,0.35841,0.27498,-0.21238,-40.642,1499.8,0.15574,-0.051913,-1.8352,0.20765,-1.2125e-06,-0.9176,0,0,0.083333,-0,-0,0.66667
0.51908,0.0024929,6.229,-0.74626,-104.67,457.17,12.396,-4.132,-0.020266,16.528,-5.9979e-12,-0.010133,0,0,0.083333,-0,-0,0.66667
0.80999,0.020865,9.7199,-0.7187,-47.423,83.377,18.629,-6.2095,-0.16455,24.838,6.7456e-10,-0.082274,0,0,0.083333,-0,-8.7588e-17,0.66667
0.012604,0.45379,0.15125,-0.069322,-13.268,1523.7,0.027959,-0.0093204,-1.9828,0.037279,-1.0196e-06,-0.99142,0,0,0.083333,2.4672e-17,0,0.66667
0.67247,0.055898,8.0696,-0.66615,-69.98,227.34,14.335,-4.7783,-0.42828,19.113,-1.3101e-12,-0.21414,0,0,0.083333,-0,-0,0.66667
0.68681,0.435,8.2417,-0.097497,-9.8335,207.76,2.1428,-0.71426,-1.9727,2.857,-1.4613e-12,-0.98633,0,0,0.083333,-1.9737e-16,0,0.66667
0.44925,0.28739,5.391,-0.31891,-48.721,580.17,4.5846,-1.5282,-1.6375,6.1128,-3.6664e-12,-0.81876,0,0,0.083333,-0,-0,0.66667
0.91479,0.19753,10.977,-0.4537,-14.045,18.707,13.281,-4.4271,-1.2639,17.708,-2.1926e-08,-0.63197,0,0,0.083333,-0,-0,0.66667
0.64436,0.4203,7.7323,-0.11955,-13.355,262.96,2.465,-0.82168,-1.9479,3.2867,-6.0396e-13,-0.97396,0,0,0.083333,-0,-0,0.66667
0.0052398,0.20711,0.062878,-0.43934,-84.182,1540.8,0.073663,-0.024552,-1.3106,0.098219,4.0073e-06,-0.65531,0,0,0.083333,-0,-0,0.66667
0.48443,0.57285,5.8131,0.10927,15.994,515.98,-1.6939,0.56462,-1.9648,-2.2585,-3.9387e-12,-0.98241,0,0,0.083333,-0,-0,0.66667
0.85932,0.14044,10.312,-0.53934,-26.935,47.186,14.831,-4.9436,-0.97281,19.774,-6.4702e-10,-0.48641,0,0,0.083333,-1.579e-15,1.2277e-16,0.66667
0.8304,0.016633,9.9648,-0.72505,-43.188,67.737,19.267,-6.4222,-0.13227,25.689,-1.0705e-08,-0.066133,0,0,0.083333,-0,-0,0.66667
0.64915,0.8039,7.7899,0.45585,50.473,257.12,-9.4693,3.1564,-1.2571,-12.626,-3.6415e-12,-0.62857,0,0,0.083333,-7.8949e-16,0,0.66667
0.6737,0.39339,8.0844,-0.15991,-16.679,224.27,3.4475,-1.1492,-1.9115,4.5966,-2.9634e-12,-0.95577,0,0,0.083333,-0,-0,0.66667
0.5785,0.24869,6.942,-0.37697,-47.991,359.43,6.9784,-2.3261,-1.5023,9.3046,1.624e-12,-0.75116,0,0,0.083333,-7.8949e-16,0,0.66667
0.27412,0.80773,3.2894,0.46159,81.799,932.9,-4.049,1.3497,-1.2389,-5.3987,-1.3127e-11,-0.61943,0,0,0.083333,1.6231e-16,0,0.66667
0.56053,0.71072,6.7264,0.31608,41.468,387.56,-5.6695,1.8898,-1.6473,-7.5593,2.3994e-12,-0.82363,0,0,0.083333,-0,-0,0.66667
0.67173,0.62115,8.0608,0.18173,19.048,226.81,-3.9063,1.3021,-1.8904,-5.2085,-3.3089e-12,-0.94518,0,0,0.083333,9.8686e-16,0,0.66667
0.35243,0.34464,4.2292,-0.23303,-39.062,768.73,2.6281,-0.87603,-1.8041,3.5041,2.3916e-12,-0.90205,0,0,0.083333,-0,-0,0.66667
0.85583,0.65273,10.27,0.2291,11.648,48.279,-6.2743,2.0914,-1.8134,-8.3657,1.1535e-09,-0.90671,0,0,0.083333,1.4376e-15,0,0.66667
0.19504,0.51527,2.3404,0.0229,4.2163,1106,-0.14293,0.047642,-1.9937,-0.19057,-4.4323e-11,-0.99684,0,0,0.083333,-0,-0,0.66667
0.74732,0.86961,8.9678,0.55441,46.851,140.23,-13.258,4.4194,-0.90845,-17.678,2.6068e-12,-0.45422,0,0,0.083333,-1.1842e-15,0,0.66667
0.2896,0.35335,3.4752,-0.21998,-38.576,899.56,2.0386,-0.67953,-1.8238,2.7181,4.365e-12,-0.91189,0,0,0.083333,-0,-0,0.66667
0.7738,0.19872,9.2856,-0.45191,-34.646,113.69,11.19,-3.73,-1.2695,14.92,7.4617e-11,-0.63477,0,0,0.083333,-1.579e-15,0,0.66667
0.42774,0.59783,5.1328,0.14674,22.938,620.37,-2.0086,0.66952,-1.9206,-2.6781,-8.429e-12,-0.96031,0,0,0.083333,-0,-0,0.66667
0.8077,0.9076,9.6924,0.6114,40.688,84.619,-15.803,5.2675,-0.66958,-21.07,9.169e-10,-0.33479,0,0,0.083333,-0,-0,0.66667
0.35353,0.62332,4.2424,0.18498,30.975,766.45,-2.0927,0.69755,-1.876,-2.7902,7.3341e-13,-0.93799,0,0,0.083333,5.2334e-17,0,0.66667
0.21369,0.80105,2.5643,0.45158,82.576,1064.7,-3.088,1.0293,-1.272,-4.1173,-1.0916e-10,-0.63602,0,0,0.083333,1.9737e-16,0,0.66667
0.76728,0.81803,9.2074,0.47705,37.504,119.98,-11.713,3.9043,-1.1944,-15.617,-8.1831e-11,-0.59718,0,0,0.083333,1.579e-15,0,0.66667
0.30864,0.73296,3.7037,0.34943,60.541,859.42,-3.4512,1.1504,-1.5644,-4.6016,-7.1443e-12,-0.7822,0,0,0.083333,-0,-0,0.66667
0.73325,0.037188,8.7989,-0.69422,-61.569,155.79,16.289,-5.4297,-0.29119,21.719,8.8765e-12,-0.1456,0,0,0.083333,1.579e-15,0,0.66667
0.74447,0.1909,8.9337,-0.46365,-39.515,142.82,11.046,-3.6819,-1.2332,14.728,1.1434e-11,-0.61661,0,0,0.083333,-0,-0,0.66667
0.2214,0.1725,2.6568,-0.49125,-89.532,1047.8,3.4803,-1.1601,-1.1426,4.6404,-6.9091e-12,-0.57131,0,0,0.083333,-0,-0,0.66667
0.21411,0.83309,2.5693,0.49963,91.369,1063.9,-3.4233,1.1411,-1.1101,-4.5643,9.2784e-11,-0.55503,0,0,0.083333,-0,-0,0.66667
0.19895,0.49478,2.3874,-0.0078289,-1.4391,1097.3,0.049841,-0.016614,-1.9986,0.066455,1.6833e-10,-0.9993,0,0,0.083333,1.9737e-16,0,0.66667
0.14252,0.78951,1.7102,0.43426,81.516,1224.6,-1.9805,0.66016,-1.3321,-2.6407,-2.2175e-09,-0.66606,0,0,0.083333,-3.9475e-16,0,0.66667
0.37708,0.70695,4.525,0.31042,50.976,719.16,-3.7458,1.2486,-1.6593,-4.9943,-7.3053e-13,-0.82965,0,0,0.083333,3.9475e-16,0,0.66667
0.026628,0.82468,0.31953,0.48703,93.278,1491.2,-0.41499,0.13834,-1.1542,-0.55332,9.0594e-06,-0.5771,0,0,0.083333,-0,-0,0.66667
0.11092,0.24085,1.331,-0.38873,-73.552,1296.7,1.3798,-0.45993,-1.4661,1.8397,2.0656e-08,-0.73304,0,0,0.083333,-0,-0,0.66667
0.67456,0.57903,8.0948,0.11854,12.336,223.13,-2.5588,0.85294,-1.9506,-3.4117,8.9062e-13,-0.9753,0,0,0.083333,-7.8949e-16,0,0.66667
0.79978,0.57762,9.5973,0.11643,7.9892,89.663,-2.9797,0.99324,-1.952,-3.9729,-1.0577e-11,-0.97598,0,0,0.083333,-0,-0,0.66667
0.08053,0.70157,0.96635,0.30235,57.527,1366.5,-0.77913,0.25971,-1.6761,-1.0388,-1.0819e-07,-0.83806,0,0,0.083333,-0,-0,0.66667
0.2317,0.60343,2.7804,0.15515,28.103,1024.8,-1.1503,0.38345,-1.9153,-1.5338,1.1573e-11,-0.95763,0,0,0.083333,-0,-0,0.66667
0.20763,0.26797,2.4915,-0.34804,-63.785,1078.1,2.3124,-0.77081,-1.567,3.0832,-4.6219e-11,-0.78348,0,0,0.083333,3.9475e-16,0,0.66667
0.91733,0.93397,11.008,0.65096,19.716,18.79,-19.109,6.3696,-0.49194,-25.478,2.2271e-07,-0.24597,0,0,0.083333,3.9475e-16,0,0.66667
0.71131,0.24993,8.5358,-0.3751,-35.415,178.98,8.538,-2.846,-1.497,11.384,7.7982e-13,-0.74849,0,0,0.083333,-1.8504e-16,0,0.66667
0.55388,0.3859,6.6466,-0.17115,-22.685,398.02,3.0336,-1.0112,-1.8917,4.0447,1.9758e-12,-0.94583,0,0,0.083333,-0,-0,0.66667
0.30452,0.53411,3.6542,0.051171,8.8841,867.9,-0.49864,0.16621,-1.9874,-0.66486,-2.0979e-11,-0.99368,0,0,0.083333,7.8949e-16,0,0.66667
0.83485,0.80735,10.018,0.46103,26.655,63.132,-12.316,4.1055,-1.2408,-16.422,3.1636e-10,-0.6204,0,0,0.083333,-1.9737e-15,0,0.66667
0.43531,0.59396,5.2237,0.14094,21.854,606.05,-1.9633,0.65444,-1.9326,-2.6177,-9.4132e-12,-0.96631,0,0,0.083333,-0,-0,0.66667
0.92346,0.7841,11.081,0.42615,11.878,15.35,-12.593,4.1977,-1.3584,-16.791,1.772e-07,-0.67921,0,0,0.083333,-0,-0,0.66667
0.70605,0.022107,8.4726,-0.71684,-68.986,186.5,16.196,-5.3987,-0.17335,21.595,2.4709e-12,-0.086675,0,0,0.083333,-0,-0,0.66667
0.47803,0.36938,5.7364,-0.19593,-28.915,527.48,2.9971,-0.99903,-1.8602,3.9961,-3.4499e-12,-0.93008,0,0,0.083333,-3.9475e-16,0,0.66667
0.12621,0.48856,1.5145,-0.017157,-3.2317,1261.6,0.069293,-0.023098,-2.003,0.092391,-2.8276e-09,-1.0015,0,0,0.083333,-3.9475e-16,0,0.66667
0.97604,0.25886,11.713,-0.36171,-3.1257,2.4,11.298,-3.7659,-1.5307,15.063,3.3535e-06,-0.76535,0,0,0.083333,-0,-0,0.66667
0.15983,0.51478,1.918,0.022177,4.1363,1185.2,-0.11343,0.03781,-1.9972,-0.15124,-6.4047e-11,-0.99861,0,0,0.083333,-0,-0,0.66667
0.2026,0.38323,2.4312,-0.17515,-32.152,1089.2,1.1356,-0.37852,-1.897,1.5141,-2.456e-11,-0.94852,0,0,0.083333,-0,-0,0.66667
0.43118,0.93483,5.1742,0.65225,101.86,614.77,-8.9996,2.9999,-0.48449,-11.999,1.8119e-12,-0.24225,0,0,0.083333,1.9737e-16,0,0.66667
0.4042,0.52781,4.8504,0.041718,6.6769,665.57,-0.53959,0.17986,-1.9968,-0.71946,-3.3493e-12,-0.99838,0,0,0.083333,3.9475e-16,0,0.66667
0.14675,0.44714,1.761,-0.079294,-14.851,1214.8,0.37237,-0.12412,-1.974,0.49649,3.4344e-10,-0.98698,0,0,0.083333,-0,-0,0.66667
0.72932,0.58857,8.7518,0.13285,11.865,158.25,-3.1005,1.0335,-1.935,-4.1341,-7.9958e-13,-0.9675,0,0,0.083333,-7.5239e-16,0,0.66667
0.18875,0.61402,2.2649,0.17103,31.573,1120.1,-1.033,0.34432,-1.9,-1.3773,6.8057e-11,-0.94998,0,0,0.083333,1.9737e-16,0,0.66667
0.6439,0.80578,7.7267,0.45867,51.385,264.27,-9.4507,3.1502,-1.252,-12.601,-2.518e-12,-0.62602,0,0,0.083333,-0,-0,0.66667
0.75431,0.53135,9.0517,0.047021,3.864,131.88,-1.135,0.37833,-1.9917,-1.5133,1.0453e-11,-0.99586,0,0,0.083333,-3.158e-15,0,0.66667
0.21073,0.55585,2.5288,0.083768,15.321,1071.1,-0.56488,0.18829,-1.9711,-0.75317,3.1584e-11,-0.98557,0,0,0.083333,-0,-0,0.66667
0.60095,0.4743,7.2115,-0.038552,-4.7064,324.87,0.74138,-0.24713,-1.991,0.9885,3.1438e-12,-0.99551,0,0,0.083333,-1.579e-15,0,0.66667
0.74893,0.92472,8.9871,0.63708,53.607,138.97,-15.268,5.0893,-0.56123,-20.357,-2.5135e-11,-0.28061,0,0,0.083333,-9.7417e-17,0,0.66667
0.63822,0.64505,7.6586,0.21758,24.643,271.51,-4.4436,1.4812,-1.833,-5.9247,-2.1525e-12,-0.91648,0,0,0.083333,-0,-0,0.66667
0.59713,0.87531,7.1655,0.56297,69.406,331.59,-10.757,3.5857,-0.87408,-14.343,1.6191e-12,-0.43704,0,0,0.083333,-0,-0,0.66667
0.29548,0.69398,3.5458,0.29098,50.845,887.13,-2.7513,0.9171,-1.703,-3.6684,-1.4439e-11,-0.85149,0,0,0.083333,7.8949e-16,0,0.66667
0.73161,0.43917,8.7793,-0.091241,-8.0892,155.72,2.1361,-0.71203,-1.9722,2.8481,1.0458e-13,-0.98609,0,0,0.083333,-0,-0,0.66667
0.94531,0.6355,11.344,0.20324,4.0418,7.904,-6.1481,2.0494,-1.8488,-8.1975,8.1068e-08,-0.92442,0,0,0.083333,-0,-0,0.66667
0.42556,0.15536,5.1067,-0.51696,-81.123,625.07,7.04,-2.3467,-1.0501,9.3867,-5.6986e-12,-0.52504,0,0,0.083333,-2.9606e-16,0,0.66667
0.78218,0.19467,9.3862,-0.458,-33.968,105.95,11.464,-3.8212,-1.2593,15.285,-9.7165e-11,-0.62965,0,0,0.083333,-0,-0,0.66667
0.056141,0.68805,0.67369,0.28208,53.846,1422.9,-0.50675,0.16892,-1.7146,-0.67567,-1.4115e-07,-0.85731,0,0,0.083333,-1.9737e-16,0,0.66667
0.83527,0.028677,10.023,-0.70698,-40.991,64.114,18.897,-6.2989,-0.21964,25.196,-1.6594e-08,-0.10982,0,0,0.083333,-7.8949e-16,0,0.66667
0.19225,0.70737,2.307,0.31106,57.365,1112.3,-1.9136,0.63787,-1.6534,-2.5515,6.0692e-11,-0.82672,0,0,0.083333,1.9737e-16,0,0.66667
0.3951,0.6846,4.7412,0.2769,44.726,683.51,-3.5008,1.1669,-1.7262,-4.6678,4.162e-12,-0.86309,0,0,0.083333,-1.9737e-16,0,0.66667
0.30008,0.27699,3.601,-0.33451,-58.286,877.44,3.2121,-1.0707,-1.6027,4.2829,-5.6901e-12,-0.80133,0,0,0.083333,4.9343e-16,0,0.66667
0.080104,0.11302,0.96124,-0.58048,-110.6,1367.6,1.4879,-0.49598,-0.8041,1.9839,3.1742e-08,-0.40205,0,0,0.083333,9.8686e-17,0,0.66667
0.90463,0.21641,10.856,-0.42539,-14.667,22.784,12.314,-4.1047,-1.3607,16.419,-4.6496e-08,-0.68036,0,0,0.083333,-3.9475e-16,0,0.66667
0.37015,0.67058,4.4419,0.25588,42.265,732.95,-3.0308,1.0103,-1.7644,-4.0411,4.7553e-12,-0.88222,0,0,0.083333,-0,-0,0.66667
0.5307,0.84534,6.3684,0.51801,71.288,436.8,-8.7969,2.9323,-1.053,-11.729,4.8015e-12,-0.52648,0,0,0.083333,-1.579e-15,1.0795e-16,0.66667
0.49412,0.10752,5.9294,-0.58872,-85.305,499.72,9.3087,-3.1029,-0.76394,12.412,6.005e-12,-0.38197,0,0,0.083333,-0,-0,0.66667
0.13216,0.061087,1.5859,-0.65837,-124.11,1248.3,2.7843,-0.92812,-0.45587,3.7125,-1.1883e-07,-0.22793,0,0,0.083333,4.9343e-17,0,0.66667
0.20645,0.38428,2.4774,-0.17358,-31.811,1080.6,1.1468,-0.38226,-1.8925,1.529,-3.6469e-11,-0.94627,0,0,0.083333,-0,-0,0.66667
0.076189,0.5681,0.91427,0.10216,19.442,1376.5,-0.24906,0.083021,-1.9658,-0.33209,-9.4705e-08,-0.98288,0,0,0.083333,-1.9737e-16,0,0.66667
0.50792,0.63661,6.0951,0.20492,29.083,474.86,-3.3306,1.1102,-1.8463,-4.4408,1.203e-12,-0.92317,0,0,0.083333,-0,-0,0.66667
0.26155,0.1988,3.1386,-0.4518,-80.644,959.97,3.7814,-1.2605,-1.2726,5.0419,-1.7776e-11,-0.63628,0,0,0.083333,-0,-0,0.66667
0.35706,0.84156,4.2847,0.51235,85.669,759.72,-5.854,1.9513,-1.0693,-7.8054,6.8767e-12,-0.53463,0,0,0.083333,2.044e-16,0,0.66667
0.10807,0.13021,1.2968,-0.55468,-105.11,1303.3,1.9181,-0.63938,-0.91045,2.5575,-8.8577e-08,-0.45523,0,0,0.083333,-0,-0,0.66667
0.78755,0.93291,9.4506,0.64937,47.254,102.01,-16.365,5.4551,-0.4975,-21.82,1.9294e-09,-0.24875,0,0,0.083333,3.9475e-16,0,0.66667
0.10658,0.87107,1.279,0.5566,105.51,1306.7,-1.8984,0.6328,-0.89979,-2.5312,1.0477e-07,-0.44989,0,0,0.083333,4.9343e-17,0,0.66667
0.98571,0.9298,11.829,0.6447,3.4144,2.8962,-20.335,6.7785,-0.52615,-27.114,5.2314e-05,-0.26308,0,0,0.083333,-1.579e-15,-1.1207e-16,0.66667
0.17716,0.15703,2.1259,-0.51445,-95.515,1146.3,2.9165,-0.97216,-1.0573,3.8887,-7.3127e-10,-0.52864,0,0,0.083333,-0,-0,0.66667
0.57241,0.75599,6.8689,0.38399,49.405,368.93,-7.0335,2.3445,-1.4728,-9.378,-4.8406e-13,-0.73638,0,0,0.083333,-0,-0,0.66667
0.044845,0.56263,0.53814,0.093952,17.949,1449,-0.13483,0.044942,-1.9722,-0.17977,-1.0795e-07,-0.98612,0,0,0.083333,-1.9737e-16,0,0.66667
0.78712,0.43913,9.4454,-0.0913,-6.6166,100.66,2.2996,-0.76655,-1.968,3.0662,5.5849e-11,-0.98399,0,0,0.083333,3.158e-15,0,0.66667
0.18961,0.30387,2.2753,-0.29419,-54.309,1118.2,1.785,-0.59499,-1.6944,2.38,-6.5601e-11,-0.8472,0,0,0.083333,1.9737e-16,0,0.66667
0.5279,0.5253,6.3348,0.037957,5.2348,440.72,-0.64121,0.21374,-1.9949,-0.85495,-5.2103e-13,-0.99744,0,0,0.083333,-0,-0,0.66667
0.74008,0.36621,8.8809,-0.20069,-17.319,146.75,4.7528,-1.5843,-1.8535,6.337,2.6188e-12,-0.92675,0,0,0.083333,-7.8949e-16,0,0.66667
0.14993,0.60239,1.7992,0.15358,28.739,1207.6,-0.73685,0.24562,-1.9124,-0.98247,-8.3103e-10,-0.95621,0,0,0.083333,-0,-0,0.66667
0.55109,0.45316,6.613,-0.070264,-9.3529,402.48,1.2391,-0.41303,-1.9805,1.6521,-3.2159e-12,-0.99023,0,0,0.083333,7.8949e-16,0,0.66667
0.21662,0.72246,2.5994,0.33368,60.905,1058.2,-2.313,0.771,-1.6068,-3.084,1.9158e-11,-0.80341,0,0,0.083333,-0,-0,0.66667
0.7592,0.24977,9.1104,-0.37534,-30.364,127.54,9.1187,-3.0396,-1.4966,12.158,7.9812e-12,-0.74832,0,0,0.083333,-7.4015e-17,0,0.66667
0.72292,0.084038,8.675,-0.62394,-57.078,166.76,14.434,-4.8113,-0.61413,19.245,4.1047e-11,-0.30707,0,0,0.083333,-0,-0,0.66667
0.17655,0.20822,2.1186,-0.43766,-81.244,1147.6,2.4726,-0.82421,-1.3165,3.2968,-5.6093e-12,-0.65826,0,0,0.083333,-0,-0,0.66667
0.86197,0.89903,10.344,0.59854,29.409,45.872,-16.51,5.5032,-0.72747,-22.013,-2.4032e-08,-0.36373,0,0,0.083333,-0,-0,0.66667
0.019775,0.62664,0.2373,0.18996,36.354,1507.1,-0.12021,0.040069,-1.8712,-0.16027,8.2947e-07,-0.93559,0,0,0.083333,-4.9343e-17,0,0.66667
0.86024,0.54363,10.323,0.065447,3.2291,45.304,-1.8016,0.60053,-1.9896,-2.4021,-1.1464e-10,-0.99482,0,0,0.083333,-1.579e-15,0,0.66667
0.5589,0.92791,6.7068,0.64186,84.641,391.09,-11.48,3.8266,-0.53434,-15.306,-5.4081e-12,-0.26717,0,0,0.083333,-0,-0,0.66667
0.40322,0.88194,4.8386,0.57292,91.976,668.18,-7.3924,2.4641,-0.8334,-9.8565,3.5851e-12,-0.4167,0,0,0.083333,-0,-0,0.66667
0.75875,0.73783,9.105,0.35675,28.902,127.93,-8.6618,2.8873,-1.5433,-11.549,-6.9278e-12,-0.77163,0,0,0.083333,-1.688e-15,0,0.66667
0.71693,0.2611,8.6031,-0.35836,-33.279,172.5,8.2213,-2.7404,-1.546,10.962,5.2403e-13,-0.77298,0,0,0.083333,-0,-0,0.66667
0.98733,0.60358,11.848,0.15537,0.66457,0.71092,-4.9087,1.6362,-1.9145,-6.5449,-1.6027e-08,-0.95723,0,0,0.083333,-0,-0,0.66667
0.27809,0.4976,3.337,-0.0035968,-0.63508,924.08,0.032007,-0.010669,-2.0008,0.042676,-8.8081e-12,-1.0004,0,0,0.083333,-5.9212e-16,0,0.66667
0.0037937,0.97111,0.045524,0.70667,135.63,1544.2,-0.085933,0.028659,-0.22431,-0.11457,2.2756e-05,-0.11216,0,0,0.083333,-0,-0,0.66667
0.9339,0.071572,11.207,-0.64264,-15.672,13.025,19.205,-6.4018,-0.53084,25.607,3.9137e-07,-0.26542,0,0,0.083333,-0,-0,0.66667
0.8579,0.74205,10.295,0.36307,18.242,47.34,-9.9672,3.3224,-1.5349,-13.29,1.706e-09,-0.76747,0,0,0.083333,7.8949e-16,0,0.66667
0.72885,0.92647,8.7462,0.63971,57.475,160.28,-14.92,4.9733,-0.54166,-19.893,2.5393e-12,-0.27083,0,0,0.083333,7.8949e-16,0,0.66667
0.51669,0.65174,6.2003,0.2276,31.913,459.84,-3.7632,1.2544,-1.8209,-5.0176,-5.5838e-12,-0.91047,0,0,0.083333,-9.8686e-16,0,0.66667
0.70696,0.93042,8.4835,0.64563,61.909,185.08,-14.606,4.8686,-0.51699,-19.474,-1.3642e-12,-0.25849,0,0,0.083333,3.9475e-16,0,0.66667
0.78053,0.45537,9.3664,-0.06695,-4.9844,106.61,1.6722,-0.5574,-1.9893,2.2296,4.3153e-12,-0.99464,0,0,0.083333,1.579e-15,0,0.66667
0.37488,0.11087,4.4985,-0.58369,-96.185,724.05,7.002,-2.334,-0.79552,9.336,-1.6653e-12,-0.39776,0,0,0.083333,7.8949e-16,0,0.66667
0.77032,0.95794,9.2439,0.68691,53.561,118.08,-16.932,5.6442,-0.3199,-22.577,-3.162e-10,-0.15995,0,0,0.083333,-0,-0,0.66667
0.75062,0.10449,9.0075,-0.59326,-49.597,137.02,14.25,-4.75,-0.75422,19,1.5264e-10,-0.37711,0,0,0.083333,-1.579e-15,0,0.66667
0.61321,0.0099463,7.3585,-0.73508,-88.048,308.59,14.424,-4.8081,-0.077565,19.232,5.4863e-12,-0.038782,0,0,0.083333,-0,-0,0.66667
0.40187,0.45435,4.8224,-0.068473,-10.984,670.12,0.88054,-0.29351,-1.9811,1.1741,3.6265e-13,-0.99056,0,0,0.083333,-0,-0,0.66667
0.69731,0.15606,8.3677,-0.51591,-50.732,195.93,11.512,-3.8373,-1.0516,15.349,1.9273e-12,-0.52581,0,0,0.083333,6.7847e-16,0,0.66667
0.0031129,0.95616,0.037354,0.68424,131.31,1545.8,-0.068228,0.022775,-0.33522,-0.090954,4.9202e-05,-0.16761,0,0,0.083333,-3.084e-18,-3.7985e-16,0.66667
0.7749,0.028189,9.2988,-0.70772,-54.244,113.88,17.549,-5.8497,-0.21619,23.399,-1.3072e-11,-0.1081,0,0,0.083333,2.0378e-15,0,0.66667
0.89642,0.93699,10.757,0.65549,24.632,27.682,-18.803,6.2676,-0.4702,-25.071,-3.4325e-07,-0.2351,0,0,0.083333,9.8686e-17,0,0.66667
0.23932,0.059047,2.8718,-0.66143,-119.64,1008.6,5.0653,-1.6884,-0.44262,6.7537,7.2402e-11,-0.22131,0,0,0.083333,-9.8686e-17,0,0.66667
0.12077,0.26721,1.4492,-0.34919,-65.907,1274.1,1.3495,-0.44982,-1.5645,1.7993,2.0157e-09,-0.78223,0,0,0.083333,-0,-0,0.66667
0.22028,0.67864,2.6434,0.26796,48.816,1050,-1.8889,0.62963,-1.7481,-2.5185,2.8742e-11,-0.87405,0,0,0.083333,-1.9737e-16,0,0.66667
0.3021,0.87235,3.6252,0.55852,97.305,873.51,-5.3993,1.7998,-0.88884,-7.1991,-9.3046e-12,-0.44442,0,0,0.083333,-4.9343e-16,0,0.66667
0.88303,0.092388,10.596,-0.61142,-25.737,34.044,17.277,-5.7589,-0.66777,23.036,-6.4885e-08,-0.33389,0,0,0.083333,3.2809e-16,0,0.66667
0.54317,0.68644,6.518,0.27965,37.712,415.61,-4.8608,1.6203,-1.7222,-6.481,6.2399e-12,-0.86109,0,0,0.083333,-8.3884e-16,0,0.66667
0.28671,0.99719,3.4405,0.74578,131.41,906.49,-6.8424,2.2808,-0.020155,-9.1232,7.6836e-12,-0.010077,0,0,0.083333,1.9737e-16,0,0.66667
0.13835,0.8377,1.6603,0.50655,95.236,1234.1,-2.2427,0.74756,-1.0897,-2.9903,-1.0834e-08,-0.54486,0,0,0.083333,-0,-0,0.66667
0.29014,0.36219,3.4817,-0.20672,-36.238,898.4,1.9193,-0.63978,-1.8439,2.5591,6.0519e-12,-0.92193,0,0,0.083333,-0,-0,0.66667
0.61387,0.33942,7.3665,-0.24087,-28.694,306.06,4.7317,-1.5772,-1.7922,6.3089,2.2324e-12,-0.89612,0,0,0.083333,-7.8949e-16,0,0.66667
0.32414,0.4495,3.8897,-0.075744,-12.971,826.84,0.78565,-0.26188,-1.978,1.0475,-1.4236e-11,-0.98901,0,0,0.083333,7.8949e-16,0,0.66667
0.45736,0.033987,5.4883,-0.69902,-106.08,566.13,10.231,-3.4102,-0.2618,13.641,-3.5882e-13,-0.1309,0,0,0.083333,-0,-0,0.66667
0.44412,0.15561,5.3294,-0.51659,-79.464,590.11,7.3416,-2.4472,-1.0485,9.7889,-6.2439e-13,-0.52426,0,0,0.083333,-1.0609e-15,0,0.66667
0.82814,0.28565,9.9376,-0.32153,-19.243,67.534,8.5206,-2.8402,-1.6405,11.361,2.0271e-10,-0.82026,0,0,0.083333,-0,-0,0.66667
0.42635,0.15942,5.1162,-0.51088,-80.099,623.56,6.97,-2.3233,-1.0708,9.2933,1.017e-12,-0.53538,0,0,0.083333,-1.579e-15,0,0.66667
0.3457,0.86473,4.1484,0.54709,92.339,782.91,-6.0521,2.0174,-0.93812,-8.0695,6.9713e-12,-0.46906,0,0,0.083333,-0,-0,0.66667
0.67497,0.57287,8.0997,0.1093,11.363,222.6,-2.3608,0.78694,-1.9575,-3.1478,6.8834e-14,-0.97875,0,0,0.083333,-0,-0,0.66667
0.22148,0.31745,2.6578,-0.27382,-49.857,1047.4,1.9407,-0.6469,-1.7347,2.5876,-1.9561e-11,-0.86734,0,0,0.083333,-0,-0,0.66667
0.46725,0.58764,5.6069,0.13146,19.656,546.91,-1.9656,0.65521,-1.9423,-2.6208,-5.1706e-12,-0.97117,0,0,0.083333,3.9475e-16,0,0.66667
0.31477,0.54619,3.7772,0.06929,11.946,846.39,-0.69793,0.23264,-1.9844,-0.93057,-1.5704e-12,-0.99218,0,0,0.083333,-0,-0,0.66667
0.62686,0.25406,7.5223,-0.36891,-42.834,287.7,7.4,-2.4667,-1.5194,9.8667,-5.933e-13,-0.7597,0,0,0.083333,-0,-0,0.66667
0.87736,0.98126,10.528,0.72189,31.88,37.76,-20.267,6.7558,-0.14843,-27.023,-2.8395e-07,-0.074217,0,0,0.083333,-3.158e-15,0,0.66667
0.44769,0.45122,5.3723,-0.073165,-11.19,582.84,1.0482,-0.34939,-1.9776,1.3975,1.8108e-12,-0.9888,0,0,0.083333,-7.8949e-16,0,0.66667
0.78446,0.28997,9.4135,-0.31505,-23.115,103.43,7.9086,-2.6362,-1.647,10.545,3.7572e-11,-0.82351,0,0,0.083333,-0,-0,0.66667
0.45697,0.6921,5.4836,0.28815,43.628,565.87,-4.2136,1.4045,-1.7042,-5.6181,-8.1308e-12,-0.85209,0,0,0.083333,-0,-0,0.66667
0.65623,0.76542,7.8748,0.39813,43.356,247.48,-8.3604,2.7868,-1.4436,-11.147,-3.7437e-12,-0.7218,0,0,0.083333,7.8949e-16,0,0.66667
0.13184,0.51895,1.5821,0.028423,5.3458,1248.8,-0.11991,0.039971,-1.9929,-0.15988,-1.5956e-09,-0.99646,0,0,0.083333,-0,-0,0.66667
0.43298,0.21785,5.1958,-0.42323,-65.857,610.8,5.864,-1.9547,-1.3623,7.8186,1.7821e-12,-0.68113,0,0,0.083333,-2.4672e-16,0,0.66667
0.90931,0.84675,10.912,0.52012,17.134,21.229,-15.134,5.0448,-1.0391,-20.179,7.5743e-08,-0.51956,0,0,0.083333,3.158e-15,0,0.66667
0.60548,0.86881,7.2657,0.55322,67.131,319.15,-10.719,3.5729,-0.91091,-14.292,-1.5721e-12,-0.45546,0,0,0.083333,3.5852e-16,0,0.66667
0.76677,0.66496,9.2013,0.24743,19.447,119.8,-6.0712,2.0237,-1.7867,-8.095,-1.1936e-11,-0.89335,0,0,0.083333,-0,-0,0.66667
0.5047,0.22736,6.0564,-0.40896,-58.351,480.77,6.6048,-2.2016,-1.4031,8.8064,-2.4474e-12,-0.70154,0,0,0.083333,-0,-0,0.66667
0.49806,0.10606,5.9767,-0.59092,-85.181,492.82,9.4179,-3.1393,-0.76068,12.557,3.5625e-12,-0.38034,0,0,0.083333,-0,-0,0.66667
0.8429,0.17196,10.115,-0.49206,-27.189,57.645,13.272,-4.4241,-1.1439,17.696,1.8343e-09,-0.57197,0,0,0.083333,1.579e-15,2.4412e-17,0.66667
0.067807,0.71147,0.81368,0.31721,60.472,1395.9,-0.68828,0.22943,-1.6395,-0.91771,-2.6575e-07,-0.81973,0,0,0.083333,-4.9343e-17,0,0.66667
0.57327,0.028099,6.8793,-0.70785,-91.198,368.66,12.985,-4.3284,-0.21677,17.314,-1.3767e-13,-0.10838,0,0,0.083333,-0,1.1558e-16,0.66667
0.94276,0.023751,11.313,-0.71437,-15.213,10.943,21.552,-7.1838,-0.18273,28.735,1.5008e-05,-0.091366,0,0,0.083333,1.579e-15,0,0.66667
0.51786,0.7344,6.2143,0.3516,49.242,458.05,-5.8265,1.9422,-1.562,-7.7686,-2.3381e-12,-0.78098,0,0,0.083333,7.8949e-16,0,0.66667
0.19447,0.63393,2.3336,0.2009,37.005,1107.3,-1.2502,0.41673,-1.8525,-1.6669,2.7201e-11,-0.92623,0,0,0.083333,-3.9475e-16,0,0.66667
0.84794,0.077065,10.175,-0.6344,-34.122,54.979,17.214,-5.738,-0.56706,22.952,-4.9023e-08,-0.28353,0,0,0.083333,-0,-0,0.66667
0.25164,0.59101,3.0197,0.13651,24.473,981.21,-1.0992,0.36641,-1.9377,-1.4657,-2.0366e-12,-0.96887,0,0,0.083333,5.9212e-16,0,0.66667
0.70073,0.79246,8.4087,0.4387,42.703,191.58,-9.837,3.279,-1.317,-13.116,3.3191e-12,-0.6585,0,0,0.083333,-1.579e-15,0,0.66667
0.54026,0.24544,6.4831,-0.38183,-51.749,420.58,6.6013,-2.2004,-1.4783,8.8017,-2.8844e-12,-0.73913,0,0,0.083333,-1.1842e-15,0,0.66667
0.94884,0.28583,11.386,-0.32125,-5.997,7.3205,9.754,-3.2513,-1.6318,13.005,-1.8795e-07,-0.81591,0,0,0.083333,-3.158e-15,0,0.66667
0.62434,0.13077,7.492,-0.55385,-64.742,291.84,11.065,-3.6884,-0.91535,14.754,5.8371e-12,-0.45767,0,0,0.083333,-1.579e-15,6.2754e-17,0.66667
0.83798,0.34362,10.056,-0.23457,-13.289,60.216,6.2902,-2.0967,-1.8024,8.3869,-1.2297e-10,-0.90118,0,0,0.083333,-2.2821e-15,0,0.66667
0.0079329,0.37144,0.095195,-0.19284,-36.918,1534.6,0.048953,-0.016317,-1.8643,0.065271,7.1951e-07,-0.93216,0,0,0.083333,1.542e-17,0,0.66667
0.98934,0.94382,11.872,0.66573,2.6282,2.7805,-21.076,7.0255,-0.42186,-28.102,9.4008e-05,-0.21093,0,0,0.083333,-3.158e-15,0,0.66667
0.077715,0.74187,0.93257,0.3628,69.074,1373,-0.90223,0.30074,-1.5384,-1.203,-1.5971e-07,-0.76922,0,0,0.083333,4.9343e-17,0,0.66667
0.32213,0.38509,3.8656,-0.17236,-29.565,831.06,1.7768,-0.59225,-1.8907,2.369,-8.1971e-12,-0.94537,0,0,0.083333,-0,-0,0.66667
0.94615,0.91218,11.354,0.61827,12.324,9.405,-18.719,6.2398,-0.63716,-24.959,-4.1405e-06,-0.31858,0,0,0.083333,-3.158e-15,0,0.66667
0.0089391,0.8855,0.10727,0.57825,110.88,1532.3,-0.1654,0.055111,-0.80707,-0.22054,-3.2656e-05,-0.40353,0,0,0.083333,2.4672e-17,0,0.66667
0.82273,0.98629,9.8728,0.72943,45.23,73.472,-19.204,6.4013,-0.10486,-25.605,-1.2333e-09,-0.05243,0,0,0.083333,-0,-0,0.66667
0.86121,0.52822,10.335,0.042337,2.0752,44.694,-1.1668,0.38892,-1.9971,-1.5557,-1.9806e-09,-0.99856,0,0,0.083333,7.8949e-16,0,0.66667
0.43983,0.29252,5.278,-0.31121,-48.043,597.72,4.3802,-1.4601,-1.6571,5.8403,-2.7387e-12,-0.82853,0,0,0.083333,-0,-0,0.66667
0.25575,0.1184,3.0689,-0.57241,-102.57,972.71,4.6845,-1.5615,-0.83194,6.246,-5.1172e-12,-0.41597,0,0,0.083333,-1.9737e-16,0,0.66667
0.80269,0.11417,9.6323,-0.57874,-39.387,88.586,14.865,-4.9552,-0.80556,19.821,-1.1045e-09,-0.40278,0,0,0.083333,-0,-0,0.66667
0.47786,0.73687,5.7343,0.3553,52.48,528.01,-5.4332,1.8111,-1.547,-7.2442,8.4821e-14,-0.77352,0,0,0.083333,-7.8949e-16,0,0.66667
0.13434,0.28461,1.6121,-0.32308,-60.758,1243.1,1.3889,-0.46295,-1.6259,1.8518,4.0975e-09,-0.81295,0,0,0.083333,-3.9475e-16,0,0.66667
0.92785,0.61403,11.134,0.17105,4.4734,13.077,-5.0786,1.6929,-1.8923,-6.7714,1.293e-07,-0.94615,0,0,0.083333,-0,-0,0.66667
0.89597,0.088964,10.752,-0.61655,-23.232,27.655,17.677,-5.8924,-0.64591,23.57,1.5189e-07,-0.32296,0,0,0.083333,7.8949e-16,0,0.66667
0.49155,0.9408,5.8985,0.66119,96.19,504.48,-10.4,3.4667,-0.44226,-13.867,4.1398e-12,-0.22113,0,0,0.083333,-0,-0,0.66667
0.8567,0.39533,10.28,-0.15701,-7.9329,47.6,4.3043,-1.4348,-1.9131,5.739,-1.0596e-09,-0.95655,0,0,0.083333,-0,-0,0.66667
0.41858,0.024395,5.0229,-0.71341,-112.94,638.94,9.5557,-3.1852,-0.19038,12.741,-1.5727e-11,-0.095188,0,0,0.083333,-0,-6.7596e-17,0.66667
0.68346,0.50365,8.2016,0.0054717,0.55663,211.87,-0.11967,0.03989,-1.9992,-0.15956,-9.9863e-12,-0.99958,0,0,0.083333,3.158e-15,0,0.66667
0.39799,0.069734,4.7759,-0.6454,-104.19,678.56,8.2196,-2.7399,-0.51502,10.959,-1.3544e-11,-0.25751,0,0,0.083333,-0,-0,0.66667
0.50574,0.81307,6.0689,0.46961,66.936,479.11,-7.6,2.5333,-1.2138,-10.133,-8.7801e-12,-0.60691,0,0,0.083333,1.579e-15,0,0.66667
0.18955,0.90487,2.2746,0.6073,112.29,1118.7,-3.6837,1.2279,-0.69196,-4.9116,9.8868e-10,-0.34598,0,0,0.083333,-5.9212e-16,0,0.66667
0.96499,0.28151,11.58,-0.32774,-4.1744,3.9393,10.121,-3.3735,-1.6184,13.494,3.1489e-07,-0.80921,0,0,0.083333,-3.158e-15,0,0.66667
0.29422,0.28752,3.5306,-0.31873,-55.746,889.84,3.0008,-1.0003,-1.64,4.001,4.0778e-12,-0.82002,0,0,0.083333,-7.8949e-16,0,0.66667
0.10346,0.97723,1.2415,0.71585,135.94,1314,-2.37,0.78999,-0.17455,-3.16,-9.8549e-07,-0.087276,0,0,0.083333,-0,-0,0.66667
0.14432,0.60866,1.7318,0.16299,30.551,1220.4,-0.7527,0.2509,-1.9043,-1.0036,-1.052e-09,-0.95217,0,0,0.083333,-1.9737e-16,0,0.66667
0.014092,0.54121,0.16911,0.061819,11.831,1520.3,-0.027878,0.0092936,-1.9897,-0.03717,1.5595e-06,-0.99487,0,0,0.083333,-0,-0,0.66667
0.71595,0.49463,8.5913,-0.0080557,-0.74919,173.13,0.18456,-0.061519,-2.0008,0.24608,-8.1743e-13,-1.0004,0,0,0.083333,3.9475e-16,0,0.66667
0.5645,0.11561,6.774,-0.57659,-75.29,381.95,10.415,-3.4718,-0.82024,13.887,3.4639e-13,-0.41012,0,0,0.083333,-0,-0,0.66667
0.79458,0.78363,9.5349,0.42544,29.944,94.826,-10.817,3.6058,-1.359,-14.423,-7.8399e-11,-0.67952,0,0,0.083333,-0,-0,0.66667
0.50708,0.74487,6.085,0.36731,52.227,476.57,-5.9602,1.9867,-1.5167,-7.9469,-4.7007e-12,-0.75835,0,0,0.083333,9.8686e-16,0,0.66667
0.79182,0.4285,9.5019,-0.10726,-7.6204,96.51,2.7177,-0.9059,-1.9564,3.6236,3.6177e-11,-0.97819,0,0,0.083333,-0,-0,0.66667
0.69576,0.66349,8.3492,0.24523,24.163,197.02,-5.4599,1.82,-1.7822,-7.2799,-2.5464e-12,-0.89112,0,0,0.083333,1.579e-15,0,0.66667
0.77785,0.79587,9.3342,0.44381,33.486,109.88,-11.047,3.6823,-1.2989,-14.729,-2.2614e-11,-0.64947,0,0,0.083333,1.579e-15,0,0.66667
0.40648,0.29458,4.8778,-0.30813,-49.237,661.34,4.008,-1.336,-1.669,5.344,-6.9247e-12,-0.8345,0,0,0.083333,-7.8949e-16,0,0.66667
0.64777,0.74779,7.7732,0.37168,41.255,258.75,-7.7045,2.5682,-1.5057,-10.273,6.7768e-13,-0.75284,0,0,0.083333,-9.8686e-16,0,0.66667
0.17979,0.85284,2.1575,0.52925,98.177,1140.4,-3.045,1.015,-0.99988,-4.06,1.1356e-09,-0.49994,0,0,0.083333,3.9475e-16,0,0.66667
0.32182,0.45699,3.8618,-0.064517,-11.067,831.66,0.66441,-0.22147,-1.9813,0.88588,-5.2535e-12,-0.99063,0,0,0.083333,-7.7586e-16,0,0.66667
0.1726,0.44045,2.0713,-0.08932,-16.587,1156.3,0.49335,-0.16445,-1.9779,0.65779,2.0236e-10,-0.98896,0,0,0.083333,-0,-0,0.66667
0.40864,0.25108,4.9036,-0.37338,-59.555,657.26,4.8825,-1.6275,-1.507,6.51,1.8314e-12,-0.75348,0,0,0.083333,-0,-0,0.66667
0.24142,0.51032,2.897,0.015473,2.7887,1003.5,-0.11954,0.039846,-1.995,-0.15939,6.9083e-12,-0.99749,0,0,0.083333,-0,-0,0.66667
0.40692,0.045262,4.8831,-0.68211,-109.21,661.29,8.8821,-2.9607,-0.35104,11.843,-1.713e-11,-0.17552,0,0,0.083333,7.8949e-16,0,0.66667
0.97522,0.49627,11.703,-0.0055942,-0.049299,1.8241,0.17458,-0.058191,-1.9967,0.23277,3.3557e-06,-0.99837,0,0,0.083333,7.8949e-16,0,0.66667
0.32032,0.7315,3.8438,0.34725,59.671,834.99,-3.5593,1.1864,-1.5669,-4.7458,-5.6457e-12,-0.78343,0,0,0.083333,-0,-0,0.66667
0.98249,0.52178,11.79,0.032676,0.19875,1.0056,-1.0273,0.34244,-1.9987,-1.3698,3.1209e-07,-0.99937,0,0,0.083333,-1.579e-15,0,0.66667
0.63631,0.70967,7.6357,0.3145,35.785,274.33,-6.4039,2.1346,-1.6465,-8.5385,-4.1878e-13,-0.82324,0,0,0.083333,-0,-0,0.66667
0.37509,0.51326,4.5011,0.019893,3.2705,722.94,-0.23878,0.079592,-2.0056,-0.31837,5.5826e-12,-1.0028,0,0,0.083333,-0,-0,0.66667
0.85748,0.30267,10.29,-0.29599,-14.898,47.396,8.1219,-2.7073,-1.691,10.829,-1.4642e-09,-0.84549,0,0,0.083333,-0,-0,0.66667
0.61959,0.36798,7.435,-0.19803,-23.318,297.74,3.9263,-1.3088,-1.8577,5.2351,-3.0227e-12,-0.92886,0,0,0.083333,-0,-0,0.66667
0.25203,0.2038,3.0244,-0.4443,-79.718,980.59,3.5833,-1.1944,-1.3001,4.7777,4.1944e-13,-0.65004,0,0,0.083333,-0,-0,0.66667
0.79286,0.30441,9.5143,-0.29338,-20.775,95.921,7.4436,-2.4812,-1.6926,9.9247,5.3763e-11,-0.84632,0,0,0.083333,-0,-0,0.66667
0.43294,0.94668,5.1953,0.67002,104.45,611.51,-9.2824,3.0941,-0.40168,-12.377,3.0829e-12,-0.20084,0,0,0.083333,-0,-0,0.66667
0.35751,0.30176,4.2901,-0.29737,-49.651,758.48,3.402,-1.134,-1.6881,4.536,4.051e-12,-0.84404,0,0,0.083333,-3.9475e-16,0,0.66667
0.33028,0.38914,3.9633,-0.16629,-28.353,814.14,1.7575,-0.58583,-1.9034,2.3433,3.3784e-12,-0.95169,0,0,0.083333,-0,-0,0.66667
0.69737,0.1887,8.3684,-0.46695,-45.886,195.68,10.42,-3.4734,-1.2225,13.894,1.9265e-12,-0.61127,0,0,0.083333,-0,-0,0.66667
0.26865,0.31974,3.2238,-0.27039,-48.031,944.46,2.3245,-0.77484,-1.7405,3.0993,7.1856e-12,-0.87023,0,0,0.083333,-0,-0,0.66667
0.80828,0.67173,9.6993,0.2576,17.014,82.822,-6.6628,2.2209,-1.7621,-8.8837,-6.9743e-11,-0.88103,0,0,0.083333,-0,-0,0.66667
0.29529,0.40241,3.5435,-0.14639,-25.574,887.44,1.3833,-0.4611,-1.9277,1.8444,-3.3284e-12,-0.96387,0,0,0.083333,-4.9343e-16,0,0.66667
0.54412,0.35964,6.5295,-0.21055,-28.343,413.94,3.666,-1.222,-1.8428,4.888,-2.5546e-12,-0.92141,0,0,0.083333,7.8949e-16,0,0.66667
0.48792,0.019674,5.8551,-0.72049,-105.37,511.09,11.249,-3.7498,-0.15342,14.999,1.9895e-12,-0.076712,0,0,0.083333,-0,-0,0.66667
0.85536,0.75373,10.264,0.38059,19.445,48.999,-10.417,3.4724,-1.4843,-13.89,1.0288e-09,-0.74213,0,0,0.083333,-0,-0,0.66667
0.88839,0.49995,10.661,-7.2455e-05,-0.0028897,29.532,0.0020598,-0.0006866,-2.0032,0.0027464,-1.2464e-08,-1.0016,0,0,0.083333,4.3175e-17,0,0.66667
0.18438,0.37194,2.2126,-0.19209,-35.522,1129.9,1.1334,-0.37779,-1.8697,1.5112,-1.5647e-10,-0.93484,0,0,0.083333,2.4672e-16,0,0.66667
0.58535,0.020792,7.0242,-0.71881,-90.69,350.05,13.464,-4.4881,-0.15866,17.952,-2.2489e-12,-0.079329,0,0,0.083333,-0,-0,0.66667
0.89821,0.97006,10.778,0.70509,26.111,27.176,-20.266,6.7553,-0.22934,-27.021,1.2438e-06,-0.11467,0,0,0.083333,-0,-0,0.66667
0.44612,0.35913,5.3534,-0.21131,-32.383,585.86,3.0166,-1.0055,-1.8369,4.0221,-3.2929e-13,-0.91845,0,0,0.083333,-7.8949e-16,0,0.66667
0.92187,0.49659,11.062,-0.0051189,-0.14459,15.027,0.15101,-0.050336,-2.0082,0.20134,-1.604e-07,-1.0041,0,0,0.083333,2.3685e-15,0,0.66667
0.27899,0.61758,3.3479,0.17637,31.131,922.19,-1.5746,0.52487,-1.8913,-2.0995,-1.2157e-11,-0.94566,0,0,0.083333,-0,-0,0.66667
0.60883,0.34111,7.306,-0.23833,-28.672,313.41,4.6432,-1.5477,-1.8049,6.191,6.5326e-13,-0.90245,0,0,0.083333,9.8686e-16,0,0.66667
0.68245,0.94513,8.1894,0.6677,68.41,214.75,-14.582,4.8605,-0.41231,-19.442,7.9226e-13,-0.20615,0,0,0.083333,-0,-0,0.66667
0.22821,0.027929,2.7385,-0.70811,-128.83,1033.1,5.171,-1.7237,-0.21429,6.8947,-1.5437e-12,-0.10715,0,0,0.083333,-0,-0,0.66667
0.013768,0.77805,0.16521,0.41707,79.895,1521.1,-0.18374,0.061247,-1.3849,-0.24499,-9.6955e-07,-0.69246,0,0,0.083333,3.7007e-17,0,0.66667
0.41672,0.85534,5.0007,0.53301,84.412,641.99,-7.1078,2.3693,-0.98687,-9.477,-1.5459e-12,-0.49343,0,0,0.083333,-0,-0,0.66667
0.93848,0.86094,11.262,0.5414,12.245,11.053,-16.259,5.4197,-0.9623,-21.679,-5.0433e-07,-0.48115,0,0,0.083333,-0,-0,0.66667
0.34303,0.36286,4.1163,-0.20571,-34.739,787.91,2.2581,-0.7527,-1.8548,3.0108,4.3336e-12,-0.9274,0,0,0.083333,-0,-0,0.66667
0.77974,0.63537,9.3569,0.20306,15.173,107.48,-5.0666,1.6889,-1.8568,-6.7555,-2.5835e-11,-0.92838,0,0,0.083333,-0,-0,0.66667
0.17474,0.41445,2.0968,-0.12832,-23.813,1151.5,0.71752,-0.23917,-1.9421,0.9567,-6.3528e-11,-0.97103,0,0,0.083333,-0,-0,0.66667
0.34195,0.60786,4.1034,0.16178,27.34,790.08,-1.7703,0.5901,-1.9094,-2.3604,-1.1163e-11,-0.95471,0,0,0.083333,-0,-0,0.66667
0.1446,0.66219,1.7352,0.24329,45.608,1219.8,-1.1257,0.37525,-1.7886,-1.501,-1.1624e-09,-0.89428,0,0,0.083333,-3.9475e-16,0,0.66667
0.71677,0.78186,8.6012,0.42279,39.303,172.87,-9.6975,3.2325,-1.3681,-12.93,-1.4797e-12,-0.68403,0,0,0.083333,-0,-0,0.66667
0.69931,0.22224,8.3917,-0.41665,-40.707,193.2,9.3236,-3.1079,-1.3824,12.432,-2.8502e-12,-0.6912,0,0,0.083333,-0,-0,0.66667
0.6885,0.74969,8.262,0.37453,37.659,206.16,-8.2517,2.7506,-1.5073,-11.002,-1.3936e-12,-0.75366,0,0,0.083333,7.6482e-16,0,0.66667
0.2534,0.1817,3.0408,-0.47745,-85.618,977.67,3.8715,-1.2905,-1.1894,5.162,1.5741e-12,-0.59471,0,0,0.083333,-0,-0,0.66667
0.69236,0.64782,8.3083,0.22173,22.046,201.11,-4.9125,1.6375,-1.8228,-6.5499,-1.2057e-12,-0.91138,0,0,0.083333,7.8949e-16,0,0.66667
0.2273,0.64085,2.7276,0.21128,38.356,1034.5,-1.5367,0.51224,-1.8369,-2.049,1.1908e-11,-0.91846,0,0,0.083333,-2.6917e-16,0,0.66667
0.42465,0.073921,5.0958,-0.63912,-100.48,627.12,8.6848,-2.8949,-0.54818,11.58,-6.0343e-12,-0.27409,0,0,0.083333,-0,-0,0.66667
0.37192,0.44403,4.4631,-0.083958,-13.842,729.29,0.99922,-0.33307,-1.9753,1.3323,-1.6213e-12,-0.98767,0,0,0.083333,7.8949e-16,0,0.66667
0.35531,0.85665,4.2637,0.53498,89.596,763.32,-6.0827,2.0276,-0.98065,-8.1102,6.9198e-12,-0.49033,0,0,0.083333,-0,-0,0.66667
0.057655,0.8131,0.69186,0.46965,89.707,1419.4,-0.86649,0.28883,-1.2145,-1.1553,1.4099e-07,-0.60727,0,0,0.083333,1.9737e-16,0,0.66667
0.63165,0.2477,7.5798,-0.37845,-43.507,280.98,7.6494,-2.5498,-1.4878,10.199,-4.559e-12,-0.7439,0,0,0.083333,9.8686e-16,0,0.66667
0.70732,0.67901,8.4878,0.26851,25.625,183.36,-6.0776,2.0259,-1.742,-8.1034,6.8168e-13,-0.87102,0,0,0.083333,-0,-0,0.66667
0.61359,0.30847,7.3631,-0.2873,-34.25,306.55,5.641,-1.8803,-1.7055,7.5213,-1.1235e-13,-0.85274,0,0,0.083333,-3.9475e-16,0,0.66667
0.64831,0.033284,7.7798,-0.70007,-77.866,259.23,14.524,-4.8412,-0.25423,19.365,-2.0774e-12,-0.12712,0,0,0.083333,1.579e-15,0,0.66667
0.16994,0.43088,2.0393,-0.10368,-19.273,1162.3,0.56385,-0.18795,-1.9645,0.7518,3.1569e-10,-0.98225,0,0,0.083333,-9.6748e-17,0,0.66667
0.14945,0.55898,1.7934,0.088468,16.556,1208.7,-0.42308,0.14103,-1.9689,-0.5641,4.4683e-10,-0.98446,0,0,0.083333,-5.4441e-17,0,0.66667
0.51418,0.30033,6.1701,-0.2995,-42.155,464.24,4.9279,-1.6426,-1.6844,6.5705,8.7219e-13,-0.84222,0,0,0.083333,7.8949e-16,0,0.66667
0.87533,0.54355,10.504,0.065318,2.8942,36.46,-1.8296,0.60986,-1.9912,-2.4395,4.2347e-09,-0.99559,0,0,0.083333,-1.579e-15,0,0.66667
0.18395,0.46484,2.2074,-0.052738,-9.7524,1130.8,0.31044,-0.10348,-1.9901,0.41392,2.2615e-10,-0.99505,0,0,0.083333,-1.9737e-16,0,0.66667
0.46284,0.77951,5.5541,0.41926,63.086,555.33,-6.2097,2.0699,-1.3726,-8.2795,-7.0361e-12,-0.68628,0,0,0.083333,7.8949e-16,0,0.66667
0.42893,0.70663,5.1472,0.30994,48.411,618.27,-4.2542,1.4181,-1.6542,-5.6723,-7.7285e-12,-0.82708,0,0,0.083333,-0,-0,0.66667
0.49729,0.85799,5.9675,0.53699,77.452,494,-8.5452,2.8484,-0.97528,-11.394,1.6671e-12,-0.48764,0,0,0.083333,-0,-0,0.66667
0.16151,0.44092,1.9381,-0.088626,-16.521,1181.4,0.45805,-0.15268,-1.9699,0.61073,2.2905e-10,-0.98495,0,0,0.083333,-3.9475e-16,0,0.66667
0.34244,0.70226,4.1093,0.30339,51.272,789.2,-3.3246,1.1082,-1.6764,-4.4328,-5.8253e-12,-0.83819,0,0,0.083333,-0,-0,0.66667
0.26188,0.69858,3.1426,0.29787,53.122,959.09,-2.4962,0.83207,-1.6834,-3.3283,3.0007e-12,-0.84169,0,0,0.083333,-0,-0,0.66667
0.84453,0.44797,10.134,-0.078039,-4.2519,55.476,2.109,-0.703,-1.9836,2.812,8.3517e-11,-0.99178,0,0,0.083333,-1.579e-15,0,0.66667
0.80033,0.99014,9.604,0.7352,50.725,91.442,-18.829,6.2763,-0.077535,-25.105,9.5746e-10,-0.038767,0,0,0.083333,-2.3685e-15,0,0.66667
0.42664,0.4639,5.1197,-0.054156,-8.4739,622.42,0.73937,-0.24646,-1.9877,0.98582,8.9869e-12,-0.99385,0,0,0.083333,1.9737e-16,0,0.66667
0.60702,0.010805,7.2842,-0.73379,-88.957,317.64,14.254,-4.7512,-0.086901,19.005,8.5061e-12,-0.043451,0,0,0.083333,-0,8.9295e-17,0.66667
0.14547,0.5616,1.7456,0.092399,17.312,1217.7,-0.43011,0.14337,-1.9684,-0.57348,-2.3551e-10,-0.98419,0,0,0.083333,-6.1679e-17,0,0.66667
0.50961,0.58758,6.1154,0.13137,18.598,471.88,-2.1423,0.71411,-1.9354,-2.8564,-1.789e-12,-0.96771,0,0,0.083333,3.9475e-16,0,0.66667
0.29695,0.43294,3.5634,-0.10059,-17.553,883.91,0.95583,-0.31861,-1.9719,1.2744,3.5032e-12,-0.98595,0,0,0.083333,5.9212e-16,0,0.66667
0.85965,0.31459,10.316,-0.27812,-13.797,46.001,7.6506,-2.5502,-1.7327,10.201,-1.873e-09,-0.86635,0,0,0.083333,-0,-0,0.66667
0.6716,0.41055,8.0592,-0.13418,-14.066,226.93,2.8836,-0.9612,-1.9433,3.8448,-1.4835e-12,-0.97166,0,0,0.083333,-0,-0,0.66667
0.63347,0.15335,7.6017,-0.51997,-59.615,278.85,10.54,-3.5135,-1.0354,14.054,-1.4904e-12,-0.51771,0,0,0.083333,1.1744e-15,0,0.66667
0.12475,0.44549,1.497,-0.081772,-15.409,1264.9,0.32644,-0.10881,-1.9831,0.43525,1.6273e-09,-0.99157,0,0,0.083333,-0,-0,0.66667
0.47059,0.32321,5.6471,-0.26519,-39.505,540.98,3.9934,-1.3311,-1.7525,5.3246,-1.4246e-12,-0.87625,0,0,0.083333,-0,-0,0.66667
0.98657,0.73172,11.839,0.34759,1.6209,1.2774,-10.973,3.6578,-1.5721,-14.631,1.0242e-07,-0.78603,0,0,0.083333,1.579e-15,0,0.66667
0.9483,0.38557,11.38,-0.17165,-3.2247,7.0804,5.2087,-1.7362,-1.8927,6.945,-4.1929e-08,-0.94633,0,0,0.083333,-0,-0,0.66667
0.64509,0.87411,7.741,0.56117,62.764,263,-11.584,3.8614,-0.87951,-15.445,-5.3539e-12,-0.43975,0,0,0.083333,9.8686e-17,0,0.66667
0.15172,0.86373,1.8207,0.54559,102.19,1203.8,-2.649,0.88298,-0.93935,-3.5319,4.9961e-10,-0.46967,0,0,0.083333,1.9737e-16,0,0.66667
0.63913,0.73845,7.6695,0.35768,40.46,270.53,-7.3152,2.4384,-1.5484,-9.7536,-2.2102e-12,-0.77421,0,0,0.083333,7.8949e-16,0,0.66667
0.56566,0.97989,6.7879,0.71983,93.952,380.67,-13.03,4.3433,-0.15748,-17.373,-1.7426e-12,-0.078742,0,0,0.083333,-0,-0,0.66667
0.46867,0.55926,5.624,0.088886,13.267,544.3,-1.3331,0.44435,-1.98,-1.7774,4.301e-13,-0.98999,0,0,0.083333,-0,-0,0.66667
0.42804,0.5768,5.1364,0.1152,18,619.78,-1.5779,0.52596,-1.9489,-2.1038,-1.0791e-11,-0.97444,0,0,0.083333,7.8949e-16,0,0.66667
0.59927,0.50969,7.1912,0.014532,1.7797,327.38,-0.27868,0.092893,-1.996,-0.37157,2.8497e-13,-0.99801,0,0,0.083333,-0,-0,0.66667
0.84997,0.52678,10.2,0.040168,2.1172,51.825,-1.0925,0.36418,-1.9911,-1.4567,1.0756e-09,-0.99557,0,0,0.083333,1.579e-15,0,0.66667
0.75112,0.24786,9.0135,-0.37821,-31.483,135.68,9.0906,-3.0302,-1.4968,12.121,7.7343e-12,-0.7484,0,0,0.083333,-1.7764e-15,0,0.66667
0.57936,0.55503,6.9523,0.082548,10.482,357.68,-1.5304,0.51014,-1.9801,-2.0405,8.6509e-13,-0.99003,0,0,0.083333,-0,-0,0.66667
0.9247,0.55605,11.096,0.08407,2.2908,14.049,-2.4877,0.82922,-1.9758,-3.3169,7.1669e-08,-0.98788,0,0,0.083333,-0,-0,0.66667
0.06474,0.071573,0.77688,-0.64264,-122.77,1403.1,1.3313,-0.44378,-0.53339,1.7751,-1.409e-06,-0.2667,0,0,0.083333,-0,-0,0.66667
0.99135,0.18605,11.896,-0.47093,-1.3916,1.4917,14.939,-4.9798,-1.2085,19.919,-7.124e-06,-0.60427,0,0,0.083333,-2.1711e-15,0,0.66667
0.052995,0.087282,0.63593,-0.61908,-118.41,1430.2,1.0498,-0.34995,-0.63396,1.3998,-3.3343e-06,-0.31698,0,0,0.083333,-4.9343e-17,0,0.66667
0.1995,0.6076,2.3939,0.1614,29.665,1096.1,-1.0303,0.34344,-1.9063,-1.3738,4.7527e-11,-0.95314,0,0,0.083333,-0,-0,0.66667
0.42275,0.48425,5.073,-0.023632,-3.7127,629.82,0.3197,-0.10657,-2.0028,0.42626,2.2502e-12,-1.0014,0,0,0.083333,-0,-0,0.66667
0.10751,0.1584,1.2901,-0.5124,-97.085,1304.6,1.7628,-0.58761,-1.07,2.3504,8.3876e-09,-0.53502,0,0,0.083333,-3.9475e-16,0,0.66667
0.62367,0.27271,7.484,-0.34093,-39.84,292.15,6.8041,-2.268,-1.5907,9.0722,-1.0214e-14,-0.79533,0,0,0.083333,-0,-0,0.66667
0.047993,0.073561,0.57591,-0.63966,-122.43,1441.8,0.98236,-0.32745,-0.54946,1.3098,6.8823e-06,-0.27473,0,0,0.083333,-0,-0,0.66667
0.28462,0.58312,3.4155,0.12468,21.929,910.12,-1.1356,0.37853,-1.9442,-1.5141,-2.2777e-11,-0.9721,0,0,0.083333,-3.9475e-16,0,0.66667
0.061037,0.52665,0.73244,0.039981,7.6245,1411.5,-0.07809,0.02603,-1.9984,-0.10412,-1.0819e-07,-0.99922,0,0,0.083333,-0,-0,0.66667
0.70352,0.70154,8.4422,0.30231,29.168,187.89,-6.8057,2.2686,-1.6812,-9.0743,2.4603e-13,-0.84058,0,0,0.083333,-0,-0,0.66667
0.66846,0.56295,8.0215,0.094426,9.9745,230.94,-2.0198,0.67327,-1.9691,-2.6931,-6.144e-13,-0.98457,0,0,0.083333,-0,-0,0.66667
0.37858,0.6871,4.543,0.28065,46.021,716.14,-3.4,1.1333,-1.7205,-4.5333,-2.9718e-12,-0.86027,0,0,0.083333,-1.8504e-16,0,0.66667
0.18819,0.02023,2.2583,-0.71965,-133.25,1121.8,4.3339,-1.4446,-0.16397,5.7786,-1.6264e-09,-0.081985,0,0,0.083333,-0,-0,0.66667
0.747,0.50918,8.9641,0.013767,1.1603,139.34,-0.3291,0.1097,-1.9996,-0.4388,2.0273e-12,-0.9998,0,0,0.083333,-3.158e-15,0,0.66667
0.34038,0.80899,4.0846,0.46348,78.511,793.66,-5.0483,1.6828,-1.2366,-6.731,6.8447e-12,-0.61828,0,0,0.083333,-1.9737e-16,0,0.66667
0.7953,0.52375,9.5436,0.035631,2.4934,93.439,-0.9068,0.30227,-1.9989,-1.2091,-3.0038e-11,-0.99947,0,0,0.083333,-1.579e-15,0,0.66667
0.4879,0.56509,5.8548,0.097637,14.228,509.8,-1.5244,0.50813,-1.9663,-2.0325,-1.3717e-12,-0.98317,0,0,0.083333,-1.579e-15,0,0.66667
0.52567,0.96997,6.308,0.70495,97.901,445.87,-11.858,3.9528,-0.23098,-15.811,-5.2651e-12,-0.11549,0,0,0.083333,-0,-0,0.66667
0.028491,0.57824,0.34189,0.11736,22.448,1486.9,-0.107,0.035666,-1.9515,-0.14266,6.3138e-07,-0.97573,0,0,0.083333,-4.9343e-17,0,0.66667
0.64423,0.66446,7.7308,0.2467,27.579,263.29,-5.0858,1.6953,-1.7829,-6.781,-1.9216e-12,-0.89146,0,0,0.083333,-0,-0,0.66667
0.35066,0.41714,4.2079,-0.12428,-20.858,772.27,1.3946,-0.46486,-1.9409,1.8594,-1.0789e-11,-0.97046,0,0,0.083333,7.8949e-16,0,0.66667
0.22921,0.98754,2.7505,0.73131,133.01,1030.9,-5.3639,1.788,-0.095356,-7.1518,-6.71e-11,-0.047678,0,0,0.083333,-3.9475e-16,0,0.66667
0.43388,0.23147,5.2066,-0.40279,-62.61,609.06,5.5925,-1.8642,-1.4221,7.4566,-1.2772e-12,-0.71105,0,0,0.083333,-0,-0,0.66667
0.38247,0.74851,4.5896,0.37277,60.939,708.54,-4.5623,1.5208,-1.5029,-6.0831,6.2337e-12,-0.75144,0,0,0.083333,2.9606e-16,0,0.66667
0.46979,0.99139,5.6375,0.73708,110.27,543.61,-11.081,3.6936,-0.072994,-14.774,4.7962e-12,-0.036497,0,0,0.083333,-1.1842e-15,0,0.66667
0.97948,0.35597,11.754,-0.21605,-1.5691,1.5559,6.7718,-2.2573,-1.8313,9.0291,1.0886e-06,-0.91564,0,0,0.083333,1.579e-15,0,0.66667
0.36438,0.42522,4.3725,-0.11217,-18.613,744.46,1.3079,-0.43598,-1.9524,1.7439,4.4789e-12,-0.97619,0,0,0.083333,-0,-0,0.66667
0.77441,0.93138,9.2929,0.64707,49.634,114,-16.035,5.345,-0.50764,-21.38,-4.2218e-10,-0.25382,0,0,0.083333,-3.9475e-16,0,0.66667
0.55277,0.45897,6.6332,-0.061552,-8.1712,399.75,1.0888,-0.36292,-1.983,1.4517,7.9015e-13,-0.9915,0,0,0.083333,-0,-0,0.66667
0.88913,0.82647,10.67,0.48971,19.529,30.296,-13.933,4.6444,-1.1505,-18.578,5.2912e-09,-0.57527,0,0,0.083333,-1.579e-15,0,0.66667
0.35495,0.74497,4.2594,0.36746,61.501,763.76,-4.1738,1.3913,-1.5184,-5.5651,3.3462e-12,-0.75921,0,0,0.083333,-1.9737e-16,0,0.66667
0.24552,0.12662,2.9462,-0.56008,-100.91,994.93,4.4003,-1.4668,-0.8837,5.8671,1.0507e-10,-0.44185,0,0,0.083333,-0,-0,0.66667
0.91102,0.49408,10.932,-0.0088781,-0.28467,19.214,0.25882,-0.086273,-1.9977,0.34509,9.6001e-08,-0.99884,0,0,0.083333,2.3685e-15,0,0.66667
0.043534,0.66162,0.52241,0.24243,46.331,1452,-0.33772,0.11257,-1.7911,-0.4503,-1.0854e-07,-0.89557,0,0,0.083333,-0,-0,0.66667
0.95075,0.70915,11.409,0.31372,5.6356,6.8323,-9.5448,3.1816,-1.6515,-12.726,2.1311e-07,-0.82576,0,0,0.083333,7.8949e-16,0,0.66667
0.55641,0.5027,6.6769,0.0040521,0.53478,393.87,-0.072148,0.024049,-1.9972,-0.096197,-9.9193e-12,-0.9986,0,0,0.083333,-0,-0,0.66667
0.37636,0.60035,4.5164,0.15052,24.722,720.45,-1.8128,0.60427,-1.9235,-2.4171,3.2856e-12,-0.96176,0,0,0.083333,-0,-0,0.66667
0.99505,0.896,11.941,0.594,0.99653,2.013,-18.914,6.3046,-0.74282,-25.219,8.9855e-06,-0.37141,0,0,0.083333,-7.8949e-16,8.7016e-17,0.66667
0.058363,0.50854,0.70035,0.012815,2.4445,1417.7,-0.023932,0.0079778,-1.9979,-0.03191,4.8549e-07,-0.99894,0,0,0.083333,-0,-0,0.66667
0.51671,0.80625,6.2005,0.45937,64.483,460.25,-7.5955,2.5318,-1.2545,-10.127,-1.3398e-12,-0.62727,0,0,0.083333,3.9475e-16,0,0.66667
0.031097,0.74523,0.37316,0.36785,70.396,1480.9,-0.36605,0.12202,-1.5265,-0.48807,1.6408e-06,-0.76325,0,0,0.083333,1.2336e-17,0,0.66667
0.57118,0.0011151,6.8541,-0.74833,-96.803,372.12,13.678,-4.5592,-0.0060518,18.237,-4.0199e-12,-0.0030259,0,0,0.083333,3.158e-15,0,0.66667
0.18047,0.69963,2.1656,0.29944,55.474,1138.7,-1.7293,0.57643,-1.6769,-2.3057,7.4809e-11,-0.83846,0,0,0.083333,-0,-0,0.66667
0.63096,0.3873,7.5715,-0.16904,-19.442,281.55,3.4131,-1.1377,-1.8947,4.5508,4.5586e-13,-0.94733,0,0,0.083333,-0,-0,0.66667
0.98092,0.77526,11.771,0.41289,2.8278,2.0494,-12.96,4.3201,-1.3937,-17.281,-3.458e-06,-0.69684,0,0,0.083333,-7.8949e-16,0,0.66667
0.8749,0.21868,10.499,-0.42198,-18.835,37.51,11.814,-3.938,-1.3755,15.752,9.8382e-10,-0.68776,0,0,0.083333,6.723e-16,0,0.66667
0.45184,0.39203,5.422,-0.16195,-24.656,575.19,2.3416,-0.78053,-1.9105,3.1221,2.8872e-12,-0.95523,0,0,0.083333,-0,-0,0.66667
0.70846,0.7781,8.5015,0.41715,39.725,182.41,-9.4571,3.1524,-1.3791,-12.609,3.3946e-12,-0.68954,0,0,0.083333,1.9737e-16,0,0.66667
0.77747,0.31181,9.3296,-0.28228,-21.296,109.74,7.0229,-2.341,-1.7169,9.3639,2.2318e-11,-0.85844,0,0,0.083333,-3.454e-16,0,0.66667
0.49484,0.46284,5.9381,-0.055739,-8.049,497.54,0.88263,-0.29421,-1.9865,1.1768,-2.9468e-12,-0.99325,0,0,0.083333,-0,-0,0.66667
0.52853,0.82472,6.3424,0.48708,67.231,440.33,-8.238,2.746,-1.157,-10.984,-3.6415e-14,-0.57852,0,0,0.083333,-0,-0,0.66667
0.15078,0.95618,1.8094,0.68427,128.33,1206,-3.3017,1.1006,-0.33185,-4.4022,5.1806e-09,-0.16593,0,0,0.083333,-0,-0,0.66667
0.3694,0.86627,4.4328,0.5494,90.943,734.93,-6.4944,2.1648,-0.92357,-8.6592,-1.1671e-12,-0.46179,0,0,0.083333,-0,-0,0.66667
0.14222,0.52989,1.7067,0.044832,8.4075,1225.1,-0.20403,0.068011,-1.9972,-0.27204,7.3705e-10,-0.99861,0,0,0.083333,9.8686e-17,0,0.66667
0.72689,0.79734,8.7227,0.44601,40.219,161.62,-10.374,3.4581,-1.2883,-13.833,2.2737e-12,-0.64413,0,0,0.083333,-0,-0,0.66667
0.47701,0.11649,5.7242,-0.57526,-85.18,530.05,8.781,-2.927,-0.81931,11.708,-4.3112e-12,-0.40965,0,0,0.083333,3.9475e-16,0,0.66667
0.44888,0.48481,5.3865,-0.02278,-3.4791,580.62,0.32721,-0.10907,-1.9961,0.43628,-7.103e-12,-0.99806,0,0,0.083333,7.8949e-16,0,0.66667
0.886,0.36503,10.632,-0.20246,-8.2484,30.938,5.7402,-1.9134,-1.852,7.6536,-1.2372e-08,-0.92598,0,0,0.083333,-0,-0,0.66667
0.52762,0.20483,6.3314,-0.44276,-61.177,441.75,7.4755,-2.4918,-1.3019,9.9673,-1.823e-12,-0.65094,0,0,0.083333,7.8949e-16,0,0.66667
0.40909,0.21943,4.9091,-0.42085,-67.112,656.47,5.5093,-1.8364,-1.3721,7.3457,-1.9031e-11,-0.68605,0,0,0.083333,1.579e-15,0,0.66667
0.26889,0.11081,3.2267,-0.58378,-103.85,944.32,5.0232,-1.6744,-0.78776,6.6976,-9.0186e-12,-0.39388,0,0,0.083333,-0,-0,0.66667
0.072012,0.5675,0.86414,0.10124,19.28,1386.1,-0.23331,0.077769,-1.9604,-0.31108,-1.1058e-07,-0.98021,0,0,0.083333,-1.9737e-16,0,0.66667
0.41814,0.52188,5.0176,0.032816,5.18,638.65,-0.43909,0.14636,-1.9952,-0.58545,-2.2273e-12,-0.99758,0,0,0.083333,-0,-0,0.66667
0.025753,0.45813,0.30904,-0.062798,-12.013,1493.2,0.051753,-0.017251,-1.9827,0.069004,3.7618e-07,-0.99135,0,0,0.083333,2.4672e-17,0,0.66667
0.29115,0.94646,3.4938,0.66969,117.6,896.88,-6.2394,2.0798,-0.40208,-8.3192,-3.6438e-12,-0.20104,0,0,0.083333,-0,-0,0.66667
0.50351,0.52561,6.0421,0.03842,5.4842,482.39,-0.61904,0.20635,-1.9945,-0.82538,2.3868e-12,-0.99726,0,0,0.083333,-7.8949e-16,0,0.66667
0.96593,0.65248,11.591,0.22872,2.8201,3.4923,-7.0699,2.3566,-1.8153,-9.4265,-4.8649e-07,-0.90765,0,0,0.083333,-1.0877e-16,0,0.66667
0.10938,0.024019,1.3126,-0.71397,-135.4,1300.4,2.4991,-0.83303,-0.19525,3.3321,6.9852e-07,-0.097625,0,0,0.083333,-1.9737e-16,0,0.66667
0.67304,0.12264,8.0765,-0.56604,-59.307,226.17,12.191,-4.0636,-0.86605,16.255,5.1186e-12,-0.43303,0,0,0.083333,-1.1842e-15,0,0.66667
0.49993,0.27832,5.9992,-0.33252,-47.731,488.91,5.3196,-1.7732,-1.615,7.0928,-1.2208e-12,-0.80752,0,0,0.083333,1.4801e-16,0,0.66667
0.7771,0.67419,9.3252,0.26129,19.738,110.04,-6.4974,2.1658,-1.7554,-8.6632,-2.2722e-11,-0.8777,0,0,0.083333,-0,-0,0.66667
0.14361,0.50882,1.7233,0.013232,2.4804,1222,-0.060807,0.020269,-1.9997,-0.081076,-5.8974e-10,-0.99985,0,0,0.083333,-0,-0,0.66667
0.083203,0.96121,0.99843,0.69181,131.85,1360.5,-1.8419,0.61398,-0.29573,-2.4559,1.1114e-06,-0.14787,0,0,0.083333,1.973e-16,0,0.66667
0.39922,0.32228,4.7906,-0.26658,-42.891,675.43,3.4056,-1.1352,-1.7432,4.5408,-2.1398e-12,-0.8716,0,0,0.083333,-0,-0,0.66667
0.79696,0.33682,9.5635,-0.24477,-17.019,92.259,6.2423,-2.0808,-1.7945,8.323,5.3914e-11,-0.89725,0,0,0.083333,-0,-0,0.66667
0.19168,0.28407,2.3001,-0.32389,-59.749,1113.6,1.9866,-0.66221,-1.6262,2.6489,-7.4022e-11,-0.8131,0,0,0.083333,-0,-0,0.66667
0.76778,0.65575,9.2133,0.23363,18.292,118.8,-5.7401,1.9134,-1.8092,-7.6534,-1.4666e-11,-0.9046,0,0,0.083333,2.9606e-16,0,0.66667
0.2903,0.98991,3.4836,0.73486,129.19,898.84,-6.8265,2.2755,-0.075959,-9.102,-5.6173e-12,-0.037979,0,0,0.083333,3.9475e-16,0,0.66667
0.21689,0.72754,2.6027,0.34131,62.291,1057.6,-2.3689,0.78962,-1.5885,-3.1585,2.3072e-11,-0.79423,0,0,0.083333,-0,-0,0.66667
0.016716,0.41989,0.20059,-0.12016,-22.997,1514.2,0.064276,-0.021425,-1.9529,0.085701,-1.6037e-07,-0.97644,0,0,0.083333,-0,-0,0.66667
0.39866,0.24323,4.7839,-0.38515,-62.031,676.69,4.9134,-1.6378,-1.4686,6.5513,-2.6619e-12,-0.73432,0,0,0.083333,-3.9475e-16,0,0.66667
0.38108,0.80404,4.573,0.45606,74.68,711.43,-5.5615,1.8538,-1.2569,-7.4153,1.9709e-12,-0.62847,0,0,0.083333,-3.9475e-16,0,0.66667
0.65934,0.70888,7.9121,0.31331,33.853,243.15,-6.6106,2.2035,-1.651,-8.8142,-1.656e-12,-0.8255,0,0,0.083333,-0,-0,0.66667
0.070918,0.10029,0.85102,-0.59956,-114.41,1388.8,1.3606,-0.45355,-0.71805,1.8142,8.9677e-07,-0.35902,0,0,0.083333,-0,-0,0.66667
0.1526,0.82149,1.8312,0.48223,90.267,1201.7,-2.3549,0.78496,-1.1723,-3.1399,3.7019e-09,-0.58617,0,0,0.083333,3.9475e-16,0,0.66667
0.016576,0.39518,0.19891,-0.15723,-30.093,1514.5,0.083401,-0.027801,-1.9168,0.1112,-3.7246e-07,-0.9584,0,0,0.083333,-0,-0,0.66667
0.1138,0.9323,1.3656,0.64844,122.79,1290.3,-2.3613,0.7871,-0.50345,-3.1484,-8.7174e-08,-0.25173,0,0,0.083333,2.4672e-16,0,0.66667
0.65179,0.87058,7.8215,0.55587,61.24,253.93,-11.594,3.8646,-0.89994,-15.458,-4.1291e-12,-0.44997,0,0,0.083333,-7.8949e-16,0,0.66667
0.40266,0.8907,4.8319,0.58605,94.144,669.31,-7.5512,2.5171,-0.77779,-10.068,2.2551e-12,-0.38889,0,0,0.083333,-0,-0,0.66667
0.32103,0.24001,3.8523,-0.38998,-66.993,833.57,4.0062,-1.3354,-1.4551,5.3416,5.5747e-12,-0.72755,0,0,0.083333,3.9475e-16,0,0.66667
0.55791,0.011784,6.6949,-0.73232,-96.82,393.05,13.074,-4.3581,-0.090785,17.432,-1.7855e-11,-0.045393,0,0,0.083333,3.158e-15,0,0.66667
0.99346,0.25567,11.922,-0.36649,-0.75454,0.9212,11.651,-3.8837,-1.519,15.535,-2.5333e-06,-0.75948,0,0,0.083333,3.158e-15,0,0.66667
0.83449,0.64213,10.014,0.2132,12.315,62.651,-5.6931,1.8977,-1.8343,-7.5908,1.0385e-10,-0.91717,0,0,0.083333,1.579e-15,0,0.66667
0.69962,0.47152,8.3955,-0.042723,-4.1629,192.18,0.95648,-0.31883,-1.9938,1.2753,1.7579e-12,-0.99688,0,0,0.083333,-0,-0,0.66667
0.91826,0.45531,11.019,-0.067028,-1.9791,16.387,1.9696,-0.65653,-1.983,2.6261,-3.3619e-08,-0.99148,0,0,0.083333,1.579e-15,0,0.66667
0.039729,0.58536,0.47674,0.12804,24.472,1460.8,-0.16278,0.05426,-1.9377,-0.21704,1.0372e-07,-0.96884,0,0,0.083333,4.9343e-17,0,0.66667
0.070333,0.43132,0.844,-0.10302,-19.623,1390,0.23186,-0.077286,-1.9584,0.30914,1.078e-07,-0.97921,0,0,0.083333,4.1646e-17,0,0.66667
0.47401,0.72245,5.6881,0.33368,49.515,534.9,-5.0613,1.6871,-1.6019,-6.7484,-4.6292e-12,-0.80095,0,0,0.083333,-0,-0,0.66667
0.34917,0.38147,4.19,-0.1778,-29.877,775.33,1.9866,-0.6622,-1.8848,2.6488,1.9473e-13,-0.94241,0,0,0.083333,-0,-0,0.66667
0.93725,0.73267,11.247,0.34901,7.986,10.557,-10.467,3.4892,-1.5734,-13.957,2.6644e-07,-0.78672,0,0,0.083333,1.579e-15,0,0.66667
0.48956,0.74759,5.8748,0.37139,54.052,507.19,-5.8182,1.9394,-1.5077,-7.7575,-3.3094e-12,-0.75383,0,0,0.083333,8.8818e-16,0,0.66667
0.53965,0.95875,6.4758,0.68813,93.581,422.53,-11.883,3.961,-0.31218,-15.844,2.5508e-12,-0.15609,0,0,0.083333,7.8949e-16,0,0.66667
0.89526,0.38722,10.743,-0.16917,-6.3541,26.31,4.8465,-1.6155,-1.8958,6.462,-2.3187e-08,-0.94789,0,0,0.083333,1.579e-15,0,0.66667
0.44664,0.48058,5.3596,-0.029131,-4.4605,584.79,0.41636,-0.13879,-1.9929,0.55514,2.6473e-13,-0.99647,0,0,0.083333,-7.8949e-16,0,0.66667
0.87703,0.93144,10.524,0.64717,28.583,37.459,-18.163,6.0543,-0.51343,-24.217,2.2912e-07,-0.25671,0,0,0.083333,-7.8949e-16,0,0.66667
0.25358,0.91663,3.043,0.62495,112.16,977.49,-5.0712,1.6904,-0.61049,-6.7616,1.8662e-11,-0.30525,0,0,0.083333,-0,-0,0.66667
0.27381,0.97812,3.2857,0.71719,127.34,934,-6.2839,2.0946,-0.167,-8.3786,-1.0361e-11,-0.083501,0,0,0.083333,-0,-0,0.66667
0.32836,0.54779,3.9403,0.071681,12.237,818.07,-0.75319,0.25106,-1.9883,-1.0043,-1.0786e-11,-0.99414,0,0,0.083333,3.9475e-16,0,0.66667
0.54756,0.32738,6.5708,-0.25893,-34.675,408.38,4.5369,-1.5123,-1.7669,6.0492,1.0059e-12,-0.88345,0,0,0.083333,-7.8949e-16,0,0.66667
0.22013,0.20872,2.6415,-0.43692,-79.654,1050.5,3.0777,-1.0259,-1.325,4.1036,5.8706e-12,-0.66248,0,0,0.083333,1.9737e-16,0,0.66667
0.67143,0.24719,8.0572,-0.37921,-39.821,227.59,8.1477,-2.7159,-1.4958,10.864,-4.5475e-13,-0.7479,0,0,0.083333,-9.8686e-16,0,0.66667
0.14279,0.63638,1.7135,0.20457,38.365,1223.8,-0.93474,0.31158,-1.853,-1.2463,-1.3378e-09,-0.92649,0,0,0.083333,-0,-0,0.66667
0.0941,0.72147,1.1292,0.33221,63.063,1335.3,-1.0003,0.33345,-1.615,-1.3338,-4.5069e-08,-0.80749,0,0,0.083333,-0,-0,0.66667
0.87019,0.14565,10.442,-0.53152,-24.62,40.661,14.801,-4.9336,-0.99294,19.734,-5.2162e-09,-0.49647,0,0,0.083333,-0,-0,0.66667
0.23687,0.47229,2.8424,-0.04157,-7.5095,1013.4,0.3151,-0.10503,-1.9958,0.42013,-8.9656e-12,-0.99792,0,0,0.083333,-0,-0,0.66667
0.386,0.6026,4.632,0.15389,25.059,701.3,-1.9009,0.63364,-1.9136,-2.5346,-4.5608e-13,-0.9568,0,0,0.083333,-0,-0,0.66667
0.57154,0.018526,6.8585,-0.72221,-93.338,371.43,13.209,-4.4029,-0.14133,17.612,1.9789e-12,-0.070666,0,0,0.083333,-0,-0,0.66667
0.5258,0.25784,6.3096,-0.36324,-50.298,444.63,6.1117,-2.0372,-1.5279,8.149,-1.4371e-12,-0.76395,0,0,0.083333,-0,-0,0.66667
0.076024,0.90391,0.91229,0.60587,115.53,1377,-1.4739,0.49131,-0.69785,-1.9653,-7.3807e-07,-0.34892,0,0,0.083333,-0,-0,0.66667
0.87413,0.35793,10.49,-0.2131,-9.5379,37.325,5.9609,-1.987,-1.8433,7.9479,-5.8658e-09,-0.92166,0,0,0.083333,-0,-0,0.66667
0.95114,0.77545,11.414,0.41317,7.3954,7.1084,-12.575,4.1918,-1.3957,-16.767,5.6924e-07,-0.69787,0,0,0.083333,-7.8949e-16,0,0.66667
0.81251,0.63958,9.7501,0.20937,13.548,79.309,-5.4437,1.8146,-1.8514,-7.2583,-9.1162e-11,-0.92568,0,0,0.083333,-1.579e-15,0,0.66667
0.2838,0.19715,3.4056,-0.45428,-80.028,912.16,4.1256,-1.3752,-1.2673,5.5008,8.4799e-12,-0.63367,0,0,0.083333,-7.8949e-16,0,0.66667
0.52785,0.54238,6.3342,0.063566,8.7674,440.83,-1.0737,0.3579,-1.985,-1.4316,-1.2743e-12,-0.99252,0,0,0.083333,-0,-0,0.66667
0.33942,0.6917,4.073,0.28755,48.707,795.39,-3.1232,1.0411,-1.7048,-4.1643,-3.6082e-13,-0.85238,0,0,0.083333,-7.8949e-16,0,0.66667
0.55467,0.71557,6.656,0.32335,42.83,396.98,-5.7393,1.9131,-1.6249,-7.6524,4.1824e-12,-0.81243,0,0,0.083333,1.9737e-16,0,0.66667
0.9744,0.85768,11.693,0.53653,5.0532,3.4276,-16.729,5.5765,-0.97293,-22.306,-1.6005e-05,-0.48646,0,0,0.083333,-1.579e-15,0,0.66667
0.3117,0.86391,3.7404,0.54586,94.473,853.29,-5.4447,1.8149,-0.94568,-7.2596,-6.9345e-12,-0.47284,0,0,0.083333,3.9475e-16,0,0.66667
0.6688,0.99836,8.0256,0.74754,79.326,232.46,-15.998,5.3328,-0.014312,-21.331,-1.3616e-12,-0.0071561,0,0,0.083333,7.8949e-16,1.9654e-17,0.66667
0.32597,0.8812,3.9116,0.5718,97.981,823.6,-5.9645,1.9882,-0.83976,-7.9526,3.7956e-12,-0.41988,0,0,0.083333,-0,-0,0.66667
0.77448,0.34938,9.2937,-0.22594,-17.24,112.42,5.5994,-1.8665,-1.8149,7.4659,1.3969e-11,-0.90746,0,0,0.083333,1.579e-15,0,0.66667
0.32581,0.25011,3.9097,-0.37483,-64.163,823.6,3.9079,-1.3026,-1.5035,5.2106,2.4276e-12,-0.75174,0,0,0.083333,-0,-0,0.66667
0.88983,0.0015812,10.678,-0.74763,-29.884,31.464,21.288,-7.0961,-0.018982,28.384,1.0503e-07,-0.0094909,0,0,0.083333,-0,-0,0.66667
0.75171,0.21483,9.0205,-0.42776,-35.553,135.24,10.29,-3.4299,-1.3531,13.719,4.3752e-12,-0.67653,0,0,0.083333,-3.9475e-16,0,0.66667
0.76263,0.35341,9.1516,-0.21989,-17.547,123.78,5.3662,-1.7887,-1.8283,7.155,8.7863e-12,-0.91416,0,0,0.083333,-0,-0,0.66667
0.46948,0.0077026,5.6337,-0.73845,-110.52,544.17,11.094,-3.698,-0.066743,14.792,5.7465e-13,-0.033372,0,0,0.083333,-0,-0,0.66667
0.21076,0.13624,2.5292,-0.54563,-99.958,1071.3,3.68,-1.2267,-0.93712,4.9067,-1.1731e-11,-0.46856,0,0,0.083333,-0,-0,0.66667
0.041475,0.36969,0.4977,-0.19546,-37.358,1456.8,0.25942,-0.086472,-1.8615,0.34589,-1.8171e-08,-0.93077,0,0,0.083333,4.9343e-17,0,0.66667
0.32183,0.35233,3.8619,-0.22151,-38.007,831.72,2.2812,-0.7604,-1.8219,3.0416,-2.4156e-12,-0.91093,0,0,0.083333,-7.8949e-16,0,0.66667
0.037113,0.12597,0.44535,-0.56104,-107.43,1467,0.6663,-0.2221,-0.8786,0.8884,5.7223e-06,-0.4393,0,0,0.083333,9.8686e-17,0,0.66667
0.69386,0.87005,8.3263,0.55508,55.12,200.25,-12.325,4.1082,-0.90121,-16.433,5.5316e-12,-0.4506,0,0,0.083333,7.8949e-16,0,0.66667
0.67035,0.64044,8.0442,0.21066,22.158,228.62,-4.5188,1.5063,-1.8453,-6.0251,-5.0981e-13,-0.92267,0,0,0.083333,-0,-0,0.66667
0.43047,0.45787,5.1657,-0.063189,-9.8475,615.15,0.87043,-0.29014,-1.9816,1.1606,6.1923e-12,-0.9908,0,0,0.083333,3.9475e-16,0,0.66667
0.76779,0.47758,9.2135,-0.033629,-2.6309,118.57,0.82624,-0.27541,-1.998,1.1017,9.4408e-12,-0.99898,0,0,0.083333,-0,-0,0.66667
0.53601,0.77891,6.4321,0.41837,57.081,427.69,-7.176,2.392,-1.3762,-9.568,-1.3616e-12,-0.6881,0,0,0.083333,-1.9737e-16,0,0.66667
0.03986,0.82285,0.47832,0.48428,92.669,1460.6,-0.6177,0.2059,-1.162,-0.82361,-3.4105e-06,-0.58099,0,0,0.083333,-9.8686e-17,0,0.66667
0.13479,0.60328,1.6175,0.15491,29.116,1242,-0.6682,0.22273,-1.9112,-0.89093,-1.7734e-09,-0.95561,0,0,0.083333,-0,-0,0.66667
0.19342,0.20712,2.321,-0.43933,-81.027,1109.8,2.7191,-0.90638,-1.3101,3.6255,-1.7118e-10,-0.65504,0,0,0.083333,1.9737e-16,0,0.66667
0.33566,0.62815,4.028,0.19223,32.645,803.03,-2.0648,0.68825,-1.8652,-2.753,-1.2992e-11,-0.93262,0,0,0.083333,-0,-0,0.66667
0.052313,0.9368,0.62776,0.6552,125.36,1431.8,-1.0968,0.36561,-0.47179,-1.4624,3.9426e-06,-0.2359,0,0,0.083333,-3.3923e-17,0,0.66667
0.60512,0.9105,7.2614,0.61575,74.817,319.92,-11.923,3.9744,-0.65078,-15.898,-4.7704e-12,-0.32539,0,0,0.083333,1.579e-15,0,0.66667
0.51206,0.50377,6.1447,0.0056572,0.79807,467.62,-0.092699,0.0309,-1.9999,-0.1236,1.0088e-12,-0.99993,0,0,0.083333,-0,-0,0.66667
0.61746,0.51516,7.4095,0.022739,2.6881,300.67,-0.44929,0.14976,-1.9937,-0.59906,2.8686e-12,-0.99685,0,0,0.083333,-0,-0,0.66667
0.43236,0.26311,5.1883,-0.35534,-55.311,611.86,4.9163,-1.6388,-1.548,6.5551,-5.0782e-12,-0.77399,0,0,0.083333,-0,-0,0.66667
0.8477,0.69687,10.172,0.29531,15.81,53.712,-8.0106,2.6702,-1.6886,-10.681,4.5697e-10,-0.8443,0,0,0.083333,-0,-0,0.66667
0.45406,0.85927,5.4487,0.53891,81.986,571.73,-7.8303,2.6101,-0.97199,-10.44,-1.2246e-11,-0.48599,0,0,0.083333,7.8949e-16,0,0.66667
0.015404,0.99473,0.18484,0.7421,142.44,1517.3,-0.36554,0.1219,-0.049591,-0.48737,7.2785e-05,-0.024796,0,0,0.083333,1.2336e-17,0,0.66667
0.87307,0.17672,10.477,-0.48492,-21.971,38.803,13.548,-4.5159,-1.1662,18.064,-2.7463e-09,-0.58312,0,0,0.083333,-7.8949e-16,0,0.66667
0.6562,0.87387,7.8744,0.56081,61.166,248.06,-11.776,3.9254,-0.89032,-15.702,-1.4708e-12,-0.44516,0,0,0.083333,-1.0856e-15,1.3847e-17,0.66667
0.823,0.49634,9.876,-0.0054941,-0.33716,70.93,0.14469,-0.048231,-1.9978,0.19293,1.4942e-10,-0.9989,0,0,0.083333,-1.579e-15,0,0.66667
0.95178,0.1885,11.421,-0.46724,-8.277,7.2001,14.231,-4.7436,-1.2288,18.974,-1.0099e-06,-0.6144,0,0,0.083333,-3.158e-15,0,0.66667
0.050912,0.22251,0.61095,-0.41624,-79.543,1435,0.67813,-0.22604,-1.3832,0.90418,3.5297e-07,-0.69162,0,0,0.083333,-0,-0,0.66667
0.23507,0.51309,2.8209,0.019633,3.5498,1017.4,-0.14768,0.049228,-2.0039,-0.19691,2.688e-12,-1.002,0,0,0.083333,-0,-0,0.66667
0.063343,0.78115,0.76012,0.42172,80.478,1406.2,-0.85483,0.28494,-1.3742,-1.1398,-2.9903e-07,-0.68709,0,0,0.083333,-2.7756e-17,0,0.66667
0.42166,0.10358,5.0599,-0.59463,-93.742,632.7,8.0234,-2.6745,-0.74964,10.698,-7.1587e-12,-0.37482,0,0,0.083333,-0,-0,0.66667
0.86383,0.76362,10.366,0.39542,19.102,43.818,-10.931,3.6435,-1.4418,-14.574,5.8624e-09,-0.72088,0,0,0.083333,-0,-0,0.66667
0.081624,0.43592,0.97949,-0.096121,-18.277,1364,0.25107,-0.083689,-1.9676,0.33475,4.3782e-08,-0.98381,0,0,0.083333,1.2336e-17,0,0.66667
0.47311,0.50473,5.6773,0.0070975,1.0535,536.24,-0.10745,0.035818,-1.9985,-0.14327,-2.8373e-13,-0.99923,0,0,0.083333,-0,-0,0.66667
0.12554,0.2188,1.5065,-0.4218,-79.54,1263.3,1.6945,-0.56484,-1.3748,2.2594,-1.393e-10,-0.6874,0,0,0.083333,-3.9475e-16,0,0.66667
0.77289,0.97313,9.2746,0.7097,54.822,115.78,-17.553,5.8509,-0.20562,-23.403,2.6958e-11,-0.10281,0,0,0.083333,-1.579e-15,0,0.66667
0.84142,0.33555,10.097,-0.24667,-13.701,57.845,6.6417,-2.2139,-1.7853,8.8556,-2.8715e-10,-0.89267,0,0,0.083333,-0,-0,0.66667
0.043291,0.60541,0.51949,0.15811,30.213,1452.6,-0.21904,0.073012,-1.9102,-0.29205,6.0427e-08,-0.95509,0,0,0.083333,-0,-0,0.66667
0.48644,0.0021087,5.8373,-0.74684,-109.46,513.82,11.625,-3.8751,-0.019978,15.5,-1.0802e-11,-0.0099889,0,0,0.083333,3.158e-15,0,0.66667
0.23941,0.54655,2.8729,0.069826,12.598,1007.9,-0.53494,0.17831,-1.9797,-0.71326,6.9306e-12,-0.98983,0,0,0.083333,-3.9475e-16,0,0.66667
0.95247,0.93191,11.43,0.64786,11.447,8.0618,-19.746,6.5821,-0.5137,-26.328,9.0769e-06,-0.25685,0,0,0.083333,-1.579e-15,-5.7996e-17,0.66667
0.94389,0.47782,11.327,-0.033265,-0.67723,8.0767,1.0048,-0.33492,-1.9923,1.3397,3.9078e-08,-0.99614,0,0,0.083333,-0,-0,0.66667
0.61393,0.085434,7.3672,-0.62185,-74.28,307.04,12.217,-4.0723,-0.62301,16.289,1.3403e-12,-0.31151,0,0,0.083333,-3.9475e-16,0,0.66667
0.97349,0.61607,11.682,0.1741,1.6529,2.2131,-5.4236,1.8079,-1.8899,-7.2314,-9.0722e-07,-0.94494,0,0,0.083333,7.8949e-16,0,0.66667
0.34486,0.62972,4.1383,0.19458,32.81,784.14,-2.1473,0.71576,-1.8704,-2.863,-3.0214e-12,-0.93518,0,0,0.083333,-0,-0,0.66667
0.89785,0.7549,10.774,0.38236,14.067,25.659,-10.986,3.6619,-1.4766,-14.647,5.476e-08,-0.73829,0,0,0.083333,-0,-0,0.66667
0.43459,0.35308,5.2151,-0.22038,-34.204,607.46,3.0648,-1.0216,-1.8277,4.0864,2.9012e-12,-0.91387,0,0,0.083333,-0,-0,0.66667
0.23581,0.77529,2.8298,0.41293,74.706,1016,-3.116,1.0387,-1.3977,-4.1547,2.3114e-11,-0.69885,0,0,0.083333,-1.9737e-16,0,0.66667
0.94083,0.010293,11.29,-0.73456,-16.179,11.621,22.115,-7.3717,-0.081067,29.487,6.4276e-07,-0.040533,0,0,0.083333,-3.158e-15,0,0.66667
0.68422,0.89072,8.2106,0.58607,59.713,212.19,-12.832,4.2774,-0.7782,-17.109,1.4664e-12,-0.3891,0,0,0.083333,-0,-0,0.66667
0.064912,0.063489,0.77894,-0.65477,-125.09,1402.7,1.3601,-0.45336,-0.47829,1.8134,-1.5604e-06,-0.23915,0,0,0.083333,1.9737e-16,0,0.66667
0.87042,0.46582,10.445,-0.051275,-2.3562,39.228,1.4282,-0.47606,-1.9893,1.9042,-5.7892e-10,-0.99466,0,0,0.083333,3.9475e-16,0,0.66667
0.70138,0.054154,8.4166,-0.66877,-65.158,191.75,15.01,-5.0033,-0.41273,20.013,1.1919e-12,-0.20637,0,0,0.083333,-0,-0,0.66667
0.60493,0.14859,7.2591,-0.52712,-64.016,319.87,10.204,-3.4013,-1.0102,13.605,3.5785e-12,-0.5051,0,0,0.083333,-7.8949e-16,0,0.66667
0.73237,0.14282,8.7885,-0.53576,-47.539,155.97,12.556,-4.1854,-0.98145,16.742,2.1672e-12,-0.49072,0,0,0.083333,-0,-1.8216e-17,0.66667
0.25344,0.051839,3.0413,-0.67224,-120.7,977.88,5.4519,-1.8173,-0.39258,7.2692,1.557e-11,-0.19629,0,0,0.083333,-0,-0,0.66667
0.60049,0.24438,7.2059,-0.38344,-46.908,326.03,7.368,-2.456,-1.4737,9.824,2.0917e-12,-0.73685,0,0,0.083333,1.1842e-15,0,0.66667
0.81462,0.36459,9.7754,-0.20311,-13.009,77.617,5.2947,-1.7649,-1.8553,7.0595,1.2557e-10,-0.92763,0,0,0.083333,-0,-0,0.66667
0.054114,0.45881,0.64936,-0.061791,-11.793,1427.5,0.107,-0.035667,-1.9822,0.14267,1.2365e-07,-0.99112,0,0,0.083333,-0,-0,0.66667
0.13051,0.63453,1.5661,0.2018,37.976,1251.8,-0.84277,0.28092,-1.852,-1.1237,-4.3662e-09,-0.92601,0,0,0.083333,-0,-0,0.66667
0.84245,4.7129e-05,10.109,-0.74993,-41.797,59.394,20.217,-6.7389,-0.0057326,26.956,2.1455e-09,-0.0028663,0,0,0.083333,-0,-0,0.66667
0.61835,0.66994,7.4202,0.25492,30.099,299.61,-5.0441,1.6814,-1.7648,-6.7254,1.1693e-12,-0.88238,0,0,0.083333,-0,-0,0.66667
0.53129,0.086083,6.3755,-0.62087,-85.445,436.15,10.556,-3.5185,-0.63696,14.074,-3.4577e-12,-0.31848,0,0,0.083333,-0,-0,0.66667
0.24829,0.026404,2.9795,-0.71039,-127.94,989.14,5.6443,-1.8814,-0.20914,7.5257,2.9294e-11,-0.10457,0,0,0.083333,1.9737e-16,0,0.66667
0.29508,0.72698,3.5409,0.34047,59.52,888.04,-3.2149,1.0716,-1.5907,-4.2865,-1.1027e-11,-0.79535,0,0,0.083333,-0,-0,0.66667
0.87269,0.29859,10.472,-0.30212,-13.682,38.349,8.437,-2.8123,-1.6768,11.249,-5.4849e-09,-0.8384,0,0,0.083333,1.579e-15,0,0.66667
0.42167,0.72729,5.06,0.34093,53.662,632.15,-4.6003,1.5334,-1.5937,-6.1337,-6.4282e-12,-0.79685,0,0,0.083333,7.8949e-16,0,0.66667
0.06443,0.31593,0.77316,-0.2761,-52.652,1403.7,0.56926,-0.18975,-1.7322,0.75901,2.2586e-07,-0.86608,0,0,0.083333,-0,-0,0.66667
0.89699,0.62131,10.764,0.18196,6.7273,25.52,-5.2229,1.741,-1.8792,-6.9639,2.9135e-08,-0.9396,0,0,0.083333,-3.9475e-16,0,0.66667
0.20338,0.3474,2.4406,-0.2289,-42.009,1087.5,1.4897,-0.49657,-1.8212,1.9863,-5.9049e-11,-0.9106,0,0,0.083333,7.8949e-16,0,0.66667
0.82623,0.25483,9.9147,-0.36776,-22.245,69.094,9.7232,-3.2411,-1.5222,12.964,1.9157e-10,-0.76109,0,0,0.083333,3.158e-15,0,0.66667
0.88177,0.8011,10.581,0.45164,19.125,33.905,-12.744,4.248,-1.2706,-16.992,-6.8281e-09,-0.63529,0,0,0.083333,7.8949e-16,0,0.66667
0.48675,0.55523,5.841,0.082852,12.091,511.84,-1.2905,0.43017,-1.9773,-1.7207,-1.2947e-12,-0.98864,0,0,0.083333,-7.8949e-16,0,0.66667
0.59846,0.63226,7.1816,0.19839,24.341,328.71,-3.7993,1.2664,-1.8579,-5.0658,-3.8118e-12,-0.92896,0,0,0.083333,-0,-0,0.66667
0.52727,0.58199,6.3272,0.12298,16.978,441.83,-2.075,0.69168,-1.9447,-2.7667,1.3054e-12,-0.97233,0,0,0.083333,-7.8949e-16,0,0.66667
0.62482,0.66038,7.4979,0.24058,28.032,290.32,-4.8101,1.6034,-1.8019,-6.4135,2.5859e-12,-0.90093,0,0,0.083333,-0,-0,0.66667
0.85504,0.62513,10.261,0.18769,9.5876,48.699,-5.1354,1.7118,-1.8743,-6.8472,8.9307e-10,-0.93714,0,0,0.083333,-0,-0,0.66667
0.28214,0.20789,3.3857,-0.43816,-77.262,915.69,3.9559,-1.3186,-1.3223,5.2746,3.5096e-12,-0.66113,0,0,0.083333,-0,-0,0.66667
0.88376,0.97,10.605,0.705,29.592,34.246,-19.937,6.6458,-0.22996,-26.583,-3.543e-07,-0.11498,0,0,0.083333,-0,-0,0.66667
0.56769,0.21751,6.8123,-0.42374,-54.97,376.44,7.6977,-2.5659,-1.3599,10.264,-5.8544e-12,-0.67994,0,0,0.083333,1.9737e-16,0,0.66667
0.1151,0.30608,1.3812,-0.29087,-54.964,1287.1,1.0714,-0.35713,-1.6961,1.4285,1.1617e-08,-0.84806,0,0,0.083333,-9.8686e-17,0,0.66667
0.227,0.74964,2.724,0.37446,68.028,1035.3,-2.7201,0.9067,-1.4986,-3.6268,2.6559e-11,-0.74931,0,0,0.083333,4.1942e-16,0,0.66667
0.59598,0.053452,7.1518,-0.66982,-82.847,333.73,12.774,-4.2582,-0.40656,17.033,2.9532e-12,-0.20328,0,0,0.083333,-0,-0,0.66667
0.23945,0.71111,2.8734,0.31667,57.163,1007.9,-2.4264,0.80881,-1.6409,-3.2352,5.3353e-12,-0.82043,0,0,0.083333,-0,-0,0.66667
0.13142,0.67167,1.577,0.25751,48.455,1249.8,-1.0829,0.36096,-1.7601,-1.4439,-4.2829e-09,-0.88007,0,0,0.083333,-1.9737e-16,0,0.66667
0.16185,0.013474,1.9422,-0.72979,-136.43,1181.1,3.7797,-1.2599,-0.10284,5.0396,3.3934e-09,-0.051419,0,0,0.083333,-0,-0,0.66667
0.84487,0.75115,10.138,0.37672,20.536,55.854,-10.185,3.395,-1.501,-13.58,2.6937e-10,-0.75049,0,0,0.083333,-0,-0,0.66667
0.60218,0.8277,7.2262,0.49155,59.99,323.81,-9.4721,3.1574,-1.1365,-12.629,4.7455e-12,-0.56825,0,0,0.083333,-7.8949e-16,0,0.66667
0.96357,0.47857,11.563,-0.032143,-0.42279,3.6458,0.99111,-0.33037,-1.9934,1.3215,-3.362e-08,-0.99671,0,0,0.083333,-0,-0,0.66667
0.34568,0.0014392,4.1482,-0.74784,-126.43,783.43,8.2724,-2.7575,-0.015076,11.03,-6.9029e-12,-0.0075379,0,0,0.083333,-0,-0,0.66667
0.59563,0.10487,7.1475,-0.59269,-73.295,333.96,11.297,-3.7656,-0.75343,15.062,2.6183e-12,-0.37672,0,0,0.083333,-0,-0,0.66667
0.59899,0.77424,7.1878,0.41136,50.476,328.34,-7.8848,2.6283,-1.3957,-10.513,2.2005e-12,-0.69783,0,0,0.083333,-0,-0,0.66667
0.6157,0.73944,7.3885,0.35916,42.656,303.63,-7.0764,2.3588,-1.5375,-9.4352,-2.5402e-12,-0.76873,0,0,0.083333,7.8949e-16,0,0.66667
0.059177,0.51101,0.71013,0.016521,3.1513,1415.8,-0.031286,0.010429,-1.9986,-0.041714,3.8764e-07,-0.99929,0,0,0.083333,-0,-0,0.66667
0.75032,0.86068,9.0038,0.54102,45.245,137.1,-12.99,4.33,-0.96558,-17.32,2.108e-11,-0.48279,0,0,0.083333,1.579e-15,0,0.66667
0.94821,0.24959,11.379,-0.37562,-7.1125,7.6672,11.397,-3.7991,-1.4971,15.196,-2.4126e-07,-0.74855,0,0,0.083333,1.9737e-15,0,0.66667
0.53468,0.14703,6.4161,-0.52945,-72.438,430.2,9.0587,-3.0196,-1.0028,12.078,-3.312e-12,-0.50141,0,0,0.083333,3.9475e-16,0,0.66667
0.19256,0.040148,2.3107,-0.68978,-127.46,1112,4.2503,-1.4168,-0.30559,5.667,-1.0033e-10,-0.1528,0,0,0.083333,3.9475e-16,0,0.66667
0.75293,0.76307,9.0351,0.39461,32.648,133.89,-9.5076,3.1692,-1.4465,-12.677,-6.0156e-12,-0.72325,0,0,0.083333,-0,-0,0.66667
0.007319,0.80168,0.087828,0.45253,86.712,1536,-0.10598,0.035323,-1.2676,-0.14131,-5.5435e-06,-0.63382,0,0,0.083333,-0,-0,0.66667
0.32826,0.30168,3.9391,-0.29748,-50.816,818.44,3.1248,-1.0416,-1.6924,4.1664,3.872e-12,-0.84618,0,0,0.083333,-0,-0,0.66667
0.91761,0.15324,11.011,-0.52014,-15.621,17.936,15.273,-5.091,-1.0371,20.364,-2.3735e-08,-0.51855,0,0,0.083333,-3.9475e-16,0,0.66667
0.58837,0.44391,7.0604,-0.084142,-10.514,343.85,1.5842,-0.52807,-1.9721,2.1123,2.1816e-12,-0.98604,0,0,0.083333,-1.579e-15,0,0.66667
0.85519,0.79561,10.262,0.44341,22.703,49.341,-12.134,4.0448,-1.299,-16.179,5.0052e-10,-0.6495,0,0,0.083333,-1.579e-15,0,0.66667
0.60467,0.0044579,7.2561,-0.74331,-90.527,321.13,14.383,-4.7942,-0.033758,19.177,9.8348e-12,-0.016879,0,0,0.083333,-0,-0,0.66667
0.82258,0.77852,9.8709,0.41779,25.771,72.019,-10.997,3.6657,-1.3771,-14.663,-5.9301e-11,-0.68854,0,0,0.083333,1.9737e-15,0,0.66667
0.87948,0.58716,10.554,0.13073,5.6116,34.248,-3.6793,1.2264,-1.9375,-4.9058,6.3541e-09,-0.96873,0,0,0.083333,-7.8949e-16,0,0.66667
0.32099,0.4595,3.8518,-0.060748,-10.427,833.4,0.62397,-0.20799,-1.9828,0.83197,-8.2948e-12,-0.99139,0,0,0.083333,3.9475e-16,0,0.66667
0.12295,0.54798,1.4755,0.071976,13.569,1269.1,-0.28319,0.094397,-1.9835,-0.37759,-3.8435e-09,-0.99175,0,0,0.083333,1.9737e-16,0,0.66667
0.7213,0.26492,8.6556,-0.35262,-32.319,167.55,8.1391,-2.713,-1.5587,10.852,3.7073e-12,-0.77937,0,0,0.083333,-1.579e-15,0,0.66667
0.44035,0.10761,5.2842,-0.58859,-90.964,597.34,8.2939,-2.7646,-0.7685,11.058,5.0902e-12,-0.38425,0,0,0.083333,-7.8949e-16,0,0.66667
0.12674,0.14001,1.5208,-0.53999,-101.86,1260.6,2.1899,-0.72998,-0.96587,2.9199,1.0322e-08,-0.48293,0,0,0.083333,-0,-0,0.66667
0.58982,0.35391,7.0779,-0.21914,-27.32,341.76,4.136,-1.3787,-1.8279,5.5147,3.2729e-13,-0.91395,0,0,0.083333,-0,-0,0.66667
0.036068,0.35701,0.43282,-0.21448,-41.012,1469.3,0.24755,-0.082518,-1.8337,0.33007,-2.8471e-07,-0.91686,0,0,0.083333,4.9343e-17,0,0.66667
0.20018,0.077774,2.4022,-0.63334,-116.62,1095,4.0571,-1.3524,-0.57388,5.4094,-1.7625e-09,-0.28694,0,0,0.083333,-0,-0,0.66667
0.7883,0.20315,9.4596,-0.44528,-32.198,100.4,11.233,-3.7442,-1.2907,14.977,-7.6342e-11,-0.64533,0,0,0.083333,-0,-0,0.66667
0.012097,0.52124,0.14516,0.031855,6.0967,1524.9,-0.012331,0.0041093,-1.9957,-0.016441,-1.4144e-06,-0.99783,0,0,0.083333,-0,-0,0.66667
0.30335,0.88383,3.6401,0.57574,100.23,870.91,-5.5887,1.8629,-0.81761,-7.4517,-2.971e-13,-0.4088,0,0,0.083333,-0,-0,0.66667
0.021376,0.11118,0.25651,-0.58323,-111.79,1503.4,0.39894,-0.133,-0.78689,0.53192,-2.1389e-05,-0.39345,0,0,0.083333,-0,-0,0.66667
0.99748,0.9641,11.97,0.69615,0.61518,2.6356,-22.221,7.4068,-0.27869,-29.627,-7.4682e-05,-0.13934,0,0,0.083333,1.579e-15,-1.5003e-16,0.66667
0.58203,0.92291,6.9844,0.63436,80.432,354.78,-11.815,3.9383,-0.56765,-15.753,4.4587e-13,-0.28383,0,0,0.083333,-0,-0,0.66667
0.29338,0.39278,3.5205,-0.16083,-28.131,891.51,1.5098,-0.50328,-1.9072,2.0131,-3.6916e-12,-0.95358,0,0,0.083333,-0,-0,0.66667
0.92895,0.99435,11.147,0.74152,19.503,15.287,-22.043,7.3476,-0.041287,-29.39,-1.1268e-06,-0.020643,0,0,0.083333,-2.3685e-15,0,0.66667
0.50712,0.12298,6.0854,-0.56553,-80.515,477,9.1773,-3.0591,-0.85977,12.236,-1.0481e-12,-0.42989,0,0,0.083333,-1.9737e-16,0,0.66667
0.45469,0.27625,5.4563,-0.33562,-50.96,570.13,4.8833,-1.6278,-1.6033,6.5111,1.2115e-12,-0.80165,0,0,0.083333,-7.8949e-16,0,0.66667
0.58787,0.89535,7.0545,0.59303,74.382,345.68,-11.156,3.7187,-0.74596,-14.875,-3.1219e-12,-0.37298,0,0,0.083333,7.8949e-16,0,0.66667
0.26414,0.19676,3.1697,-0.45486,-81.072,954.38,3.8447,-1.2816,-1.2679,5.1262,-1.8133e-11,-0.63393,0,0,0.083333,-0,-0,0.66667
0.30529,0.47737,3.6635,-0.033952,-5.8915,866.28,0.33169,-0.11056,-1.9918,0.44225,3.9244e-12,-0.99592,0,0,0.083333,-0,-0,0.66667
0.37165,0.14856,4.4599,-0.52715,-87.078,730.37,6.2694,-2.0898,-1.0117,8.3592,2.3404e-13,-0.50587,0,0,0.083333,-1.7468e-16,0,0.66667
0.24445,0.53233,2.9334,0.04849,8.7256,996.86,-0.37931,0.12644,-1.9896,-0.50574,-5.8098e-13,-0.99481,0,0,0.083333,-0,-0,0.66667
0.58455,0.081756,7.0146,-0.62737,-79.186,350.89,11.735,-3.9117,-0.59657,15.647,-2.0837e-12,-0.29828,0,0,0.083333,-7.8949e-16,0,0.66667
0.69585,0.40395,8.3502,-0.14408,-14.188,196.78,3.2082,-1.0694,-1.923,4.2776,8.3467e-13,-0.96151,0,0,0.083333,1.9737e-16,0,0.66667
0.071947,0.83129,0.86337,0.49693,94.754,1386.4,-1.1441,0.38136,-1.1181,-1.5255,-2.6325e-07,-0.55905,0,0,0.083333,-9.8686e-17,0,0.66667
0.97108,0.77531,11.653,0.41296,4.3514,3.2826,-12.833,4.2776,-1.3956,-17.11,-3.5748e-06,-0.69779,0,0,0.083333,-0,-0,0.66667
0.75307,0.23297,9.0368,-0.40054,-33.124,133.76,9.6524,-3.2175,-1.4294,12.87,6.4961e-12,-0.71471,0,0,0.083333,-0,-0,0.66667
0.80616,0.609,9.674,0.1635,10.899,84.384,-4.2178,1.4059,-1.9009,-5.6237,-6.2015e-11,-0.95045,0,0,0.083333,-0,-0,0.66667
0.75164,0.13543,9.0197,-0.54686,-45.528,135.77,13.153,-4.3844,-0.93973,17.538,-4.4406e-11,-0.46987,0,0,0.083333,-0,-0,0.66667
0.080061,0.91817,0.96073,0.62725,119.55,1367.7,-1.607,0.53566,-0.60333,-2.1427,-3.1651e-07,-0.30166,0,0,0.083333,-0,-0,0.66667
0.4817,0.97358,5.7804,0.71038,104.7,522.12,-10.95,3.65,-0.20714,-14.6,-1.7737e-12,-0.10357,0,0,0.083333,-0,-0,0.66667
0.44567,0.80946,5.3481,0.46419,71.255,587.09,-6.62,2.2067,-1.2305,-8.8267,-3.7002e-12,-0.61527,0,0,0.083333,9.8686e-16,0,0.66667
0.67247,0.38704,8.0697,-0.16944,-17.727,225.85,3.6461,-1.2154,-1.9035,4.8615,4.281e-13,-0.95177,0,0,0.083333,-1.579e-15,0,0.66667
0.44874,0.41832,5.3848,-0.12252,-18.717,580.91,1.7593,-0.58644,-1.9445,2.3457,2.6319e-12,-0.97225,0,0,0.083333,-7.8949e-16,0,0.66667
0.70431,0.46385,8.4518,-0.054218,-5.2145,186.62,1.222,-0.40732,-1.9943,1.6293,-1.8057e-12,-0.99715,0,0,0.083333,-0,-0,0.66667
0.68165,0.037122,8.1797,-0.69432,-71.31,215.89,15.145,-5.0483,-0.28287,20.193,-4.8219e-12,-0.14144,0,0,0.083333,1.579e-15,0,0.66667
0.69715,0.34295,8.3658,-0.23557,-23.123,195.34,5.2553,-1.7518,-1.8004,7.0071,7.3719e-13,-0.9002,0,0,0.083333,-6.9081e-16,0,0.66667
0.6186,0.92771,7.4232,0.64156,75.943,300.38,-12.7,4.2333,-0.53266,-16.933,1.4424e-12,-0.26633,0,0,0.083333,-7.8949e-16,0,0.66667
0.15098,0.015788,1.8118,-0.72632,-136.25,1205.6,3.5091,-1.1697,-0.12108,4.6788,-3.276e-08,-0.060538,0,0,0.083333,-0,-0,0.66667
0.7608,0.8971,9.1296,0.59565,48.04,126.82,-14.502,4.8339,-0.73602,-19.335,-9.7701e-11,-0.36801,0,0,0.083333,7.8949e-16,0,0.66667
0.78105,0.38766,9.3725,-0.16851,-12.523,106.23,4.2116,-1.4039,-1.9057,5.6155,2.2915e-11,-0.95287,0,0,0.083333,-0,-0,0.66667
0.9041,0.31027,10.849,-0.2846,-9.8355,22.532,8.2337,-2.7446,-1.715,10.978,-4.768e-08,-0.85748,0,0,0.083333,-1.7061e-15,0,0.66667
0.23377,0.61386,2.8052,0.17079,30.905,1020.3,-1.2776,0.42587,-1.9019,-1.7035,2.9261e-12,-0.95096,0,0,0.083333,3.9475e-16,0,0.66667
0.17668,0.77235,2.1201,0.40853,75.821,1147.3,-2.3097,0.7699,-1.4042,-3.0796,6.607e-11,-0.70209,0,0,0.083333,-1.9737e-16,0,0.66667
0.3911,0.11183,4.6932,-0.58226,-94.559,691.91,7.2871,-2.429,-0.80048,9.7161,2.7773e-12,-0.40024,0,0,0.083333,-0,-0,0.66667
0.32056,0.8923,3.8468,0.58845,101.24,834.86,-6.0364,2.0121,-0.76434,-8.0485,-6.1506e-12,-0.38217,0,0,0.083333,-3.9475e-16,0,0.66667
0.81548,0.81432,9.7857,0.47148,30.159,77.726,-12.303,4.1012,-1.211,-16.405,2.2981e-11,-0.60548,0,0,0.083333,-0,-0,0.66667
0.61353,0.76502,7.3623,0.39753,47.429,306.88,-7.8046,2.6015,-1.4362,-10.406,-1.1782e-12,-0.71811,0,0,0.083333,-0,-0,0.66667
0.76,0.24454,9.12,-0.38319,-30.912,126.77,9.3193,-3.1064,-1.4751,12.426,9.6403e-12,-0.73754,0,0,0.083333,-0,-0,0.66667
0.42767,0.26015,5.132,-0.35978,-56.281,620.76,4.9236,-1.6412,-1.5363,6.5648,-4.003e-12,-0.76815,0,0,0.083333,-0,-0,0.66667
0.099441,0.071717,1.1933,-0.64242,-122.03,1323.2,2.0443,-0.68142,-0.52926,2.7257,-1.8462e-07,-0.26463,0,0,0.083333,-0,-0,0.66667
0.11504,0.106,1.3804,-0.59099,-111.84,1287.4,2.1755,-0.72517,-0.75463,2.9007,2.6139e-08,-0.37731,0,0,0.083333,-1.9737e-16,0,0.66667
0.37341,0.33423,4.4809,-0.24865,-40.955,726.43,2.9711,-0.99038,-1.7834,3.9615,3.5161e-12,-0.89169,0,0,0.083333,-0,-0,0.66667
0.19385,0.43896,2.3262,-0.091567,-16.868,1108.7,0.568,-0.18933,-1.9675,0.75733,3.7108e-11,-0.98377,0,0,0.083333,-0,-0,0.66667
0.82075,0.95153,9.849,0.67729,42.369,74.663,-17.788,5.9294,-0.36457,-23.718,4.5679e-09,-0.18228,0,0,0.083333,-0,-0,0.66667
0.59964,0.34772,7.1956,-0.22842,-27.967,327,4.383,-1.461,-1.8117,5.844,1.724e-12,-0.90584,0,0,0.083333,-0,-0,0.66667
0.68885,0.57627,8.2661,0.1144,11.477,205.27,-2.5218,0.84059,-1.957,-3.3623,7.3008e-13,-0.97852,0,0,0.083333,-0,-0,0.66667
0.49111,0.068886,5.8933,-0.64667,-94.118,505.2,10.163,-3.3876,-0.50947,13.55,-3.2685e-13,-0.25473,0,0,0.083333,-0,-0,0.66667
0.088174,0.35836,1.0581,-0.21246,-40.36,1348.9,0.59946,-0.19982,-1.836,0.79928,4.7674e-08,-0.918,0,0,0.083333,-0,-0,0.66667
0.23508,0.11986,2.8209,-0.57021,-103.29,1017.8,4.2894,-1.4298,-0.84995,5.7192,-3.9968e-13,-0.42497,0,0,0.083333,3.9475e-16,0,0.66667
0.4616,0.87241,5.5392,0.55861,84.255,557.93,-8.2514,2.7505,-0.8873,-11.002,-7.4873e-12,-0.44365,0,0,0.083333,1.0856e-15,0,0.66667
0.19859,0.47505,2.3831,-0.037432,-6.8816,1098.1,0.23788,-0.079292,-1.9932,0.31717,-7.7245e-11,-0.99661,0,0,0.083333,-0,-0,0.66667
0.025476,0.73998,0.30571,0.35997,68.907,1493.9,-0.29346,0.097822,-1.5358,-0.39128,3.2413e-06,-0.76791,0,0,0.083333,-0,-0,0.66667
0.7294,0.12544,8.7528,-0.56185,-50.339,159.32,13.114,-4.3713,-0.8763,17.485,-1.7184e-11,-0.43815,0,0,0.083333,-0,-0,0.66667
0.72492,0.70086,8.699,0.30128,27.301,163.39,-6.989,2.3297,-1.6733,-9.3187,6.275e-13,-0.83667,0,0,0.083333,-0,-0,0.66667
0.33039,0.98305,3.9647,0.72458,123.9,814.78,-7.6606,2.5535,-0.13473,-10.214,6.4651e-12,-0.067363,0,0,0.083333,-0,-0,0.66667
0.84349,0.23808,10.122,-0.39288,-21.597,56.845,10.605,-3.5348,-1.4578,14.139,-1.1489e-10,-0.72888,0,0,0.083333,-7.8949e-16,0,0.66667
0.42844,0.54071,5.1413,0.061058,9.5358,618.99,-0.83711,0.27904,-1.9828,-1.1162,-9.5653e-12,-0.99142,0,0,0.083333,-7.8949e-16,0,0.66667
0.86469,0.079441,10.376,-0.63084,-30.453,44.418,17.455,-5.8184,-0.58178,23.274,9.5608e-08,-0.29089,0,0,0.083333,-1.024e-15,0,0.66667
0.65707,0.87765,7.8848,0.56648,61.665,246.94,-11.911,3.9703,-0.86513,-15.881,-1.4735e-12,-0.43257,0,0,0.083333,-0,-0,0.66667
0.58104,0.022094,6.9724,-0.71686,-91.134,356.66,13.329,-4.4429,-0.17328,17.772,-2.5286e-12,-0.086638,0,0,0.083333,-0,-0,0.66667
0.20073,0.024963,2.4087,-0.71255,-131.26,1093.9,4.5769,-1.5256,-0.19649,6.1026,1.1073e-09,-0.098243,0,0,0.083333,-0,6.3436e-17,0.66667
0.52955,0.26288,6.3546,-0.35567,-48.979,438.32,6.0271,-2.009,-1.553,8.0361,-1.5854e-13,-0.77648,0,0,0.083333,-7.8949e-16,0,0.66667
0.89443,0.022617,10.733,-0.71607,-27.459,29.014,20.495,-6.8318,-0.17579,27.327,-1.0281e-06,-0.087893,0,0,0.083333,-0,-0,0.66667
0.30499,0.11459,3.6599,-0.57811,-100.54,867.44,5.6423,-1.8808,-0.80741,7.523,-1.7426e-12,-0.4037,0,0,0.083333,-0,-0,0.66667
0.87095,0.42729,10.451,-0.10906,-4.9936,38.972,3.0395,-1.0132,-1.9562,4.0527,-3.3003e-09,-0.97808,0,0,0.083333,-0,-0,0.66667
0.90875,0.95096,10.905,0.67643,22.548,22.371,-19.671,6.5569,-0.37409,-26.227,-1.5366e-06,-0.18705,0,0,0.083333,-0,-0,0.66667
0.32984,0.76248,3.9581,0.39373,67.204,815.26,-4.1558,1.3853,-1.4515,-5.541,-4.4054e-13,-0.72577,0,0,0.083333,-0,-0,0.66667
0.68307,0.48428,8.1969,-0.023585,-2.4018,212.36,0.51554,-0.17185,-1.9957,0.68739,4.0183e-12,-0.99787,0,0,0.083333,-1.579e-15,0,0.66667
0.89922,0.37635,10.791,-0.18548,-6.7145,24.492,5.3371,-1.779,-1.8748,7.1161,-3.3136e-08,-0.93738,0,0,0.083333,-0,-0,0.66667
0.075697,0.28745,0.90836,-0.31883,-60.712,1377.7,0.77229,-0.25743,-1.6403,1.0297,1.9582e-07,-0.82014,0,0,0.083333,-0,-0,0.66667
0.87859,0.41294,10.543,-0.13059,-5.6448,34.732,3.6714,-1.2238,-1.9389,4.8953,-6.0524e-09,-0.96944,0,0,0.083333,-0,-0,0.66667
0.19084,0.084586,2.2901,-0.62312,-115.17,1115.8,3.8053,-1.2684,-0.61911,5.0738,-1.8472e-10,-0.30955,0,0,0.083333,-0,-0,0.66667
0.84977,0.55921,10.197,0.088809,4.6874,51.985,-2.415,0.80499,-1.9692,-3.2199,-5.6131e-10,-0.98458,0,0,0.083333,-1.7221e-15,0,0.66667
0.66712,0.96114,8.0054,0.69171,73.642,234.34,-14.767,4.9222,-0.29654,-19.689,3.0154e-12,-0.14827,0,0,0.083333,-0,-5.6489e-17,0.66667
0.34434,0.78821,4.1321,0.43231,72.993,785.49,-4.7635,1.5878,-1.3416,-6.3514,3.6837e-12,-0.67079,0,0,0.083333,-0,-0,0.66667
0.15138,0.33955,1.8165,-0.24068,-45.025,1204.4,1.1658,-0.38861,-1.7921,1.5545,5.9792e-10,-0.89607,0,0,0.083333,-2.0643e-16,0,0.66667
0.63537,0.43423,7.6245,-0.098659,-11.239,275.33,2.0059,-0.66864,-1.9632,2.6746,2.3124e-12,-0.98162,0,0,0.083333,-9.8686e-16,0,0.66667
0.84779,0.51011,10.173,0.01517,0.81036,53.26,-0.41156,0.13719,-1.9977,-0.54874,-1.8511e-09,-0.99883,0,0,0.083333,-0,-0,0.66667
0.82185,0.74238,9.8622,0.36357,22.494,72.389,-9.5616,3.1872,-1.5264,-12.749,-5.751e-12,-0.76322,0,0,0.083333,-0,-0,0.66667
0.62824,0.097251,7.5389,-0.60412,-70.088,286.51,12.145,-4.0484,-0.70292,16.193,1.5152e-12,-0.35146,0,0,0.083333,-0,-0,0.66667
0.9563,0.45302,11.476,-0.070471,-1.1159,5.1035,2.1565,-0.71884,-1.982,2.8754,2.0484e-07,-0.991,0,0,0.083333,-1.579e-15,0,0.66667
0.58992,0.12933,7.0791,-0.55601,-69.456,342.43,10.496,-3.4987,-0.90028,13.995,-2.0872e-13,-0.45014,0,0,0.083333,-0,-0,0.66667
0.19783,0.60633,2.374,0.15949,29.335,1099.8,-1.0097,0.33656,-1.9064,-1.3463,5.5166e-11,-0.95318,0,0,0.083333,-0,-0,0.66667
0.42933,0.40048,5.152,-0.14928,-23.296,617.35,2.051,-0.68365,-1.917,2.7346,6.3829e-12,-0.95849,0,0,0.083333,-1.9737e-16,0,0.66667
0.33675,0.38567,4.041,-0.17149,-29.098,800.79,1.848,-0.616,-1.8913,2.464,6.481e-12,-0.94563,0,0,0.083333,7.8949e-16,0,0.66667
0.99195,0.13328,11.903,-0.55008,-1.5463,1.8868,17.461,-5.8203,-0.92004,23.281,-2.0029e-05,-0.46002,0,0,0.083333,3.158e-15,0,0.66667
0.38024,0.51084,4.5628,0.016259,2.6608,712.69,-0.19783,0.065943,-1.996,-0.26377,9.178e-12,-0.99801,0,0,0.083333,-0,-0,0.66667
0.9927,0.34129,11.912,-0.23806,-0.53991,0.54661,7.5624,-2.5208,-1.7953,10.083,-1.0458e-06,-0.89764,0,0,0.083333,-1.4825e-15,0,0.66667
0.5188,0.32209,6.2257,-0.26686,-37.31,456.3,4.4304,-1.4768,-1.7467,5.9072,1.2674e-12,-0.87335,0,0,0.083333,-0,-0,0.66667
0.17228,0.28716,2.0674,-0.31926,-59.326,1157.2,1.7601,-0.58669,-1.6443,2.3468,-1.8304e-10,-0.82216,0,0,0.083333,-0,-0,0.66667
0.074574,0.84822,0.89489,0.52233,99.573,1380.3,-1.2465,0.41549,-1.0298,-1.662,-1.8928e-07,-0.51491,0,0,0.083333,1.9737e-16,0,0.66667
0.37031,0.054253,4.4437,-0.66862,-110.69,733.4,7.923,-2.641,-0.40825,10.564,-1.2287e-11,-0.20413,0,0,0.083333,3.9475e-16,6.8726e-18,0.66667
0.12342,0.93093,1.481,0.6464,122.12,1268.3,-2.5529,0.85097,-0.51792,-3.4039,-2.1454e-07,-0.25896,0,0,0.083333,-0,-0,0.66667
0.63452,0.92656,7.6142,0.63985,73.288,277.87,-12.992,4.3306,-0.54058,-17.322,-4.1567e-13,-0.27029,0,0,0.083333,-0,-0,0.66667
0.41392,0.58092,4.967,0.12138,19.242,646.79,-1.6077,0.53589,-1.9432,-2.1436,-1.9782e-12,-0.9716,0,0,0.083333,-0,-0,0.66667
0.99092,0.82789,11.891,0.49184,1.5443,1.6224,-15.596,5.1986,-1.1357,-20.794,1.0179e-05,-0.56787,0,0,0.083333,-0,-0,0.66667
0.92996,0.67625,11.159,0.26437,6.7267,12.577,-7.8674,2.6225,-1.7472,-10.49,2.1453e-07,-0.87358,0,0,0.083333,-1.579e-15,0,0.66667
0.14924,0.067946,1.7908,-0.64808,-121.56,1209.5,3.0949,-1.0316,-0.50301,4.1266,6.862e-08,-0.2515,0,0,0.083333,-3.9475e-16,0,0.66667
0.39488,0.58693,4.7386,0.13039,21.058,683.8,-1.6477,0.54922,-1.938,-2.1969,-2.1403e-12,-0.96902,0,0,0.083333,-3.9475e-16,0,0.66667
0.46158,0.1635,5.539,-0.50475,-76.103,557.83,7.4554,-2.4851,-1.0902,9.9406,4.3752e-12,-0.54512,0,0,0.083333,-0,-0,0.66667
0.56095,0.38273,6.7314,-0.17591,-23.05,386.69,3.1577,-1.0526,-1.8935,4.2102,4.5164e-13,-0.94673,0,0,0.083333,-0,-0,0.66667
0.78036,0.11102,9.3644,-0.58348,-43.672,108.16,14.57,-4.8568,-0.79428,19.427,2.6595e-10,-0.39714,0,0,0.083333,-1.579e-15,0,0.66667
0.48719,0.051525,5.8463,-0.67271,-98.427,512.21,10.488,-3.4959,-0.39143,13.984,-1.0765e-12,-0.19571,0,0,0.083333,-0,-0,0.66667
0.41999,0.21967,5.0399,-0.42049,-66.325,635.49,5.6513,-1.8838,-1.3751,7.5351,-8.7992e-12,-0.68756,0,0,0.083333,1.579e-15,0,0.66667
0.262,0.083535,3.144,-0.6247,-111.6,959.26,5.2375,-1.7458,-0.61155,6.9833,8.7535e-11,-0.30578,0,0,0.083333,3.9475e-16,0,0.66667
0.91081,0.91739,10.93,0.62609,20.377,21.205,-18.248,6.0826,-0.60395,-24.331,-3.4397e-08,-0.30198,0,0,0.083333,-0,-0,0.66667
0.022272,0.87417,0.26726,0.56126,107.56,1501.4,-0.4,0.13334,-0.87727,-0.53332,1.7945e-05,-0.43864,0,0,0.083333,-6.3115e-17,0,0.66667
0.82112,0.83692,9.8535,0.50538,31.448,73.485,-13.279,4.4264,-1.0881,-17.706,-1.0392e-09,-0.54403,0,0,0.083333,-0,-0,0.66667
0.18847,0.50194,2.2616,0.0029144,0.53798,1120.7,-0.017576,0.0058588,-2.0058,-0.023435,2.3204e-10,-1.0029,0,0,0.083333,-0,-0,0.66667
0.68576,0.925,8.2291,0.63749,64.736,210.51,-13.989,4.6631,-0.55769,-18.652,-1.4611e-12,-0.27885,0,0,0.083333,-0,9.4748e-17,0.66667
0.35521,0.42421,4.2625,-0.11368,-19.008,763,1.2922,-0.43072,-1.9522,1.7229,-9.5155e-12,-0.97608,0,0,0.083333,-0,-0,0.66667
0.97421,0.21512,11.691,-0.42733,-4.0086,2.906,13.322,-4.4406,-1.3483,17.762,5.3339e-06,-0.67416,0,0,0.083333,-1.579e-15,0,0.66667
0.12277,0.34332,1.4733,-0.23502,-44.32,1269.5,0.92333,-0.30778,-1.8067,1.2311,6.8712e-09,-0.90337,0,0,0.083333,-2.2204e-16,0,0.66667
0.18757,0.44768,2.2508,-0.078484,-14.494,1122.7,0.47108,-0.15703,-1.9853,0.62811,-8.73e-11,-0.99267,0,0,0.083333,-0,-0,0.66667
0.88944,0.40668,10.673,-0.13999,-5.5357,29.096,3.9843,-1.3281,-1.9359,5.3124,-1.1809e-08,-0.96795,0,0,0.083333,-0,-0,0.66667
0.58341,0.68299,7.0009,0.27449,34.625,351.65,-5.1244,1.7081,-1.7297,-6.8325,2.117e-12,-0.86487,0,0,0.083333,-0,-0,0.66667
0.30925,0.49185,3.711,-0.012222,-2.1151,857.95,0.12095,-0.040317,-1.9994,0.16127,1.5221e-11,-0.99969,0,0,0.083333,-1.1842e-15,0,0.66667
0.00076439,0.73394,0.0091726,0.3509,67.214,1551.2,-0.0085817,0.0028586,-1.5673,-0.011443,-2.9685e-06,-0.78363,0,0,0.083333,1.542e-18,0,0.66667
0.2276,0.98982,2.7312,0.73473,133.74,1034.5,-5.3511,1.7837,-0.076554,-7.1348,-8.2272e-11,-0.038277,0,0,0.083333,4.669e-16,0,0.66667
0.1454,0.13307,1.7448,-0.5504,-103.29,1218.1,2.561,-0.85366,-0.92056,3.4146,-2.9361e-10,-0.46028,0,0,0.083333,-0,-0,0.66667
0.20343,0.76535,2.4412,0.39803,73.092,1087.5,-2.5911,0.86371,-1.443,-3.4548,1.2111e-10,-0.72152,0,0,0.083333,-0,-0,0.66667
0.89632,0.42788,10.756,-0.10818,-4.0219,25.728,3.1029,-1.0343,-1.955,4.1372,-2.2841e-08,-0.97751,0,0,0.083333,-0,-0,0.66667
0.87309,0.6111,10.477,0.16664,7.5132,37.823,-4.6559,1.552,-1.9035,-6.2079,4.7644e-09,-0.95175,0,0,0.083333,-0,-0,0.66667
0.70029,0.25598,8.4035,-0.36603,-35.651,191.88,8.2025,-2.7342,-1.5246,10.937,1.6129e-12,-0.76228,0,0,0.083333,-1.579e-15,0,0.66667
0.4705,0.89405,5.646,0.59107,88.232,541.84,-8.8991,2.9664,-0.76049,-11.865,-2.9923e-12,-0.38025,0,0,0.083333,-0,-0,0.66667
0.82714,0.52335,9.9256,0.035019,2.1032,67.825,-0.92688,0.30896,-2.0005,-1.2358,-1.3183e-10,-1.0003,0,0,0.083333,-0,-0,0.66667
0.49583,0.3491,5.9499,-0.22635,-32.656,495.94,3.5914,-1.1971,-1.8166,4.7886,1.7413e-12,-0.90832,0,0,0.083333,-0,-0,0.66667
0.36349,0.45188,4.3619,-0.072185,-11.987,746.24,0.83963,-0.27988,-1.9796,1.1195,-4.3965e-13,-0.98982,0,0,0.083333,-0,-0,0.66667
0.2756,0.65639,3.3072,0.23459,41.496,929.48,-2.0689,0.68964,-1.8024,-2.7585,-1.4603e-11,-0.90122,0,0,0.083333,-7.8949e-16,0,0.66667
0.92474,0.62771,11.097,0.19157,5.2235,14.183,-5.6689,1.8896,-1.8709,-7.5585,1.3582e-07,-0.93545,0,0,0.083333,-0,-0,0.66667
0.38699,0.99597,4.6439,0.74395,121.44,700.45,-9.2128,3.0709,-0.031961,-12.284,-5.6879e-12,-0.015981,0,0,0.083333,-0,-0,0.66667
0.49288,0.73206,5.9146,0.34809,50.437,501.3,-5.4901,1.83,-1.5648,-7.3201,1.3238e-12,-0.78242,0,0,0.083333,-7.8949e-16,0,0.66667
0.25444,0.01507,3.0533,-0.72739,-130.59,975.82,5.9225,-1.9742,-0.11646,7.8966,-1.2115e-12,-0.058229,0,0,0.083333,-0,-0,0.66667
0.88497,0.41636,10.62,-0.12545,-5.1518,31.349,3.5527,-1.1842,-1.9407,4.737,-7.9252e-09,-0.97033,0,0,0.083333,-0,-0,0.66667
0.38326,0.68616,4.5992,0.27924,45.598,706.84,-3.4247,1.1416,-1.7197,-4.5663,-3.6253e-12,-0.85987,0,0,0.083333,-2.9606e-16,0,0.66667
0.29757,0.93383,3.5709,0.65074,113.78,883.24,-6.1966,2.0655,-0.50059,-8.2621,-5.1732e-12,-0.2503,0,0,0.083333,5.9212e-16,0,0.66667
0.71759,0.13389,8.6111,-0.54916,-50.995,172.41,12.61,-4.2035,-0.93208,16.814,-1.3391e-11,-0.46604,0,0,0.083333,1.579e-15,0,0.66667
0.19087,0.84168,2.2904,0.51252,94.66,1115.6,-3.1304,1.0435,-1.0666,-4.1739,1.5599e-10,-0.53331,0,0,0.083333,1.4803e-16,0,0.66667
0.11819,0.2356,1.4183,-0.3966,-74.917,1280,1.5,-0.5,-1.4365,2,-1.9525e-09,-0.71823,0,0,0.083333,1.9737e-16,0,0.66667
0.837,0.78453,10.044,0.4268,24.369,61.474,-11.431,3.8104,-1.3491,-15.242,1.5276e-10,-0.67457,0,0,0.083333,-0,-0,0.66667
0.74414,0.8335,8.9296,0.50025,42.701,143.31,-11.912,3.9707,-1.1067,-15.883,-8.8018e-13,-0.55334,0,0,0.083333,-0,-0,0.66667
0.59052,0.41611,7.0862,-0.12584,-15.664,340.6,2.3779,-0.79264,-1.9435,3.1706,6.1218e-13,-0.97174,0,0,0.083333,-0,-0,0.66667
0.24289,0.32033,2.9147,-0.2695,-48.555,1000.3,2.0947,-0.69824,-1.7378,2.793,-5.5156e-13,-0.8689,0,0,0.083333,-0,-0,0.66667
0.62325,0.69466,7.479,0.292,34.142,292.65,-5.8236,1.9412,-1.6999,-7.7647,-3.3187e-12,-0.84996,0,0,0.083333,-0,-0,0.66667
0.63836,0.35986,7.6603,-0.21021,-23.801,271.31,4.2941,-1.4314,-1.8443,5.7255,-1.4828e-12,-0.92215,0,0,0.083333,-0,-0,0.66667
0.32757,0.96694,3.9308,0.70041,120,820.56,-7.3419,2.4473,-0.26269,-9.7892,-7.0401e-12,-0.13135,0,0,0.083333,3.9475e-16,0,0.66667
0.067489,0.1757,0.80987,-0.48644,-92.807,1396.7,1.0506,-0.35018,-1.1558,1.4007,2.812e-07,-0.57791,0,0,0.083333,1.8763e-17,0,0.66667
0.88054,0.92236,10.566,0.63354,27.22,35.487,-17.851,5.9504,-0.56943,-23.802,1.9128e-07,-0.28472,0,0,0.083333,-0,-0,0.66667
0.45996,0.381,5.5195,-0.17851,-26.924,560.25,2.6274,-0.87579,-1.8831,3.5032,1.2532e-12,-0.94153,0,0,0.083333,-0,-0,0.66667
0.76387,0.53964,9.1665,0.059463,4.7207,122.38,-1.4535,0.48451,-1.9904,-1.938,-9.985e-12,-0.99518,0,0,0.083333,1.579e-15,0,0.66667
0.25389,0.063164,3.0467,-0.65525,-117.61,976.87,5.3236,-1.7745,-0.47344,7.0981,6.2497e-12,-0.23672,0,0,0.083333,-7.8949e-16,0,0.66667
0.59139,0.72641,7.0966,0.33962,42.244,339.6,-6.4271,2.1424,-1.5916,-8.5695,6.2212e-12,-0.79578,0,0,0.083333,-1.579e-15,0,0.66667
0.4288,0.99946,5.1455,0.74918,117.39,619.6,-10.28,3.4266,-0.0016252,-13.706,5.4241e-12,-0.00081262,0,0,0.083333,-1.3076e-15,0,0.66667
0.3821,0.59825,4.5852,0.14738,24.082,709.03,-1.802,0.60067,-1.9193,-2.4027,-1.8445e-12,-0.95963,0,0,0.083333,-0,-0,0.66667
0.12671,0.80338,1.5206,0.45507,85.803,1260.6,-1.8452,0.61508,-1.2666,-2.4603,-1.5455e-09,-0.63332,0,0,0.083333,9.8686e-17,0,0.66667
0.24427,0.52402,2.9312,0.036033,6.4846,997.25,-0.28165,0.093885,-1.9922,-0.37554,-4.0499e-12,-0.99612,0,0,0.083333,3.9475e-16,0,0.66667
0.079342,0.41414,0.9521,-0.1288,-24.5,1369.2,0.32701,-0.109,-1.9453,0.43601,6.5831e-08,-0.97266,0,0,0.083333,-0,-0,0.66667
0.30286,0.37385,3.6343,-0.18922,-32.894,871.46,1.8338,-0.61127,-1.8703,2.4451,-1.828e-12,-0.93517,0,0,0.083333,-1.9737e-16,0,0.66667
0.7417,0.10543,8.9005,-0.59185,-50.992,146.26,14.047,-4.6825,-0.7502,18.73,-8.0463e-11,-0.3751,0,0,0.083333,-1.579e-15,0,0.66667
0.61502,0.43358,7.3802,-0.09963,-11.836,304.24,1.9608,-0.65359,-1.9621,2.6144,6.9078e-13,-0.98105,0,0,0.083333,-9.8686e-16,0,0.66667
0.67241,0.95375,8.0689,0.68062,71.524,227.48,-14.645,4.8817,-0.35859,-19.527,1.803e-12,-0.1793,0,0,0.083333,-0,-0,0.66667
0.0083831,0.50704,0.1006,0.010559,2.021,1533.5,-0.0028325,0.00094287,-1.9957,-0.0037773,-1.9497e-06,-0.99785,0,0,0.083333,4.9343e-17,0,0.66667
0.67838,0.84177,8.1405,0.51266,52.974,219.2,-11.129,3.7096,-1.0627,-14.839,5.2678e-12,-0.53134,0,0,0.083333,-9.8686e-16,0,0.66667
0.50318,0.15561,6.0382,-0.51659,-73.914,483.68,8.318,-2.7727,-1.0524,11.091,5.9455e-12,-0.52618,0,0,0.083333,-9.3752e-16,0,0.66667
0.23091,0.63245,2.7709,0.19867,36.003,1026.6,-1.468,0.48933,-1.8593,-1.9573,-1.9839e-12,-0.92964,0,0,0.083333,-0,-0,0.66667
0.1749,0.64107,2.0988,0.21161,39.273,1151.2,-1.1843,0.39478,-1.8407,-1.5791,7.5639e-11,-0.92036,0,0,0.083333,-3.9475e-16,0,0.66667
0.18498,0.40717,2.2198,-0.13925,-25.743,1128.5,0.82429,-0.27476,-1.9335,1.099,5.9556e-11,-0.96674,0,0,0.083333,-0,-0,0.66667
0.84426,0.26408,10.131,-0.35388,-19.355,56.194,9.5606,-3.1869,-1.5605,12.747,-3.7287e-10,-0.78025,0,0,0.083333,-1.579e-15,0,0.66667
0.98259,0.46884,11.791,-0.046741,-0.2826,1.0018,1.4697,-0.48989,-1.9964,1.9596,1.203e-06,-0.99821,0,0,0.083333,-0,-0,0.66667
0.91374,0.66289,10.965,0.24434,7.6169,18.408,-7.1443,2.3814,-1.7838,-9.5257,5.7917e-08,-0.89192,0,0,0.083333,-0,-0,0.66667
0.34737,0.86339,4.1684,0.54509,91.879,779.5,-6.0591,2.0197,-0.94257,-8.0789,1.0633e-11,-0.47128,0,0,0.083333,-0,-0,0.66667
0.78022,0.19649,9.3627,-0.45526,-34.031,107.73,11.367,-3.7888,-1.2678,15.155,-3.8041e-11,-0.63388,0,0,0.083333,-0,-0,0.66667
0.54645,0.37227,6.5575,-0.1916,-25.697,410.11,3.3504,-1.1168,-1.8767,4.4672,-2.5713e-13,-0.93833,0,0,0.083333,-0,-0,0.66667
0.81644,0.069679,9.7973,-0.64548,-41.224,77.814,16.864,-5.6213,-0.51749,22.485,-1.2281e-08,-0.25875,0,0,0.083333,-0,-0,0.66667
0.48373,0.58321,5.8047,0.12482,18.287,517.24,-1.9321,0.64403,-1.9502,-2.5761,-5.0107e-12,-0.97508,0,0,0.083333,-0,-0,0.66667
0.58995,0.62996,7.0794,0.19494,24.296,341.53,-3.6802,1.2267,-1.8643,-4.9069,2.474e-12,-0.93215,0,0,0.083333,-0,-0,0.66667
0.78726,0.50972,9.4472,0.014579,1.0558,100.49,-0.36728,0.12243,-1.9956,-0.4897,-4.6881e-11,-0.99782,0,0,0.083333,-0,-0,0.66667
0.10023,0.81408,1.2028,0.47111,89.379,1321.2,-1.5111,0.5037,-1.2081,-2.0148,-5.2138e-08,-0.60405,0,0,0.083333,-3.9475e-16,0,0.66667
0.53701,0.45522,6.4441,-0.067177,-9.1396,425.55,1.1544,-0.38479,-1.9803,1.5392,3.0211e-12,-0.99016,0,0,0.083333,1.5355e-16,0,0.66667
0.36598,0.14457,4.3918,-0.53315,-88.499,741.75,6.2439,-2.0813,-0.98525,8.3253,2.0872e-13,-0.49263,0,0,0.083333,-0,-0,0.66667
0.60431,0.53407,7.2517,0.051103,6.1989,319.9,-0.98821,0.3294,-1.9888,-1.3176,-4.058e-12,-0.99442,0,0,0.083333,1.579e-15,0,0.66667
0.9588,0.20666,11.506,-0.44,-6.649,5.5469,13.5,-4.5,-1.3081,18,-2.1445e-06,-0.65406,0,0,0.083333,1.579e-15,0,0.66667
0.39282,0.35104,4.7139,-0.22344,-36.161,687.92,2.8087,-0.93623,-1.8246,3.7449,-5.2847e-14,-0.91228,0,0,0.083333,-0,-0,0.66667
0.39297,0.49951,4.7157,-0.00074152,-0.11995,687.52,0.0093247,-0.0031082,-2.0029,0.012433,1.2508e-11,-1.0014,0,0,0.083333,-2.4425e-15,0,0.66667
0.79064,0.72275,9.4876,0.33412,23.893,97.973,-8.4533,2.8178,-1.6,-11.271,-4.731e-11,-0.80001,0,0,0.083333,-0,-0,0.66667
0.64508,0.77431,7.7409,0.41147,45.96,262.51,-8.4938,2.8313,-1.3962,-11.325,-4.3521e-13,-0.69812,0,0,0.083333,-7.8949e-16,0,0.66667
0.39388,0.72085,4.7266,0.33127,53.581,685.96,-4.1754,1.3918,-1.6106,-5.5672,2.9776e-12,-0.8053,0,0,0.083333,-0,-0,0.66667
0.68896,0.11224,8.2675,-0.58164,-58.533,206.33,12.823,-4.2744,-0.80046,17.098,-4.3876e-12,-0.40023,0,0,0.083333,7.8949e-16,0,0.66667
0.404,0.86863,4.848,0.55295,88.69,666.61,-7.1485,2.3828,-0.91496,-9.5313,1.7364e-13,-0.45748,0,0,0.083333,1.9737e-16,0,0.66667
0.13611,0.82788,1.6334,0.49181,92.515,1239.2,-2.1422,0.71405,-1.1376,-2.8562,-1.099e-08,-0.5688,0,0,0.083333,-0,-0,0.66667
0.45064,0.73024,5.4077,0.34536,52.684,577.63,-4.9803,1.6601,-1.577,-6.6403,-1.0562e-11,-0.78851,0,0,0.083333,7.8949e-16,0,0.66667
0.33442,0.15612,4.013,-0.51582,-87.804,806.01,5.5201,-1.84,-1.0516,7.3601,3.8751e-12,-0.5258,0,0,0.083333,-5.6128e-16,0,0.66667
0.21797,0.098926,2.6156,-0.60161,-109.9,1055.5,4.1962,-1.3987,-0.7189,5.595,-1.0621e-09,-0.35945,0,0,0.083333,-0,-5.4551e-17,0.66667
0.92577,0.86853,11.109,0.55279,15.024,15.15,-16.376,5.4588,-0.91256,-21.835,1.6156e-07,-0.45628,0,0,0.083333,-0,-0,0.66667
0.68964,0.32787,8.2757,-0.25819,-25.863,204.49,5.6979,-1.8993,-1.7647,7.5972,4.3476e-13,-0.88234,0,0,0.083333,-1.579e-15,0,0.66667
0.59882,0.26376,7.1859,-0.35436,-43.48,328.45,6.7904,-2.2635,-1.5505,9.0539,3.3689e-12,-0.77525,0,0,0.083333,-0,-0,0.66667
0.74666,0.4945,8.9599,-0.0082528,-0.69634,139.7,0.19718,-0.065728,-1.9998,0.26291,8.317e-13,-0.99992,0,0,0.083333,-3.9475e-16,0,0.66667
0.54197,0.058228,6.5037,-0.66266,-89.774,418.62,11.493,-3.8308,-0.43675,15.323,4.2055e-12,-0.21837,0,0,0.083333,-4.6858e-16,0,0.66667
0.70053,0.023018,8.4064,-0.71547,-69.919,193,16.039,-5.3463,-0.18105,21.385,9.3969e-13,-0.090523,0,0,0.083333,-0,-7.6592e-17,0.66667
0.93056,0.8719,11.167,0.55786,14.213,13.578,-16.612,5.5373,-0.89026,-22.149,2.0919e-07,-0.44513,0,0,0.083333,-1.6982e-15,0,0.66667
0.86262,0.84342,10.351,0.51514,25.151,45.051,-14.22,4.7399,-1.0576,-18.96,1.3003e-08,-0.52882,0,0,0.083333,-4.1942e-16,0,0.66667
0.16744,0.97023,2.0093,0.70534,131.58,1168.4,-3.7793,1.2598,-0.23019,-5.0391,-1.9999e-08,-0.1151,0,0,0.083333,-0,-0,0.66667
0.26314,0.15943,3.1577,-0.51085,-91.132,956.61,4.3016,-1.4339,-1.0742,5.7355,-2.2577e-12,-0.53708,0,0,0.083333,-7.8949e-16,0,0.66667
0.07161,0.39395,0.85932,-0.15908,-30.298,1387.1,0.36453,-0.12151,-1.9059,0.48604,1.1556e-07,-0.95297,0,0,0.083333,-0,-0,0.66667
0.97867,0.66819,11.744,0.25229,1.9136,1.7354,-7.9012,2.6337,-1.7702,-10.535,-1.4812e-06,-0.88508,0,0,0.083333,-1.579e-15,0,0.66667
0.23638,0.23406,2.8366,-0.39891,-72.144,1014.7,3.0175,-1.0058,-1.4362,4.0233,-1.0723e-11,-0.7181,0,0,0.083333,-3.9475e-16,0,0.66667
0.6606,0.52562,7.9272,0.038434,4.1367,241.15,-0.81247,0.27082,-1.9933,-1.0833,-3.1939e-12,-0.99664,0,0,0.083333,-0,-0,0.66667
0.089631,0.50405,1.0756,0.00607,1.1525,1345.5,-0.01741,0.0058034,-1.999,-0.023213,1.072e-07,-0.99948,0,0,0.083333,-0,-0,0.66667
0.21077,0.30052,2.5293,-0.29922,-54.752,1071.1,2.0181,-0.67272,-1.6773,2.6909,-5.2378e-11,-0.83864,0,0,0.083333,-0,-0,0.66667
0.50282,0.76648,6.0339,0.39971,57.174,484.01,-6.4315,2.1438,-1.4322,-8.5754,-6.195e-13,-0.71612,0,0,0.083333,-0,-0,0.66667
0.10495,0.58318,1.2594,0.12477,23.621,1310.3,-0.41903,0.13968,-1.9426,-0.55871,-1.8279e-08,-0.97128,0,0,0.083333,-9.8686e-17,0,0.66667
0.38887,0.039187,4.6665,-0.69122,-112.58,696.58,8.6015,-2.8672,-0.3042,11.469,1.1082e-11,-0.1521,0,0,0.083333,7.8949e-16,-7.4794e-17,0.66667
0.53799,0.91496,6.4559,0.62244,84.806,425.03,-10.716,3.5719,-0.61853,-14.288,9.6101e-13,-0.30927,0,0,0.083333,-0,-0,0.66667
0.3392,0.51534,4.0705,0.023016,3.8973,795.68,-0.24983,0.083277,-1.9957,-0.33311,-1.0603e-11,-0.99784,0,0,0.083333,-0,-0,0.66667
0.5559,0.82919,6.6708,0.49379,65.346,395.41,-8.7839,2.928,-1.1289,-11.712,-5.7092e-12,-0.56444,0,0,0.083333,7.8949e-16,0,0.66667
0.53677,0.033895,6.4412,-0.69916,-95.508,427.33,12.009,-4.003,-0.25969,16.012,6.7519e-12,-0.12984,0,0,0.083333,-1.579e-15,0,0.66667
0.39061,0.83169,4.6873,0.49753,80.788,692.68,-6.2189,2.073,-1.1272,-8.2918,2.9803e-12,-0.56358,0,0,0.083333,-0,3.7199e-17,0.66667
0.69627,0.89243,8.3552,0.58864,58.096,197.48,-13.115,4.3718,-0.76374,-17.487,4.956e-13,-0.38187,0,0,0.083333,-7.8949e-16,0,0.66667
0.67848,0.79131,8.1418,0.43697,45.108,218.8,-9.4873,3.1624,-1.3171,-12.65,1.9185e-12,-0.65855,0,0,0.083333,-0,-0,0.66667
0.6873,0.86386,8.2476,0.54579,55.14,208.21,-12.004,4.0013,-0.94766,-16.005,2.7338e-12,-0.47383,0,0,0.083333,-0,1.031e-16,0.66667
0.56149,0.65652,6.7379,0.23478,30.742,385.9,-4.2184,1.4061,-1.8101,-5.6245,5.9752e-12,-0.90504,0,0,0.083333,-1.579e-15,0,0.66667
0.35808,0.30396,4.297,-0.29406,-49.075,757.32,3.3695,-1.1232,-1.6966,4.4927,2.0755e-12,-0.84829,0,0,0.083333,3.9475e-16,0,0.66667
0.61311,0.44538,7.3573,-0.081924,-9.7694,306.99,1.6073,-0.53577,-1.9753,2.1431,-2.5051e-12,-0.98763,0,0,0.083333,-0,-0,0.66667
0.93574,0.63888,11.229,0.20832,4.8633,10.62,-6.2377,2.0792,-1.8483,-8.3169,1.6349e-07,-0.92414,0,0,0.083333,1.579e-15,0,0.66667
0.59689,0.69919,7.1627,0.29879,36.782,331.23,-5.7069,1.9023,-1.6824,-7.6093,9.73e-13,-0.84121,0,0,0.083333,-0,-0,0.66667
0.97959,0.40312,11.755,-0.14533,-1.0457,1.4106,4.5555,-1.5185,-1.9233,6.074,5.8184e-07,-0.96164,0,0,0.083333,1.9737e-15,0,0.66667
0.44101,0.15857,5.2921,-0.51215,-79.049,595.91,7.2275,-2.4092,-1.0677,9.6367,-1.7453e-12,-0.53386,0,0,0.083333,-0,-0,0.66667
0.73961,0.24531,8.8753,-0.38203,-33.061,147.66,9.0417,-3.0139,-1.4787,12.056,-1.9984e-12,-0.73936,0,0,0.083333,1.1842e-15,0,0.66667
0.037604,0.66383,0.45125,0.24574,46.988,1465.8,-0.29571,0.098569,-1.7817,-0.39428,1.418e-07,-0.89083,0,0,0.083333,-0,-0,0.66667
0.76473,0.82381,9.1767,0.48571,38.555,122.49,-11.886,3.962,-1.166,-15.848,-3.945e-11,-0.58301,0,0,0.083333,-0,-0,0.66667
0.51828,0.58915,6.2194,0.13373,18.703,457.04,-2.2178,0.73928,-1.9379,-2.9571,-1.4631e-12,-0.96895,0,0,0.083333,-9.8686e-16,0,0.66667
0.0053165,0.49178,0.063798,-0.012323,-2.3588,1540.7,0.0020966,-0.00070407,-1.9966,0.0027929,-7.7986e-06,-0.99828,0,0,0.083333,-0,-0,0.66667
0.2772,0.27363,3.3264,-0.33955,-60.027,926.15,3.0119,-1.004,-1.5888,4.0159,-4.2575e-12,-0.79438,0,0,0.083333,-1.9737e-16,0,0.66667
0.53483,0.061645,6.418,-0.65753,-90.045,430.38,11.253,-3.7511,-0.46325,15.005,3.3777e-12,-0.23162,0,0,0.083333,-1.9737e-16,0,0.66667
0.76796,0.28539,9.2156,-0.32192,-25.203,118.82,7.9111,-2.637,-1.6337,10.548,4.7327e-12,-0.81687,0,0,0.083333,1.579e-15,0,0.66667
0.053093,0.26418,0.63711,-0.35374,-67.566,1429.9,0.60099,-0.20033,-1.5511,0.80131,1.8335e-07,-0.77556,0,0,0.083333,-9.8686e-17,0,0.66667
0.54905,0.97093,6.5886,0.7064,94.695,407.22,-12.411,4.1371,-0.22868,-16.548,-4.678e-12,-0.11434,0,0,0.083333,-0,-0,0.66667
0.80099,0.05329,9.6119,-0.67007,-46.031,90.494,17.175,-5.725,-0.40203,22.9,4.5042e-09,-0.20102,0,0,0.083333,-0,-0,0.66667
0.64958,0.23505,7.795,-0.39742,-43.941,256.37,8.2611,-2.7537,-1.4342,11.015,-6.8479e-13,-0.7171,0,0,0.083333,-0,-0,0.66667
0.93145,0.64322,11.177,0.21483,5.3464,11.975,-6.4034,2.1345,-1.8321,-8.5378,1.7667e-07,-0.91603,0,0,0.083333,-1.579e-15,0,0.66667
0.074731,0.15584,0.89678,-0.51624,-98.406,1380,1.2345,-0.41151,-1.0533,1.6461,1.8658e-07,-0.52666,0,0,0.083333,1.542e-17,0,0.66667
0.27681,0.99839,3.3217,0.74758,132.54,927.65,-6.622,2.2073,-0.011944,-8.8293,1.4004e-11,-0.0059718,0,0,0.083333,-7.8949e-16,0,0.66667
0.91924,0.32394,11.031,-0.26409,-7.7245,16.338,7.7684,-2.5895,-1.7528,10.358,-1.0258e-07,-0.87641,0,0,0.083333,-0,-0,0.66667
0.76501,0.06597,9.1801,-0.65104,-51.752,122.99,15.938,-5.3126,-0.49944,21.25,2.992e-10,-0.24972,0,0,0.083333,-0,3.897e-17,0.66667
0.59974,0.042532,7.1969,-0.6862,-84.296,328.18,13.169,-4.3898,-0.32208,17.559,5.1736e-12,-0.16104,0,0,0.083333,-0,-0,0.66667
0.83297,0.96011,9.9956,0.69017,40.509,65.657,-18.396,6.1321,-0.30394,-24.529,3.8783e-09,-0.15197,0,0,0.083333,-0,-0,0.66667
0.89604,0.64772,10.753,0.22158,8.2677,26.038,-6.3535,2.1178,-1.8224,-8.4714,3.1432e-08,-0.9112,0,0,0.083333,-0,-0,0.66667
0.97272,0.57326,11.673,0.10989,1.0727,2.2252,-3.4205,1.1402,-1.9556,-4.5606,-7.0555e-07,-0.97779,0,0,0.083333,-1.579e-15,0,0.66667
0.99852,0.68117,11.982,0.27176,0.01654,0.42358,-8.6833,2.8944,-1.7412,-11.578,2.462e-06,-0.87062,0,0,0.083333,-7.8949e-16,-6.276e-17,0.66667
0.13965,0.89621,1.6758,0.59431,111.75,1231.2,-2.6558,0.88528,-0.74889,-3.5411,1.8949e-08,-0.37444,0,0,0.083333,1.9737e-16,-8.6099e-17,0.66667
0.070542,0.73936,0.8465,0.35904,68.431,1389.6,-0.81048,0.27016,-1.5374,-1.0806,-2.8022e-07,-0.76868,0,0,0.083333,9.8686e-17,0,0.66667
0.073467,0.59449,0.8816,0.14173,26.986,1382.8,-0.3332,0.11107,-1.9276,-0.44426,-8.8624e-08,-0.96378,0,0,0.083333,1.9737e-16,0,0.66667
0.014744,0.80366,0.17693,0.45549,87.267,1518.8,-0.2149,0.071632,-1.2674,-0.28653,-1.4505e-06,-0.63369,0,0,0.083333,1.2336e-17,0,0.66667
0.97182,0.12439,11.662,-0.56341,-5.8676,3.9366,17.521,-5.8403,-0.87278,23.361,1.7384e-05,-0.43639,0,0,0.083333,-9.8686e-17,0,0.66667
0.094767,0.71652,1.1372,0.32478,61.644,1333.8,-0.98491,0.3283,-1.6306,-1.3132,-4.6774e-08,-0.8153,0,0,0.083333,9.8686e-17,0,0.66667
0.84174,0.65233,10.101,0.22849,12.666,57.589,-6.1545,2.0515,-1.8173,-8.2061,3.0998e-10,-0.90866,0,0,0.083333,4.9841e-16,0,0.66667
0.68517,0.82537,8.2221,0.48805,49.55,210.62,-10.701,3.5669,-1.1545,-14.268,7.7183e-13,-0.57723,0,0,0.083333,-0,-0,0.66667
0.48756,0.3318,5.8507,-0.2523,-36.796,510.55,3.9364,-1.3121,-1.7734,5.2485,-2.2329e-12,-0.8867,0,0,0.083333,7.8949e-16,0,0.66667
0.34669,0.97758,4.1603,0.71637,120.97,781.27,-7.9475,2.6492,-0.17576,-10.597,2.1494e-12,-0.087878,0,0,0.083333,-0,-0,0.66667
0.35365,0.2922,4.2438,-0.3117,-52.211,766.33,3.5274,-1.1758,-1.6511,4.7032,7.4432e-12,-0.82554,0,0,0.083333,-7.8949e-16,0,0.66667
0.25384,0.15639,3.0461,-0.51542,-92.426,976.76,4.1867,-1.3956,-1.0557,5.5822,2.5997e-12,-0.52784,0,0,0.083333,-7.8949e-16,0,0.66667
0.91102,0.86635,10.932,0.54953,17.793,20.681,-16.02,5.3401,-0.92393,-21.36,1.7404e-07,-0.46196,0,0,0.083333,-0,-0,0.66667
0.72564,0.35065,8.7077,-0.22403,-20.245,162.42,5.202,-1.734,-1.8178,6.936,9.2815e-13,-0.90889,0,0,0.083333,-0,-0,0.66667
0.025926,0.00039345,0.31111,-0.74941,-143.79,1492.9,0.62168,-0.20722,-0.0011686,0.82891,9.8188e-06,-0.00058432,0,0,0.083333,-1.9737e-16,0,0.66667
0.46152,0.83977,5.5383,0.50966,76.851,557.95,-7.527,2.509,-1.073,-10.036,-7.3528e-12,-0.53649,0,0,0.083333,3.9475e-16,0,0.66667
0.2813,0.90316,3.3756,0.60475,106.8,917.74,-5.4437,1.8146,-0.70786,-7.2583,2.825e-11,-0.35393,0,0,0.083333,1.9737e-16,0,0.66667
0.028966,0.825,0.34759,0.4875,93.357,1485.8,-0.45187,0.15063,-1.1565,-0.60249,7.0041e-06,-0.57824,0,0,0.083333,-4.9343e-17,0,0.66667
0.88468,0.16394,10.616,-0.50409,-20.874,32.621,14.271,-4.7569,-1.0931,19.028,7.532e-09,-0.54656,0,0,0.083333,-3.158e-15,0,0.66667
0.77101,0.79759,9.2521,0.44638,34.589,116.31,-11.013,3.6711,-1.2882,-14.684,-7.1188e-11,-0.6441,0,0,0.083333,-1.579e-15,0,0.66667
0.32974,0.76462,3.9568,0.39694,67.759,815.49,-4.1883,1.3961,-1.4427,-5.5844,-4.1966e-13,-0.72136,0,0,0.083333,-0,-0,0.66667
0.79656,0.31838,9.5587,-0.27242,-18.979,92.666,6.944,-2.3147,-1.7431,9.2587,5.1321e-11,-0.87155,0,0,0.083333,-0,-0,0.66667
0.32464,0.45433,3.8957,-0.0685,-11.726,825.8,0.71161,-0.2372,-1.9824,0.94881,-4.3353e-12,-0.99122,0,0,0.083333,-3.9475e-16,0,0.66667
0.30788,0.95063,3.6946,0.67594,117.4,861.57,-6.6595,2.2198,-0.37301,-8.8794,2.6392e-12,-0.18651,0,0,0.083333,7.8949e-16,-1.7414e-17,0.66667
0.92811,0.17568,11.137,-0.48648,-12.783,14.016,14.448,-4.8161,-1.1546,19.264,-2.619e-07,-0.57731,0,0,0.083333,-0,-0,0.66667
0.97692,0.72747,11.723,0.34121,2.8318,2.2173,-10.667,3.5556,-1.5819,-14.222,-2.8889e-06,-0.79096,0,0,0.083333,-0,-0,0.66667
0.52356,0.16551,6.2827,-0.50174,-69.766,448.75,8.4061,-2.802,-1.1007,11.208,8.5265e-13,-0.55036,0,0,0.083333,-0,-0,0.66667
0.95194,0.62382,11.423,0.18573,3.2439,6.2297,-5.6577,1.8859,-1.8828,-7.5436,9.2516e-09,-0.94138,0,0,0.083333,1.9737e-15,0,0.66667
0.888,0.75097,10.656,0.37645,15.12,30.399,-10.697,3.5658,-1.4983,-14.263,1.6948e-08,-0.74915,0,0,0.083333,-0,-0,0.66667
0.51803,0.80664,6.2164,0.45996,64.445,458,-7.6247,2.5416,-1.2496,-10.166,1.2346e-13,-0.62479,0,0,0.083333,-0,-0,0.66667
0.37275,0.30877,4.473,-0.28685,-47.28,727.79,3.4215,-1.1405,-1.7099,4.562,1.6485e-12,-0.85495,0,0,0.083333,-0,-0,0.66667
0.71035,0.43003,8.5243,-0.10495,-9.9223,179.6,2.3856,-0.79521,-1.9569,3.1809,-7.3075e-13,-0.97845,0,0,0.083333,-0,-0,0.66667
0.45564,0.57075,5.4677,0.10612,16.085,568.13,-1.5473,0.51578,-1.9612,-2.0631,-5.0406e-12,-0.98062,0,0,0.083333,-0,-0,0.66667
0.60521,0.28434,7.2626,-0.32348,-39.206,318.89,6.2649,-2.0883,-1.6271,8.3532,2.2644e-12,-0.81356,0,0,0.083333,-0,-0,0.66667
0.99041,0.13647,11.885,-0.54529,-1.8492,1.945,17.282,-5.7607,-0.93903,23.043,-2.1532e-05,-0.46951,0,0,0.083333,-1.579e-15,0,0.66667
0.77392,0.72618,9.287,0.33927,25.967,113.21,-8.4022,2.8007,-1.5868,-11.203,-1.6097e-11,-0.79338,0,0,0.083333,-0,-0,0.66667
0.33428,0.54121,4.0113,0.061818,10.507,805.84,-0.66126,0.22042,-1.9827,-0.88168,-1.6009e-11,-0.99135,0,0,0.083333,-0,-0,0.66667
0.088998,0.1752,1.068,-0.4872,-92.637,1347.1,1.3875,-0.4625,-1.1534,1.85,3.464e-08,-0.57672,0,0,0.083333,-0,-0,0.66667
0.18491,0.37657,2.2189,-0.18514,-34.23,1128.7,1.0955,-0.36515,-1.8803,1.4606,-1.4037e-10,-0.94013,0,0,0.083333,-7.8949e-16,0,0.66667
0.52685,0.65911,6.3222,0.23866,32.979,442.65,-4.0237,1.3412,-1.7964,-5.3649,-9.4476e-12,-0.89819,0,0,0.083333,-0,-0,0.66667
0.4171,0.082519,5.0052,-0.62622,-99.206,641.51,8.3583,-2.7861,-0.60311,11.144,-5.2554e-12,-0.30156,0,0,0.083333,-0,-0,0.66667
0.80066,0.55304,9.6079,0.079561,5.4372,88.885,-2.0384,0.67948,-1.9764,-2.7179,1.4975e-11,-0.9882,0,0,0.083333,-0,-0,0.66667
0.9332,0.76516,11.198,0.39774,9.6945,11.974,-11.877,3.9591,-1.4354,-15.837,3.1093e-07,-0.71771,0,0,0.083333,-0,-0,0.66667
0.17786,0.86688,2.1344,0.55031,102.17,1144.8,-3.1322,1.0441,-0.91977,-4.1763,3.1062e-10,-0.45989,0,0,0.083333,1.9737e-16,0,0.66667
0.86007,0.54226,10.321,0.06339,3.1312,45.408,-1.7446,0.58154,-1.9911,-2.3262,-3.1829e-10,-0.99556,0,0,0.083333,1.579e-15,0,0.66667
0.95739,0.25631,11.489,-0.36553,-5.6902,5.5292,11.199,-3.7329,-1.5235,14.932,-8.874e-07,-0.76174,0,0,0.083333,-0,-0,0.66667
0.95947,0.92697,11.514,0.64046,9.6644,6.5214,-19.664,6.5547,-0.53769,-26.219,2.2754e-05,-0.26884,0,0,0.083333,7.8949e-16,0,0.66667
0.037863,0.65843,0.45435,0.23765,45.438,1465.2,-0.28793,0.095978,-1.7963,-0.38391,1.419e-07,-0.89813,0,0,0.083333,9.8686e-17,0,0.66667
0.057584,0.57954,0.691,0.11931,22.763,1419.5,-0.21985,0.073282,-1.9465,-0.29313,-3.7626e-08,-0.97327,0,0,0.083333,-9.8686e-17,0,0.66667
0.0057974,0.91742,0.069569,0.62614,120.1,1539.6,-0.11615,0.038701,-0.60253,-0.15488,-2.3138e-05,-0.30127,0,0,0.083333,-0,1.8136e-16,0.66667
0.31268,0.087831,3.7522,-0.61825,-106.98,851.38,6.1861,-2.062,-0.6483,8.2482,-1.6883e-11,-0.32415,0,0,0.083333,-1.9737e-16,0,0.66667
0.055698,0.099408,0.66838,-0.60089,-114.89,1424,1.071,-0.357,-0.71262,1.428,-4.0448e-06,-0.35631,0,0,0.083333,-0,-0,0.66667
0.29386,0.77346,3.5263,0.41018,71.787,890.7,-3.8572,1.2857,-1.4022,-5.1429,-1.1119e-11,-0.70108,0,0,0.083333,1.9737e-16,0,0.66667
0.35602,0.66579,4.2722,0.24868,41.566,761.46,-2.8331,0.94438,-1.7797,-3.7775,6.7812e-13,-0.88985,0,0,0.083333,-0,-0,0.66667
0.95368,0.36139,11.444,-0.20791,-3.5007,5.8749,6.345,-2.115,-1.852,8.46,-3.1511e-08,-0.92599,0,0,0.083333,-0,-0,0.66667
0.47695,0.64475,5.7234,0.21712,32.088,529.44,-3.3138,1.1046,-1.8281,-4.4184,-4.4187e-12,-0.91403,0,0,0.083333,-0,-0,0.66667
0.27824,0.46086,3.3389,-0.058716,-10.367,923.76,0.52278,-0.17426,-1.9881,0.69705,1.1486e-11,-0.99405,0,0,0.083333,1.9737e-16,0,0.66667
0.50301,0.026034,6.0361,-0.71095,-101.92,484.62,11.444,-3.8145,-0.20357,15.258,1.9655e-12,-0.10179,0,0,0.083333,-0,-0,0.66667
0.64336,0.010162,7.7203,-0.73476,-82.664,266.13,15.127,-5.0423,-0.081154,20.169,8.4057e-12,-0.040577,0,0,0.083333,-0,-0,0.66667
0.11125,0.8304,1.3349,0.4956,93.814,1296,-1.7643,0.58808,-1.129,-2.3523,-2.261e-09,-0.56452,0,0,0.083333,-0,-0,0.66667
0.75806,0.53119,9.0967,0.046778,3.793,128.11,-1.1347,0.37825,-1.9895,-1.513,3.8414e-13,-0.99473,0,0,0.083333,1.0996e-15,0,0.66667
0.85195,0.94539,10.223,0.66809,35.09,52.556,-18.214,6.0712,-0.40897,-24.285,3.5758e-08,-0.20449,0,0,0.083333,-0,-0,0.66667
0.84425,0.93885,10.131,0.65828,36.216,57.588,-17.784,5.928,-0.46647,-23.712,5.8961e-08,-0.23324,0,0,0.083333,-0,-0,0.66667
0.89051,0.89533,10.686,0.593,23.438,30.145,-16.898,5.6327,-0.75676,-22.531,-1.0719e-07,-0.37838,0,0,0.083333,-7.8949e-16,0,0.66667
0.38184,0.47507,4.5821,-0.0374,-6.112,709.5,0.45699,-0.15233,-1.9913,0.60932,1.1317e-11,-0.99567,0,0,0.083333,-0,-0,0.66667
0.44381,0.55685,5.3257,0.08528,13.1,590.08,-1.2111,0.40371,-1.9708,-1.6148,-7.8038e-13,-0.9854,0,0,0.083333,-7.8949e-16,0,0.66667
0.10158,0.86618,1.219,0.54926,104.22,1318.2,-1.7854,0.59515,-0.92317,-2.3806,5.4833e-08,-0.46159,0,0,0.083333,-0,-0,0.66667
0.22581,0.08274,2.7097,-0.62589,-113.93,1038.2,4.5226,-1.5075,-0.60293,6.0301,1.2621e-10,-0.30147,0,0,0.083333,-0,-0,0.66667
0.97132,0.04688,11.656,-0.67968,-7.307,4.7575,21.126,-7.042,-0.35829,28.168,5.8559e-05,-0.17914,0,0,0.083333,-0,-0,0.66667
0.28462,0.30902,3.4155,-0.28648,-50.405,910.22,2.6092,-0.86974,-1.7085,3.4789,2.1725e-12,-0.85427,0,0,0.083333,-9.8686e-17,0,0.66667
0.9074,0.24996,10.889,-0.37507,-12.556,21.403,10.891,-3.6302,-1.5056,14.521,-3.1161e-08,-0.75279,0,0,0.083333,-1.8935e-15,0,0.66667
0.89055,0.6129,10.687,0.16935,6.6342,28.589,-4.8261,1.6087,-1.9051,-6.4348,1.71e-08,-0.95257,0,0,0.083333,-0,-0,0.66667
0.9225,0.56707,11.07,0.10061,2.8202,14.846,-2.9699,0.98998,-1.9703,-3.9599,8.4547e-08,-0.98515,0,0,0.083333,-0,-0,0.66667
0.15615,0.86908,1.8738,0.55363,103.56,1193.8,-2.7664,0.92212,-0.91781,-3.6885,4.1254e-10,-0.45891,0,0,0.083333,2.9606e-16,6.4113e-17,0.66667
0.87972,0.90605,10.557,0.60908,26.318,35.78,-17.146,5.7154,-0.68001,-22.862,8.0666e-08,-0.34,0,0,0.083333,5.181e-16,0,0.66667
0.63199,0.72483,7.5839,0.33724,38.731,280.39,-6.8203,2.2734,-1.5919,-9.0937,-4.6887e-12,-0.79596,0,0,0.083333,1.579e-15,0,0.66667
0.21063,0.48226,2.5275,-0.026605,-4.866,1071.3,0.17932,-0.059773,-1.9931,0.23909,-1.0781e-11,-0.99653,0,0,0.083333,-3.9475e-16,0,0.66667
0.34512,0.46624,4.1414,-0.050647,-8.5365,783.56,0.55933,-0.18644,-1.9956,0.74577,5.4209e-12,-0.99779,0,0,0.083333,-5.9212e-16,0,0.66667
0.15992,0.33473,1.919,-0.2479,-46.251,1185,1.2686,-0.42287,-1.7806,1.6915,2.1936e-10,-0.89031,0,0,0.083333,-0,-0,0.66667
0.44435,0.066272,5.3322,-0.65059,-100.16,590.05,9.2509,-3.0836,-0.49172,12.334,4.4285e-12,-0.24586,0,0,0.083333,-1.579e-15,0,0.66667
0.083775,0.15423,1.0053,-0.51865,-98.724,1359.1,1.3904,-0.46347,-1.0413,1.8539,2.7988e-08,-0.52064,0,0,0.083333,-1.2336e-16,0,0.66667
0.16532,0.40922,1.9838,-0.13616,-25.352,1172.8,0.72033,-0.24011,-1.931,0.96044,-1.3657e-10,-0.96551,0,0,0.083333,-0,-0,0.66667
0.1972,0.04087,2.3664,-0.68869,-127.02,1101.7,4.3459,-1.4486,-0.31006,5.7945,-1.0242e-09,-0.15503,0,0,0.083333,3.9475e-16,0,0.66667
0.69103,0.95754,8.2923,0.68632,68.783,204.28,-15.176,5.0588,-0.32442,-20.235,3.3706e-12,-0.16221,0,0,0.083333,-0,-0,0.66667
0.5738,0.73962,6.8856,0.35943,46.128,366.69,-6.5998,2.1999,-1.5387,-8.7997,6.195e-13,-0.76935,0,0,0.083333,-7.8949e-16,0,0.66667
0.87332,0.79489,10.48,0.44233,19.985,38.476,-12.361,4.1205,-1.3071,-16.482,1.6834e-09,-0.65356,0,0,0.083333,-0,-0,0.66667
0.24463,0.058835,2.9356,-0.66175,-119.37,997.02,5.1804,-1.7268,-0.44066,6.9071,2.9605e-10,-0.22033,0,0,0.083333,9.8686e-17,0,0.66667
0.62961,0.32692,7.5553,-0.25962,-29.954,283.58,5.2308,-1.7436,-1.7578,6.9743,-6.3949e-13,-0.87892,0,0,0.083333,-0,-0,0.66667
0.034431,0.034899,0.41318,-0.69765,-133.74,1473.2,0.76868,-0.25622,-0.27014,1.0249,8.5705e-06,-0.13507,0,0,0.083333,9.8686e-17,0,0.66667
0.5162,0.20014,6.1944,-0.4498,-63.181,461.1,7.4299,-2.4766,-1.2863,9.9065,-1.2208e-12,-0.64315,0,0,0.083333,-0,-0,0.66667
0.86323,0.043143,10.359,-0.68528,-33.464,45.623,18.93,-6.3099,-0.32889,25.24,-5.6149e-08,-0.16445,0,0,0.083333,-0,-0,0.66667
0.98413,0.86776,11.81,0.55164,3.188,2.4445,-17.372,5.7908,-0.92499,-23.163,5.9958e-06,-0.46249,0,0,0.083333,-7.8949e-16,-7.5556e-17,0.66667
0.009873,0.063451,0.11848,-0.65482,-125.62,1530.1,0.20688,-0.068905,-0.47325,0.27586,8.1669e-05,-0.23663,0,0,0.083333,-2.4672e-17,0,0.66667
0.25284,0.92044,3.0341,0.63067,113.24,979.1,-5.1027,1.7009,-0.5861,-6.8036,3.0572e-11,-0.29305,0,0,0.083333,3.9475e-16,0,0.66667
0.22385,0.49,2.6862,-0.015003,-2.7275,1042.1,0.10747,-0.035824,-1.9964,0.1433,1.1351e-11,-0.99818,0,0,0.083333,-0,-0,0.66667
0.047538,0.057416,0.57045,-0.66388,-127.09,1442.9,1.0099,-0.33662,-0.43905,1.3465,1.0637e-05,-0.21952,0,0,0.083333,-2.4672e-17,0,0.66667
0.010172,0.97438,0.12207,0.71158,136.57,1529.4,-0.23169,0.07715,-0.19716,-0.30896,-0.00011867,-0.098578,0,0,0.083333,-0,-0,0.66667
0.4902,0.23232,5.8823,-0.40152,-58.401,506.14,6.2984,-2.0995,-1.4231,8.3978,9.1172e-13,-0.71154,0,0,0.083333,-0,-0,0.66667
0.045482,0.75299,0.54579,0.37948,72.546,1447.5,-0.55231,0.1841,-1.4925,-0.73642,-8.2837e-07,-0.74626,0,0,0.083333,9.8686e-17,0,0.66667
0.27833,0.47333,3.3399,-0.040001,-7.062,923.56,0.35627,-0.11876,-1.9953,0.47503,8.2276e-12,-0.99764,0,0,0.083333,-0,-0,0.66667
0.63997,0.40484,7.6797,-0.14274,-16.101,268.99,2.9232,-0.9744,-1.9343,3.8976,-2.246e-12,-0.96717,0,0,0.083333,-7.8949e-16,0,0.66667
0.29469,0.98686,3.5363,0.73029,128.02,889.51,-6.8868,2.2956,-0.10538,-9.1823,-6.4668e-12,-0.05269,0,0,0.083333,-0,-0,0.66667
0.26965,0.55357,3.2359,0.080356,14.26,942.2,-0.69339,0.23113,-1.9756,-0.92451,-1.784e-11,-0.98781,0,0,0.083333,-1.9737e-16,0,0.66667
0.59055,0.94633,7.0866,0.66949,83.635,341.92,-12.652,4.2172,-0.40625,-16.869,3.7303e-13,-0.20313,0,0,0.083333,-0,-0,0.66667
0.38053,0.73494,4.5664,0.35241,57.705,712.35,-4.2913,1.4304,-1.5549,-5.7218,7.5118e-12,-0.77747,0,0,0.083333,-0,-0,0.66667
0.70252,0.079398,8.4303,-0.6309,-61.242,190.22,14.183,-4.7277,-0.59027,18.911,-7.7325e-12,-0.29514,0,0,0.083333,-7.8949e-16,9.8031e-17,0.66667
0.49612,0.76159,5.9535,0.39239,56.628,495.69,-6.2295,2.0765,-1.4512,-8.306,-2.8813e-12,-0.72559,0,0,0.083333,7.8949e-16,0,0.66667
0.63321,0.63443,7.5985,0.20165,23.084,278.44,-4.086,1.362,-1.8512,-5.448,-3.0953e-12,-0.92562,0,0,0.083333,-0,-0,0.66667
0.35339,0.3823,4.2407,-0.17655,-29.566,766.73,1.9965,-0.66549,-1.8858,2.662,-1.4833e-12,-0.94292,0,0,0.083333,-0,-0,0.66667
0.28704,0.1526,3.4445,-0.5211,-91.651,905.35,4.7866,-1.5955,-1.0318,6.3821,2.9976e-13,-0.5159,0,0,0.083333,-0,-0,0.66667
0.13321,0.33248,1.5985,-0.25128,-47.26,1245.7,1.0711,-0.35704,-1.7712,1.4282,3.6519e-09,-0.88559,0,0,0.083333,-1.9737e-16,0,0.66667
0.93708,0.22866,11.245,-0.40701,-9.3569,10.827,12.205,-4.0683,-1.4172,16.273,-2.8412e-07,-0.70862,0,0,0.083333,-1.579e-15,0,0.66667
0.80484,0.9553,9.658,0.68296,46.12,87.368,-17.589,5.8631,-0.33714,-23.453,-1.485e-09,-0.16857,0,0,0.083333,-0,-0,0.66667
0.93803,0.6871,11.256,0.28065,6.3309,10.113,-8.4243,2.8081,-1.7273,-11.232,2.1033e-07,-0.86364,0,0,0.083333,2.2204e-15,0,0.66667
0.18538,0.96154,2.2246,0.69231,128.3,1128.1,-4.1069,1.369,-0.29809,-5.4759,6.0772e-11,-0.14904,0,0,0.083333,1.9737e-16,7.0061e-17,0.66667
0.93316,0.26448,11.198,-0.35328,-8.6045,11.823,10.549,-3.5164,-1.5541,14.066,-2.9047e-07,-0.77705,0,0,0.083333,-0,-0,0.66667
0.93575,0.86991,11.229,0.55487,13.103,11.935,-16.615,5.5384,-0.90868,-22.153,-5.3087e-08,-0.45434,0,0,0.083333,1.9737e-15,0,0.66667
0.28354,0.31681,3.4025,-0.27478,-48.377,912.51,2.4932,-0.83106,-1.7338,3.3243,5.0506e-12,-0.8669,0,0,0.083333,-0,-0,0.66667
0.27463,0.91549,3.2956,0.62324,110.52,932.05,-5.4772,1.8257,-0.61501,-7.3029,4.0796e-11,-0.3075,0,0,0.083333,-0,-0,0.66667
0.55143,0.79023,6.6172,0.43535,58.002,402.46,-7.6821,2.5607,-1.324,-10.243,-2.7272e-12,-0.66199,0,0,0.083333,-0,-0,0.66667
0.18529,0.0098651,2.2235,-0.7352,-136.3,1128.4,4.3592,-1.4531,-0.079924,5.8123,-2.5587e-09,-0.039962,0,0,0.083333,-0,-0,0.66667
0.4421,0.6481,5.3052,0.22215,34.198,593.36,-3.1428,1.0476,-1.8224,-4.1904,-7.8273e-12,-0.91121,0,0,0.083333,-3.9475e-16,0,0.66667
0.18532,0.44149,2.2238,-0.087767,-16.222,1127.8,0.52047,-0.17349,-1.9752,0.69397,-2.0239e-10,-0.98758,0,0,0.083333,-0,-0,0.66667
0.94738,0.48968,11.369,-0.015483,-0.29561,7.1644,0.46939,-0.15646,-1.9957,0.62585,2.1081e-07,-0.99784,0,0,0.083333,1.1219e-15,0,0.66667
0.49382,0.18125,5.9259,-0.47812,-69.247,499.92,7.5554,-2.5185,-1.1839,10.074,4.1234e-12,-0.59193,0,0,0.083333,-0,-0,0.66667
0.96392,0.863,11.567,0.5445,7.258,5.1012,-16.795,5.5984,-0.94318,-22.394,3.5373e-06,-0.47159,0,0,0.083333,-0,-0,0.66667
0.64494,0.24706,7.7393,-0.37941,-42.382,262.61,7.8304,-2.6101,-1.4872,10.44,-2.1156e-12,-0.74358,0,0,0.083333,-0,-0,0.66667
0.48432,0.030589,5.8118,-0.70412,-103.43,517.43,10.912,-3.6375,-0.24586,14.55,-2.701e-12,-0.12293,0,0,0.083333,-4.9343e-17,8.1774e-18,0.66667
0.9677,0.57131,11.612,0.10697,1.2443,2.9868,-3.3124,1.1041,-1.9639,-4.4165,-3.9405e-07,-0.98197,0,0,0.083333,-0,-0,0.66667
0.14319,0.12282,1.7183,-0.56577,-106.26,1223.2,2.5924,-0.86414,-0.86395,3.4566,-3.7523e-09,-0.43197,0,0,0.083333,7.4015e-17,0,0.66667
0.63233,0.16212,7.588,-0.50683,-58.241,280.4,10.255,-3.4185,-1.0829,13.674,3.8725e-13,-0.54146,0,0,0.083333,-0,-0,0.66667
0.66189,0.45049,7.9427,-0.074261,-7.9688,239.47,1.5729,-0.52429,-1.9769,2.0972,-5.0382e-13,-0.98844,0,0,0.083333,-0,-0,0.66667
0.43384,0.045179,5.2061,-0.68223,-106.27,609.85,9.4713,-3.1571,-0.34396,12.628,-1.8963e-12,-0.17198,0,0,0.083333,7.8949e-16,0,0.66667
0.059357,0.21843,0.71229,-0.42235,-80.638,1415.4,0.80223,-0.26741,-1.3671,1.0696,8.8696e-08,-0.68355,0,0,0.083333,-9.8686e-17,0,0.66667
0.49272,0.24179,5.9127,-0.38731,-56.144,501.65,6.1068,-2.0356,-1.4626,8.1423,-3.2809e-12,-0.7313,0,0,0.083333,3.9475e-16,0,0.66667
0.46513,0.3874,5.5816,-0.16891,-25.32,550.78,2.5141,-0.83802,-1.8975,3.3521,-1.7231e-13,-0.94877,0,0,0.083333,-0,-0,0.66667
0.80675,0.077218,9.681,-0.63417,-42.409,85.52,16.372,-5.4572,-0.56639,21.829,1.3678e-09,-0.28319,0,0,0.083333,-0,-0,0.66667
0.25666,0.18852,3.0799,-0.46722,-83.631,970.57,3.8374,-1.2791,-1.2211,5.1165,-1.8568e-11,-0.61055,0,0,0.083333,-7.8949e-16,0,0.66667
0.39143,0.80879,4.6972,0.46318,75.138,691,-5.8017,1.9339,-1.2431,-7.7356,-1.6156e-12,-0.62157,0,0,0.083333,1.9737e-16,0,0.66667
0.24017,0.85135,2.8821,0.52702,95.196,1006.6,-4.0505,1.3502,-1.0092,-5.4006,-1.1426e-12,-0.50459,0,0,0.083333,-0,-0,0.66667
0.68644,0.19003,8.2373,-0.46495,-47.039,208.97,10.213,-3.4044,-1.2368,13.618,-1.1031e-12,-0.61842,0,0,0.083333,-0,-0,0.66667
0.98988,0.85641,11.879,0.53462,1.9129,1.9158,-16.935,5.6449,-0.98037,-22.58,1.8902e-05,-0.49018,0,0,0.083333,-0,-0,0.66667
0.17743,0.94361,2.1292,0.66541,123.65,1145.9,-3.7781,1.2594,-0.42282,-5.0374,-4.8407e-09,-0.21141,0,0,0.083333,3.9475e-16,0,0.66667
0.82145,0.48853,9.8574,-0.017201,-1.064,72.119,0.45215,-0.15072,-1.9948,0.60286,1.8314e-10,-0.99742,0,0,0.083333,-0,-0,0.66667
0.23099,0.85755,2.7719,0.53632,97.326,1026.7,-3.9643,1.3214,-0.9766,-5.2857,2.429e-11,-0.4883,0,0,0.083333,-3.9475e-16,0,0.66667
0.057976,0.97748,0.69571,0.71622,137.01,1418.7,-1.3287,0.44292,-0.17406,-1.7716,1.3725e-05,-0.08703,0,0,0.083333,-0,-0,0.66667
0.13882,0.34127,1.6658,-0.23809,-44.707,1232.9,1.0576,-0.35254,-1.8021,1.4102,2.0026e-09,-0.90105,0,0,0.083333,2.4672e-16,0,0.66667
0.93515,0.11339,11.222,-0.57991,-13.836,12.259,17.354,-5.7846,-0.80565,23.138,2.142e-07,-0.40283,0,0,0.083333,-0,-0,0.66667
0.88854,0.56128,10.663,0.09192,3.6621,29.494,-2.6136,0.87119,-1.9732,-3.4848,1.0778e-08,-0.98662,0,0,0.083333,1.9737e-15,0,0.66667
0.28926,0.57546,3.4711,0.11319,19.85,900.23,-1.0477,0.34925,-1.95,-1.397,-2.3184e-11,-0.97501,0,0,0.083333,-0,-0,0.66667
0.94776,0.4443,11.373,-0.083545,-1.5839,7.1005,2.5338,-0.8446,-1.9724,3.3784,-1.0262e-08,-0.9862,0,0,0.083333,-0,-0,0.66667
0.84993,0.76718,10.199,0.40077,21.195,52.571,-10.9,3.6333,-1.425,-14.533,-5.3306e-10,-0.71249,0,0,0.083333,-2.5855e-15,0,0.66667
0.43465,0.48949,5.2159,-0.015766,-2.446,607.23,0.21929,-0.073097,-1.9996,0.29239,5.4103e-12,-0.99978,0,0,0.083333,-0,-0,0.66667
0.46805,0.087219,5.6166,-0.61917,-92.723,546.36,9.2737,-3.0912,-0.64271,12.365,-8.2903e-12,-0.32135,0,0,0.083333,7.8949e-16,6.526e-17,0.66667
0.62985,0.41685,7.5582,-0.12472,-14.375,283.06,2.5137,-0.83791,-1.9421,3.3516,-2.4811e-12,-0.97104,0,0,0.083333,-0,-0,0.66667
0.15803,0.44023,1.8964,-0.089652,-16.732,1189.2,0.45337,-0.15112,-1.9751,0.6045,-1.3212e-10,-0.98755,0,0,0.083333,-0,-0,0.66667
0.014782,0.88683,0.17739,0.58024,111.25,1518.7,-0.27446,0.091473,-0.80782,-0.36595,-1.9763e-05,-0.40391,0,0,0.083333,2.4672e-17,0,0.66667
0.26551,0.85934,3.1861,0.53901,96.043,951.53,-4.5797,1.5266,-0.9739,-6.1062,1.1954e-11,-0.48695,0,0,0.083333,-0,-1.2346e-16,0.66667
0.015444,0.038171,0.18532,-0.69274,-132.92,1517.2,0.34232,-0.11408,-0.30085,0.45645,4.8204e-05,-0.15043,0,0,0.083333,-0,-0,0.66667
0.6745,0.69593,8.094,0.2939,30.612,223.47,-6.3435,2.1145,-1.6939,-8.4581,1.128e-13,-0.84697,0,0,0.083333,-0,-0,0.66667
0.55147,0.95866,6.6176,0.68798,91.857,403.23,-12.141,4.047,-0.3148,-16.188,-8.0593e-12,-0.1574,0,0,0.083333,-0,-0,0.66667
0.32165,0.38164,3.8598,-0.17753,-30.462,832.06,1.8273,-0.6091,-1.8844,2.4364,-4.8108e-12,-0.94218,0,0,0.083333,-0,-0,0.66667
0.7802,0.66475,9.3624,0.24713,18.438,107.14,-6.17,2.0567,-1.7875,-8.2266,-2.7585e-11,-0.89376,0,0,0.083333,-0,-0,0.66667
0.14579,0.21052,1.7494,-0.43423,-81.431,1217.2,2.0257,-0.67524,-1.3269,2.701,-9.337e-12,-0.66343,0,0,0.083333,-1.9737e-16,0,0.66667
0.24488,0.48967,2.9386,-0.015494,-2.7874,995.91,0.12142,-0.040472,-1.9963,0.16189,-5.0681e-12,-0.99813,0,0,0.083333,1.9737e-16,0,0.66667
0.29231,0.29424,3.5078,-0.30865,-54.047,893.87,2.8871,-0.96236,-1.6589,3.8495,3.6036e-12,-0.82945,0,0,0.083333,-0,-0,0.66667
0.19593,0.96608,2.3512,0.69912,129.02,1104.5,-4.3833,1.4611,-0.25894,-5.8445,-6.8188e-10,-0.12947,0,0,0.083333,-4.9343e-17,0,0.66667
0.087939,0.69379,1.0553,0.29068,55.235,1349.5,-0.81799,0.27266,-1.6965,-1.0907,-4.472e-08,-0.84824,0,0,0.083333,-1.9737e-16,0,0.66667
0.86998,0.84083,10.44,0.51125,23.707,40.687,-14.233,4.7443,-1.0688,-18.977,9.7786e-09,-0.5344,0,0,0.083333,-1.7764e-15,0,0.66667
0.088189,0.71431,1.0583,0.32146,61.087,1348.9,-0.90717,0.30239,-1.63,-1.2096,-3.7349e-08,-0.81498,0,0,0.083333,-0,-0,0.66667
0.68371,0.98802,8.2045,0.73203,74.828,213.52,-16.016,5.3386,-0.093435,-21.354,2.4016e-12,-0.046718,0,0,0.083333,-7.8949e-16,0,0.66667
0.1204,0.8729,1.4448,0.55935,105.69,1275.1,-2.1551,0.71835,-0.88637,-2.8734,-5.5795e-08,-0.44318,0,0,0.083333,2.4672e-16,0,0.66667
0.010699,0.77678,0.12839,0.41517,79.536,1528.2,-0.14214,0.047378,-1.3851,-0.18952,-2.8602e-06,-0.69257,0,0,0.083333,1.2503e-17,0,0.66667
0.55727,0.74736,6.6872,0.37104,48.953,392.9,-6.6166,2.2055,-1.5085,-8.8222,3.7943e-12,-0.75424,0,0,0.083333,-0,-0,0.66667
0.90711,0.68399,10.885,0.27598,9.2478,21.212,-8.011,2.6703,-1.735,-10.681,4.4679e-08,-0.86751,0,0,0.083333,-3.9475e-16,0,0.66667
0.86046,0.46222,10.325,-0.056668,-2.7918,45.164,1.5603,-0.52011,-1.9934,2.0805,1.2726e-09,-0.99669,0,0,0.083333,1.579e-15,0,0.66667
0.33845,0.13298,4.0614,-0.55053,-93.445,797.78,5.9624,-1.9875,-0.91953,7.9499,5.8882e-12,-0.45977,0,0,0.083333,-0,-0,0.66667
0.027159,0.41957,0.32591,-0.12065,-23.079,1490,0.10486,-0.034952,-1.9465,0.13981,-6.6334e-07,-0.97323,0,0,0.083333,-4.9343e-17,0,0.66667
0.80086,0.91678,9.6103,0.62517,42.935,90.359,-16.021,5.3405,-0.60889,-21.362,-2.2492e-10,-0.30445,0,0,0.083333,-0,-0,0.66667
0.80598,0.82866,9.6718,0.49299,33.003,85.461,-12.715,4.2384,-1.1317,-16.953,8.8651e-11,-0.56585,0,0,0.083333,-1.579e-15,0,0.66667
0.86849,0.85845,10.422,0.53768,25.215,41.676,-14.943,4.981,-0.96795,-19.924,1.7164e-09,-0.48398,0,0,0.083333,-1.579e-15,0,0.66667
0.66965,0.98154,8.0358,0.72232,76.464,231.23,-15.478,5.1594,-0.14649,-20.638,4.718e-12,-0.073244,0,0,0.083333,-1.579e-15,9.5448e-17,0.66667
0.80778,0.31826,9.6933,-0.27262,-18.051,83.264,7.0469,-2.349,-1.7338,9.3958,6.487e-11,-0.8669,0,0,0.083333,1.579e-15,0,0.66667
0.8975,0.81972,10.77,0.47957,17.744,26.223,-13.773,4.5911,-1.1784,-18.364,4.3018e-08,-0.58922,0,0,0.083333,-0,-0,0.66667
0.45383,0.59213,5.446,0.1382,20.991,571.49,-2.007,0.66899,-1.9387,-2.676,-6.6585e-12,-0.96935,0,0,0.083333,-7.8949e-16,0,0.66667
0.55783,0.037263,6.6939,-0.6941,-91.741,393.03,12.39,-4.13,-0.28506,16.52,7.6916e-13,-0.14253,0,0,0.083333,-1.579e-15,-6.436e-17,0.66667
0.50613,0.7783,6.0736,0.41745,59.451,478.31,-6.7611,2.2537,-1.3776,-9.0149,1.1688e-12,-0.68879,0,0,0.083333,-1.9737e-16,0,0.66667
0.69198,0.25839,8.3038,-0.36242,-36.102,201.87,8.0252,-2.6751,-1.531,10.7,-1.3891e-12,-0.76551,0,0,0.083333,-0,-0,0.66667
0.68291,0.80952,8.1949,0.46427,47.402,213.35,-10.146,3.3819,-1.2322,-13.528,1.835e-12,-0.61612,0,0,0.083333,-1.1842e-15,0,0.66667
0.52031,0.51394,6.2438,0.020906,2.9151,453.53,-0.34809,0.11603,-1.9959,-0.46412,-3.332e-12,-0.99793,0,0,0.083333,1.579e-15,0,0.66667
0.82847,0.8045,9.9416,0.45675,27.338,67.752,-12.109,4.0363,-1.2649,-16.145,5.7038e-11,-0.63243,0,0,0.083333,-0,-0,0.66667
0.50578,0.61833,6.0694,0.1775,25.264,478.54,-2.8728,0.95758,-1.8849,-3.8303,-1.2819e-12,-0.94243,0,0,0.083333,3.9475e-16,0,0.66667
0.82486,0.461,9.8983,-0.058505,-3.5562,69.54,1.5443,-0.51476,-1.9878,2.059,2.3246e-11,-0.99388,0,0,0.083333,-0,-0,0.66667
0.28185,0.84183,3.3821,0.51274,90.467,916.43,-4.6245,1.5415,-1.0721,-6.1659,-6.3927e-12,-0.53603,0,0,0.083333,-1.4803e-16,0,0.66667
0.17849,0.86814,2.1419,0.55221,102.5,1143.4,-3.1541,1.0514,-0.91212,-4.2055,3.6716e-10,-0.45606,0,0,0.083333,-9.1683e-17,0,0.66667
0.96987,0.034845,11.638,-0.69773,-7.8961,5.1008,21.655,-7.2182,-0.27423,28.873,5.1878e-05,-0.13712,0,0,0.083333,3.158e-15,0,0.66667
0.74194,0.28037,8.9033,-0.32945,-28.279,145.05,7.8218,-2.6073,-1.6111,10.429,3.5367e-12,-0.80557,0,0,0.083333,-1.8201e-15,0,0.66667
0.25979,0.94876,3.1175,0.67314,120.44,964.12,-5.596,1.8653,-0.38532,-7.4614,7.2722e-11,-0.19266,0,0,0.083333,-0,-0,0.66667
0.58124,0.77911,6.9748,0.41866,53.059,355.3,-7.7869,2.5956,-1.3778,-10.383,-1.1444e-12,-0.68892,0,0,0.083333,2.9606e-16,0,0.66667
0.95526,0.45898,11.463,-0.06153,-0.99774,5.3223,1.8809,-0.62696,-1.9885,2.5078,3.0073e-07,-0.99424,0,0,0.083333,7.8949e-16,0,0.66667
0.080754,0.12323,0.96905,-0.56515,-107.66,1366.1,1.4604,-0.4868,-0.86641,1.9472,3.4678e-09,-0.4332,0,0,0.083333,-0,-0,0.66667
0.083534,0.64099,1.0024,0.21149,40.21,1359.6,-0.56534,0.18845,-1.8376,-0.75378,-6.9437e-08,-0.9188,0,0,0.083333,-0,-0,0.66667
0.61913,0.73643,7.4296,0.35464,41.829,298.67,-7.0263,2.3421,-1.5491,-9.3684,-1.6387e-13,-0.77455,0,0,0.083333,-0,-0,0.66667
0.22449,0.55256,2.6939,0.078845,14.33,1040.6,-0.56641,0.1888,-1.9745,-0.75521,-1.687e-13,-0.98723,0,0,0.083333,1.9737e-16,0,0.66667
0.76518,0.56241,9.1822,0.093611,7.3961,121.12,-2.2922,0.76405,-1.9765,-3.0562,2.5022e-12,-0.98824,0,0,0.083333,2.0292e-15,0,0.66667
0.56815,0.94366,6.8178,0.66549,86.446,376.51,-12.099,4.0331,-0.42238,-16.132,4.9596e-12,-0.21119,0,0,0.083333,-1.579e-15,0,0.66667
0.66619,0.25035,7.9943,-0.37448,-39.826,234.34,7.9831,-2.661,-1.4994,10.644,9.0816e-13,-0.74971,0,0,0.083333,-1.579e-15,0,0.66667
0.10781,0.23544,1.2938,-0.39683,-75.139,1303.8,1.3691,-0.45636,-1.4431,1.8255,3.7948e-08,-0.72156,0,0,0.083333,-1.9737e-16,0,0.66667
0.084283,0.89781,1.0114,0.59672,113.63,1358,-1.6094,0.53646,-0.73037,-2.1459,-3.9091e-08,-0.36518,0,0,0.083333,-0,-0,0.66667
0.62512,0.98917,7.5015,0.73376,85.81,291.5,-14.678,4.8927,-0.09274,-19.571,1.7426e-12,-0.04637,0,0,0.083333,-7.8949e-16,0,0.66667
0.40973,0.45098,4.9168,-0.073524,-11.704,654.85,0.964,-0.32133,-1.9799,1.2853,-9.9908e-12,-0.98997,0,0,0.083333,-0,-0,0.66667
0.087253,0.96616,1.047,0.69923,133.18,1351.2,-1.9523,0.65078,-0.25863,-2.6031,3.5886e-06,-0.12932,0,0,0.083333,1.1603e-18,0,0.66667
0.37106,0.93628,4.4528,0.65442,108.26,731.85,-7.7706,2.5902,-0.47715,-10.361,3.2752e-12,-0.23858,0,0,0.083333,1.1842e-15,9.1122e-17,0.66667
0.67214,0.63611,8.0657,0.20417,21.38,226.31,-4.3913,1.4638,-1.8584,-5.8551,1.5365e-13,-0.92919,0,0,0.083333,-0,-0,0.66667
0.18959,0.13587,2.275,-0.54619,-100.95,1118.5,3.3136,-1.1045,-0.94127,4.4182,-4.2377e-10,-0.47064,0,0,0.083333,-0,-0,0.66667
0.89573,0.64069,10.749,0.21103,7.8957,26.164,-6.0488,2.0163,-1.8386,-8.0651,3.0207e-08,-0.9193,0,0,0.083333,-0,-0,0.66667
0.94985,0.518,11.398,0.026995,0.49113,6.5549,-0.82052,0.27351,-1.9969,-1.094,9.9355e-09,-0.99846,0,0,0.083333,-0,-0,0.66667
0.96157,0.58244,11.539,0.12366,1.7196,4.0903,-3.8052,1.2684,-1.9414,-5.0736,-1.1599e-07,-0.97068,0,0,0.083333,-1.579e-15,0,0.66667
0.73008,0.1254,8.761,-0.5619,-50.237,158.57,13.128,-4.3759,-0.87691,17.503,-1.1696e-11,-0.43845,0,0,0.083333,-0,-0,0.66667
0.40629,0.42644,4.8755,-0.11034,-17.625,661.54,1.4346,-0.47819,-1.964,1.9128,-6.2984e-12,-0.98199,0,0,0.083333,-0,-0,0.66667
0.74375,0.13895,8.925,-0.54158,-46.312,143.89,12.89,-4.2965,-0.95313,17.186,2.5245e-11,-0.47657,0,0,0.083333,-0,-0,0.66667
0.28799,0.83096,3.4558,0.49643,87.247,903.3,-4.5749,1.525,-1.1195,-6.0999,-1.406e-11,-0.55977,0,0,0.083333,-0,-0,0.66667
0.31442,0.091493,3.773,-0.61276,-105.9,847.74,6.1652,-2.0551,-0.66842,8.2203,-5.5445e-12,-0.33421,0,0,0.083333,-5.9212e-16,0,0.66667
0.6059,0.17256,7.2708,-0.49116,-59.519,318.32,9.5229,-3.1743,-1.1414,12.697,2.0091e-12,-0.5707,0,0,0.083333,-0,-0,0.66667
0.59485,0.28744,7.1382,-0.31884,-39.404,334.33,6.0692,-2.0231,-1.6434,8.0922,2.0979e-12,-0.82168,0,0,0.083333,-0,-0,0.66667
0.87866,0.75332,10.544,0.37999,16.466,35.289,-10.684,3.5614,-1.4865,-14.246,-9.0754e-10,-0.74325,0,0,0.083333,-0,-0,0.66667
0.2546,0.31942,3.0552,-0.27088,-48.499,974.84,2.2069,-0.73563,-1.7372,2.9425,-1.7524e-12,-0.86858,0,0,0.083333,-0,-0,0.66667
0.76619,0.078077,9.1943,-0.63289,-50.073,121.75,15.517,-5.1724,-0.58146,20.689,-6.552e-11,-0.29073,0,0,0.083333,-1.579e-15,0,0.66667
0.94101,0.51154,11.292,0.017305,0.37032,8.863,-0.52109,0.1737,-1.9981,-0.69479,-3.7492e-07,-0.99906,0,0,0.083333,-3.158e-15,0,0.66667
0.0010329,0.5002,0.012395,0.00029469,0.056407,1550.6,-9.7471e-06,3.2656e-05,-2.006,1.7072e-06,4.411e-05,-1.003,0,0,0.083333,-0,-0,0.66667
0.47609,0.0022496,5.7131,-0.74663,-110.86,532.29,11.375,-3.7916,-0.014776,15.166,-4.4409e-15,-0.0073881,0,0,0.083333,-0,-0,0.66667
0.65704,0.39292,7.8845,-0.16062,-17.437,245.94,3.3771,-1.1257,-1.9133,4.5029,-2.1319e-12,-0.95665,0,0,0.083333,7.8949e-16,0,0.66667
0.84332,0.68375,10.12,0.27563,15.145,56.609,-7.4382,2.4794,-1.7369,-9.9176,3.9312e-10,-0.86843,0,0,0.083333,3.9475e-16,0,0.66667
0.18374,0.3694,2.2049,-0.19589,-36.235,1131.3,1.1518,-0.38393,-1.8629,1.5357,-1.5477e-10,-0.93147,0,0,0.083333,-9.8686e-17,0,0.66667
0.85616,0.21676,10.274,-0.42486,-21.611,48.654,11.64,-3.88,-1.3591,15.52,-1.2423e-09,-0.67954,0,0,0.083333,-1.7764e-15,0,0.66667
0.36437,0.2435,4.3724,-0.38475,-63.9,744.75,4.4861,-1.4954,-1.4713,5.9815,1.1003e-11,-0.73564,0,0,0.083333,-5.9212e-16,0,0.66667
0.89227,0.051908,10.707,-0.67214,-26.229,29.759,19.191,-6.3971,-0.39671,25.589,-1.7981e-07,-0.19835,0,0,0.083333,-0,-0,0.66667
0.027712,0.30475,0.33254,-0.29288,-56.045,1488.7,0.25972,-0.086574,-1.6945,0.34629,-1.8649e-06,-0.84724,0,0,0.083333,-0,-0,0.66667
0.08539,0.79016,1.0247,0.43524,82.788,1355.4,-1.1893,0.39643,-1.3224,-1.5857,-1.9808e-08,-0.66118,0,0,0.083333,-0,-0,0.66667
0.98141,0.81811,11.777,0.47717,3.2088,2.2992,-14.986,4.9952,-1.1912,-19.981,-4.4933e-06,-0.59558,0,0,0.083333,-0,-0,0.66667
0.6095,0.99872,7.314,0.74808,90.271,314.06,-14.591,4.8635,-0.018542,-19.454,1.1013e-12,-0.0092709,0,0,0.083333,2.9606e-16,0,0.66667
0.41763,0.48497,5.0116,-0.022552,-3.5617,639.62,0.30139,-0.10046,-1.9962,0.40186,1.3516e-12,-0.99808,0,0,0.083333,-7.8949e-16,0,0.66667
0.16921,0.92122,2.0306,0.63183,117.73,1164.3,-3.4213,1.1404,-0.58121,-4.5617,1.5308e-08,-0.2906,0,0,0.083333,-0,-0,0.66667
0.6499,0.91786,7.7988,0.62678,69.403,256.76,-13.035,4.345,-0.59922,-17.38,-8.5949e-12,-0.29961,0,0,0.083333,1.579e-15,0,0.66667
0.036975,0.71269,0.4437,0.31903,61.017,1467.2,-0.37748,0.12583,-1.6351,-0.5033,-1.6287e-08,-0.81756,0,0,0.083333,-2.4672e-17,0,0.66667
0.31161,0.23791,3.7394,-0.39314,-67.986,853.24,3.9202,-1.3067,-1.4553,5.227,-3.2907e-13,-0.72764,0,0,0.083333,3.9475e-16,0,0.66667
0.32348,0.62892,3.8818,0.19338,33.139,828.26,-2.0018,0.66726,-1.8654,-2.669,-5.3935e-12,-0.93272,0,0,0.083333,-0,-0,0.66667
0.60744,0.66326,7.2893,0.2449,29.543,315.46,-4.7603,1.5868,-1.7894,-6.3471,1.2075e-12,-0.89472,0,0,0.083333,-1.579e-15,0,0.66667
0.65083,0.04386,7.81,-0.68421,-75.656,255.77,14.25,-4.7499,-0.33218,19,-5.5866e-13,-0.16609,0,0,0.083333,-0,-0,0.66667
0.84605,0.47027,10.153,-0.044588,-2.407,54.427,1.2072,-0.40239,-1.9957,1.6096,-1.4866e-09,-0.99784,0,0,0.083333,-0,-0,0.66667
0.92758,0.47058,11.131,-0.044137,-1.1573,13.032,1.3101,-0.4367,-1.9908,1.7468,4.8397e-08,-0.99539,0,0,0.083333,-0,-0,0.66667
0.66046,0.88105,7.9255,0.57157,61.732,242.48,-12.08,4.0267,-0.83707,-16.107,-2.2675e-12,-0.41854,0,0,0.083333,1.579e-15,0,0.66667
0.57817,0.20679,6.9381,-0.43982,-56.048,360.09,8.1373,-2.7124,-1.3194,10.85,-2.7827e-12,-0.6597,0,0,0.083333,-0,-0,0.66667
0.39872,0.31854,4.7846,-0.27219,-43.814,676.42,3.4728,-1.1576,-1.7328,4.6304,1.8874e-13,-0.86638,0,0,0.083333,-0,-0,0.66667
0.96661,0.9752,11.599,0.7128,8.9458,5.7267,-22.048,7.3494,-0.1958,-29.397,-2.2748e-06,-0.097902,0,0,0.083333,-0,-0,0.66667
0.15408,0.1192,1.849,-0.5712,-106.93,1198.5,2.8163,-0.93877,-0.84225,3.7551,2.9464e-09,-0.42112,0,0,0.083333,9.8686e-17,-1.2512e-16,0.66667
0.89509,0.2356,10.741,-0.39661,-14.973,27.007,11.36,-3.7866,-1.4384,15.147,-5.0509e-08,-0.71921,0,0,0.083333,1.579e-15,0,0.66667
0.31101,0.59706,3.7322,0.1456,25.169,854.28,-1.449,0.48301,-1.9289,-1.9321,3.7781e-13,-0.96445,0,0,0.083333,-7.8949e-16,0,0.66667
0.54849,0.67908,6.5819,0.26862,35.923,406.89,-4.7148,1.5716,-1.7467,-6.2864,2.9758e-12,-0.87335,0,0,0.083333,3.9475e-16,0,0.66667
0.68207,0.7577,8.1848,0.38655,39.525,214.16,-8.4369,2.8123,-1.4658,-11.249,-1.5508e-12,-0.73289,0,0,0.083333,-0,-0,0.66667
0.23647,0.16106,2.8376,-0.5084,-91.995,1014.6,3.8471,-1.2824,-1.0836,5.1295,8.1735e-13,-0.5418,0,0,0.083333,-0,-0,0.66667
0.16774,0.67084,2.0128,0.25626,47.686,1167.4,-1.3755,0.4585,-1.7646,-1.834,4.857e-11,-0.88231,0,0,0.083333,-0,-0,0.66667
0.50848,0.47845,6.1018,-0.032325,-4.5829,473.78,0.52597,-0.17532,-1.9921,0.7013,4.2297e-12,-0.99607,0,0,0.083333,-0,-0,0.66667
0.79186,0.48576,9.5024,-0.021359,-1.517,96.426,0.54123,-0.18041,-1.9954,0.72164,1.8266e-11,-0.99771,0,0,0.083333,-1.579e-15,0,0.66667
0.69241,0.62988,8.309,0.19482,19.366,201,-4.3167,1.4389,-1.863,-5.7556,-1.2119e-12,-0.9315,0,0,0.083333,-0,-0,0.66667
0.11897,0.57724,1.4277,0.11586,21.865,1278.2,-0.44111,0.14704,-1.9484,-0.58815,-3.8849e-09,-0.9742,0,0,0.083333,-1.9737e-16,0,0.66667
0.90074,0.34296,10.809,-0.23556,-8.4088,23.902,6.7897,-2.2632,-1.8008,9.0529,-4.0278e-08,-0.9004,0,0,0.083333,-1.7764e-15,0,0.66667
0.47974,0.87081,5.7569,0.55622,82.069,525.12,-8.5388,2.8463,-0.89837,-11.385,-1.867e-12,-0.44918,0,0,0.083333,-7.028e-16,0,0.66667
0.94668,0.024201,11.36,-0.7137,-14.185,9.9129,21.621,-7.2068,-0.18531,28.827,1.0385e-05,-0.092653,0,0,0.083333,-1.579e-15,0,0.66667
0.55343,0.97461,6.6412,0.71192,94.781,400.16,-12.608,4.2027,-0.19442,-16.811,-7.7458e-12,-0.097212,0,0,0.083333,-0,-0,0.66667
0.084802,0.096035,1.0176,-0.60595,-115.38,1356.8,1.6443,-0.54811,-0.69151,2.1924,9.164e-09,-0.34576,0,0,0.083333,-0,-0,0.66667
0.20246,0.23104,2.4296,-0.40343,-74.117,1089.6,2.6138,-0.87126,-1.4267,3.485,-1.3311e-10,-0.71336,0,0,0.083333,-0,-0,0.66667
0.85424,0.84177,10.251,0.51266,26.444,50.249,-14.014,4.6713,-1.0637,-18.685,-3.2774e-09,-0.53187,0,0,0.083333,7.8949e-16,0,0.66667
0.70593,0.004859,8.4711,-0.74271,-71.53,186.79,16.778,-5.5925,-0.039838,22.37,2.2702e-12,-0.019919,0,0,0.083333,-0,-0,0.66667
0.89494,0.46809,10.739,-0.047868,-1.8019,26.337,1.3708,-0.45695,-1.9913,1.8278,1.3671e-08,-0.99565,0,0,0.083333,4.9343e-16,0,0.66667
0.32915,0.75698,3.9498,0.38547,65.828,816.7,-4.0601,1.3534,-1.4766,-5.4134,9.9476e-14,-0.73829,0,0,0.083333,-7.8949e-16,0,0.66667
0.528,0.79567,6.336,0.44351,61.246,441.11,-7.4936,2.4979,-1.3001,-9.9915,-2.3039e-12,-0.65007,0,0,0.083333,7.8949e-16,0,0.66667
0.6504,0.75362,7.8048,0.38043,41.979,255.23,-7.9178,2.6393,-1.4827,-10.557,-1.7386e-12,-0.74134,0,0,0.083333,-0,-0,0.66667
0.59429,0.13512,7.1315,-0.54731,-67.821,335.8,10.408,-3.4695,-0.94081,13.878,-4.3876e-13,-0.4704,0,0,0.083333,-0,-0,0.66667
0.23146,0.73631,2.7776,0.35447,64.251,1025.5,-2.6255,0.87516,-1.5534,-3.5006,1.1346e-11,-0.77671,0,0,0.083333,-0,-0,0.66667
0.42682,0.53126,5.1219,0.046883,7.3345,622.07,-0.64035,0.21345,-1.991,-0.8538,-1.5319e-11,-0.9955,0,0,0.083333,-0,-0,0.66667
0.24811,0.18445,2.9773,-0.47333,-85.119,989.16,3.758,-1.2527,-1.2068,5.0107,3.8101e-11,-0.60339,0,0,0.083333,1.7214e-16,0,0.66667
0.84561,0.17353,10.147,-0.4897,-26.626,55.795,13.251,-4.4171,-1.1497,17.668,3.8135e-09,-0.57484,0,0,0.083333,-0,-0,0.66667
0.98668,0.11002,11.84,-0.58498,-2.839,2.4342,18.47,-6.1566,-0.78463,24.626,-3.1135e-05,-0.39231,0,0,0.083333,-0,-0,0.66667
0.066571,0.30555,0.79885,-0.29168,-55.61,1398.7,0.62135,-0.20712,-1.6962,0.82847,2.4427e-07,-0.84812,0,0,0.083333,4.9343e-17,0,0.66667
0.71393,0.62743,8.5671,0.19115,17.891,175.58,-4.367,1.4557,-1.8685,-5.8227,8.6908e-13,-0.93427,0,0,0.083333,-0,-0,0.66667
0.33012,0.37162,3.9614,-0.19257,-32.84,814.49,2.0343,-0.6781,-1.8712,2.7124,8.8587e-12,-0.93561,0,0,0.083333,-3.9475e-16,0,0.66667
0.62544,0.072902,7.5052,-0.64065,-74.788,290.63,12.822,-4.274,-0.54686,17.096,2.16e-12,-0.27343,0,0,0.083333,-0,-0,0.66667
0.25813,0.57542,3.0976,0.11313,20.21,967.11,-0.93449,0.3115,-1.9501,-1.246,2.8714e-12,-0.97504,0,0,0.083333,-0,-0,0.66667
0.65101,0.80118,7.8121,0.45176,49.81,254.61,-9.4113,3.1371,-1.2713,-12.548,-4.3023e-12,-0.63563,0,0,0.083333,-0,-0,0.66667
0.37115,0.73905,4.4538,0.35858,59.202,731.09,-4.2587,1.4196,-1.5415,-5.6783,6.7133e-12,-0.77076,0,0,0.083333,-0,-0,0.66667
0.29482,0.13208,3.5379,-0.55189,-96.604,888.88,5.2066,-1.7355,-0.91946,6.9422,-1.146e-11,-0.45973,0,0,0.083333,-0,-5.9052e-17,0.66667
0.91176,0.66366,10.941,0.24549,7.8231,19.204,-7.1626,2.3875,-1.7827,-9.5501,4.9814e-08,-0.89137,0,0,0.083333,-0,-0,0.66667
0.9425,0.05954,11.31,-0.66069,-14.083,10.643,19.926,-6.6421,-0.44612,26.569,1.0328e-05,-0.22306,0,0,0.083333,6.7378e-16,0,0.66667
0.61355,0.56185,7.3626,0.092771,11.053,306.36,-1.8214,0.60714,-1.969,-2.4286,4.8196e-12,-0.98452,0,0,0.083333,-9.8686e-16,0,0.66667
0.21447,0.81936,2.5736,0.47905,87.581,1063.1,-3.2877,1.0959,-1.1825,-4.3836,-8.9689e-11,-0.59125,0,0,0.083333,-0,-0,0.66667
0.93942,0.099735,11.273,-0.6004,-13.418,11.121,18.049,-6.0163,-0.72115,24.065,3.1498e-06,-0.36057,0,0,0.083333,-0,-0,0.66667
0.75045,0.25306,9.0054,-0.3704,-30.902,136.33,8.895,-2.965,-1.5192,11.86,4.8646e-12,-0.7596,0,0,0.083333,-0,-0,0.66667
0.75109,0.39933,9.0131,-0.151,-12.552,135.23,3.6293,-1.2098,-1.9237,4.8391,-1.9051e-12,-0.96183,0,0,0.083333,3.9475e-16,0,0.66667
0.21172,0.16181,2.5407,-0.50729,-92.873,1069.2,3.4369,-1.1456,-1.0814,4.5826,-1.56e-10,-0.54068,0,0,0.083333,-0,-0,0.66667
0.83016,0.75935,9.9619,0.38903,23.052,66.257,-10.335,3.4448,-1.4641,-13.779,-2.3654e-10,-0.73206,0,0,0.083333,1.579e-15,0,0.66667
0.2401,0.054716,2.8811,-0.66793,-120.77,1006.9,5.1317,-1.7106,-0.41057,6.8423,1.0609e-10,-0.20529,0,0,0.083333,5.3691e-16,0,0.66667
0.63162,0.51658,7.5794,0.024872,2.8557,280.53,-0.5027,0.16757,-1.9936,-0.67027,-6.678e-14,-0.9968,0,0,0.083333,-0,-0,0.66667
0.71074,0.039451,8.5289,-0.69082,-65.575,180.92,15.712,-5.2373,-0.29908,20.949,2.724e-12,-0.14954,0,0,0.083333,-0,-0,0.66667
0.74238,0.0051089,8.9086,-0.74234,-63.967,146.34,17.635,-5.8784,-0.036968,23.514,-3.4461e-12,-0.018484,0,0,0.083333,-0,-0,0.66667
0.39026,0.51603,4.6832,0.024048,3.9,692.85,-0.30033,0.10011,-2.0041,-0.40043,5.0095e-12,-1.0021,0,0,0.083333,-0,-0,0.66667
0.75983,0.1383,9.1179,-0.54255,-43.878,127.54,13.192,-4.3973,-0.94972,17.589,-3.1881e-11,-0.47486,0,0,0.083333,-0,-0,0.66667
0.90294,0.30782,10.835,-0.28827,-10.08,23.055,8.3292,-2.7764,-1.7048,11.106,-4.7643e-08,-0.85239,0,0,0.083333,-7.8949e-16,0,0.66667
0.58742,0.1235,7.049,-0.56475,-70.873,346.27,10.616,-3.5386,-0.86334,14.154,2.7534e-14,-0.43167,0,0,0.083333,-9.8686e-17,0,0.66667
0.09041,0.72567,1.0849,0.3385,64.304,1343.8,-0.97932,0.32644,-1.5925,-1.3058,-3.0654e-08,-0.79625,0,0,0.083333,-0,-0,0.66667
0.12898,0.73047,1.5477,0.3457,65.111,1255.4,-1.4268,0.47559,-1.5735,-1.9024,-5.0034e-09,-0.78677,0,0,0.083333,-1.9737e-16,0,0.66667
0.10526,0.92111,1.2632,0.63166,119.83,1309.8,-2.1277,0.70923,-0.57951,-2.8369,2.2604e-07,-0.28975,0,0,0.083333,-0,-0,0.66667
0.17273,0.0034784,2.0727,-0.74478,-138.73,1156.6,4.1166,-1.3722,-0.033588,5.4888,2.3121e-09,-0.016794,0,0,0.083333,-7.8949e-16,0,0.66667
0.12643,0.37235,1.5172,-0.19148,-36.072,1261.1,0.7747,-0.25823,-1.8742,1.0329,5.2077e-09,-0.93708,0,0,0.083333,-2.9606e-16,0,0.66667
0.7783,0.32348,9.3396,-0.26478,-19.907,108.93,6.5944,-2.1981,-1.7509,8.7926,2.4177e-11,-0.87547,0,0,0.083333,-0,-0,0.66667
0.039412,0.10507,0.47294,-0.59239,-113.43,1461.6,0.74711,-0.24903,-0.74793,0.99615,1.2829e-05,-0.37396,0,0,0.083333,9.8686e-17,0,0.66667
0.24156,0.083162,2.8987,-0.62526,-112.93,1003.7,4.8332,-1.6111,-0.60575,6.4442,-9.5777e-11,-0.30287,0,0,0.083333,-1.9737e-16,0,0.66667
0.87907,0.67981,10.549,0.26972,11.631,34.734,-7.5873,2.5291,-1.74,-10.116,6.4416e-09,-0.87,0,0,0.083333,-7.8949e-16,0,0.66667
0.97352,0.082767,11.682,-0.62585,-6.1689,4.0851,19.497,-6.4989,-0.60478,25.996,4.2347e-05,-0.30239,0,0,0.083333,-0,-0,0.66667
0.60542,0.22161,7.2651,-0.41759,-50.621,318.8,8.0901,-2.6967,-1.3795,10.787,1.5712e-12,-0.68976,0,0,0.083333,-0,-0,0.66667
0.97624,0.70405,11.715,0.30608,2.6108,2.1823,-9.5619,3.1873,-1.6624,-12.749,-2.3032e-06,-0.83122,0,0,0.083333,-2.7351e-15,0,0.66667
0.043452,0.4648,0.52142,-0.052801,-10.088,1452.2,0.073417,-0.024473,-1.9903,0.097889,-4.7308e-07,-0.99513,0,0,0.083333,-0,-0,0.66667
0.94857,0.022026,11.383,-0.71696,-13.758,9.4639,21.763,-7.2543,-0.17016,29.017,4.2133e-06,-0.08508,0,0,0.083333,-0,1.3115e-16,0.66667
0.3113,0.94095,3.7356,0.66142,114.6,854.37,-6.5887,2.1962,-0.44946,-8.785,2.5442e-12,-0.22473,0,0,0.083333,-7.8949e-16,3.8756e-17,0.66667
0.79897,0.10573,9.5877,-0.5914,-40.934,91.777,15.12,-5.0402,-0.7583,20.161,-1.6565e-09,-0.37915,0,0,0.083333,-0,-0,0.66667
0.81063,0.70618,9.7275,0.30926,20.21,81.042,-8.0223,2.6741,-1.6623,-10.696,-6.1813e-11,-0.83115,0,0,0.083333,-7.8949e-16,0,0.66667
0.86,0.018908,10.32,-0.72164,-36.049,47.82,19.859,-6.6198,-0.15393,26.479,-8.2642e-08,-0.076963,0,0,0.083333,3.158e-15,0,0.66667
0.45855,0.92955,5.5026,0.64433,97.6,563.77,-9.4546,3.1515,-0.52092,-12.606,-7.3532e-12,-0.26046,0,0,0.083333,-0,-0,0.66667
0.93064,0.47833,11.168,-0.032503,-0.8167,12.011,0.96796,-0.32265,-1.9922,1.2906,-4.5246e-08,-0.9961,0,0,0.083333,-0,-0,0.66667
0.25789,0.0080365,3.0947,-0.73795,-132.25,968.35,6.0899,-2.03,-0.059704,8.1199,2.8213e-12,-0.029852,0,0,0.083333,-0,-0,0.66667
0.93445,0.98795,11.213,0.73192,17.8,13.469,-21.886,7.2954,-0.095219,-29.182,1.7055e-08,-0.047609,0,0,0.083333,-1.579e-15,0,0.66667
0.61912,0.65454,7.4294,0.2318,27.324,298.46,-4.5924,1.5308,-1.8065,-6.1232,2.0139e-12,-0.90327,0,0,0.083333,9.8686e-17,0,0.66667
0.98544,0.82198,11.825,0.48298,2.5148,1.959,-15.23,5.0768,-1.1751,-20.307,3.6014e-06,-0.58756,0,0,0.083333,-0,-0,0.66667
0.032644,0.10689,0.39173,-0.58967,-112.96,1477.3,0.61598,-0.20533,-0.76719,0.8213,-4.8776e-06,-0.3836,0,0,0.083333,-4.9343e-17,0,0.66667
0.72517,0.34428,8.702,-0.23358,-21.141,162.97,5.4204,-1.8068,-1.8035,7.2272,-2.5446e-13,-0.90175,0,0,0.083333,-0,-0,0.66667
0.56555,0.20203,6.7867,-0.44696,-58.2,379.88,8.089,-2.6963,-1.2896,10.785,-3.8822e-12,-0.64479,0,0,0.083333,7.8949e-16,0,0.66667
0.49242,0.65104,5.9091,0.22656,32.832,501.92,-3.5701,1.19,-1.8138,-4.7601,7.6383e-14,-0.90689,0,0,0.083333,-9.8686e-16,0,0.66667
0.25922,0.49867,3.1106,-0.0020014,-0.35728,964.73,0.016602,-0.0055339,-1.9973,0.022135,8.7087e-12,-0.99866,0,0,0.083333,-1.4803e-16,0,0.66667
0.32683,0.52068,3.922,0.031027,5.3028,821.24,-0.3245,0.10817,-2.0004,-0.43266,-3.4922e-13,-1.0002,0,0,0.083333,-0,-0,0.66667
0.24946,0.52909,2.9935,0.04363,7.8302,985.92,-0.34829,0.1161,-2.0002,-0.46438,-6.001e-12,-1.0001,0,0,0.083333,2.9606e-16,0,0.66667
0.21927,0.23406,2.6312,-0.39891,-72.741,1052.4,2.7989,-0.93298,-1.44,3.7319,-2.1174e-12,-0.71998,0,0,0.083333,-0,-0,0.66667
0.79966,0.25893,9.5959,-0.3616,-24.87,90.261,9.2531,-3.0844,-1.5358,12.337,1.3578e-10,-0.76789,0,0,0.083333,-0,-0,0.66667
0.5024,0.67891,6.0287,0.26836,38.384,484.52,-4.3143,1.4381,-1.7454,-5.7524,-1.4997e-12,-0.87272,0,0,0.083333,-3.9475e-16,0,0.66667
0.08319,0.23104,0.99828,-0.40344,-76.757,1360.4,1.074,-0.358,-1.4183,1.432,4.6635e-08,-0.70917,0,0,0.083333,-0,-0,0.66667
0.77698,0.10713,9.3238,-0.5893,-44.707,111.3,14.652,-4.884,-0.76323,19.536,-1.1256e-10,-0.38162,0,0,0.083333,-0,-0,0.66667
0.53365,0.54138,6.4038,0.062073,8.488,431.13,-1.06,0.35334,-1.9877,-1.4133,-1.7124e-12,-0.99383,0,0,0.083333,-0,-0,0.66667
0.73939,0.45409,8.8727,-0.068865,-5.9538,147.34,1.6294,-0.54313,-1.9802,2.1725,1.249e-13,-0.99009,0,0,0.083333,-0,-0,0.66667
0.51539,0.29858,6.1847,-0.30214,-42.453,462.16,4.983,-1.661,-1.682,6.644,2.4745e-12,-0.841,0,0,0.083333,7.8949e-16,0,0.66667
0.39995,0.87552,4.7994,0.56327,90.706,674.53,-7.2089,2.403,-0.86946,-9.6119,4.5608e-12,-0.43473,0,0,0.083333,1.579e-15,0,0.66667
0.98625,0.67703,11.835,0.26555,1.2573,1.0384,-8.3807,2.7936,-1.7518,-11.174,-1.6054e-07,-0.87588,0,0,0.083333,-0,-0,0.66667
0.028243,0.26881,0.33891,-0.34679,-66.371,1487.5,0.31342,-0.10447,-1.5724,0.41789,-2.4875e-06,-0.78621,0,0,0.083333,-0,-0,0.66667
0.93276,0.78051,11.193,0.42076,10.33,12.206,-12.559,4.1864,-1.3694,-16.746,3.2549e-07,-0.6847,0,0,0.083333,-2.2698e-15,0,0.66667
0.93085,0.95752,11.17,0.68628,17.527,14.275,-20.442,6.8141,-0.32134,-27.256,5.0642e-06,-0.16067,0,0,0.083333,1.579e-15,0,0.66667
0.39092,0.035116,4.691,-0.69733,-113.37,692.57,8.7231,-2.9077,-0.27841,11.631,1.1463e-11,-0.1392,0,0,0.083333,-0,-0,0.66667
0.21446,0.23879,2.5736,-0.39182,-71.603,1063,2.689,-0.89633,-1.4522,3.5853,7.5393e-12,-0.7261,0,0,0.083333,-0,-0,0.66667
0.61921,0.54579,7.4306,0.068688,8.0917,298.16,-1.361,0.45368,-1.9795,-1.8147,2.7885e-12,-0.98977,0,0,0.083333,-0,-0,0.66667
0.17797,0.027285,2.1357,-0.70907,-131.79,1144.7,4.0382,-1.3461,-0.20936,5.3843,-2.5224e-09,-0.10468,0,0,0.083333,-1.9737e-16,0,0.66667
0.80321,0.82878,9.6385,0.49317,33.437,87.761,-12.676,4.2252,-1.1312,-16.901,1.5737e-10,-0.5656,0,0,0.083333,-1.579e-15,0,0.66667
0.25393,0.60618,3.0472,0.15928,28.521,976.23,-1.2943,0.43142,-1.9083,-1.7257,1.8507e-12,-0.95414,0,0,0.083333,3.9475e-16,0,0.66667
0.29081,0.30107,3.4897,-0.2984,-52.301,897.06,2.7768,-0.92561,-1.6796,3.7024,6.5672e-12,-0.83982,0,0,0.083333,-0,-0,0.66667
0.91592,0.45719,10.991,-0.064211,-1.9489,17.283,1.882,-0.62732,-1.9816,2.5093,-3.9121e-08,-0.99082,0,0,0.083333,-1.579e-15,0,0.66667
0.90292,0.17205,10.835,-0.49192,-17.285,23.828,14.213,-4.7377,-1.139,18.951,-5.7119e-08,-0.5695,0,0,0.083333,-1.0693e-15,0,0.66667
0.53538,0.76354,6.4246,0.39531,53.978,428.68,-6.7725,2.2575,-1.4425,-9.03,-3.0331e-12,-0.72127,0,0,0.083333,-0,-0,0.66667
0.86284,0.96779,10.354,0.70169,34.372,45.961,-19.374,6.458,-0.25004,-25.832,1.8872e-07,-0.12502,0,0,0.083333,1.9737e-15,0,0.66667
0.35253,0.057412,4.2304,-0.66388,-111.54,769.25,7.4893,-2.4964,-0.42941,9.9857,2.0197e-12,-0.2147,0,0,0.083333,-0,-0,0.66667
0.99788,0.27712,11.975,-0.33433,-0.11502,0.64126,10.676,-3.5586,-1.6053,14.234,-2.8761e-06,-0.80263,0,0,0.083333,1.9737e-15,-1.1962e-16,0.66667
0.43369,0.56475,5.2043,0.097129,15.086,609.07,-1.348,0.44932,-1.9663,-1.7973,-6.3901e-12,-0.98315,0,0,0.083333,-0,-0,0.66667
0.29481,0.87567,3.5377,0.5635,98.645,888.92,-5.316,1.772,-0.87443,-7.0881,8.5332e-12,-0.43722,0,0,0.083333,-0,-0,0.66667
0.041574,0.025527,0.49889,-0.71171,-136.37,1456.7,0.94685,-0.31559,-0.19643,1.2625,3.6327e-05,-0.098216,0,0,0.083333,4.9343e-17,0,0.66667
0.98971,0.39489,11.876,-0.15766,-0.53202,0.54933,4.9932,-1.6644,-1.9085,6.6576,-2.6103e-07,-0.95423,0,0,0.083333,-1.579e-15,0,0.66667
0.46489,0.39844,5.5787,-0.15234,-22.843,551.22,2.2663,-0.75545,-1.9164,3.0218,1.9487e-12,-0.95821,0,0,0.083333,-3.9475e-16,0,0.66667
0.73459,0.069634,8.815,-0.64555,-56.965,154.09,15.175,-5.0582,-0.52541,20.233,1.0894e-11,-0.2627,0,0,0.083333,-0,-0,0.66667
0.64081,0.48597,7.6897,-0.021039,-2.3685,267.78,0.43143,-0.14381,-2.0051,0.57524,3.7615e-12,-1.0026,0,0,0.083333,-7.8949e-16,0,0.66667
0.72309,0.824,8.6771,0.486,44.358,165.98,-11.246,3.7486,-1.1581,-14.994,4.623e-12,-0.57907,0,0,0.083333,-0,-0,0.66667
0.051111,0.13883,0.61333,-0.54175,-103.59,1434.6,0.88606,-0.29535,-0.95446,1.1814,3.3331e-07,-0.47723,0,0,0.083333,9.8686e-17,0,0.66667
0.92005,0.70973,11.041,0.3146,9.1217,16.181,-9.2623,3.0874,-1.6508,-12.35,1.173e-07,-0.8254,0,0,0.083333,-0,-0,0.66667
0.92684,0.90289,11.122,0.60434,16.233,15.08,-17.924,5.9747,-0.69956,-23.899,1.0353e-06,-0.34978,0,0,0.083333,-2.3685e-15,0,0.66667
0.552,0.351,6.6239,-0.2235,-29.718,401.14,3.9479,-1.316,-1.8198,5.2639,-5.9996e-13,-0.9099,0,0,0.083333,-0,-0,0.66667
0.96392,0.17268,11.567,-0.49098,-6.5167,4.8166,15.144,-5.0481,-1.1401,20.193,-1.8092e-06,-0.57007,0,0,0.083333,-0,-0,0.66667
0.28096,0.26945,3.3715,-0.34583,-60.999,918.11,3.1092,-1.0364,-1.5812,4.1456,-6.0376e-12,-0.79062,0,0,0.083333,-0,-0,0.66667
0.60215,0.10684,7.2258,-0.58975,-72.044,324.21,11.364,-3.7879,-0.75901,15.152,4.8797e-12,-0.3795,0,0,0.083333,-0,-0,0.66667
0.39646,0.74668,4.7576,0.37002,59.714,680.96,-4.6944,1.5648,-1.5105,-6.2592,-1.9935e-12,-0.75526,0,0,0.083333,-1.9737e-16,0,0.66667
0.62802,0.93906,7.5363,0.6586,76.489,287.04,-13.236,4.4119,-0.45909,-17.648,5.298e-12,-0.22954,0,0,0.083333,-1.579e-15,0,0.66667
0.30063,0.61927,3.6076,0.1789,31.146,876.15,-1.7211,0.57368,-1.8856,-2.2947,-2.1876e-11,-0.94279,0,0,0.083333,3.9475e-16,0,0.66667
0.81936,0.65098,9.8323,0.22647,14.171,73.95,-5.938,1.9793,-1.8141,-7.9173,-9.4871e-11,-0.90704,0,0,0.083333,3.9475e-16,0,0.66667
0.069786,0.25627,0.83743,-0.36559,-69.688,1391.3,0.81641,-0.27214,-1.521,1.0885,2.9058e-07,-0.76049,0,0,0.083333,-0,-0,0.66667
0.041878,0.59076,0.50253,0.13614,26.017,1455.9,-0.18244,0.060814,-1.9323,-0.24326,1.0404e-07,-0.96613,0,0,0.083333,7.4015e-17,0,0.66667
0.049396,0.098127,0.59276,-0.60281,-115.33,1438.5,0.95284,-0.31761,-0.70976,1.2705,2.0301e-06,-0.35488,0,0,0.083333,-0,-0,0.66667
0.15046,0.30816,1.8055,-0.28776,-53.856,1206.5,1.3854,-0.46181,-1.7028,1.8472,5.6235e-10,-0.85139,0,0,0.083333,1.9737e-16,0,0.66667
0.39535,0.42659,4.7442,-0.11012,-17.776,682.87,1.3932,-0.46439,-1.9544,1.8576,2.6837e-12,-0.9772,0,0,0.083333,-0,-0,0.66667
0.95539,0.83906,11.465,0.50859,8.3577,6.5931,-15.549,5.183,-1.0826,-20.732,3.8388e-06,-0.54128,0,0,0.083333,3.9475e-16,0,0.66667
0.1108,0.81344,1.3295,0.47016,88.996,1297,-1.6669,0.55564,-1.2189,-2.2226,-1.2224e-08,-0.60946,0,0,0.083333,-0,-0,0.66667
0.64755,0.082432,7.7706,-0.62635,-69.721,259.92,12.979,-4.3264,-0.6009,17.305,-5.56e-13,-0.30045,0,0,0.083333,-7.8949e-16,0,0.66667
0.52762,0.49316,6.3315,-0.010262,-1.4158,441.2,0.17326,-0.057752,-1.9991,0.23101,3.0983e-12,-0.99953,0,0,0.083333,3.9475e-16,0,0.66667
0.35324,0.91869,4.2389,0.62803,105.43,767.72,-7.0991,2.3664,-0.59374,-9.4655,-1.7719e-12,-0.29687,0,0,0.083333,-0,-0,0.66667
0.1982,0.10858,2.3784,-0.58714,-108.17,1099.3,3.7238,-1.2413,-0.77143,4.9651,1.6554e-09,-0.38571,0,0,0.083333,-0,-0,0.66667
0.22059,0.94728,2.6471,0.67092,122.47,1049.8,-4.736,1.5787,-0.40215,-6.3147,-5.1567e-10,-0.20107,0,0,0.083333,-0,-0,0.66667
0.043822,0.39758,0.52586,-0.15362,-29.353,1451.4,0.21542,-0.071808,-1.9163,0.28723,-6.4111e-08,-0.95815,0,0,0.083333,4.9343e-17,0,0.66667
0.71316,0.25558,8.558,-0.36662,-34.427,176.82,8.3668,-2.7889,-1.5193,11.156,4.6185e-13,-0.75963,0,0,0.083333,-0,-0,0.66667
0.65384,0.50928,7.8461,0.013915,1.5214,250.11,-0.29113,0.097045,-2.0007,-0.38818,2.4492e-12,-1.0004,0,0,0.083333,-0,-0,0.66667
0.44377,0.84921,5.3252,0.52382,80.611,590.78,-7.4386,2.4795,-1.0211,-9.9181,-2.0433e-12,-0.51055,0,0,0.083333,-1.579e-15,0,0.66667
0.71894,0.19793,8.6273,-0.4531,-41.862,170.52,10.424,-3.4747,-1.2769,13.899,-2.4718e-12,-0.63845,0,0,0.083333,-0,-0,0.66667
0.10998,0.9803,1.3197,0.72044,136.62,1299.1,-2.5354,0.84514,-0.16015,-3.3805,-4.6726e-07,-0.080076,0,0,0.083333,-0,-0,0.66667
0.93872,0.75618,11.265,0.38426,8.6,10.256,-11.543,3.8476,-1.4795,-15.391,2.1655e-07,-0.73974,0,0,0.083333,-0,-0,0.66667
0.84763,0.72608,10.172,0.33912,18.173,53.886,-9.1982,3.0661,-1.5901,-12.264,3.8639e-10,-0.79505,0,0,0.083333,-1.579e-15,0,0.66667
0.65904,0.61266,7.9084,0.169,18.261,243.31,-3.564,1.188,-1.8989,-4.752,-1.8985e-12,-0.94945,0,0,0.083333,-0,-0,0.66667
0.37883,0.84554,4.546,0.51832,85.077,716.03,-6.2833,2.0944,-1.0447,-8.3778,3.4071e-12,-0.52235,0,0,0.083333,-0,-0,0.66667
0.41657,0.50484,4.9988,0.0072589,1.1476,641.66,-0.096763,0.032254,-1.9974,-0.12902,-1.1137e-11,-0.99868,0,0,0.083333,-0,-0,0.66667
0.48215,0.83986,5.7858,0.50979,74.965,520.67,-7.8654,2.6218,-1.0785,-10.487,-3.2232e-12,-0.53923,0,0,0.083333,9.8686e-16,0,0.66667
0.93528,0.52966,11.223,0.044485,1.0439,10.552,-1.3314,0.44379,-1.9959,-1.7752,7.5876e-08,-0.99794,0,0,0.083333,-3.9475e-16,0,0.66667
0.86359,0.77173,10.363,0.4076,19.726,44.005,-11.264,3.7547,-1.4076,-15.019,6.5546e-09,-0.70378,0,0,0.083333,-0,-0,0.66667
0.47792,0.60191,5.7351,0.15286,22.56,527.63,-2.3378,0.77927,-1.9132,-3.1171,-8.2661e-12,-0.95659,0,0,0.083333,-0,-0,0.66667
0.55452,0.99925,6.6542,0.74888,99.571,398.57,-13.289,4.4295,-0.0030618,-17.718,-5.7749e-12,-0.0015309,0,0,0.083333,9.3752e-16,0,0.66667
0.8754,0.50913,10.505,0.0137,0.60664,36.401,-0.38377,0.12792,-2.0057,-0.5117,-7.4576e-09,-1.0028,0,0,0.083333,-3.158e-15,0,0.66667
0.94926,0.84801,11.391,0.52202,9.7552,8.0726,-15.857,5.2857,-1.0305,-21.143,5.0223e-07,-0.51526,0,0,0.083333,-0,-0,0.66667
0.63918,0.92265,7.6702,0.63397,71.886,271.38,-12.967,4.3224,-0.57427,-17.29,-4.7597e-12,-0.28713,0,0,0.083333,7.8949e-16,0,0.66667
0.74852,0.89278,8.9822,0.58917,49.61,139.16,-14.112,4.7041,-0.76903,-18.816,-5.0295e-11,-0.38451,0,0,0.083333,7.8949e-16,0,0.66667
0.35162,0.34528,4.2195,-0.23209,-38.929,770.37,2.6114,-0.87048,-1.8054,3.4819,-2.6892e-12,-0.9027,0,0,0.083333,1.579e-15,0,0.66667
0.91803,0.11432,11.016,-0.57852,-17.327,18.091,16.995,-5.665,-0.80873,22.66,-5.3778e-08,-0.40436,0,0,0.083333,-0,-0,0.66667
0.83675,0.5015,10.041,0.0022474,0.12807,60.835,-0.060178,0.020059,-1.997,-0.080237,9.2326e-10,-0.99852,0,0,0.083333,-0,-0,0.66667
0.55206,0.80849,6.6247,0.46273,61.6,401.52,-8.1745,2.7248,-1.2365,-10.899,-5.1292e-12,-0.61824,0,0,0.083333,1.9737e-16,0,0.66667
0.86763,0.79823,10.412,0.44734,21.066,41.767,-12.42,4.14,-1.2841,-16.56,7.9327e-09,-0.64203,0,0,0.083333,1.579e-15,0,0.66667
0.84987,0.34178,10.198,-0.23733,-12.53,52.137,6.4545,-2.1515,-1.7971,8.606,-6.746e-10,-0.89855,0,0,0.083333,-2.1169e-15,0,0.66667
0.80841,0.63881,9.7009,0.20822,13.739,82.614,-5.3864,1.7955,-1.8441,-7.1819,-5.7659e-11,-0.92203,0,0,0.083333,1.579e-15,0,0.66667
0.13069,0.59766,1.5683,0.14649,27.563,1251.4,-0.61263,0.20421,-1.9211,-0.81684,-2.7573e-09,-0.96053,0,0,0.083333,-0,-0,0.66667
0.536,0.071404,6.432,-0.64289,-87.873,428.39,11.027,-3.6757,-0.52808,14.703,1.8829e-12,-0.26404,0,0,0.083333,-0,-0,0.66667
0.90078,0.69106,10.809,0.28659,10.234,24.012,-8.2609,2.7536,-1.7056,-11.015,4.6395e-08,-0.85279,0,0,0.083333,-0,-0,0.66667
0.77083,0.62552,9.25,0.18828,14.567,115.8,-4.6443,1.5481,-1.8724,-6.1924,-2.5886e-12,-0.93619,0,0,0.083333,-0,-0,0.66667
0.42071,0.054666,5.0486,-0.668,-105.47,634.72,8.9932,-2.9977,-0.41786,11.991,-5.4969e-12,-0.20893,0,0,0.083333,-3.9475e-16,0,0.66667
0.97788,0.3858,11.735,-0.17131,-1.3442,1.6481,5.3606,-1.7869,-1.8917,7.1474,8.4373e-07,-0.94584,0,0,0.083333,1.579e-15,0,0.66667
0.25077,0.43402,3.0093,-0.098967,-17.75,983.08,0.79419,-0.26473,-1.9712,1.0589,-8.9467e-12,-0.98562,0,0,0.083333,5.9212e-16,0,0.66667
0.33361,0.76528,4.0033,0.39792,67.731,807.49,-4.248,1.416,-1.4336,-5.664,2.6872e-12,-0.71679,0,0,0.083333,-0,-0,0.66667
0.9542,0.5192,11.45,0.028797,0.47807,5.5417,-0.87929,0.2931,-2.0014,-1.1724,2.404e-07,-1.0007,0,0,0.083333,-0,-0,0.66667
0.80872,0.7709,9.7046,0.40635,26.826,82.892,-10.516,3.5053,-1.4117,-14.021,-7.2003e-11,-0.70587,0,0,0.083333,-0,-0,0.66667
0.90034,0.82369,10.804,0.48554,17.491,24.95,-13.989,4.663,-1.1581,-18.652,4.9419e-08,-0.57906,0,0,0.083333,-0,-0,0.66667
0.01159,0.9442,0.13908,0.66631,127.83,1526.1,-0.24711,0.082307,-0.42027,-0.32951,-9.2921e-05,-0.21014,0,0,0.083333,-0,-0,0.66667
0.37976,0.85097,4.5572,0.52646,86.346,714.19,-6.3978,2.1326,-1.0123,-8.5304,2.172e-12,-0.50617,0,0,0.083333,-0,-0,0.66667
0.23552,0.65821,2.8263,0.23732,42.913,1016.5,-1.7886,0.59619,-1.8051,-2.3848,1.4368e-11,-0.90256,0,0,0.083333,-0,-0,0.66667
0.29594,0.39715,3.5512,-0.15428,-26.941,886.08,1.461,-0.487,-1.9203,1.948,-1.9889e-12,-0.96013,0,0,0.083333,3.9475e-16,0,0.66667
0.738,0.88047,8.8559,0.57071,49.757,150.08,-13.478,4.4926,-0.84155,-17.97,-2.549e-11,-0.42077,0,0,0.083333,-0,-0,0.66667
0.72408,0.13761,8.689,-0.54358,-49.497,165.1,12.595,-4.1984,-0.94617,16.794,-2.2601e-11,-0.47308,0,0,0.083333,-0,-0,0.66667
0.4618,0.40829,5.5416,-0.13757,-20.703,556.84,2.0329,-0.67765,-1.9297,2.7106,5.6621e-12,-0.96483,0,0,0.083333,-0,-0,0.66667
0.36527,0.60157,4.3833,0.15235,25.263,742.67,-1.7808,0.5936,-1.9141,-2.3744,-2.7416e-12,-0.95706,0,0,0.083333,-0,-0,0.66667
0.58469,0.65981,7.0163,0.23972,30.166,349.62,-4.4852,1.4951,-1.7925,-5.9802,5.7296e-12,-0.89626,0,0,0.083333,-1.579e-15,0,0.66667
0.53371,0.97983,6.4045,0.71974,98.794,432.49,-12.292,4.0974,-0.15929,-16.39,4.6994e-12,-0.079647,0,0,0.083333,-0,-0,0.66667
0.55058,0.79119,6.607,0.43678,58.272,403.84,-7.6954,2.5651,-1.3207,-10.261,-2.6747e-12,-0.66034,0,0,0.083333,-0,-0,0.66667
0.61548,0.080558,7.3857,-0.62916,-74.93,304.84,12.392,-4.1305,-0.58867,16.522,4.1034e-13,-0.29434,0,0,0.083333,7.8949e-16,0,0.66667
0.39565,0.51625,4.7478,0.024378,3.9337,682.27,-0.30865,0.10288,-1.9949,-0.41153,-4.1764e-12,-0.99745,0,0,0.083333,-0,-0,0.66667
0.77172,0.86542,9.2606,0.54813,42.415,116.05,-13.536,4.512,-0.92811,-18.048,-7.1941e-11,-0.46406,0,0,0.083333,-0,-0,0.66667
0.2512,0.54343,3.0144,0.065152,11.682,982.14,-0.52372,0.17457,-1.9889,-0.69829,-3.5923e-12,-0.99445,0,0,0.083333,-0,-0,0.66667
0.65576,0.19345,7.8691,-0.45983,-50.154,248.29,9.6492,-3.2164,-1.2547,12.866,-4.4471e-12,-0.62734,0,0,0.083333,1.579e-15,0,0.66667
0.9604,0.34749,11.525,-0.22877,-3.2891,4.5071,7.0308,-2.3436,-1.8105,9.3744,4.7818e-08,-0.90524,0,0,0.083333,-0,-0,0.66667
0.0035548,0.57727,0.042657,0.1159,22.187,1544.7,-0.013184,0.0043947,-1.9512,-0.017579,-8.1685e-08,-0.97562,0,0,0.083333,-6.1679e-18,0,0.66667
0.72336,0.56502,8.6803,0.09753,8.8715,164.8,-2.2576,0.75253,-1.9649,-3.0101,-1.5945e-12,-0.98244,0,0,0.083333,-0,-0,0.66667
0.109,0.47879,1.3079,-0.031812,-6.0168,1301,0.11096,-0.036985,-2.0028,0.14794,4.0496e-09,-1.0014,0,0,0.083333,-0,-0,0.66667
0.54379,0.48529,6.5254,-0.022063,-2.9706,414.37,0.38392,-0.12797,-1.9981,0.51189,-2.5327e-12,-0.99904,0,0,0.083333,7.8949e-16,0,0.66667
0.62692,0.93346,7.523,0.65019,75.678,288.57,-13.044,4.3479,-0.50006,-17.391,9.9654e-13,-0.25003,0,0,0.083333,1.9737e-16,0,0.66667
0.24295,0.0050485,2.9154,-0.74243,-134.12,1000.8,5.7719,-1.924,-0.036602,7.6958,-2.6296e-11,-0.018301,0,0,0.083333,1.579e-15,0,0.66667
0.91384,0.8233,10.966,0.48495,15.188,19.222,-14.181,4.7272,-1.1595,-18.909,2.6514e-08,-0.57975,0,0,0.083333,-1.579e-15,0,0.66667
0.62231,0.65042,7.4678,0.22563,26.424,293.87,-4.4931,1.4977,-1.8202,-5.9908,4.0998e-12,-0.91012,0,0,0.083333,-7.8949e-16,0,0.66667
0.23169,0.051629,2.7803,-0.67256,-122.12,1025.3,4.9865,-1.6622,-0.39245,6.6486,-5.672e-10,-0.19622,0,0,0.083333,-1.9737e-16,0,0.66667
0.77013,0.68277,9.2416,0.27415,21.279,116.63,-6.7562,2.2521,-1.7312,-9.0083,-1.2975e-11,-0.86561,0,0,0.083333,1.1842e-15,0,0.66667
0.10551,0.28883,1.2661,-0.31676,-59.989,1309.1,1.0694,-0.35648,-1.6422,1.4259,3.9624e-08,-0.82111,0,0,0.083333,-0,-0,0.66667
0.55523,0.22381,6.6627,-0.41429,-54.854,396.28,7.3607,-2.4536,-1.3861,9.8143,-4.0461e-12,-0.69306,0,0,0.083333,-0,-0,0.66667
0.094956,0.23585,1.1395,-0.39623,-75.223,1333.3,1.204,-0.40132,-1.4457,1.6053,4.4563e-08,-0.72286,0,0,0.083333,-1.9737e-16,0,0.66667
0.58098,0.9953,6.9718,0.74295,94.489,356.86,-13.812,4.6042,-0.03851,-18.417,-2.3448e-13,-0.019255,0,0,0.083333,-7.8949e-16,0,0.66667
0.25298,0.54846,3.0358,0.072683,13.02,978.27,-0.5884,0.19613,-1.9812,-0.78453,-2.0665e-12,-0.99062,0,0,0.083333,-0,-0,0.66667
0.64947,0.9985,7.7936,0.74775,83.007,257.92,-15.54,5.1801,-0.0091247,-20.72,4.432e-13,-0.0045624,0,0,0.083333,9.8432e-16,0,0.66667
0.71583,0.086208,8.5899,-0.62069,-57.993,174.74,14.218,-4.7393,-0.63078,18.957,6.3194e-12,-0.31539,0,0,0.083333,-0,-0,0.66667
0.52419,0.62285,6.2902,0.18428,25.559,447.08,-3.0911,1.0304,-1.8762,-4.1215,-3.1959e-12,-0.93808,0,0,0.083333,-1.9737e-16,0,0.66667
0.65752,0.25229,7.8903,-0.37156,-40.334,245.7,7.818,-2.606,-1.5141,10.424,-4.4187e-13,-0.75705,0,0,0.083333,-0,-0,0.66667
0.81329,0.72625,9.7595,0.33938,21.903,78.99,-8.8325,2.9442,-1.5959,-11.777,-1.6724e-11,-0.79796,0,0,0.083333,-0,-0,0.66667
0.80751,0.60856,9.6901,0.16283,10.787,83.276,-4.2077,1.4026,-1.9028,-5.6102,-6.2819e-11,-0.95139,0,0,0.083333,-0,-0,0.66667
0.61968,0.4162,7.4362,-0.1257,-14.795,297.52,2.4926,-0.83085,-1.9408,3.3234,-1.9367e-12,-0.97038,0,0,0.083333,-0,-0,0.66667
0.4511,0.030396,5.4132,-0.70441,-107.68,577.68,10.168,-3.3894,-0.23926,13.558,-5.1497e-12,-0.11963,0,0,0.083333,4.9343e-16,0,0.66667
0.40795,7.8936e-05,4.8954,-0.74988,-120.02,659.51,9.7893,-3.2631,-0.0050209,13.052,-8.3489e-13,-0.0025105,0,0,0.083333,-0,-0,0.66667
0.87475,0.32057,10.497,-0.26914,-11.997,37.103,7.5337,-2.5112,-1.7493,10.045,-6.2791e-09,-0.87467,0,0,0.083333,-0,-0,0.66667
0.70293,0.94575,8.4352,0.66862,64.863,189.92,-15.04,5.0133,-0.41752,-20.053,-2.6859e-12,-0.20876,0,0,0.083333,-0,-0,0.66667
0.18494,0.10528,2.2192,-0.59208,-109.66,1129,3.5039,-1.168,-0.7545,4.6718,-2.7684e-09,-0.37725,0,0,0.083333,-3.9475e-16,0,0.66667
0.56573,0.46482,6.7888,-0.052771,-6.8587,379,0.95534,-0.31845,-1.9906,1.2738,-4.7001e-12,-0.9953,0,0,0.083333,-9.8686e-16,0,0.66667
0.90881,0.71955,10.906,0.32933,10.852,20.653,-9.5776,3.1925,-1.6167,-12.77,3.4054e-08,-0.80836,0,0,0.083333,-0,-0,0.66667
0.15069,0.92776,1.8083,0.64164,120.3,1206.2,-3.094,1.0313,-0.53293,-4.1254,-6.2888e-08,-0.26646,0,0,0.083333,-0,-0,0.66667
0.84552,0.59636,10.146,0.14453,7.8304,54.873,-3.9106,1.3035,-1.9295,-5.2141,7.1026e-10,-0.96473,0,0,0.083333,-0,-0,0.66667
0.8202,0.73389,9.8424,0.35084,21.885,73.613,-9.2083,3.0694,-1.5579,-12.278,1.1608e-12,-0.77894,0,0,0.083333,1.579e-15,0,0.66667
0.49934,0.42485,5.9921,-0.11272,-16.182,489.68,1.8012,-0.6004,-1.9602,2.4016,-3.6848e-13,-0.98012,0,0,0.083333,7.8949e-16,0,0.66667
0.037584,0.2307,0.45101,-0.40395,-77.282,1465.8,0.48582,-0.16194,-1.4159,0.64777,8.5469e-07,-0.70793,0,0,0.083333,-0,-0,0.66667
0.1475,0.010517,1.77,-0.73422,-137.89,1213.5,3.4656,-1.1552,-0.079129,4.6208,-1.1873e-08,-0.039564,0,0,0.083333,-0,-0,0.66667
0.92264,0.22123,11.072,-0.41816,-11.773,15.609,12.346,-4.1153,-1.3846,16.461,-1.5506e-07,-0.69228,0,0,0.083333,3.158e-15,0,0.66667
0.044155,0.73004,0.52986,0.34506,65.963,1450.6,-0.48755,0.16251,-1.5773,-0.65006,-6.5834e-07,-0.78865,0,0,0.083333,-0,-0,0.66667
0.3725,0.76511,4.47,0.39767,65.592,728.44,-4.7402,1.5801,-1.4387,-6.3203,1.0662e-11,-0.71933,0,0,0.083333,-7.8949e-16,0,0.66667
0.61904,0.72466,7.4285,0.33699,39.751,298.77,-6.6755,2.2252,-1.5931,-8.9007,7.7494e-13,-0.79653,0,0,0.083333,-0,-0,0.66667
0.19695,0.47846,2.3634,-0.032305,-5.9431,1101.8,0.2036,-0.067865,-1.9926,0.27146,-2.5537e-11,-0.99629,0,0,0.083333,-0,-0,0.66667
0.98108,0.74575,11.773,0.36862,2.4897,1.8523,-11.573,3.8576,-1.5172,-15.43,-2.5686e-06,-0.7586,0,0,0.083333,2.9494e-15,0,0.66667
0.15598,0.58103,1.8717,0.12155,22.7,1193.9,-0.60667,0.20222,-1.954,-0.8089,-2.4456e-10,-0.97698,0,0,0.083333,-0,-0,0.66667
0.53968,0.01942,6.4762,-0.72087,-98.063,422.62,12.449,-4.1497,-0.14804,16.599,6.3185e-12,-0.074021,0,0,0.083333,-0,-0,0.66667
0.61801,0.79139,7.4161,0.43708,51.699,300.51,-8.6439,2.8813,-1.3166,-11.525,-2.3848e-12,-0.6583,0,0,0.083333,-0,-0,0.66667
0.23099,0.092722,2.7719,-0.61092,-110.92,1026.8,4.5157,-1.5052,-0.67377,6.0209,8.2169e-10,-0.33689,0,0,0.083333,-5.181e-16,1.0689e-19,0.66667
0.46631,0.95131,5.5957,0.67696,101.64,549.71,-10.102,3.3672,-0.37166,-13.469,-6.9367e-13,-0.18583,0,0,0.083333,7.8949e-16,-9.7351e-17,0.66667
0.49101,0.89664,5.8921,0.59496,86.563,505.21,-9.3481,3.116,-0.73747,-12.464,7.8373e-12,-0.36874,0,0,0.083333,-7.8949e-16,0,0.66667
0.76686,0.34878,9.2023,-0.22683,-17.819,119.67,5.5662,-1.8554,-1.8217,7.4216,1.4236e-11,-0.91084,0,0,0.083333,-1.579e-15,0,0.66667
0.63428,0.42487,7.6114,-0.1127,-12.868,276.85,2.2874,-0.76247,-1.9508,3.0499,-1.3989e-14,-0.97542,0,0,0.083333,-0,-0,0.66667
0.46755,0.81144,5.6106,0.46716,69.921,546.86,-6.9895,2.3298,-1.2294,-9.3193,-1.3873e-11,-0.61472,0,0,0.083333,9.3752e-16,0,0.66667
0.66694,0.55931,8.0033,0.08897,9.4326,232.89,-1.8988,0.63294,-1.9701,-2.5317,4.1345e-13,-0.98503,0,0,0.083333,-9.8678e-16,0,0.66667
0.45338,0.79708,5.4405,0.44562,67.804,572.76,-6.4651,2.155,-1.3004,-8.6201,-7.4296e-12,-0.65022,0,0,0.083333,-0,-0,0.66667
0.52571,0.23067,6.3085,-0.404,-55.963,444.86,6.7964,-2.2655,-1.4163,9.0618,9.1926e-14,-0.70815,0,0,0.083333,-7.8949e-16,0,0.66667
0.65857,0.084514,7.9028,-0.62323,-67.649,245.19,13.134,-4.378,-0.62058,17.512,-6.5636e-13,-0.31029,0,0,0.083333,-0,-0,0.66667
0.1812,0.9867,2.1743,0.73005,135.54,1137.5,-4.233,1.411,-0.10099,-5.644,3.3224e-09,-0.050495,0,0,0.083333,1.9737e-16,0,0.66667
0.78805,0.58696,9.4566,0.13045,9.4179,99.864,-3.2895,1.0965,-1.9358,-4.386,-1.1687e-11,-0.96788,0,0,0.083333,-0,-0,0.66667
0.60287,0.88024,7.2344,0.57037,69.569,323.07,-11.003,3.6678,-0.83992,-14.671,7.6472e-13,-0.41996,0,0,0.083333,-0,-0,0.66667
0.98033,0.026902,11.764,-0.70965,-5.2632,3.8528,22.262,-7.4207,-0.2085,29.683,3.9039e-05,-0.10425,0,0,0.083333,1.579e-15,-4.7284e-17,0.66667
0.22238,0.37855,2.6686,-0.18218,-33.148,1045.3,1.2964,-0.43214,-1.8819,1.7285,-2.3523e-11,-0.94095,0,0,0.083333,-0,-0,0.66667
0.46627,0.28498,5.5952,-0.32254,-48.31,548.9,4.8124,-1.6041,-1.6321,6.4165,1.3833e-12,-0.81604,0,0,0.083333,1.579e-15,0,0.66667
0.89564,0.66299,10.748,0.24449,9.1587,26.279,-7.0071,2.3357,-1.785,-9.3428,3.295e-08,-0.89252,0,0,0.083333,-0,-0,0.66667
0.60143,0.13909,7.2172,-0.54136,-66.192,325.09,10.419,-3.473,-0.9535,13.892,-1.0187e-12,-0.47675,0,0,0.083333,7.8949e-16,0,0.66667
0.72596,0.54431,8.7115,0.066464,5.9973,161.9,-1.544,0.51467,-1.9799,-2.0587,-1.1767e-12,-0.98997,0,0,0.083333,-0,-0,0.66667
0.41367,0.0111,4.964,-0.73335,-116.69,648.42,9.7077,-3.2359,-0.083514,12.944,-7.4332e-12,-0.041757,0,0,0.083333,-1.579e-15,0,0.66667
0.68431,0.48235,8.2117,-0.026469,-2.6868,210.82,0.57962,-0.19321,-1.9972,0.77283,9.0261e-13,-0.99858,0,0,0.083333,-0,-0,0.66667
0.94606,0.62019,11.353,0.18029,3.5348,7.6652,-5.458,1.8193,-1.8809,-7.2774,6.2344e-08,-0.94044,0,0,0.083333,-1.9737e-15,0,0.66667
0.20019,0.039015,2.4022,-0.69148,-127.38,1095,4.4296,-1.4765,-0.30046,5.9061,-6.8592e-10,-0.15023,0,0,0.083333,-0,7.3713e-17,0.66667
0.80737,0.37334,9.6884,-0.18998,-12.596,83.437,4.9084,-1.6361,-1.8699,6.5445,3.8855e-11,-0.93497,0,0,0.083333,3.9475e-16,0,0.66667
0.96954,0.73929,11.634,0.35894,3.9732,3.3002,-11.136,3.712,-1.5471,-14.848,-1.8757e-06,-0.77354,0,0,0.083333,-0,-0,0.66667
0.014569,0.13907,0.17482,-0.5414,-103.78,1519.2,0.25239,-0.084123,-0.9621,0.33653,1.138e-05,-0.48105,0,0,0.083333,-2.4672e-17,1.177e-16,0.66667
0.21521,0.82021,2.5825,0.48031,87.783,1061.4,-3.3078,1.1026,-1.1792,-4.4104,-6.8334e-11,-0.5896,0,0,0.083333,-0,-0,0.66667
0.11738,0.64385,1.4085,0.21577,40.742,1281.8,-0.81046,0.27015,-1.8301,-1.0806,-9.0932e-09,-0.91503,0,0,0.083333,-1.39e-16,0,0.66667
0.76742,0.097061,9.2091,-0.60441,-47.579,120.41,14.843,-4.9476,-0.70465,19.79,-6.6958e-10,-0.35232,0,0,0.083333,3.158e-15,0,0.66667
0.081217,0.84402,0.9746,0.51603,98.267,1365,-1.3411,0.44705,-1.0546,-1.7882,-8.4982e-09,-0.52732,0,0,0.083333,-1.9737e-16,0,0.66667
0.99841,0.88199,11.981,0.57298,0.20955,1.7811,-18.306,6.1021,-0.83623,-24.408,-3.1897e-05,-0.41811,0,0,0.083333,3.158e-15,0,0.66667
0.38961,0.052719,4.6753,-0.67092,-109.18,695.07,8.3648,-2.7883,-0.40416,11.153,7.1818e-12,-0.20208,0,0,0.083333,-3.9475e-16,8.488e-17,0.66667
0.9052,0.029718,10.862,-0.70542,-24.414,24.065,20.434,-6.8112,-0.23638,27.245,1.5811e-06,-0.11819,0,0,0.083333,-1.579e-15,0,0.66667
0.18858,0.53137,2.2629,0.047056,8.6861,1120.5,-0.28396,0.094652,-1.998,-0.37861,-1.3565e-10,-0.99902,0,0,0.083333,-0,-0,0.66667
0.44087,0.55179,5.2905,0.077681,11.971,595.56,-1.0959,0.36531,-1.978,-1.4612,-6.4537e-12,-0.98901,0,0,0.083333,3.9475e-16,0,0.66667
0.84481,0.54198,10.138,0.062974,3.4251,55.274,-1.7024,0.56748,-1.9903,-2.2699,6.1589e-10,-0.99517,0,0,0.083333,-0,-0,0.66667
0.59527,0.9668,7.1432,0.70019,86.748,334.93,-13.338,4.4459,-0.26124,-17.784,-1.6787e-13,-0.13062,0,0,0.083333,-7.8949e-16,0,0.66667
0.46216,0.1416,5.5459,-0.53761,-81.021,556.85,7.9507,-2.6502,-0.96819,10.601,2.8963e-12,-0.48409,0,0,0.083333,7.8949e-16,0,0.66667
0.51265,0.72997,6.1518,0.34495,48.666,466.94,-5.6588,1.8863,-1.5771,-7.5451,-3.4861e-12,-0.78854,0,0,0.083333,-0,-0,0.66667
0.57389,0.35246,6.8866,-0.2213,-28.378,366.32,4.0641,-1.3547,-1.8242,5.4188,-2.7276e-12,-0.91209,0,0,0.083333,-0,-0,0.66667
0.44032,0.031125,5.2838,-0.70331,-108.81,597.74,9.9098,-3.3033,-0.24324,13.213,-3.0349e-12,-0.12162,0,0,0.083333,-3.2073e-16,0,0.66667
0.19356,0.15228,2.3227,-0.52159,-96.235,1109.6,3.2306,-1.0769,-1.0298,4.3075,2.2615e-10,-0.51488,0,0,0.083333,-2.8014e-16,0,0.66667
0.11397,0.72152,1.3676,0.33227,62.812,1289.7,-1.2118,0.40392,-1.6061,-1.6157,-1.2713e-08,-0.80306,0,0,0.083333,3.9475e-16,0,0.66667
0.15123,0.92531,1.8147,0.63796,119.58,1205,-3.0873,1.0291,-0.55,-4.1164,-5.6435e-08,-0.275,0,0,0.083333,-1.9737e-16,0,0.66667
0.052491,0.52225,0.62989,0.033374,6.3707,1431.3,-0.056059,0.018686,-1.9928,-0.074745,2.891e-08,-0.9964,0,0,0.083333,-0,-0,0.66667
0.55868,0.15299,6.7041,-0.52052,-68.59,391.04,9.3057,-3.1019,-1.0363,12.408,-4.1469e-12,-0.51815,0,0,0.083333,9.8686e-16,0,0.66667
0.84772,0.018594,10.173,-0.72211,-38.98,55.661,19.589,-6.5296,-0.1444,26.118,3.9416e-08,-0.072202,0,0,0.083333,-0,-0,0.66667
0.35912,0.44182,4.3094,-0.08727,-14.545,755.07,1.0029,-0.3343,-1.9803,1.3372,-2.3989e-12,-0.99015,0,0,0.083333,7.8949e-16,0,0.66667
0.075311,0.74036,0.90373,0.36053,68.668,1378.6,-0.86887,0.28962,-1.5384,-1.1585,-2.142e-07,-0.7692,0,0,0.083333,9.8686e-17,0,0.66667
0.42572,0.52558,5.1087,0.038375,6.0103,624.15,-0.52279,0.17426,-1.994,-0.69705,-9.507e-12,-0.997,0,0,0.083333,-0,-0,0.66667
0.60201,0.12138,7.2241,-0.56792,-69.382,324.33,10.941,-3.6469,-0.84977,14.588,7.7653e-12,-0.42488,0,0,0.083333,-1.1842e-15,0,0.66667
0.4254,0.76747,5.1048,0.40121,62.925,625.13,-5.4616,1.8205,-1.4267,-7.2822,-1.0807e-11,-0.71337,0,0,0.083333,-0,-0,0.66667
0.81072,0.40872,9.7287,-0.13693,-8.9332,80.635,3.5523,-1.1841,-1.9371,4.7364,1.9127e-11,-0.96853,0,0,0.083333,-0,-0,0.66667
0.94189,0.77915,11.303,0.41873,8.9046,9.4989,-12.621,4.2069,-1.3756,-16.828,6.3051e-08,-0.68782,0,0,0.083333,-1.9737e-15,0,0.66667
0.86991,0.85735,10.439,0.53603,24.882,40.845,-14.921,4.9738,-0.97537,-19.895,3.8779e-09,-0.48769,0,0,0.083333,1.579e-15,0,0.66667
0.704,0.99253,8.448,0.73879,71.533,189.03,-16.644,5.5478,-0.064559,-22.191,-4.297e-12,-0.03228,0,0,0.083333,2.3685e-15,0,0.66667
0.4703,0.56065,5.6436,0.090975,13.551,541.34,-1.3691,0.45638,-1.975,-1.8255,1.2446e-13,-0.98748,0,0,0.083333,-2.9606e-16,0,0.66667
0.6827,0.3637,8.1924,-0.20445,-20.849,212.98,4.4666,-1.4889,-1.8488,5.9554,-4.7868e-12,-0.92438,0,0,0.083333,7.8949e-16,0,0.66667
0.013418,0.92086,0.16102,0.63129,121.08,1521.9,-0.27105,0.090315,-0.58453,-0.36142,-5.463e-05,-0.29227,0,0,0.083333,-2.4672e-17,0,0.66667
0.98248,0.33626,11.79,-0.24561,-1.5102,1.3173,7.7219,-2.574,-1.7882,10.296,8.9969e-07,-0.89411,0,0,0.083333,7.8949e-16,0,0.66667
0.17208,0.80707,2.0649,0.46061,85.65,1157.7,-2.5363,0.84544,-1.253,-3.3818,-4.1706e-11,-0.62651,0,0,0.083333,-0,-0,0.66667
0.90626,0.67173,10.875,0.25759,8.7051,21.527,-7.4702,2.4901,-1.7713,-9.9603,4.7085e-08,-0.88564,0,0,0.083333,1.579e-15,0,0.66667
0.80711,0.65161,9.6853,0.22742,15.1,83.714,-5.8737,1.9579,-1.8136,-7.8316,-6.2709e-11,-0.9068,0,0,0.083333,7.8949e-16,0,0.66667
0.80014,0.16455,9.6017,-0.50318,-34.597,90.378,12.884,-4.2946,-1.0996,17.178,-3.2602e-10,-0.54982,0,0,0.083333,-1.579e-15,0,0.66667
0.26894,0.28425,3.2272,-0.32362,-57.487,943.89,2.785,-0.92835,-1.6282,3.7134,-1.1195e-11,-0.81408,0,0,0.083333,-0,-0,0.66667
0.21915,0.7287,2.6298,0.34305,62.544,1052.6,-2.4058,0.80193,-1.5879,-3.2077,1.999e-11,-0.79393,0,0,0.083333,-0,-0,0.66667
0.4288,0.18844,5.1456,-0.46735,-73.065,618.8,6.4127,-2.1376,-1.2206,8.5503,-5.107e-12,-0.6103,0,0,0.083333,-0,-0,0.66667
0.84937,0.6116,10.192,0.16739,8.8602,52.338,-4.5497,1.5166,-1.8969,-6.0663,5.2933e-10,-0.94843,0,0,0.083333,-1.579e-15,0,0.66667
0.45038,0.84148,5.4046,0.51222,78.238,578.46,-7.3822,2.4607,-1.0688,-9.843,-9.3308e-12,-0.53441,0,0,0.083333,1.0856e-15,0,0.66667
0.93542,0.86102,11.225,0.54152,12.844,11.963,-16.21,5.4032,-0.95919,-21.613,2.3599e-08,-0.4796,0,0,0.083333,-0,-3.0125e-17,0.66667
0.35268,0.9976,4.2322,0.7464,125.48,769.17,-8.4237,2.8079,-0.016122,-11.232,1.6938e-12,-0.0080612,0,0,0.083333,-1.2829e-15,0,0.66667
0.61939,0.70947,7.4327,0.31421,37.032,298.21,-6.2277,2.0759,-1.6457,-8.3036,-1.191e-12,-0.82286,0,0,0.083333,-0,-0,0.66667
0.9807,0.23522,11.768,-0.39716,-2.7484,2.006,12.464,-4.1546,-1.438,16.619,3.2469e-06,-0.71898,0,0,0.083333,-0,-0,0.66667
0.64346,0.24047,7.7216,-0.38929,-43.631,264.65,8.0158,-2.6719,-1.4617,10.688,1.6342e-13,-0.73085,0,0,0.083333,-0,-0,0.66667
0.045498,0.82771,0.54598,0.49156,94.021,1447.5,-0.71569,0.23856,-1.1443,-0.95425,-2.7766e-06,-0.57216,0,0,0.083333,-9.8686e-17,0,0.66667
0.46356,0.81284,5.5627,0.46927,70.572,554.13,-6.961,2.3203,-1.2155,-9.2814,-8.2498e-12,-0.60775,0,0,0.083333,-0,-0,0.66667
0.33475,0.47733,4.017,-0.034,-5.7767,804.85,0.36421,-0.1214,-1.992,0.48561,1.3797e-11,-0.99602,0,0,0.083333,-7.8949e-16,0,0.66667
0.53218,0.91172,6.3862,0.61758,84.876,434.64,-10.517,3.5057,-0.64925,-14.023,-6.4126e-13,-0.32463,0,0,0.083333,-0,-0,0.66667
0.28475,0.85375,3.417,0.53062,93.464,910.26,-4.8349,1.6116,-0.99824,-6.4466,-7.3288e-12,-0.49912,0,0,0.083333,-0,-0,0.66667
0.12226,0.55383,1.4671,0.080749,15.225,1270.6,-0.31592,0.10531,-1.9776,-0.42122,-1.9682e-09,-0.98881,0,0,0.083333,1.9737e-16,0,0.66667
0.66829,0.66226,8.0195,0.24339,25.734,231.33,-5.205,1.735,-1.789,-6.9401,-1.8927e-12,-0.89448,0,0,0.083333,-0,-0,0.66667
0.68136,0.011367,8.1763,-0.73295,-75.375,216.45,15.981,-5.327,-0.086088,21.308,-9.2371e-13,-0.043044,0,0,0.083333,-0,-0,0.66667
0.86714,0.58087,10.406,0.12131,5.7089,41.195,-3.3661,1.122,-1.9433,-4.4882,2.7212e-09,-0.97163,0,0,0.083333,1.579e-15,0,0.66667
0.13238,0.30419,1.5886,-0.29372,-55.26,1247.6,1.2442,-0.41475,-1.6892,1.659,4.3596e-09,-0.8446,0,0,0.083333,9.8686e-17,0,0.66667
0.79862,0.13824,9.5834,-0.54264,-37.586,91.841,13.868,-4.6226,-0.95566,18.49,-2.9048e-10,-0.47783,0,0,0.083333,-0,-0,0.66667
0.82677,0.76499,9.9212,0.39749,23.984,68.79,-10.516,3.5054,-1.4418,-14.022,-1.8608e-10,-0.72088,0,0,0.083333,-0,-0,0.66667
0.64655,0.9649,7.7586,0.69735,77.866,261.61,-14.428,4.8093,-0.26813,-19.237,-4.702e-12,-0.13406,0,0,0.083333,-7.8949e-16,0,0.66667
0.20492,0.44138,2.4591,-0.087934,-16.124,1084,0.57663,-0.19221,-1.9759,0.76884,1.2134e-11,-0.98797,0,0,0.083333,-0,-0,0.66667
0.26142,0.82186,3.137,0.48279,86.196,960.29,-4.0388,1.3463,-1.1695,-5.385,3.8143e-12,-0.58477,0,0,0.083333,-0,-0,0.66667
0.4185,0.92308,5.022,0.63463,100.4,638.86,-8.4988,2.8329,-0.56731,-11.332,-1.128e-12,-0.28365,0,0,0.083333,-7.8949e-16,0,0.66667
0.5418,0.27956,6.5016,-0.33066,-44.694,417.94,5.7328,-1.9109,-1.6096,7.6437,-5.854e-12,-0.80479,0,0,0.083333,1.1842e-15,0,0.66667
0.47744,0.035454,5.7293,-0.69682,-103.24,529.68,10.646,-3.5487,-0.27016,14.195,-1.4209e-11,-0.13508,0,0,0.083333,1.579e-15,0,0.66667
0.46746,0.45925,5.6095,-0.06112,-9.1353,546.48,0.91428,-0.30476,-1.9907,1.219,5.6e-13,-0.99534,0,0,0.083333,-0,-0,0.66667
0.83984,0.81635,10.078,0.47452,26.68,59.676,-12.753,4.2509,-1.1988,-17.004,-6.9691e-11,-0.59941,0,0,0.083333,-0,-0,0.66667
0.8701,0.53944,10.441,0.059161,2.725,39.417,-1.6472,0.54908,-1.9851,-2.1963,6.3662e-10,-0.99255,0,0,0.083333,-0,-0,0.66667
0.81675,0.19377,9.801,-0.45935,-29.194,76.675,12.006,-4.0019,-1.2483,16.008,-8.8884e-11,-0.62417,0,0,0.083333,-0,-0,0.66667
0.8778,0.82405,10.534,0.48608,21.251,36.186,-13.654,4.5512,-1.1604,-18.205,-6.7489e-09,-0.58019,0,0,0.083333,-0,-0,0.66667
0.57101,0.2837,6.8521,-0.32445,-41.829,370.99,5.9284,-1.9761,-1.6226,7.9045,-2.3239e-12,-0.81128,0,0,0.083333,-0,-0,0.66667
0.96404,0.96126,11.568,0.69189,9.3231,6.0171,-21.344,7.1148,-0.29575,-28.459,2.1896e-05,-0.14788,0,0,0.083333,-7.8949e-16,5.7062e-17,0.66667
0.60654,0.54728,7.2785,0.07092,8.5662,316.6,-1.3765,0.45884,-1.9824,-1.8354,1.1386e-12,-0.9912,0,0,0.083333,-0,-0,0.66667
0.60395,0.028511,7.2474,-0.70723,-86.214,322.03,13.668,-4.5561,-0.21936,18.224,1.1172e-11,-0.10968,0,0,0.083333,-1.1842e-15,0,0.66667
0.3193,0.62087,3.8316,0.18131,31.163,836.97,-1.8525,0.61752,-1.8798,-2.4701,-1.8707e-12,-0.93988,0,0,0.083333,-0,-0,0.66667
0.6812,0.86354,8.1745,0.5453,55.964,215.77,-11.887,3.9623,-0.93882,-15.849,1.2186e-12,-0.46941,0,0,0.083333,-7.8949e-16,0,0.66667
0.051966,0.71068,0.62359,0.31601,60.359,1432.5,-0.5255,0.17517,-1.6423,-0.70066,-1.6978e-07,-0.82114,0,0,0.083333,-0,-0,0.66667
0.13455,0.95185,1.6146,0.67777,127.7,1242.9,-2.9181,0.97272,-0.36277,-3.8909,-1.9293e-09,-0.18138,0,0,0.083333,-0,-0,0.66667
0.13024,0.96413,1.5629,0.6962,131.35,1252.7,-2.9016,0.9672,-0.27427,-3.8688,-4.8797e-08,-0.13714,0,0,0.083333,-4.9343e-17,0,0.66667
0.6552,0.63891,7.8624,0.20836,22.719,248.44,-4.3685,1.4562,-1.85,-5.8247,1.2221e-12,-0.92498,0,0,0.083333,-1.579e-15,0,0.66667
0.17533,0.66059,2.104,0.24089,44.702,1150.2,-1.3515,0.45051,-1.7937,-1.802,8.6883e-11,-0.89687,0,0,0.083333,-3.9475e-16,0,0.66667
0.34115,0.24595,4.0938,-0.38108,-64.486,791.95,4.1601,-1.3867,-1.4853,5.5468,-4.293e-12,-0.74267,0,0,0.083333,-0,-0,0.66667
0.044312,0.12878,0.53174,-0.55684,-106.56,1450.3,0.78957,-0.26319,-0.89934,1.0528,6.8287e-06,-0.44967,0,0,0.083333,-0,-0,0.66667
0.23373,0.73166,2.8048,0.34749,62.914,1020.5,-2.599,0.86635,-1.5761,-3.4654,8.9702e-12,-0.78806,0,0,0.083333,-0,-0,0.66667
0.96422,0.46068,11.571,-0.058979,-0.76155,3.5399,1.8198,-0.6066,-1.9856,2.4264,1.9915e-07,-0.99282,0,0,0.083333,7.8949e-16,0,0.66667
0.50914,0.06572,6.1097,-0.65142,-92.558,473.8,10.613,-3.5377,-0.48815,14.151,3.1006e-12,-0.24407,0,0,0.083333,-0,-0,0.66667
0.15107,0.61272,1.8129,0.16909,31.63,1205,-0.81742,0.27247,-1.8953,-1.0899,-4.8675e-10,-0.94764,0,0,0.083333,-0,-0,0.66667
0.52301,0.87148,6.2761,0.55723,77.577,449.83,-9.3259,3.1086,-0.89258,-12.435,-1.9398e-12,-0.44629,0,0,0.083333,3.9475e-16,0,0.66667
0.94351,0.70272,11.322,0.30408,6.2617,8.6395,-9.1809,3.0603,-1.6674,-12.241,1.4927e-07,-0.83369,0,0,0.083333,-0,-0,0.66667
0.86569,0.88042,10.388,0.57063,27.314,43.49,-15.807,5.2692,-0.83894,-21.077,-1.7351e-08,-0.41947,0,0,0.083333,-0,-0,0.66667
0.39207,0.75642,4.7048,0.38463,62.332,689.61,-4.8256,1.6085,-1.4779,-6.4341,4.1931e-12,-0.73895,0,0,0.083333,-0,-0,0.66667
0.28387,0.50436,3.4064,0.0065333,1.1495,911.71,-0.059347,0.019782,-2.0014,-0.079129,2.3524e-13,-1.0007,0,0,0.083333,-1.579e-15,0,0.66667
0.76173,0.81043,9.1408,0.46565,37.362,125.35,-11.35,3.7834,-1.2288,-15.134,-5.3237e-12,-0.61441,0,0,0.083333,1.9737e-15,0,0.66667
0.24048,0.032041,2.8858,-0.70194,-126.93,1006.1,5.4018,-1.8006,-0.24574,7.2024,4.3925e-11,-0.12287,0,0,0.083333,-7.8949e-16,0,0.66667
0.25423,0.79581,3.0508,0.44372,79.519,975.81,-3.6098,1.2033,-1.298,-4.8131,-9.2557e-12,-0.64898,0,0,0.083333,-0,-0,0.66667
0.084086,0.81966,1.009,0.4795,91.247,1358.4,-1.2902,0.43007,-1.1792,-1.7203,-2.6039e-08,-0.5896,0,0,0.083333,-0,-0,0.66667
0.86414,0.49605,10.37,-0.0059298,-0.28487,42.908,0.16398,-0.054659,-1.9981,0.21863,-7.5294e-09,-0.99907,0,0,0.083333,-1.9737e-15,0,0.66667
0.4479,0.29596,5.3748,-0.30606,-46.825,582.66,4.3866,-1.4622,-1.6638,5.8488,-3.2618e-12,-0.83188,0,0,0.083333,-0,-0,0.66667
0.56179,0.29995,6.7414,-0.30008,-39.285,385.53,5.3946,-1.7982,-1.6851,7.1928,5.7154e-13,-0.84255,0,0,0.083333,-0,-0,0.66667
0.73671,0.42966,8.8405,-0.10552,-9.2033,150.22,2.4875,-0.82918,-1.9621,3.3167,-1.7251e-12,-0.98106,0,0,0.083333,-0,-0,0.66667
0.79649,0.48507,9.5579,-0.022395,-1.559,92.413,0.57079,-0.19026,-2.0043,0.76105,-1.407e-11,-1.0022,0,0,0.083333,-0,-0,0.66667
0.44751,0.69123,5.3701,0.28684,43.902,583.36,-4.1077,1.3692,-1.7049,-5.4769,-2.645e-12,-0.85245,0,0,0.083333,-0,-0,0.66667
0.18413,0.0044013,2.2095,-0.7434,-137.89,1131,4.3802,-1.4601,-0.035247,5.8402,-2.2169e-09,-0.017623,0,0,0.083333,-0,4.7767e-17,0.66667
0.82873,0.32398,9.9448,-0.26403,-15.742,66.943,7.0019,-2.334,-1.7577,9.3359,9.7692e-11,-0.87887,0,0,0.083333,-0,-0,0.66667
0.030998,0.3266,0.37198,-0.2601,-49.758,1481.1,0.25801,-0.086003,-1.766,0.34401,-1.027e-06,-0.88298,0,0,0.083333,4.9343e-17,0,0.66667
0.94673,0.68627,11.361,0.2794,5.4229,7.7221,-8.4645,2.8215,-1.7198,-11.286,1.2859e-07,-0.8599,0,0,0.083333,6.9081e-16,0,0.66667
0.57698,0.042983,6.9237,-0.68553,-87.738,362.8,12.657,-4.219,-0.33325,16.876,-2.5198e-12,-0.16662,0,0,0.083333,-0,-9.2564e-17,0.66667
0.87539,0.58041,10.505,0.12061,5.3431,36.476,-3.3785,1.1262,-1.9544,-4.5047,4.1007e-09,-0.97721,0,0,0.083333,1.579e-15,0,0.66667
0.60857,0.13023,7.3028,-0.55466,-66.907,314.61,10.801,-3.6005,-0.91185,14.402,-4.8139e-13,-0.45593,0,0,0.083333,1.579e-15,0,0.66667
0.25166,0.26359,3.0199,-0.35462,-63.614,981.31,2.8558,-0.95192,-1.5557,3.8077,-1.8336e-12,-0.77785,0,0,0.083333,-0,-0,0.66667
0.29613,0.71143,3.5536,0.31715,55.401,885.78,-3.0053,1.0018,-1.648,-4.0071,-1.3238e-11,-0.82399,0,0,0.083333,-0,-0,0.66667
0.53292,0.073298,6.3951,-0.64005,-87.887,433.49,10.915,-3.6384,-0.54633,14.554,-1.581e-13,-0.27316,0,0,0.083333,-0,-0,0.66667
0.96208,0.35193,11.545,-0.22211,-3.0548,4.1692,6.8379,-2.2793,-1.8208,9.1173,1.4952e-07,-0.91038,0,0,0.083333,-0,-0,0.66667
0.1845,0.1729,2.2139,-0.49066,-90.835,1129.8,2.8968,-0.96559,-1.144,3.8623,-7.0422e-10,-0.572,0,0,0.083333,-0,-0,0.66667
0.5099,0.76365,6.1188,0.39548,56.024,471.77,-6.453,2.151,-1.4403,-8.604,4.1971e-12,-0.72014,0,0,0.083333,-7.8949e-16,0,0.66667
0.34379,0.25253,4.1255,-0.3712,-62.684,786.53,4.0837,-1.3612,-1.5184,5.4449,9.0461e-13,-0.7592,0,0,0.083333,-0,-0,0.66667
0.76973,0.073439,9.2367,-0.63984,-49.962,118.39,15.76,-5.2534,-0.54269,21.013,2.994e-10,-0.27134,0,0,0.083333,-0,-0,0.66667
0.80287,0.86783,9.6344,0.55175,37.503,88.308,-14.175,4.7251,-0.91425,-18.901,1.7651e-10,-0.45712,0,0,0.083333,-3.141e-16,0,0.66667
0.42456,0.58573,5.0947,0.12859,20.167,626.41,-1.7471,0.58235,-1.9422,-2.3294,-1.0903e-11,-0.97109,0,0,0.083333,3.9475e-16,0,0.66667
0.20412,0.39374,2.4495,-0.1594,-29.24,1085.8,1.0412,-0.34705,-1.9142,1.3882,-4.5182e-11,-0.95709,0,0,0.083333,-1.9737e-16,0,0.66667
0.067089,0.71998,0.80507,0.32998,62.915,1397.6,-0.70841,0.23614,-1.6118,-0.94455,-2.7775e-07,-0.80591,0,0,0.083333,-0,-0,0.66667
0.19865,0.22176,2.3838,-0.41736,-76.803,1098.1,2.653,-0.88435,-1.3794,3.5374,-1.7009e-10,-0.68972,0,0,0.083333,-0,-0,0.66667
0.2724,0.77203,3.2688,0.40805,72.364,936.52,-3.5569,1.1856,-1.404,-4.7425,-2.3954e-12,-0.702,0,0,0.083333,-1.9737e-16,0,0.66667
0.59879,0.40738,7.1855,-0.13893,-17.032,328.16,2.6621,-0.88735,-1.9298,3.5494,1.1415e-12,-0.96492,0,0,0.083333,-0,-0,0.66667
0.87308,0.074503,10.477,-0.63825,-29.029,39.597,17.832,-5.9439,-0.55391,23.776,-5.1133e-08,-0.27695,0,0,0.083333,-0,9.3384e-17,0.66667
0.12823,0.93562,1.5388,0.65343,123.3,1257.3,-2.6813,0.89376,-0.48276,-3.575,-9.347e-09,-0.24138,0,0,0.083333,-2.4672e-16,0,0.66667
0.95819,0.43692,11.498,-0.09462,-1.4331,4.728,2.9012,-0.96708,-1.9667,3.8683,-1.0209e-07,-0.98336,0,0,0.083333,5.4278e-16,0,0.66667
0.68317,0.010479,8.1981,-0.73428,-75.165,214.2,16.052,-5.3508,-0.080991,21.403,1.4708e-12,-0.040495,0,0,0.083333,-0,9.9078e-17,0.66667
0.74196,0.93562,8.9036,0.65344,56.301,146.29,-15.514,5.1715,-0.47871,-20.686,-7.7381e-11,-0.23936,0,0,0.083333,1.7764e-15,0,0.66667
0.98288,0.31946,11.795,-0.27081,-1.6276,1.3469,8.5175,-2.8392,-1.743,11.357,9.8911e-07,-0.87148,0,0,0.083333,-0,-0,0.66667
0.4161,0.19303,4.9932,-0.46046,-72.934,643.03,6.1311,-2.0437,-1.2432,8.1748,-3.2321e-12,-0.62159,0,0,0.083333,-0,-0,0.66667
0.53158,0.66128,6.379,0.24192,33.197,434.73,-4.1152,1.3717,-1.799,-5.4869,-9.7211e-13,-0.89948,0,0,0.083333,-1.579e-15,0,0.66667
0.67921,0.25117,8.1506,-0.37325,-38.44,217.7,8.1125,-2.7042,-1.5017,10.817,-8.2352e-12,-0.75084,0,0,0.083333,1.579e-15,0,0.66667
0.51288,0.12661,6.1545,-0.56008,-79.105,467.08,9.1921,-3.064,-0.88647,12.256,-1.1458e-12,-0.44324,0,0,0.083333,-0,-0,0.66667
0.29911,0.79074,3.5893,0.43611,76.073,879.62,-4.1742,1.3914,-1.3255,-5.5657,-1.2966e-11,-0.66276,0,0,0.083333,-0,-0,0.66667
0.10538,0.15424,1.2646,-0.51865,-98.316,1309.5,1.749,-0.58301,-1.0432,2.332,6.7677e-09,-0.5216,0,0,0.083333,-9.8686e-17,0,0.66667
0.28493,0.5065,3.4192,0.0097506,1.7144,909.44,-0.088904,0.029635,-1.999,-0.11854,-1.0483e-11,-0.99952,0,0,0.083333,-0,-0,0.66667
0.76885,0.78659,9.2262,0.42988,33.578,118.3,-10.577,3.5255,-1.3432,-14.102,-3.5255e-11,-0.67162,0,0,0.083333,-0,-0,0.66667
0.64078,0.23237,7.6894,-0.40144,-45.262,268.36,8.2316,-2.7439,-1.4338,10.975,-2.9656e-12,-0.7169,0,0,0.083333,-0,-0,0.66667
0.80133,0.75652,9.616,0.38477,26.273,88.925,-9.8666,3.2889,-1.4719,-13.155,-1.6594e-10,-0.73593,0,0,0.083333,-0,-0,0.66667
0.51712,0.86078,6.2054,0.54117,75.968,459.77,-8.9552,2.9851,-0.9619,-11.94,-1.7328e-12,-0.48095,0,0,0.083333,-0,-0,0.66667
0.2321,0.45242,2.7852,-0.071375,-12.924,1023.9,0.53012,-0.17671,-1.9833,0.70682,6.0385e-13,-0.99165,0,0,0.083333,3.9475e-16,0,0.66667
0.62796,0.61361,7.5355,0.17041,19.723,285.78,-3.4244,1.1415,-1.8969,-4.5659,-2.5562e-12,-0.94845,0,0,0.083333,-0,-0,0.66667
0.30401,0.75399,3.6481,0.38098,66.223,869.22,-3.7062,1.2354,-1.4805,-4.9416,1.9513e-12,-0.74025,0,0,0.083333,-7.8949e-16,0,0.66667
0.029529,0.3851,0.35434,-0.17236,-32.968,1484.5,0.16286,-0.054288,-1.8972,0.21715,-7.4924e-07,-0.94862,0,0,0.083333,-0,-0,0.66667
0.90333,0.76211,10.84,0.39316,13.723,23.225,-11.365,3.7884,-1.4506,-15.153,5.0883e-08,-0.7253,0,0,0.083333,1.579e-15,0,0.66667
0.42037,0.25116,5.0444,-0.37326,-58.837,634.68,5.021,-1.6737,-1.5093,6.6947,1.5272e-12,-0.75463,0,0,0.083333,-0,-0,0.66667
0.42613,0.98626,5.1136,0.72939,114.59,624.59,-9.9461,3.3154,-0.10639,-13.261,2.0703e-12,-0.053195,0,0,0.083333,-0,-0,0.66667
0.74125,0.92708,8.895,0.64063,55.316,146.97,-15.196,5.0652,-0.53668,-20.261,-1.2518e-11,-0.26834,0,0,0.083333,-7.8949e-16,0,0.66667
0.94846,0.77605,11.382,0.41408,7.8163,7.7591,-12.568,4.1892,-1.3885,-16.757,2.9547e-07,-0.69427,0,0,0.083333,-1.1842e-15,0,0.66667
0.072516,0.58975,0.87019,0.13462,25.636,1385,-0.31239,0.10413,-1.933,-0.41653,-9.3228e-08,-0.96648,0,0,0.083333,-8.042e-17,0,0.66667
0.1727,0.31226,2.0724,-0.2816,-52.314,1156.2,1.5563,-0.51876,-1.7246,2.075,-1.1218e-10,-0.8623,0,0,0.083333,5.6128e-16,0,0.66667
0.32236,0.69023,3.8683,0.28534,48.95,830.67,-2.9434,0.98114,-1.708,-3.9245,1.245e-12,-0.854,0,0,0.083333,-7.8949e-16,0,0.66667
0.24842,0.2848,2.9811,-0.3228,-57.999,988.32,2.5661,-0.85537,-1.6335,3.4215,-1.9371e-12,-0.81676,0,0,0.083333,-0,-0,0.66667
0.49549,0.43646,5.9459,-0.095311,-13.752,496.41,1.5112,-0.50374,-1.9668,2.015,5.933e-13,-0.98341,0,0,0.083333,-0,-0,0.66667
0.82446,0.8192,9.8935,0.4788,29.276,70.834,-12.632,4.2106,-1.1843,-16.843,-2.6865e-11,-0.59214,0,0,0.083333,-0,-0,0.66667
0.85397,0.03393,10.248,-0.6991,-36.286,51.448,19.105,-6.3682,-0.26004,25.473,1.845e-08,-0.13002,0,0,0.083333,-3.158e-15,0,0.66667
0.59583,0.3374,7.15,-0.2439,-30.076,332.72,4.6502,-1.5501,-1.7909,6.2003,-7.0655e-13,-0.89547,0,0,0.083333,-0,-0,0.66667
0.24017,0.436,2.8821,-0.096,-17.314,1006.2,0.73781,-0.24594,-1.9649,0.98375,-7.3014e-12,-0.98247,0,0,0.083333,-1.4803e-16,0,0.66667
0.18649,0.28082,2.2379,-0.32877,-60.774,1125.2,1.962,-0.65401,-1.6217,2.6161,-4.6186e-11,-0.81085,0,0,0.083333,-4.8726e-16,0,0.66667
0.74339,0.94737,8.9207,0.67106,57.562,144.89,-15.963,5.3212,-0.3949,-21.285,-4.7947e-11,-0.19745,0,0,0.083333,-0,-0,0.66667
0.23721,0.38557,2.8466,-0.17164,-31.006,1012.7,1.3029,-0.43431,-1.8957,1.7372,-1.9441e-12,-0.94785,0,0,0.083333,-0,-0,0.66667
0.53949,0.81336,6.4739,0.47003,63.814,422.07,-8.1145,2.7048,-1.2116,-10.819,-3.8991e-12,-0.60578,0,0,0.083333,-0,-0,0.66667
0.74928,0.94237,8.9914,0.66355,55.792,138.75,-15.91,5.3033,-0.44047,-21.213,1.1543e-10,-0.22024,0,0,0.083333,-0,-0,0.66667
0.22825,0.064902,2.739,-0.65265,-118.69,1032.9,4.7669,-1.589,-0.48281,6.3559,-7.7512e-10,-0.24141,0,0,0.083333,-0,-0,0.66667
0.1745,0.1187,2.094,-0.57195,-106.33,1152.4,3.1938,-1.0646,-0.83817,4.2584,-6.9377e-11,-0.41909,0,0,0.083333,-1.9737e-16,0,0.66667
0.039736,0.94292,0.47683,0.66438,127.28,1460.9,-0.84479,0.28158,-0.42693,-1.1264,-2.867e-05,-0.21346,0,0,0.083333,-0,-0,0.66667
0.14757,0.19773,1.7708,-0.45341,-84.991,1213.1,2.1411,-0.7137,-1.2649,2.8548,-1.1094e-09,-0.63246,0,0,0.083333,-0,-0,0.66667
0.85144,0.42452,10.217,-0.11322,-5.9143,50.916,3.0847,-1.0282,-1.95,4.1129,-8.449e-12,-0.975,0,0,0.083333,-1.579e-15,0,0.66667
0.10464,0.32075,1.2556,-0.26888,-50.923,1311.1,0.9003,-0.3001,-1.7407,1.2004,3.5795e-08,-0.87033,0,0,0.083333,-0,-0,0.66667
0.22365,0.90258,2.6837,0.60387,110.02,1042.9,-4.3216,1.4405,-0.70161,-5.7622,-2.6339e-10,-0.35081,0,0,0.083333,3.9475e-16,0,0.66667
0.032757,0.79283,0.39309,0.43924,84.076,1477,-0.46043,0.15348,-1.3173,-0.61391,1.17e-06,-0.65864,0,0,0.083333,-4.9343e-17,0,0.66667
0.67636,0.40079,8.1163,-0.14882,-15.418,220.88,3.2209,-1.0736,-1.9196,4.2945,-2.9048e-12,-0.95982,0,0,0.083333,-0,-0,0.66667
0.2317,0.71796,2.7804,0.32695,59.249,1024.9,-2.4241,0.80805,-1.6221,-3.2322,1.1937e-12,-0.81104,0,0,0.083333,-5.9212e-16,0,0.66667
0.41359,0.80115,4.9631,0.45172,71.727,647.84,-5.9785,1.9928,-1.2702,-7.9713,-1.8874e-13,-0.63509,0,0,0.083333,-3.9475e-16,0,0.66667
0.1393,0.71115,1.6716,0.31672,59.479,1231.8,-1.4118,0.47061,-1.6474,-1.8825,-2.3858e-09,-0.82369,0,0,0.083333,9.8686e-17,0,0.66667
0.37722,0.66142,4.5266,0.24214,39.749,718.82,-2.9228,0.97428,-1.7938,-3.8971,-1.0998e-12,-0.89692,0,0,0.083333,7.8949e-16,0,0.66667
0.42444,0.45268,5.0932,-0.070977,-11.132,626.61,0.96401,-0.32134,-1.9829,1.2854,1.677e-12,-0.99145,0,0,0.083333,-0,-0,0.66667
0.47296,0.58658,5.6756,0.12986,19.283,536.54,-1.9655,0.65516,-1.9385,-2.6206,-8.2727e-12,-0.96927,0,0,0.083333,-0,-0,0.66667
0.42284,0.63929,5.0741,0.20893,32.83,629.74,-2.827,0.94234,-1.8493,-3.7694,-5.5993e-12,-0.92466,0,0,0.083333,-0,-0,0.66667
0.10276,0.34249,1.2331,-0.23627,-44.761,1315.4,0.7769,-0.25897,-1.7988,1.0359,3.4698e-08,-0.89938,0,0,0.083333,-2.7139e-16,0,0.66667
0.77258,0.81601,9.271,0.47402,36.523,114.92,-11.719,3.9063,-1.1978,-15.625,-9.4264e-11,-0.59889,0,0,0.083333,-0,-0,0.66667
0.13721,0.82864,1.6465,0.49296,92.703,1236.7,-2.1644,0.72146,-1.1352,-2.8859,-1.0401e-08,-0.5676,0,0,0.083333,-1.9737e-16,0,0.66667
0.42429,0.023122,5.0915,-0.71532,-112.58,628.04,9.7121,-3.2374,-0.18221,12.949,-6.8212e-13,-0.091104,0,0,0.083333,-7.8949e-16,0,0.66667
0.27196,0.75338,3.2635,0.38008,67.413,937.45,-3.3077,1.1026,-1.4834,-4.4102,-1.1827e-11,-0.74168,0,0,0.083333,-0,-0,0.66667
0.30101,0.57008,3.6121,0.10512,18.294,875.32,-1.0125,0.33751,-1.9593,-1.35,-1.2114e-11,-0.97964,0,0,0.083333,-0,-0,0.66667
0.67242,0.41213,8.069,-0.1318,-13.789,225.87,2.836,-0.94534,-1.9446,3.7814,-1.6203e-12,-0.97228,0,0,0.083333,-0,-0,0.66667
0.51779,0.71978,6.2134,0.32968,46.172,458.13,-5.4625,1.8208,-1.6167,-7.2833,1.9829e-12,-0.80835,0,0,0.083333,-0,-0,0.66667
0.19009,0.16025,2.281,-0.50962,-94.152,1117.3,3.0999,-1.0333,-1.0783,4.1332,-2.8163e-10,-0.53914,0,0,0.083333,3.9475e-16,0,0.66667
0.46913,0.18239,5.6296,-0.47641,-71.174,544,7.1521,-2.384,-1.1999,9.5361,8.6198e-13,-0.59994,0,0,0.083333,-1.9737e-16,0,0.66667
0.33954,0.93038,4.0745,0.64557,109.56,795.74,-7.0143,2.3381,-0.51673,-9.3524,3.5794e-12,-0.25836,0,0,0.083333,3.9475e-16,0,0.66667
0.7045,0.6643,8.454,0.24644,23.705,186.62,-5.5558,1.8519,-1.7879,-7.4077,2.6361e-12,-0.89397,0,0,0.083333,-1.579e-15,0,0.66667
0.2261,0.091557,2.7131,-0.61266,-111.5,1037.6,4.4327,-1.4776,-0.66222,5.9102,5.5683e-10,-0.33111,0,0,0.083333,5.4278e-16,0,0.66667
0.84499,0.34797,10.14,-0.22804,-12.401,55.371,6.1662,-2.0554,-1.8198,8.2216,-4.2696e-10,-0.90992,0,0,0.083333,-0,-0,0.66667
0.52623,0.059024,6.3148,-0.66146,-91.747,444.76,11.139,-3.7129,-0.44237,14.852,-6.7182e-12,-0.22119,0,0,0.083333,-0,-0,0.66667
0.50062,0.94457,6.0074,0.66685,95.865,488.61,-10.683,3.5609,-0.42486,-14.244,1.5694e-12,-0.21243,0,0,0.083333,-0,-0,0.66667
0.25369,0.24199,3.0442,-0.38701,-69.358,976.94,3.1417,-1.0472,-1.4667,4.189,-3.6042e-12,-0.73333,0,0,0.083333,3.9475e-16,0,0.66667
0.18616,0.96162,2.2339,0.69243,128.28,1126.4,-4.1248,1.3749,-0.29931,-5.4997,-1.1933e-10,-0.14966,0,0,0.083333,-0,-0,0.66667
0.47182,0.81109,5.6618,0.46664,69.483,539.12,-7.0454,2.3485,-1.227,-9.3938,-8.4639e-12,-0.61352,0,0,0.083333,7.8949e-16,0,0.66667
0.98182,0.50909,11.782,0.01364,0.086373,1.0666,-0.42854,0.14285,-2.0005,-0.57139,1.7155e-06,-1.0002,0,0,0.083333,-0,-0,0.66667
0.13291,0.039477,1.5949,-0.69078,-130.23,1246.7,2.9379,-0.9793,-0.29925,3.9172,8.9614e-08,-0.14963,0,0,0.083333,-0,-0,0.66667
0.28346,0.057857,3.4015,-0.66321,-117.02,913.24,6.0159,-2.0053,-0.43847,8.0212,6.1164e-12,-0.21923,0,0,0.083333,-3.9475e-16,0,0.66667
0.80064,0.10194,9.6077,-0.59708,-41.025,90.396,15.298,-5.0992,-0.73147,20.397,-2.2662e-09,-0.36573,0,0,0.083333,-0,-0,0.66667
0.66478,0.52854,7.9773,0.042809,4.5621,235.68,-0.91068,0.30356,-1.9903,-1.2142,-2.6183e-12,-0.99514,0,0,0.083333,-7.8949e-16,0,0.66667
0.27876,0.71308,3.3451,0.31962,56.447,922.79,-2.8511,0.95038,-1.6384,-3.8015,-1.5691e-11,-0.81921,0,0,0.083333,-3.9475e-16,0,0.66667
0.31465,0.99113,3.7758,0.73669,127.43,847.54,-7.4175,2.4725,-0.072355,-9.8901,4.3139e-12,-0.036177,0,0,0.083333,1.1842e-15,0,0.66667
0.41995,0.23498,5.0394,-0.39753,-62.699,635.53,5.3422,-1.7807,-1.4403,7.1229,-2.3483e-12,-0.72014,0,0,0.083333,-0,-0,0.66667
0.60279,0.77115,7.2334,0.40672,49.549,322.67,-7.8453,2.6151,-1.4079,-10.46,2.8257e-12,-0.70393,0,0,0.083333,-0,-0,0.66667
0.71934,0.47355,8.6321,-0.039673,-3.6526,169.29,0.91322,-0.30441,-2.0008,1.2176,-9.559e-13,-1.0004,0,0,0.083333,-0,-0,0.66667
0.8573,0.41572,10.288,-0.12642,-6.3613,47.184,3.4681,-1.156,-1.9453,4.6241,-8.3791e-10,-0.97264,0,0,0.083333,-0,-0,0.66667
0.68111,0.25069,8.1733,-0.37396,-38.327,215.32,8.1506,-2.7169,-1.5002,10.868,-7.1685e-12,-0.75012,0,0,0.083333,1.579e-15,0,0.66667
0.23698,0.83918,2.8438,0.50878,92.039,1013.5,-3.8583,1.2861,-1.0812,-5.1444,5.8591e-12,-0.54061,0,0,0.083333,4.9343e-16,0,0.66667
0.92572,0.51923,11.109,0.028851,0.77557,13.664,-0.85467,0.28489,-1.9957,-1.1396,7.4975e-08,-0.99784,0,0,0.083333,3.158e-15,0,0.66667
0.7812,0.11394,9.3743,-0.57909,-43.196,107.38,14.476,-4.8254,-0.81488,19.302,2.7547e-10,-0.40744,0,0,0.083333,-0,-9.0265e-17,0.66667
0.30738,0.49613,3.6886,-0.0057996,-1.0049,861.87,0.057046,-0.019015,-1.9978,0.076061,1.4915e-11,-0.99888,0,0,0.083333,-4.0243e-16,0,0.66667
0.30497,0.48863,3.6596,-0.01706,-2.9609,866.96,0.16649,-0.055496,-1.9946,0.22198,3.0865e-12,-0.99732,0,0,0.083333,-3.9475e-16,0,0.66667
0.88117,0.86905,10.574,0.55357,23.612,34.706,-15.609,5.2031,-0.90713,-20.812,4.4674e-08,-0.45356,0,0,0.083333,-0,-0,0.66667
0.12608,0.013482,1.5129,-0.72978,-137.87,1262.3,2.9443,-0.98143,-0.11066,3.9257,-9.9447e-08,-0.055332,0,0,0.083333,3.9475e-16,0,0.66667
0.63346,0.53289,7.6015,0.049335,5.6426,277.96,-1.0001,0.33335,-1.9883,-1.3334,-6.9047e-12,-0.99416,0,0,0.083333,1.579e-15,0,0.66667
0.27771,0.88961,3.3326,0.58441,103.42,925.38,-5.1936,1.7312,-0.78467,-6.9248,8.9404e-12,-0.39234,0,0,0.083333,-0,-0,0.66667
0.8272,0.52638,9.9264,0.039564,2.3754,67.778,-1.0473,0.34909,-1.9999,-1.3964,-2.1514e-10,-0.99994,0,0,0.083333,-0,-0,0.66667
0.36452,0.116,4.3743,-0.576,-95.759,744.78,6.7189,-2.2396,-0.81755,8.9585,3.8369e-12,-0.40877,0,0,0.083333,-0,-0,0.66667
0.73337,0.36189,8.8004,-0.20717,-18.272,153.94,4.8618,-1.6206,-1.8519,6.4823,1.1426e-12,-0.92593,0,0,0.083333,-0,-0,0.66667
0.19242,0.32021,2.309,-0.26968,-49.724,1111.9,1.6605,-0.5535,-1.739,2.214,-6.6634e-11,-0.86949,0,0,0.083333,3.9475e-16,0,0.66667
0.48145,0.39505,5.7774,-0.15742,-23.131,521.33,2.4252,-0.80841,-1.9121,3.2336,-4.591e-12,-0.95607,0,0,0.083333,-0,-0,0.66667
0.80359,0.072667,9.6431,-0.641,-43.496,88.158,16.483,-5.4944,-0.53505,21.978,3.579e-09,-0.26753,0,0,0.083333,-0,-0,0.66667
0.39699,0.93731,4.7639,0.65596,106.01,680.55,-8.3331,2.7777,-0.46769,-11.111,1.3424e-11,-0.23384,0,0,0.083333,-8.5616e-16,0,0.66667
0.16157,0.78485,1.9389,0.42728,79.728,1181.4,-2.2092,0.7364,-1.3486,-2.9456,-9.1775e-11,-0.6743,0,0,0.083333,-0,-0,0.66667
0.64898,0.91393,7.7878,0.6209,68.889,257.97,-12.894,4.2982,-0.6253,-17.193,-5.4747e-12,-0.31265,0,0,0.083333,-0,-0,0.66667
0.75333,0.81254,9.0399,0.46881,38.763,133.74,-11.301,3.7671,-1.2197,-15.068,5.392e-11,-0.60983,0,0,0.083333,-3.158e-15,0,0.66667
0.28019,0.73733,3.3623,0.35599,62.823,919.76,-3.1919,1.064,-1.5538,-4.2558,-1.1176e-11,-0.77688,0,0,0.083333,-3.3181e-16,0,0.66667
0.45136,0.10988,5.4163,-0.58519,-89.332,576.83,8.4522,-2.8174,-0.78498,11.27,2.3981e-12,-0.39249,0,0,0.083333,-7.8949e-16,-1.2486e-16,0.66667
0.90045,0.57259,10.805,0.10888,3.8928,23.825,-3.1373,1.0458,-1.9544,-4.1831,2.472e-08,-0.97718,0,0,0.083333,-0,-0,0.66667
0.87199,0.004456,10.464,-0.74332,-34.193,40.892,20.741,-6.9137,-0.036307,27.655,1.1893e-08,-0.018153,0,0,0.083333,-0,-0,0.66667
0.70719,0.87298,8.4863,0.55947,53.552,184.42,-12.661,4.2202,-0.88662,-16.881,-1.9414e-11,-0.44331,0,0,0.083333,7.8949e-16,0,0.66667
0.5909,0.40418,7.0908,-0.14373,-17.88,340.04,2.7178,-0.90594,-1.9281,3.6238,-1.2303e-12,-0.96404,0,0,0.083333,9.8686e-17,0,0.66667
0.81738,0.75078,9.8086,0.37617,23.806,75.88,-9.8392,3.2797,-1.4956,-13.119,1.0566e-10,-0.7478,0,0,0.083333,-3.158e-15,0,0.66667
0.90764,0.010909,10.892,-0.73364,-24.798,23.222,21.308,-7.1027,-0.089912,28.411,4.9853e-07,-0.044956,0,0,0.083333,-0,-0,0.66667
0.0025076,0.92261,0.030091,0.63392,121.61,1547.2,-0.050864,0.016989,-0.5722,-0.067801,5.1003e-05,-0.2861,0,0,0.083333,-0,-0,0.66667
0.39723,0.48711,4.7667,-0.019334,-3.1151,679.17,0.24576,-0.08192,-1.9945,0.32768,2.5803e-12,-0.99726,0,0,0.083333,-3.9475e-16,0,0.66667
0.56141,0.24989,6.7369,-0.37516,-49.164,386.28,6.7398,-2.2466,-1.5055,8.9864,-1.4881e-12,-0.75273,0,0,0.083333,-1.2953e-16,0,0.66667
0.73392,0.44019,8.8071,-0.089712,-7.8951,153.2,2.1069,-0.70231,-1.9785,2.8092,-2.6181e-12,-0.98924,0,0,0.083333,-0,-0,0.66667
0.087473,0.34063,1.0497,-0.23905,-45.422,1350.5,0.66915,-0.22305,-1.7939,0.89219,5.3217e-08,-0.89694,0,0,0.083333,-2.4672e-17,0,0.66667
0.39975,0.93919,4.7971,0.65879,106.19,675.15,-8.4273,2.8091,-0.45411,-11.236,1.0511e-11,-0.22705,0,0,0.083333,-0,-0,0.66667
0.27962,0.30149,3.3555,-0.29777,-52.555,920.92,2.6644,-0.88813,-1.6878,3.5525,3.0627e-12,-0.84388,0,0,0.083333,-0,-0,0.66667
0.42351,0.045443,5.0821,-0.68183,-107.36,629.42,9.2404,-3.0801,-0.34989,12.321,-8.8187e-12,-0.17495,0,0,0.083333,7.8949e-16,0,0.66667
0.49798,0.49162,5.9757,-0.012567,-1.8071,492.03,0.20025,-0.066751,-2.0018,0.267,5.3815e-13,-1.0009,0,0,0.083333,1.1842e-15,0,0.66667
0.66002,0.99133,7.9202,0.73699,79.846,243.83,-15.566,5.1886,-0.067773,-20.754,6.5192e-13,-0.033887,0,0,0.083333,-0,-0,0.66667
0.49624,0.47526,5.9548,-0.037117,-5.35,495.09,0.5894,-0.19647,-1.9944,0.78587,2.2633e-12,-0.99718,0,0,0.083333,-0,-0,0.66667
0.62047,0.63776,7.4456,0.20664,24.29,296.49,-4.1029,1.3676,-1.8458,-5.4705,1.2288e-12,-0.92291,0,0,0.083333,-0,-0,0.66667
0.58244,0.67442,6.9893,0.26162,33.057,353.11,-4.8761,1.6254,-1.7546,-6.5015,-1.1093e-12,-0.87728,0,0,0.083333,7.8949e-16,0,0.66667
0.42833,0.77768,5.14,0.41652,65.132,619.59,-5.7091,1.903,-1.38,-7.6122,-1.0064e-11,-0.69002,0,0,0.083333,-7.8949e-16,0,0.66667
0.0049764,0.32716,0.059716,-0.25926,-49.643,1541.5,0.041285,-0.013761,-1.7581,0.055047,1.6549e-06,-0.87904,0,0,0.083333,-0,-0,0.66667
0.19452,0.8919,2.3342,0.58785,108.47,1107.5,-3.6591,1.2197,-0.76696,-4.8788,-1.3311e-09,-0.38348,0,0,0.083333,-3.9475e-16,0,0.66667
0.32021,0.038666,3.8425,-0.692,-119.18,835.83,7.0907,-2.3636,-0.29336,9.4542,-1.6491e-11,-0.14668,0,0,0.083333,-0,-0,0.66667
0.14698,0.086344,1.7637,-0.62048,-116.45,1214.6,2.9183,-0.97277,-0.62751,3.8911,1.4462e-08,-0.31376,0,0,0.083333,-0,-0,0.66667
0.59866,0.59796,7.184,0.14693,18.018,328.35,-2.8149,0.93829,-1.9213,-3.7531,4.5928e-12,-0.96064,0,0,0.083333,-1.579e-15,0,0.66667
0.6115,0.027467,7.338,-0.7088,-85.157,310.96,13.87,-4.6233,-0.21642,18.493,5.3397e-12,-0.10821,0,0,0.083333,-0,-0,0.66667
0.50009,0.58909,6.0011,0.13363,19.165,488.38,-2.1385,0.71285,-1.9443,-2.8514,-3.9773e-12,-0.97216,0,0,0.083333,1.1842e-15,0,0.66667
0.32085,0.72846,3.8502,0.3427,58.866,833.88,-3.5185,1.1728,-1.5783,-4.6914,-4.7873e-12,-0.78913,0,0,0.083333,-0,-0,0.66667
0.65326,0.81442,7.8391,0.47163,51.743,251.66,-9.859,3.2863,-1.2104,-13.145,-7.5238e-12,-0.60522,0,0,0.083333,1.579e-15,0,0.66667
0.19028,0.88368,2.2834,0.57551,106.36,1117,-3.5043,1.1681,-0.82306,-4.6725,1.1994e-10,-0.41153,0,0,0.083333,-0,-0,0.66667
0.005881,0.86649,0.070572,0.54974,105.4,1539.4,-0.10345,0.034475,-0.92208,-0.13793,-1.1409e-05,-0.46104,0,0,0.083333,-6.1679e-18,-1.0453e-16,0.66667
0.73494,0.94806,8.8193,0.67209,59.264,153.84,-15.806,5.2688,-0.3997,-21.075,-4.535e-11,-0.19985,0,0,0.083333,-0,-0,0.66667
0.4435,0.12524,5.322,-0.56214,-86.558,591.37,7.978,-2.6593,-0.87425,10.637,-1.6778e-12,-0.43712,0,0,0.083333,-0,-0,0.66667
0.69784,0.71755,8.3741,0.32633,31.989,194.7,-7.2872,2.4291,-1.6196,-9.7163,-3.0171e-12,-0.80979,0,0,0.083333,9.8686e-16,0,0.66667
0.18504,0.80562,2.2205,0.45842,84.836,1128.6,-2.7145,0.90483,-1.2544,-3.6193,-8.3306e-11,-0.62718,0,0,0.083333,-9.8686e-17,0,0.66667
0.06262,0.48742,0.75144,-0.018872,-3.5983,1407.8,0.037817,-0.012606,-2.0057,0.050423,-1.7335e-07,-1.0028,0,0,0.083333,-0,-0,0.66667
0.37811,0.25503,4.5373,-0.36746,-60.303,717.2,4.4461,-1.482,-1.5205,5.9281,-6.497e-13,-0.76023,0,0,0.083333,-0,-0,0.66667
0.696,0.35236,8.352,-0.22147,-21.806,196.7,4.9325,-1.6442,-1.8216,6.5766,-8.4954e-13,-0.91078,0,0,0.083333,-0,-0,0.66667
0.10282,0.38054,1.2338,-0.17919,-33.943,1315.2,0.58957,-0.19652,-1.8824,0.7861,2.8607e-08,-0.94119,0,0,0.083333,-0,-0,0.66667
0.19583,0.081027,2.35,-0.62846,-115.93,1104.6,3.9384,-1.3128,-0.59133,5.2512,-1.0695e-09,-0.29566,0,0,0.083333,-1.9737e-16,0,0.66667
0.45395,0.55058,5.4474,0.07587,11.521,571.23,-1.1021,0.36738,-1.9845,-1.4695,-4.1226e-12,-0.99226,0,0,0.083333,-0,-0,0.66667
0.62115,0.86793,7.4538,0.5519,64.933,296.38,-10.97,3.6567,-0.91605,-14.627,1.708e-12,-0.45802,0,0,0.083333,-1.1842e-15,0,0.66667
0.75012,0.59935,9.0015,0.14902,12.429,136.21,-3.5772,1.1924,-1.9286,-4.7696,-2.2871e-14,-0.96431,0,0,0.083333,-0,-0,0.66667
0.10974,0.20433,1.3168,-0.44351,-83.959,1299.4,1.5574,-0.51913,-1.3068,2.0765,2.2828e-08,-0.65342,0,0,0.083333,-0,-0,0.66667
0.62462,0.058156,7.4955,-0.66277,-77.519,291.87,13.247,-4.4158,-0.44522,17.663,-8.0291e-13,-0.22261,0,0,0.083333,1.1842e-15,4.7244e-17,0.66667
0.38736,0.64797,4.6483,0.22195,36.102,698.68,-2.7512,0.91707,-1.8247,-3.6683,-4.2157e-12,-0.91236,0,0,0.083333,-0,-0,0.66667
0.67009,0.59954,8.0411,0.1493,15.711,228.88,-3.2015,1.0672,-1.9239,-4.2686,2.1763e-12,-0.96196,0,0,0.083333,-1.579e-15,0,0.66667
0.20356,0.092263,2.4427,-0.61161,-112.44,1087.4,3.984,-1.328,-0.67737,5.3119,1.5661e-09,-0.33869,0,0,0.083333,4.9343e-16,0,0.66667
0.52792,0.88719,6.335,0.58078,80.296,441.65,-9.8114,3.2705,-0.80015,-13.082,-3.7508e-12,-0.40008,0,0,0.083333,7.8949e-16,0,0.66667
0.17216,0.54261,2.066,0.063922,11.872,1157.3,-0.35216,0.11739,-1.992,-0.46955,1.0359e-10,-0.996,0,0,0.083333,-0,-0,0.66667
0.018681,0.21477,0.22417,-0.42784,-81.949,1509.7,0.25576,-0.085256,-1.35,0.34101,-3.5054e-06,-0.67498,0,0,0.083333,3.7007e-17,0,0.66667
0.48695,0.3608,5.8434,-0.2088,-30.472,511.58,3.2537,-1.0846,-1.8458,4.3382,3.6631e-12,-0.92289,0,0,0.083333,-7.8949e-16,0,0.66667
0.18418,0.015697,2.2101,-0.72646,-134.72,1130.8,4.2815,-1.4272,-0.123,5.7087,-3.5987e-09,-0.061498,0,0,0.083333,-0,-9.8684e-17,0.66667
0.63834,0.33396,7.6601,-0.24906,-28.205,271.38,5.0876,-1.6959,-1.7811,6.7834,-1.0303e-13,-0.89054,0,0,0.083333,-0,-0,0.66667
0.53657,0.61863,6.4389,0.17794,24.23,426.35,-3.0553,1.0184,-1.8847,-4.0737,1.2332e-12,-0.94237,0,0,0.083333,-3.9475e-16,0,0.66667
0.77495,0.14834,9.2993,-0.52749,-40.301,112.92,13.081,-4.3603,-1.007,17.441,9.6145e-12,-0.50352,0,0,0.083333,-0,-0,0.66667
0.39296,0.65092,4.7155,0.22637,36.632,687.65,-2.8466,0.94886,-1.8198,-3.7954,-2.0721e-12,-0.90991,0,0,0.083333,-1.9737e-16,0,0.66667
0.98945,0.018834,11.873,-0.72175,-2.8767,3.1836,22.852,-7.6175,-0.14522,30.47,-9.8535e-05,-0.072609,0,0,0.083333,3.158e-15,0,0.66667
0.51521,0.15826,6.1826,-0.5126,-72.135,462.94,8.4512,-2.8171,-1.0731,11.268,-1.382e-12,-0.53654,0,0,0.083333,-0,-8.6373e-17,0.66667
0.47882,0.23182,5.7459,-0.40227,-59.361,526.38,6.1637,-2.0546,-1.4212,8.2183,-1.2528e-12,-0.71059,0,0,0.083333,7.8949e-16,0,0.66667
0.74944,0.96057,8.9933,0.69086,58.082,138.73,-16.568,5.5228,-0.30899,-22.091,4.9013e-11,-0.15449,0,0,0.083333,-0,-0,0.66667
0.57269,0.078966,6.8723,-0.63155,-81.381,369.26,11.574,-3.8579,-0.57846,15.432,1.3403e-12,-0.28923,0,0,0.083333,-0,-0,0.66667
0.36247,0.14557,4.3496,-0.53165,-88.511,748.84,6.1665,-2.0555,-0.995,8.222,-2.2076e-12,-0.4975,0,0,0.083333,3.9475e-16,0,0.66667
0.48924,0.76299,5.8709,0.39448,57.445,507.81,-6.1759,2.0586,-1.4439,-8.2346,2.0037e-12,-0.72197,0,0,0.083333,-7.8949e-16,0,0.66667
0.18914,0.049393,2.2697,-0.67591,-125.06,1119.7,4.0909,-1.3636,-0.37851,5.4545,3.0244e-09,-0.18926,0,0,0.083333,-0,-0,0.66667
0.39358,0.03785,4.723,-0.69323,-112.42,687.33,8.7309,-2.9103,-0.29196,11.641,5.3202e-12,-0.14598,0,0,0.083333,7.8949e-16,0,0.66667
0.029962,0.78925,0.35954,0.43387,83.06,1483.5,-0.41599,0.13866,-1.3348,-0.55465,3.4689e-06,-0.6674,0,0,0.083333,-0,-0,0.66667
0.46253,0.54319,5.5503,0.064779,9.7393,555.47,-0.95879,0.3196,-1.9812,-1.2784,-1.1071e-11,-0.99059,0,0,0.083333,-0,-0,0.66667
0.27447,0.1732,3.2937,-0.49019,-86.863,932.18,4.3055,-1.4352,-1.1414,5.7406,6.5592e-12,-0.57069,0,0,0.083333,-0,-0,0.66667
0.52672,0.24332,6.3206,-0.38502,-53.25,443.13,6.4895,-2.1632,-1.4711,8.6527,-1.5619e-12,-0.73553,0,0,0.083333,-3.9475e-16,0,0.66667
0.029272,0.34476,0.35127,-0.23287,-44.549,1485.1,0.21813,-0.07271,-1.8108,0.29084,-1.1262e-06,-0.90538,0,0,0.083333,-9.8686e-17,0,0.66667
0.55509,0.75952,6.661,0.38928,51.547,396.45,-6.9147,2.3049,-1.457,-9.2196,6.8656e-13,-0.7285,0,0,0.083333,-0,-0,0.66667
0.293,0.15396,3.516,-0.51905,-90.945,892.69,4.8666,-1.6222,-1.0418,6.4888,4.3565e-12,-0.52091,0,0,0.083333,-9.8686e-17,0,0.66667
0.57749,0.82766,6.9299,0.49149,62.732,361.3,-9.0827,3.0276,-1.1465,-12.11,3.7002e-12,-0.57326,0,0,0.083333,-7.8949e-16,0,0.66667
0.73277,0.38579,8.7932,-0.17131,-15.136,154.53,4.017,-1.339,-1.8987,5.356,8.7441e-13,-0.94937,0,0,0.083333,-0,-0,0.66667
0.44034,0.74866,5.2841,0.37299,57.564,596.87,-5.2557,1.7519,-1.507,-7.0076,-9.464e-12,-0.75352,0,0,0.083333,1.1349e-15,0,0.66667
0.66316,0.62919,7.9579,0.19379,20.739,237.93,-4.1125,1.3708,-1.8631,-5.4833,-2.0761e-12,-0.93153,0,0,0.083333,-0,-0,0.66667
0.23891,0.21644,2.8669,-0.42534,-76.836,1009.2,3.2518,-1.0839,-1.3556,4.3357,-7.2837e-12,-0.67778,0,0,0.083333,3.9475e-16,0,0.66667
0.9986,0.98727,11.983,0.7309,0.37142,2.8736,-23.355,7.785,-0.10322,-31.141,-0.00013055,-0.051609,0,0,0.083333,-1.579e-15,0,0.66667
0.24288,0.21943,2.9145,-0.42085,-75.869,1000.5,3.2709,-1.0903,-1.3674,4.3612,-9.6601e-12,-0.68371,0,0,0.083333,-0,-0,0.66667
0.94083,0.90488,11.29,0.60732,13.269,10.764,-18.284,6.0947,-0.68939,-24.379,-4.3444e-06,-0.3447,0,0,0.083333,-6.9081e-16,0,0.66667
0.21722,0.6298,2.6066,0.1947,35.512,1056.7,-1.3533,0.45112,-1.8691,-1.8045,3.5603e-11,-0.93457,0,0,0.083333,-0,-0,0.66667
0.49756,0.75145,5.9708,0.37717,54.325,493.13,-6.0054,2.0018,-1.4967,-8.0072,1.8612e-12,-0.74833,0,0,0.083333,-1.579e-15,0,0.66667
0.82118,0.56522,9.8541,0.097829,6.061,72.367,-2.5707,0.85691,-1.9628,-3.4276,-2.0329e-10,-0.9814,0,0,0.083333,-0,-0,0.66667
0.71659,0.62571,8.5991,0.18856,17.51,172.53,-4.3238,1.4413,-1.8768,-5.7651,4.0323e-13,-0.9384,0,0,0.083333,-0,-0,0.66667
0.70558,0.075836,8.467,-0.63625,-61.239,186.65,14.366,-4.7885,-0.56175,19.154,-8.7672e-12,-0.28087,0,0,0.083333,-0,-0,0.66667
0.44044,0.58317,5.2853,0.12475,19.235,596.39,-1.7582,0.58608,-1.9449,-2.3443,-9.159e-12,-0.97246,0,0,0.083333,-0,-0,0.66667
0.75418,0.18171,9.0501,-0.47743,-39.363,132.92,11.522,-3.8407,-1.1883,15.363,-3.3607e-11,-0.59415,0,0,0.083333,-3.9475e-16,0,0.66667
0.91995,0.63514,11.039,0.20271,5.8717,15.931,-5.9674,1.9891,-1.8563,-7.9565,9.4841e-08,-0.92815,0,0,0.083333,-0,-0,0.66667
0.44135,0.94394,5.2962,0.66591,102.87,595.69,-9.4048,3.1349,-0.42245,-12.54,-1.8971e-12,-0.21123,0,0,0.083333,-0,-0,0.66667
0.52797,0.39689,6.3356,-0.15466,-21.331,440.68,2.613,-0.871,-1.9147,3.484,-8.189e-13,-0.95734,0,0,0.083333,7.8949e-16,0,0.66667
0.066036,0.1883,0.79243,-0.46756,-89.213,1400,0.98801,-0.32934,-1.2233,1.3174,3.0134e-07,-0.61165,0,0,0.083333,-0,-0,0.66667
0.39077,0.48207,4.6893,-0.026899,-4.3603,691.84,0.33636,-0.11212,-2.0043,0.44848,7.0048e-12,-1.0021,0,0,0.083333,-0,-0,0.66667
0.46724,0.66215,5.6069,0.24322,36.376,547.02,-3.6365,1.2122,-1.7935,-4.8487,-7.0488e-12,-0.89674,0,0,0.083333,-0,-0,0.66667
0.89514,0.65452,10.742,0.23177,8.7212,26.488,-6.639,2.213,-1.808,-8.852,3.0474e-08,-0.90398,0,0,0.083333,1.9737e-16,0,0.66667
0.11056,0.3013,1.3267,-0.29806,-56.381,1297.5,1.0545,-0.35149,-1.6882,1.406,2.1793e-08,-0.84412,0,0,0.083333,-9.8686e-17,0,0.66667
0.73114,0.51735,8.7737,0.026019,2.31,156.2,-0.60874,0.20291,-1.9972,-0.81165,-1.627e-12,-0.99858,0,0,0.083333,-0,-0,0.66667
0.54547,0.94781,6.5457,0.67172,90.519,412.92,-11.725,3.9083,-0.39933,-15.633,-8.5443e-13,-0.19966,0,0,0.083333,-0,-0,0.66667
0.60654,0.59221,7.2784,0.13832,16.709,316.66,-2.6847,0.89489,-1.9336,-3.5795,3.0242e-12,-0.96682,0,0,0.083333,-2.9606e-16,0,0.66667
0.029783,0.4091,0.3574,-0.13635,-26.079,1483.9,0.12995,-0.043316,-1.9383,0.17326,-5.0941e-07,-0.96915,0,0,0.083333,9.8686e-17,0,0.66667
0.14675,0.22104,1.761,-0.41844,-78.443,1215,1.965,-0.65499,-1.3748,2.62,-2.3042e-10,-0.68738,0,0,0.083333,-0,-0,0.66667
0.28398,0.21564,3.4078,-0.42655,-75.124,911.74,3.8762,-1.2921,-1.3547,5.1683,1.6105e-12,-0.67734,0,0,0.083333,1.9737e-16,0,0.66667
0.004872,0.14516,0.058465,-0.53225,-102.04,1541.7,0.082974,-0.027655,-0.99008,0.11063,5.3301e-06,-0.49504,0,0,0.083333,-0,1.8072e-16,0.66667
0.66916,0.64221,8.0299,0.21332,22.503,230.16,-4.5678,1.5226,-1.8387,-6.0904,-8.5398e-13,-0.91937,0,0,0.083333,-2.9501e-18,0,0.66667
0.87026,0.40426,10.443,-0.14361,-6.6099,39.407,3.9993,-1.3331,-1.9253,5.3323,-3.1357e-09,-0.96265,0,0,0.083333,1.579e-15,0,0.66667
0.54697,0.56226,6.5636,0.093392,12.513,409.19,-1.6346,0.54488,-1.9776,-2.1795,5.0691e-12,-0.98881,0,0,0.083333,3.8241e-16,0,0.66667
0.54316,0.57776,6.518,0.11664,15.722,415.43,-2.0274,0.6758,-1.9504,-2.7032,2.1312e-12,-0.97519,0,0,0.083333,7.8949e-16,0,0.66667
0.61573,0.47887,7.3887,-0.031693,-3.7597,303.18,0.62446,-0.20815,-1.9926,0.83262,-2.9421e-13,-0.99629,0,0,0.083333,-0,-0,0.66667
0.30218,0.58409,3.6262,0.12614,21.936,872.85,-1.2197,0.40658,-1.9404,-1.6263,-1.1985e-11,-0.9702,0,0,0.083333,-0,-0,0.66667
0.36673,0.30941,4.4008,-0.28588,-47.365,739.85,3.355,-1.1183,-1.7061,4.4733,2.7107e-12,-0.85304,0,0,0.083333,-4.8354e-16,0,0.66667
0.57494,0.057366,6.8993,-0.66395,-85.256,365.87,12.215,-4.0718,-0.43301,16.287,3.5971e-13,-0.2165,0,0,0.083333,3.9475e-16,0,0.66667
0.80922,0.8387,9.7106,0.50805,33.509,82.886,-13.156,4.3853,-1.0825,-17.541,-1.4018e-10,-0.54125,0,0,0.083333,-1.579e-15,0,0.66667
0.2016,0.013761,2.4192,-0.72936,-134.32,1092,4.7052,-1.5684,-0.1117,6.2735,7.577e-10,-0.055852,0,0,0.083333,-7.8949e-16,9.7282e-17,0.66667
0.32752,0.86471,3.9303,0.54707,93.62,820.32,-5.7337,1.9112,-0.9416,-7.6449,4.9587e-12,-0.4708,0,0,0.083333,-3.9475e-16,9.7878e-17,0.66667
0.74292,0.040584,8.9151,-0.68912,-59.222,145.47,16.383,-5.461,-0.3074,21.844,3.2088e-11,-0.1537,0,0,0.083333,-0,-0,0.66667
0.34092,0.65421,4.091,0.23131,39.128,792.25,-2.5235,0.84117,-1.8113,-3.3647,-4.8954e-12,-0.90567,0,0,0.083333,-9.8686e-17,0,0.66667
0.047611,0.94025,0.57133,0.66037,126.42,1442.7,-1.0061,0.33536,-0.45572,-1.3415,-9.9233e-06,-0.22786,0,0,0.083333,-0,-0,0.66667
0.15636,0.26646,1.8763,-0.35032,-65.457,1193.1,1.7528,-0.58426,-1.5706,2.337,3.9989e-10,-0.78529,0,0,0.083333,-0,-0,0.66667
0.19386,0.58058,2.3264,0.12086,22.265,1108.6,-0.7498,0.24993,-1.944,-0.99973,2.7893e-11,-0.97201,0,0,0.083333,-1.9737e-16,0,0.66667
0.49511,0.78932,5.9413,0.43398,62.73,497.55,-6.8759,2.292,-1.3279,-9.1678,-3.7748e-14,-0.66395,0,0,0.083333,-0,-0,0.66667
0.63512,0.63286,7.6215,0.19929,22.72,275.77,-4.0503,1.3501,-1.8558,-5.4004,-5.3224e-12,-0.92788,0,0,0.083333,1.579e-15,0,0.66667
0.88022,0.0020914,10.563,-0.74686,-32.291,36.391,21.037,-7.0123,-0.014793,28.049,-7.7376e-08,-0.0073965,0,0,0.083333,-0,-0,0.66667
0.90254,0.40366,10.83,-0.14451,-5.0636,22.932,4.1736,-1.3912,-1.9257,5.5648,-2.9443e-08,-0.96284,0,0,0.083333,1.9737e-16,0,0.66667
0.30716,0.062185,3.6859,-0.65672,-114.1,863.04,6.455,-2.1517,-0.46488,8.6067,-1.5139e-11,-0.23244,0,0,0.083333,7.4015e-17,0,0.66667
0.75338,0.33584,9.0406,-0.24625,-20.316,133.05,5.9365,-1.9788,-1.7841,7.9154,4.7402e-12,-0.89206,0,0,0.083333,-0,-0,0.66667
0.28243,0.7144,3.3891,0.3216,56.668,914.94,-2.9065,0.96883,-1.6371,-3.8753,-1.4568e-11,-0.81857,0,0,0.083333,-0,-0,0.66667
0.36858,0.63641,4.4229,0.20461,33.838,736.07,-2.4133,0.80442,-1.8472,-3.2177,-1.8607e-12,-0.92358,0,0,0.083333,-0,-0,0.66667
0.29273,0.73827,3.5127,0.3574,62.58,893.04,-3.3479,1.116,-1.544,-4.4639,-1.172e-11,-0.77202,0,0,0.083333,-0,-0,0.66667
0.41369,0.29463,4.9643,-0.30806,-48.875,647.41,4.0781,-1.3594,-1.6582,5.4374,-3.4661e-12,-0.82908,0,0,0.083333,-7.8949e-16,0,0.66667
0.21472,0.87385,2.5766,0.56078,102.56,1062.6,-3.8531,1.2844,-0.88161,-5.1374,-4.0512e-11,-0.4408,0,0,0.083333,-3.9475e-16,0,0.66667
0.31899,0.42615,3.8278,-0.11077,-19.04,837.58,1.1307,-0.37689,-1.9524,1.5076,-1.5198e-11,-0.97618,0,0,0.083333,-0,-0,0.66667
0.12192,0.71705,1.463,0.32558,61.428,1271.5,-1.2702,0.42341,-1.6243,-1.6936,-3.8612e-09,-0.81214,0,0,0.083333,2.2204e-16,0,0.66667
0.96302,0.1153,11.556,-0.57705,-7.9058,5.4512,17.783,-5.9276,-0.81266,23.71,-7.3124e-06,-0.40633,0,0,0.083333,7.8949e-16,0,0.66667
0.50398,0.67603,6.0478,0.26404,37.684,481.75,-4.2583,1.4194,-1.7506,-5.6778,-2.5349e-12,-0.87529,0,0,0.083333,-0,-0,0.66667
0.9231,0.88493,11.077,0.5774,16.257,16.224,-17.056,5.6853,-0.81868,-22.741,1.7214e-07,-0.40934,0,0,0.083333,-0,-0,0.66667
0.74616,0.9877,8.9539,0.73155,62.236,142.34,-17.467,5.8224,-0.09583,-23.29,3.9275e-12,-0.047915,0,0,0.083333,-7.8949e-16,0,0.66667
0.45771,0.88457,5.4925,0.57686,87.417,565.12,-8.4491,2.8164,-0.8146,-11.265,-7.141e-12,-0.4073,0,0,0.083333,7.8949e-16,0,0.66667
0.75462,0.99464,9.0555,0.74197,61.325,133.76,-17.917,5.9723,-0.040831,-23.889,-2.1938e-11,-0.020416,0,0,0.083333,-1.1322e-15,0,0.66667
0.62802,0.44552,7.5363,-0.081714,-9.454,285.61,1.6422,-0.54739,-1.9766,2.1896,-3.6194e-12,-0.9883,0,0,0.083333,1.579e-15,0,0.66667
0.30376,0.47262,3.6451,-0.041073,-7.1344,869.5,0.39924,-0.13308,-1.9907,0.53232,3.693e-12,-0.99533,0,0,0.083333,-0,-0,0.66667
0.52166,0.73312,6.2599,0.34968,48.708,451.59,-5.8372,1.9457,-1.5614,-7.783,-1.3078e-12,-0.78069,0,0,0.083333,7.8949e-16,0,0.66667
0.71231,0.97797,8.5477,0.71696,67.775,179.25,-16.342,5.4475,-0.1685,-21.79,-3.2632e-12,-0.084248,0,0,0.083333,1.579e-15,0,0.66667
0.30531,0.19038,3.6638,-0.46442,-80.69,866.58,4.5374,-1.5125,-1.2298,6.0499,6.4659e-13,-0.61492,0,0,0.083333,7.8949e-16,0,0.66667
0.012523,0.6668,0.15027,0.2502,47.902,1523.9,-0.10026,0.033422,-1.7774,-0.13369,-1.0357e-07,-0.88869,0,0,0.083333,-0,-0,0.66667
0.26826,0.88778,3.2192,0.58167,103.51,945.67,-4.9933,1.6644,-0.79775,-6.6577,2.5473e-12,-0.39888,0,0,0.083333,-3.9475e-16,0,0.66667
0.79675,0.20249,9.5609,-0.44626,-31.122,93.036,11.378,-3.7926,-1.2988,15.17,1.652e-10,-0.64939,0,0,0.083333,-1.579e-15,0,0.66667
0.92999,0.8512,11.16,0.52679,13.51,13.595,-15.677,5.2258,-1.0093,-20.903,2.6626e-07,-0.50465,0,0,0.083333,-0,-0,0.66667
0.62533,0.44,7.504,-0.089998,-10.471,289.43,1.8009,-0.6003,-1.9787,2.4012,-3.9613e-12,-0.98934,0,0,0.083333,1.579e-15,0,0.66667
0.13281,0.95638,1.5937,0.68456,129.05,1246.9,-2.9093,0.96976,-0.32937,-3.879,-4.9594e-08,-0.16469,0,0,0.083333,-1.9737e-16,0,0.66667
0.75757,0.0092579,9.0908,-0.73611,-60.205,130.78,17.845,-5.9483,-0.069197,23.793,2.3618e-11,-0.034598,0,0,0.083333,-0,-0,0.66667
0.52691,0.42966,6.3229,-0.10552,-14.574,442.43,1.7791,-0.59303,-1.9587,2.3721,3.6151e-12,-0.97934,0,0,0.083333,-3.9475e-16,0,0.66667
0.75387,0.1487,9.0464,-0.52696,-43.52,133.43,12.712,-4.2374,-1.0117,16.95,-6.7288e-12,-0.50583,0,0,0.083333,7.8949e-16,0,0.66667
0.85861,0.76819,10.303,0.40229,20.13,47.032,-11.053,3.6843,-1.4297,-14.737,2.5201e-09,-0.71485,0,0,0.083333,1.579e-15,0,0.66667
0.94754,0.89185,11.37,0.58778,11.397,8.8672,-17.822,5.9408,-0.76809,-23.763,-1.4698e-06,-0.38405,0,0,0.083333,-0,-0,0.66667
0.65454,0.021498,7.8545,-0.71775,-78.733,250.98,15.033,-5.0112,-0.1712,20.045,2.5073e-12,-0.0856,0,0,0.083333,-0,-0,0.66667
0.85426,0.1742,10.251,-0.4887,-25.193,50.127,13.359,-4.4531,-1.1478,17.812,1.8982e-09,-0.5739,0,0,0.083333,-0,-0,0.66667
0.74259,0.27224,8.9111,-0.34164,-29.265,144.4,8.1182,-2.7061,-1.5809,10.824,-5.4179e-14,-0.79044,0,0,0.083333,-0,-0,0.66667
0.7271,0.47237,8.7252,-0.041443,-3.7262,160.62,0.96426,-0.32142,-1.9905,1.2857,3.7305e-12,-0.99524,0,0,0.083333,-1.579e-15,0,0.66667
0.85879,0.72938,10.305,0.34407,17.181,46.722,-9.4554,3.1518,-1.5848,-12.607,1.8382e-09,-0.79241,0,0,0.083333,1.579e-15,0,0.66667
0.923,0.33756,11.076,-0.24366,-6.7996,14.91,7.1966,-2.3989,-1.7936,9.5955,-1.4324e-07,-0.89682,0,0,0.083333,-7.8949e-16,0,0.66667
0.90208,0.11229,10.825,-0.58156,-20.662,24.664,16.788,-5.5959,-0.79559,22.383,-1.1994e-08,-0.39779,0,0,0.083333,1.579e-15,0,0.66667
0.39575,0.53705,4.749,0.055571,8.9663,682.07,-0.70375,0.23458,-1.9866,-0.93833,1.9577e-12,-0.9933,0,0,0.083333,-7.8949e-16,0,0.66667
0.084021,0.70793,1.0083,0.3119,59.312,1358.5,-0.8386,0.27953,-1.6505,-1.1181,-6.5679e-08,-0.82525,0,0,0.083333,-0,-0,0.66667
0.82957,0.33773,9.9549,-0.24341,-14.445,66.277,6.4617,-2.1539,-1.7933,8.6156,8.6589e-11,-0.89664,0,0,0.083333,1.9737e-15,0,0.66667
0.53893,0.70795,6.4672,0.31193,42.345,422.63,-5.3795,1.7932,-1.6497,-7.1727,-5.2847e-12,-0.82487,0,0,0.083333,7.8949e-16,0,0.66667
0.54208,0.18818,6.5049,-0.46772,-63.248,417.81,8.1134,-2.7045,-1.221,10.818,-2.4478e-12,-0.6105,0,0,0.083333,-0,-0,0.66667
0.82518,0.04348,9.9021,-0.68478,-41.886,71.351,18.082,-6.0273,-0.33286,24.109,1.6998e-09,-0.16643,0,0,0.083333,-0,-0,0.66667
0.031984,0.64623,0.38381,0.21934,41.953,1478.8,-0.22449,0.074831,-1.8343,-0.29932,7.0405e-07,-0.91715,0,0,0.083333,2.4672e-17,0,0.66667
0.87796,0.85818,10.536,0.53727,23.489,36.345,-15.095,5.0315,-0.9737,-20.126,2.1823e-08,-0.48685,0,0,0.083333,-1.579e-15,0,0.66667
0.034634,0.10827,0.41561,-0.5876,-112.55,1472.7,0.65124,-0.21708,-0.77167,0.86832,2.4361e-06,-0.38583,0,0,0.083333,-0,-0,0.66667
0.69319,0.75452,8.3183,0.38179,37.915,200.45,-8.4689,2.823,-1.479,-11.292,8.9173e-13,-0.73949,0,0,0.083333,-0,-0,0.66667
0.58748,0.6131,7.0498,0.16966,21.238,345.26,-3.1895,1.0632,-1.8937,-4.2526,1.954e-13,-0.94687,0,0,0.083333,7.8949e-16,0,0.66667
0.64175,0.98961,7.701,0.73441,82.917,268.33,-15.082,5.0273,-0.086582,-20.109,-2.6406e-12,-0.043291,0,0,0.083333,7.8949e-16,0,0.66667
0.37408,0.89815,4.489,0.59722,98.494,725.67,-7.1491,2.383,-0.73686,-9.5322,5.8265e-12,-0.36843,0,0,0.083333,3.9475e-16,7.5798e-17,0.66667
0.27546,0.88701,3.3055,0.58051,102.86,930.2,-5.1171,1.7057,-0.79821,-6.8228,5.0133e-12,-0.3991,0,0,0.083333,-0,-0,0.66667
0.50941,0.79628,6.1129,0.44442,63.018,472.72,-7.2445,2.4148,-1.2938,-9.6594,-7.8204e-13,-0.64688,0,0,0.083333,-0,-0,0.66667
0.88582,0.53092,10.63,0.046373,1.8901,30.844,-1.3145,0.43817,-1.9913,-1.7527,5.8563e-09,-0.99563,0,0,0.083333,1.2829e-15,0,0.66667
0.56529,0.80762,6.7835,0.46144,60.118,380.34,-8.3471,2.7824,-1.2441,-11.129,1.3927e-12,-0.62206,0,0,0.083333,-7.8949e-16,0,0.66667
0.66315,0.6661,7.9578,0.24915,26.67,238.02,-5.2871,1.7624,-1.7752,-7.0494,-1.128e-12,-0.88761,0,0,0.083333,-1.579e-15,0,0.66667
0.44138,0.72586,5.2966,0.33878,52.217,594.87,-4.785,1.595,-1.5909,-6.38,-9.345e-12,-0.79546,0,0,0.083333,-0,-0,0.66667
0.97214,0.95255,11.666,0.67883,7.0896,4.6344,-21.117,7.039,-0.36089,-28.156,-6.4124e-05,-0.18044,0,0,0.083333,-1.579e-15,0,0.66667
0.74252,0.69855,8.9103,0.29783,25.509,144.36,-7.0766,2.3589,-1.6803,-9.4354,-2.7689e-12,-0.84016,0,0,0.083333,-0,-0,0.66667
0.3549,0.034236,4.2588,-0.69865,-117.19,764.53,7.9344,-2.6448,-0.2633,10.579,-3.0762e-12,-0.13165,0,0,0.083333,7.8949e-16,-8.0725e-17,0.66667
0.65353,0.85951,7.8424,0.53926,59.164,251.54,-11.278,3.7592,-0.96655,-15.037,-2.3777e-12,-0.48327,0,0,0.083333,-7.7394e-16,0,0.66667
0.54262,0.68063,6.5114,0.27094,36.567,416.5,-4.7046,1.5682,-1.7375,-6.2728,4.3832e-12,-0.86873,0,0,0.083333,-3.9475e-16,0,0.66667
0.88406,0.56841,10.609,0.10262,4.2452,31.796,-2.903,0.96768,-1.959,-3.8707,3.7566e-09,-0.97952,0,0,0.083333,-0,-0,0.66667
0.27505,0.7112,3.3006,0.3168,56.073,930.73,-2.7884,0.92947,-1.6396,-3.7179,-1.7881e-11,-0.81981,0,0,0.083333,-0,-0,0.66667
0.10807,0.49788,1.2968,-0.0031736,-0.60036,1303.1,0.010975,-0.0036583,-2.0049,0.014633,3.9326e-08,-1.0024,0,0,0.083333,-7.4015e-17,0,0.66667
0.19127,0.27824,2.2953,-0.33264,-61.374,1114.5,2.036,-0.67866,-1.6064,2.7147,-7.1302e-11,-0.80318,0,0,0.083333,2.4672e-16,0,0.66667
0.38705,0.027195,4.6446,-0.70921,-115.73,700.23,8.7839,-2.928,-0.21155,11.712,1.5193e-11,-0.10577,0,0,0.083333,-3.9475e-16,0,0.66667
0.85406,0.008419,10.249,-0.73737,-38.293,51.642,20.152,-6.7174,-0.06387,26.87,2.7744e-09,-0.031935,0,0,0.083333,3.158e-15,0,0.66667
0.27084,0.34259,3.2501,-0.23611,-41.883,939.71,2.0464,-0.68212,-1.8001,2.7285,-3.3029e-12,-0.90003,0,0,0.083333,-2.4672e-17,0,0.66667
0.62636,0.29184,7.5163,-0.31224,-36.279,288.27,6.2583,-2.0861,-1.6571,8.3444,1.4819e-12,-0.82853,0,0,0.083333,-0,-0,0.66667
0.62355,0.55158,7.4826,0.077368,9.0343,291.96,-1.5438,0.51459,-1.9822,-2.0584,2.3892e-12,-0.99109,0,0,0.083333,-7.8949e-16,0,0.66667
0.40805,0.34272,4.8966,-0.23591,-37.63,658.22,3.0804,-1.0268,-1.8061,4.1073,-2.7334e-12,-0.90304,0,0,0.083333,-7.8949e-16,0,0.66667
0.050335,0.80148,0.60402,0.45223,86.439,1436.3,-0.72841,0.2428,-1.2722,-0.97121,-5.1453e-07,-0.63608,0,0,0.083333,-4.9343e-17,0,0.66667
0.74483,0.34505,8.938,-0.23243,-19.746,141.81,5.5398,-1.8466,-1.8062,7.3864,2.3386e-12,-0.90311,0,0,0.083333,-0,-0,0.66667
0.29573,0.0011921,3.5487,-0.74821,-131.09,887.37,7.0805,-2.3602,-0.015032,9.4407,1.3015e-11,-0.007516,0,0,0.083333,-0,-0,0.66667
0.39846,0.50377,4.7815,0.0056558,0.9102,676.76,-0.072115,0.024038,-1.9964,-0.096153,-6.8e-12,-0.9982,0,0,0.083333,-0,-0,0.66667
0.37724,0.090199,4.5269,-0.6147,-101.11,719.42,7.4205,-2.4735,-0.65902,9.894,2.1045e-12,-0.32951,0,0,0.083333,1.9737e-16,0,0.66667
0.6636,0.65591,7.9632,0.23387,25.006,237.4,-4.9663,1.6554,-1.8027,-6.6218,-3.5936e-12,-0.90136,0,0,0.083333,-3.9475e-16,0,0.66667
0.086333,0.94906,1.036,0.67359,128.29,1353.3,-1.8609,0.6203,-0.38242,-2.4812,1.4112e-06,-0.19121,0,0,0.083333,-0,-0,0.66667
0.54989,0.84911,6.5987,0.52366,69.984,405.21,-9.2146,3.0715,-1.0257,-12.286,-6.6436e-13,-0.51284,0,0,0.083333,-0,-0,0.66667
0.015422,0.066782,0.18506,-0.64983,-124.64,1517.2,0.32067,-0.10687,-0.50603,0.42758,3.6266e-05,-0.25302,0,0,0.083333,-0,-0,0.66667
0.98304,0.22499,11.796,-0.41252,-2.4961,1.8396,12.977,-4.3255,-1.3991,17.302,1.976e-06,-0.69957,0,0,0.083333,-0,-0,0.66667
0.59843,0.68225,7.1811,0.27337,33.552,328.88,-5.2349,1.745,-1.7325,-6.9799,-7.1587e-13,-0.86623,0,0,0.083333,3.9475e-16,0,0.66667
0.38411,0.18432,4.6094,-0.47351,-77.335,705.45,5.8203,-1.9401,-1.1997,7.7604,1.0443e-11,-0.59986,0,0,0.083333,-3.9475e-16,0,0.66667
0.14675,0.18052,1.761,-0.47922,-89.863,1215,2.2504,-0.75013,-1.1801,3.0005,-1.9321e-09,-0.59003,0,0,0.083333,-0,-0,0.66667
0.69688,0.70564,8.3625,0.30847,30.314,195.81,-6.8788,2.2929,-1.6577,-9.1718,1.195e-12,-0.82886,0,0,0.083333,-7.8949e-16,0,0.66667
0.90581,0.105,10.87,-0.5925,-20.291,23.097,17.174,-5.7247,-0.75789,22.899,-1.6024e-07,-0.37894,0,0,0.083333,-0,-0,0.66667
0.31811,0.035867,3.8173,-0.6962,-120.09,840.21,7.0869,-2.3623,-0.27395,9.4493,-1.5736e-11,-0.13697,0,0,0.083333,-0,-0,0.66667
0.76649,0.77633,9.1979,0.41449,32.659,120.52,-10.167,3.3889,-1.3947,-13.555,-1.8799e-11,-0.69736,0,0,0.083333,-0,-0,0.66667
0.2875,0.49678,3.45,-0.0048277,-0.84749,903.97,0.044415,-0.014805,-1.997,0.05922,-9.6494e-12,-0.99849,0,0,0.083333,4.9343e-16,0,0.66667
0.95723,0.087171,11.487,-0.61924,-9.8388,6.8401,18.968,-6.3227,-0.63532,25.291,-1.7999e-05,-0.31766,0,0,0.083333,-0,-0,0.66667
0.70232,0.87702,8.4278,0.56552,54.881,190.17,-12.71,4.2366,-0.86911,-16.946,-7.9767e-12,-0.43455,0,0,0.083333,-0,2.383e-17,0.66667
0.62502,0.99442,7.5002,0.74162,86.757,291.69,-14.833,4.9443,-0.052332,-19.777,-3.8636e-13,-0.026166,0,0,0.083333,-0,-0,0.66667
0.93073,0.56922,11.169,0.10383,2.6065,12.03,-3.0923,1.0308,-1.958,-4.123,1.0421e-07,-0.97898,0,0,0.083333,-0,-0,0.66667
0.26904,0.060942,3.2285,-0.65859,-117.21,944.13,5.67,-1.89,-0.45844,7.56,-2.0716e-11,-0.22922,0,0,0.083333,4.9343e-17,0,0.66667
0.92362,0.47562,11.083,-0.036571,-1.0104,14.405,1.0809,-0.3603,-1.9984,1.4412,-7.956e-09,-0.99919,0,0,0.083333,-0,-0,0.66667
0.67808,0.036546,8.137,-0.69518,-72.046,220.36,15.084,-5.0282,-0.27845,20.113,-2.1423e-12,-0.13922,0,0,0.083333,-0,-0,0.66667
0.77136,0.4331,9.2564,-0.10035,-7.7457,115.19,2.477,-0.82567,-1.9614,3.3027,-8.783e-12,-0.98071,0,0,0.083333,-3.9475e-16,0,0.66667
0.57164,0.27649,6.8596,-0.33526,-43.179,370.03,6.1327,-2.0442,-1.597,8.1769,-1.7577e-12,-0.79852,0,0,0.083333,3.9475e-16,0,0.66667
0.8339,0.78749,10.007,0.43123,25.051,63.693,-11.507,3.8358,-1.3357,-15.343,2.3056e-10,-0.66787,0,0,0.083333,-0,-0,0.66667
0.69828,0.39135,8.3794,-0.16297,-15.943,193.88,3.6416,-1.2139,-1.9028,4.8554,2.0064e-12,-0.95139,0,0,0.083333,-7.8949e-16,0,0.66667
0.14661,0.36408,1.7593,-0.20388,-38.192,1215.2,0.95648,-0.31883,-1.8485,1.2753,7.1897e-10,-0.92427,0,0,0.083333,-0,-0,0.66667
0.61246,0.20542,7.3495,-0.44187,-52.847,308.55,8.6602,-2.8867,-1.3056,11.547,6.5938e-12,-0.65281,0,0,0.083333,-7.8949e-16,0,0.66667
0.27932,0.22966,3.3518,-0.40551,-71.616,921.68,3.6246,-1.2082,-1.4177,4.8327,-4.1767e-12,-0.70883,0,0,0.083333,7.8949e-16,0,0.66667
0.91588,0.58691,10.991,0.13036,3.9602,17.36,-3.8207,1.2736,-1.9363,-5.0943,4.876e-08,-0.96814,0,0,0.083333,5.4231e-16,0,0.66667
0.19823,0.49436,2.3788,-0.008458,-1.5552,1098.9,0.053653,-0.017884,-1.9976,0.071537,1.7143e-10,-0.9988,0,0,0.083333,-0,-0,0.66667
0.28572,0.16717,3.4286,-0.49924,-87.867,908.14,4.5645,-1.5215,-1.1116,6.086,1.2381e-12,-0.55582,0,0,0.083333,-0,-0,0.66667
0.047655,0.83148,0.57186,0.49722,95.087,1442.5,-0.75823,0.25274,-1.1261,-1.011,-1.603e-06,-0.56303,0,0,0.083333,-4.9343e-17,0,0.66667
0.44758,0.19944,5.3709,-0.45084,-69.053,583.51,6.4572,-2.1524,-1.2739,8.6096,-3.8236e-12,-0.63695,0,0,0.083333,-0,-0,0.66667
0.55759,0.7771,6.6911,0.41565,54.825,392.49,-7.4163,2.4721,-1.3838,-9.8884,-2.3141e-12,-0.6919,0,0,0.083333,3.3016e-16,0,0.66667
0.57356,0.51667,6.8827,0.024998,3.2062,366.68,-0.45882,0.15294,-1.9953,-0.61176,2.4519e-13,-0.99767,0,0,0.083333,-0,-0,0.66667
0.90538,0.20224,10.865,-0.44664,-15.293,22.55,12.94,-4.3134,-1.2955,17.254,-4.74e-08,-0.64774,0,0,0.083333,-0,-0,0.66667
0.34741,0.90464,4.169,0.60696,102.35,779.54,-6.7477,2.2492,-0.69034,-8.997,-9.3925e-13,-0.34517,0,0,0.083333,-1.4803e-16,0,0.66667
0.44753,0.45731,5.3703,-0.06404,-9.7959,583.13,0.91711,-0.3057,-1.982,1.2228,-1.3211e-12,-0.991,0,0,0.083333,-0,-0,0.66667
0.85124,0.61128,10.215,0.16691,8.7331,51.115,-4.5466,1.5155,-1.8965,-6.0622,6.603e-10,-0.94826,0,0,0.083333,-1.579e-15,0,0.66667
0.57683,0.091069,6.922,-0.6134,-78.467,362.74,11.322,-3.7741,-0.66706,15.097,3.1344e-12,-0.33353,0,0,0.083333,-1.9737e-16,0,0.66667
0.65399,0.08345,7.8479,-0.62483,-68.544,251.27,13.076,-4.3587,-0.61353,17.435,-1.8829e-13,-0.30677,0,0,0.083333,-7.8949e-16,-8.7227e-17,0.66667
0.27836,0.55505,3.3403,0.082573,14.578,923.5,-0.73552,0.24517,-1.9764,-0.9807,-1.7662e-11,-0.9882,0,0,0.083333,1.9737e-16,0,0.66667
0.48747,0.0074161,5.8497,-0.73888,-108.14,511.96,11.526,-3.8419,-0.059155,15.368,-7.5993e-12,-0.029577,0,0,0.083333,-0,-0,0.66667
0.62095,0.24362,7.4514,-0.38457,-45.201,296.14,7.6415,-2.5472,-1.473,10.189,2.0139e-12,-0.7365,0,0,0.083333,3.9475e-16,0,0.66667
0.13339,0.17423,1.6007,-0.48866,-91.989,1245.4,2.0859,-0.6953,-1.1466,2.7812,1.0851e-08,-0.5733,0,0,0.083333,-1.9737e-16,0,0.66667
0.032909,0.9427,0.3949,0.66404,127.27,1476.7,-0.6993,0.23311,-0.43576,-0.9324,8.2227e-06,-0.21788,0,0,0.083333,-0,-0,0.66667
0.11341,0.72853,1.3609,0.3428,64.812,1291,-1.2441,0.41469,-1.5807,-1.6588,-1.3536e-08,-0.79034,0,0,0.083333,1.9737e-16,0,0.66667
0.47746,0.4321,5.7295,-0.10185,-15.039,528.43,1.5561,-0.51871,-1.9595,2.0748,-3.632e-12,-0.97976,0,0,0.083333,3.9475e-16,0,0.66667
0.024027,0.41009,0.28832,-0.13487,-25.803,1497.2,0.10369,-0.034564,-1.9319,0.13826,-6.3404e-07,-0.96595,0,0,0.083333,-0,-0,0.66667
0.62621,0.93658,7.5145,0.65487,76.338,289.59,-13.123,4.3742,-0.48061,-17.497,-1.2896e-12,-0.2403,0,0,0.083333,2.4672e-16,0,0.66667
0.097583,0.47113,1.171,-0.043299,-8.2091,1327.2,0.13521,-0.045069,-1.9931,0.18028,1.0114e-08,-0.99656,0,0,0.083333,-0,-0,0.66667
0.25096,0.46193,3.0115,-0.057099,-10.239,982.66,0.45854,-0.15285,-1.9935,0.61139,-2.0876e-12,-0.99674,0,0,0.083333,1.9737e-16,0,0.66667
0.42649,0.58072,5.1179,0.12108,18.951,622.72,-1.6525,0.55084,-1.9454,-2.2034,-6.7798e-12,-0.9727,0,0,0.083333,-7.8949e-16,0,0.66667
0.11583,0.15506,1.3899,-0.51741,-97.851,1285.5,1.9177,-0.63925,-1.0455,2.557,-7.4744e-09,-0.52274,0,0,0.083333,1.2336e-17,0,0.66667
0.27055,0.64958,3.2466,0.22436,39.805,940.33,-1.9425,0.64749,-1.8187,-2.59,-1.353e-11,-0.90935,0,0,0.083333,5.5494e-16,0,0.66667
0.02108,0.41103,0.25296,-0.13346,-25.538,1504.1,0.090027,-0.030009,-1.9341,0.12004,-5.7057e-07,-0.96704,0,0,0.083333,-0,-0,0.66667
0.98505,0.91164,11.821,0.61746,3.4031,2.7698,-19.463,6.4877,-0.65043,-25.951,3.1437e-05,-0.32521,0,0,0.083333,3.158e-15,0,0.66667
0.61157,0.91266,7.3389,0.61899,74.279,310.46,-12.114,4.0379,-0.63988,-16.152,-5.3397e-12,-0.31994,0,0,0.083333,1.579e-15,0,0.66667
0.37835,0.31733,4.5402,-0.27401,-44.941,716.59,3.3176,-1.1059,-1.7332,4.4234,4.7815e-12,-0.8666,0,0,0.083333,-7.8949e-16,0,0.66667
0.026528,0.47707,0.31834,-0.034398,-6.5798,1491.4,0.029201,-0.0097339,-1.9935,0.038934,-4.1107e-07,-0.99676,0,0,0.083333,-0,-0,0.66667
0.38984,0.1005,4.6781,-0.59925,-97.444,694.43,7.4756,-2.4919,-0.72874,9.9674,3.2077e-12,-0.36437,0,0,0.083333,-0,-6.6837e-17,0.66667
0.45256,0.60277,5.4307,0.15416,23.45,573.85,-2.2325,0.74417,-1.9214,-2.9767,-5.1799e-12,-0.96071,0,0,0.083333,-0,-0,0.66667
0.931,0.20014,11.172,-0.44978,-11.338,12.894,13.4,-4.4667,-1.2766,17.867,-3.0002e-07,-0.6383,0,0,0.083333,-0,-0,0.66667
0.2785,0.23484,3.3421,-0.39774,-70.275,923.42,3.5447,-1.1816,-1.438,4.7262,-4.8876e-12,-0.71899,0,0,0.083333,3.9475e-16,0,0.66667
0.61478,0.45624,7.3774,-0.065639,-7.8014,304.56,1.2913,-0.43044,-1.9814,1.7218,1.2982e-12,-0.99069,0,0,0.083333,-7.8949e-16,0,0.66667
0.66517,0.4662,7.982,-0.050705,-5.3985,235.18,1.0793,-0.35976,-1.9878,1.439,4.9338e-13,-0.99391,0,0,0.083333,-0,-0,0.66667
0.18596,0.22814,2.2315,-0.40778,-75.419,1126.5,2.4266,-0.80887,-1.4121,3.2355,3.5349e-11,-0.70605,0,0,0.083333,-0,-0,0.66667
0.50576,0.12311,6.0692,-0.56534,-80.637,479.34,9.1497,-3.0499,-0.86127,12.2,-3.3014e-12,-0.43064,0,0,0.083333,3.9475e-16,0,0.66667
0.7865,0.58694,9.438,0.13041,9.4767,101.25,-3.2823,1.0941,-1.9369,-4.3764,-8.0185e-12,-0.96843,0,0,0.083333,-0,-0,0.66667
0.096579,0.3125,1.1589,-0.28125,-53.355,1329.6,0.86921,-0.28974,-1.7208,1.1589,4.7476e-08,-0.86038,0,0,0.083333,-0,-0,0.66667
0.60604,0.021674,7.2724,-0.71749,-87.127,319,13.914,-4.6381,-0.16926,18.552,3.3422e-12,-0.084629,0,0,0.083333,1.579e-15,8.3894e-17,0.66667
0.02606,0.10322,0.31272,-0.59518,-114.07,1492.6,0.49633,-0.16546,-0.7376,0.66176,-3.1379e-05,-0.3688,0,0,0.083333,-4.9343e-17,0,0.66667
0.0070467,0.81731,0.084561,0.47597,91.215,1536.7,-0.10732,0.03577,-1.191,-0.1431,-6.9787e-06,-0.59548,0,0,0.083333,-0,-0,0.66667
0.059529,0.029081,0.71434,-0.70638,-135.1,1415.2,1.3456,-0.44854,-0.22719,1.7941,-1.9253e-05,-0.11359,0,0,0.083333,-2.4672e-17,0,0.66667
0.4814,0.75066,5.7768,0.376,55.297,521.71,-5.7922,1.9307,-1.4989,-7.7229,-3.1974e-13,-0.74946,0,0,0.083333,-0,-0,0.66667
0.9257,0.30437,11.108,-0.29345,-7.916,14.091,8.6928,-2.8976,-1.6928,11.59,-2.0352e-07,-0.84639,0,0,0.083333,-7.8949e-16,0,0.66667
0.40556,0.40507,4.8667,-0.1424,-22.764,662.97,1.848,-0.61601,-1.9346,2.464,-5.3836e-12,-0.96731,0,0,0.083333,8.3884e-16,0,0.66667
0.075033,0.5209,0.90039,0.031349,5.9669,1379.2,-0.07527,0.02509,-1.9965,-0.10036,-5.1203e-08,-0.99825,0,0,0.083333,-0,-0,0.66667
0.86135,0.6872,10.336,0.2808,13.773,44.962,-7.7398,2.5799,-1.7233,-10.32,2.4063e-09,-0.86167,0,0,0.083333,5.181e-16,0,0.66667
0.5193,0.30955,6.2316,-0.28568,-39.917,455.49,4.7473,-1.5824,-1.7098,6.3298,-6.3949e-13,-0.85488,0,0,0.083333,-0,-0,0.66667
0.31894,0.62751,3.8272,0.19127,32.884,837.73,-1.9521,0.65069,-1.867,-2.6028,2.3019e-12,-0.93351,0,0,0.083333,-0,-0,0.66667
0.96303,0.80991,11.556,0.46486,6.3099,4.8482,-14.326,4.7752,-1.2292,-19.101,1.6674e-06,-0.61461,0,0,0.083333,-2.1711e-15,0,0.66667
0.93826,0.4091,11.259,-0.13635,-3.0558,9.7437,4.0938,-1.3646,-1.9401,5.4585,-1.0781e-07,-0.97005,0,0,0.083333,-0,-0,0.66667
0.26002,0.97233,3.1202,0.7085,126.79,963.69,-5.8951,1.965,-0.21269,-7.8602,2.0091e-11,-0.10635,0,0,0.083333,-0,-0,0.66667
0.20139,0.64727,2.4167,0.22091,40.576,1091.9,-1.4236,0.47455,-1.8294,-1.8982,3.6342e-11,-0.91471,0,0,0.083333,-1.9737e-16,0,0.66667
0.58891,0.78847,7.0669,0.4327,54.098,343.59,-8.1543,2.7181,-1.332,-10.872,8.9706e-13,-0.666,0,0,0.083333,-0,-0,0.66667
0.84252,0.0061131,10.11,-0.74083,-41.262,59.284,19.973,-6.6577,-0.053078,26.631,6.5963e-09,-0.026539,0,0,0.083333,-0,-0,0.66667
0.33672,0.21691,4.0407,-0.42464,-72.118,801.11,4.5755,-1.5252,-1.3558,6.1007,-1.5592e-12,-0.67792,0,0,0.083333,4.9343e-17,0,0.66667
0.58643,0.57577,7.0372,0.11366,14.253,346.82,-2.1329,0.71097,-1.9497,-2.8439,2.6688e-12,-0.97484,0,0,0.083333,-0,-0,0.66667
0.16224,0.9534,1.9469,0.6801,127.07,1180.1,-3.531,1.177,-0.35158,-4.708,3.1061e-09,-0.17579,0,0,0.083333,-1.9737e-16,0,0.66667
0.19459,0.060445,2.3351,-0.65933,-121.71,1107.5,4.1057,-1.3686,-0.45124,5.4742,-4.4786e-09,-0.22562,0,0,0.083333,4.4409e-16,0,0.66667
0.76134,0.9671,9.136,0.70065,56.498,126.85,-17.07,5.6899,-0.25383,-22.76,1.288e-11,-0.12692,0,0,0.083333,7.8949e-16,0,0.66667
0.1501,0.4822,1.8012,-0.026707,-4.9966,1207.2,0.12828,-0.042759,-1.9936,0.17103,-4.8331e-10,-0.99678,0,0,0.083333,-3.9475e-16,0,0.66667
0.26591,0.28937,3.1909,-0.31595,-56.221,950.41,2.6884,-0.89614,-1.6519,3.5845,-3.5301e-12,-0.82594,0,0,0.083333,-0,-0,0.66667
0.68949,0.45338,8.2739,-0.06993,-7.0031,204.44,1.5429,-0.51431,-1.9846,2.0572,-4.2155e-12,-0.99232,0,0,0.083333,1.579e-15,0,0.66667
0.015089,0.70277,0.18107,0.30415,58.236,1518,-0.14686,0.048955,-1.6768,-0.19582,5.7352e-07,-0.83838,0,0,0.083333,-0,-0,0.66667
0.032194,0.21036,0.38633,-0.43446,-83.162,1478.3,0.44759,-0.1492,-1.3338,0.59679,-1.5465e-06,-0.66691,0,0,0.083333,-0,-0,0.66667
0.28753,0.13666,3.4503,-0.54502,-95.842,904.36,5.0146,-1.6715,-0.93993,6.6861,-4.8659e-12,-0.46997,0,0,0.083333,-0,-0,0.66667
0.33662,0.26819,4.0395,-0.34771,-59.036,801.21,3.7455,-1.2485,-1.5658,4.994,-3.3995e-13,-0.78289,0,0,0.083333,-0,-0,0.66667
0.36222,0.8167,4.3466,0.47505,79.077,749.23,-5.5062,1.8354,-1.1988,-7.3417,1.1545e-11,-0.5994,0,0,0.083333,-0,-0,0.66667
0.80719,0.88738,9.6863,0.58106,38.738,84.879,-15.009,5.003,-0.79632,-20.012,6.5255e-10,-0.39816,0,0,0.083333,-0,-0,0.66667
0.035981,0.10633,0.43177,-0.59051,-113.1,1469.6,0.67992,-0.22663,-0.75759,0.90656,6.4752e-06,-0.37879,0,0,0.083333,-0,-0,0.66667
0.3584,0.41538,4.3007,-0.12693,-21.169,756.55,1.4557,-0.48525,-1.9475,1.941,-3.8494e-12,-0.97375,0,0,0.083333,-0,-0,0.66667
0.63828,0.69615,7.6593,0.29422,33.331,271.56,-6.0095,2.0032,-1.6938,-8.0127,-1.2768e-12,-0.8469,0,0,0.083333,-0,-0,0.66667
0.143,0.43995,1.716,-0.09007,-16.888,1223.3,0.41217,-0.13739,-1.9736,0.54956,1.1225e-09,-0.98678,0,0,0.083333,3.9475e-16,0,0.66667
0.85774,0.92906,10.293,0.64359,32.559,48.731,-17.665,5.8884,-0.53045,-23.554,-3.8879e-08,-0.26523,0,0,0.083333,7.8949e-16,-7.7804e-17,0.66667
0.64556,0.89482,7.7468,0.59223,66.19,262.48,-12.234,4.0781,-0.75017,-16.312,-5.0662e-12,-0.37509,0,0,0.083333,-0,-0,0.66667
0.11529,0.65348,1.3835,0.23022,43.492,1286.6,-0.84936,0.28312,-1.8089,-1.1325,-1.1922e-08,-0.90446,0,0,0.083333,2.2204e-16,0,0.66667
0.2081,0.95595,2.4972,0.68393,125.56,1077.4,-4.5544,1.5181,-0.33398,-6.0725,-1.4386e-10,-0.16699,0,0,0.083333,-3.9475e-16,0,0.66667
0.7455,0.23223,8.946,-0.40166,-34.091,141.54,9.582,-3.194,-1.424,12.776,3.8902e-13,-0.71202,0,0,0.083333,-0,-0,0.66667
0.40341,0.77653,4.8409,0.41479,66.512,667.48,-5.3546,1.7849,-1.3893,-7.1394,4.8272e-12,-0.69467,0,0,0.083333,2.3886e-16,0,0.66667
0.48447,0.70486,5.8136,0.30728,45.002,516.12,-4.7638,1.5879,-1.6713,-6.3518,-2.9092e-12,-0.83563,0,0,0.083333,-0,-0,0.66667
0.88746,0.48642,10.649,-0.020371,-0.81897,30.004,0.57851,-0.19284,-1.9982,0.77135,-2.7287e-09,-0.99911,0,0,0.083333,1.579e-15,0,0.66667
0.13744,0.35178,1.6493,-0.22233,-41.763,1236,0.97786,-0.32595,-1.8243,1.3038,2.3847e-09,-0.91214,0,0,0.083333,-0,-0,0.66667
0.96437,0.15595,11.572,-0.51608,-6.7761,4.8653,15.926,-5.3087,-1.0525,21.235,-2.0236e-06,-0.52623,0,0,0.083333,1.9491e-15,0,0.66667
0.04263,0.63231,0.51156,0.19847,37.929,1454.1,-0.27074,0.090247,-1.8584,-0.36099,-1.1853e-08,-0.9292,0,0,0.083333,-9.8686e-17,0,0.66667
0.09944,0.69079,1.1933,0.28618,54.26,1323,-0.91065,0.30355,-1.7063,-1.2142,-4.6146e-08,-0.85313,0,0,0.083333,-0,-0,0.66667
0.22324,0.15437,2.6789,-0.51845,-94.423,1043.7,3.7036,-1.2345,-1.0433,4.9381,-1.4823e-11,-0.52164,0,0,0.083333,-1.4803e-16,0,0.66667
0.80659,0.14196,9.679,-0.53706,-35.878,85.163,13.862,-4.6206,-0.9707,18.482,-8.7383e-11,-0.48535,0,0,0.083333,1.579e-15,0,0.66667
0.45587,0.70461,5.4705,0.30691,46.532,567.91,-4.4773,1.4924,-1.6655,-5.9697,-7.5979e-12,-0.83277,0,0,0.083333,-7.8949e-16,0,0.66667
0.65325,0.76015,7.839,0.39022,42.784,251.43,-8.1572,2.7191,-1.4588,-10.876,-5.4321e-12,-0.72938,0,0,0.083333,1.579e-15,0,0.66667
0.17432,0.64782,2.0919,0.22173,41.16,1152.5,-1.2368,0.41228,-1.8266,-1.6491,7.6878e-11,-0.91331,0,0,0.083333,-1.9737e-16,0,0.66667
0.16672,0.18163,2.0007,-0.47756,-88.978,1169.8,2.5478,-0.84928,-1.1866,3.3971,1.0477e-09,-0.59332,0,0,0.083333,-1.9734e-16,0,0.66667
0.52085,0.11611,6.2502,-0.57583,-80.428,453.55,9.5974,-3.1991,-0.81818,12.797,-5.8389e-12,-0.40909,0,0,0.083333,-0,-0,0.66667
0.74029,0.50936,8.8835,0.014033,1.2095,146.36,-0.33242,0.11081,-1.9958,-0.44323,3.8454e-12,-0.99789,0,0,0.083333,-3.158e-15,0,0.66667
0.46247,0.45731,5.5497,-0.064035,-9.628,555.57,0.94766,-0.31589,-1.9815,1.2636,2.3713e-12,-0.99076,0,0,0.083333,-0,-0,0.66667
0.86961,0.95095,10.435,0.67642,31.586,41.805,-18.823,6.2744,-0.36985,-25.098,2.5549e-09,-0.18492,0,0,0.083333,-0,-0,0.66667
0.66041,0.42284,7.9249,-0.11573,-12.463,241.44,2.4458,-0.81527,-1.9505,3.2611,-1.8292e-12,-0.97523,0,0,0.083333,7.8949e-16,0,0.66667
0.24909,0.48536,2.9891,-0.021962,-3.9423,986.73,0.17506,-0.058353,-2.003,0.23341,-4.5855e-12,-1.0015,0,0,0.083333,3.9475e-16,0,0.66667
0.2349,0.11236,2.8188,-0.58147,-105.35,1018.2,4.3708,-1.4569,-0.80363,5.8277,1.0736e-10,-0.40182,0,0,0.083333,-3.9475e-16,0,0.66667
0.37405,0.95986,4.4886,0.6898,113.85,725.98,-8.2565,2.7522,-0.31308,-11.009,2.7622e-12,-0.15654,0,0,0.083333,-0,-0,0.66667
0.75662,0.29089,9.0794,-0.31367,-25.597,129.94,7.5944,-2.5315,-1.6462,10.126,1.1775e-11,-0.82311,0,0,0.083333,-0,-0,0.66667
0.93794,0.59003,11.255,0.13505,3.0423,9.837,-4.0532,1.3511,-1.9421,-5.4043,1.0571e-07,-0.97106,0,0,0.083333,1.9737e-15,0,0.66667
0.86191,0.86889,10.343,0.55334,27.169,45.669,-15.262,5.0872,-0.91287,-20.349,-9.9086e-09,-0.45643,0,0,0.083333,1.579e-15,0,0.66667
0.26161,0.10899,3.1393,-0.58651,-104.77,960.03,4.91,-1.6367,-0.7752,6.5467,6.3423e-11,-0.3876,0,0,0.083333,-3.9475e-16,0,0.66667
0.41228,0.82737,4.9473,0.49105,78.092,650.45,-6.4784,2.1595,-1.1388,-8.6378,-3.3431e-12,-0.5694,0,0,0.083333,7.8949e-16,0,0.66667
0.61154,0.33883,7.3385,-0.24176,-28.932,309.44,4.7311,-1.577,-1.7946,6.3082,1.342e-12,-0.89731,0,0,0.083333,-3.9475e-16,0,0.66667
0.54683,0.62379,6.562,0.18569,24.89,409.48,-3.2494,1.0831,-1.886,-4.3325,1.3767e-12,-0.94299,0,0,0.083333,9.8686e-17,0,0.66667
0.38927,0.98299,4.6713,0.72448,117.99,695.89,-9.0247,3.0082,-0.13733,-12.033,9.1394e-13,-0.068665,0,0,0.083333,7.8949e-16,0,0.66667
0.10142,0.62979,1.217,0.19469,36.89,1318.4,-0.63187,0.21062,-1.8616,-0.84249,-3.3447e-08,-0.93079,0,0,0.083333,-0,-0,0.66667
0.71224,0.91716,8.5469,0.62575,59.084,178.86,-14.262,4.754,-0.6038,-19.016,6.14e-12,-0.3019,0,0,0.083333,1.579e-15,0,0.66667
0.088135,0.25882,1.0576,-0.36176,-68.757,1349,1.0203,-0.3401,-1.5314,1.3604,2.5841e-08,-0.76572,0,0,0.083333,-0,-0,0.66667
0.86608,0.13337,10.393,-0.54994,-26.239,43.152,15.241,-5.0805,-0.9208,20.322,7.7011e-09,-0.4604,0,0,0.083333,-0,-0,0.66667
0.86345,0.45144,10.361,-0.072843,-3.5167,43.351,2.0127,-0.67089,-1.9794,2.6836,-6.8671e-10,-0.98968,0,0,0.083333,-0,-0,0.66667
0.70845,0.56295,8.5014,0.094423,8.9759,181.8,-2.1406,0.71353,-1.9666,-2.8541,6.1515e-12,-0.98331,0,0,0.083333,-3.158e-15,0,0.66667
0.48642,0.019851,5.8371,-0.72022,-105.53,513.74,11.211,-3.7369,-0.15768,14.948,-2.5953e-12,-0.078839,0,0,0.083333,1.579e-15,0,0.66667
0.69915,0.99142,8.3898,0.73713,72.334,194.77,-16.492,5.4972,-0.066741,-21.989,5.5422e-12,-0.033371,0,0,0.083333,-7.8949e-16,0,0.66667
0.39499,0.35642,4.7398,-0.21538,-34.785,683.66,2.7223,-0.90742,-1.8329,3.6297,-2.6545e-12,-0.91647,0,0,0.083333,-0,-0,0.66667
0.7975,0.047867,9.57,-0.6782,-47.326,93.503,17.308,-5.7692,-0.37007,23.077,2.3088e-09,-0.18503,0,0,0.083333,-1.579e-15,0,0.66667
0.78642,0.17392,9.437,-0.48912,-35.667,102.25,12.309,-4.1029,-1.1463,16.412,8.6304e-12,-0.57314,0,0,0.083333,-1.579e-15,0,0.66667
0.15553,0.89369,1.8663,0.59053,110.51,1195.2,-2.939,0.97967,-0.76534,-3.9187,-2.1119e-09,-0.38267,0,0,0.083333,-3.8156e-16,9.4899e-17,0.66667
0.31782,0.39291,3.8138,-0.16064,-27.637,840.04,1.6337,-0.54456,-1.905,2.1782,-6.2862e-12,-0.9525,0,0,0.083333,-3.9475e-16,0,0.66667
0.34398,0.73087,4.1278,0.3463,58.463,786.09,-3.8119,1.2706,-1.5802,-5.0825,-1.9957e-12,-0.79012,0,0,0.083333,-0,-0,0.66667
0.36417,0.16084,4.37,-0.50873,-84.563,745.35,5.9285,-1.9762,-1.0779,7.9047,-1.3349e-12,-0.53895,0,0,0.083333,-0,-0,0.66667
0.56665,0.61345,6.7997,0.17017,22.087,377.63,-3.0856,1.0285,-1.8953,-4.1141,2.3284e-12,-0.94763,0,0,0.083333,-7.8949e-16,0,0.66667
0.041687,0.76339,0.50025,0.39508,75.558,1456.3,-0.52704,0.17568,-1.4419,-0.70272,-1.2839e-06,-0.72095,0,0,0.083333,-0,-0,0.66667
0.65997,0.70672,7.9196,0.31009,33.455,242.31,-6.5487,2.1829,-1.657,-8.7316,-3.4874e-12,-0.82848,0,0,0.083333,7.8949e-16,0,0.66667
0.20163,0.8168,2.4196,0.4752,87.364,1091.6,-3.0661,1.022,-1.2012,-4.0882,2.0923e-10,-0.60059,0,0,0.083333,-7.8949e-16,0,0.66667
0.41646,0.2235,4.9976,-0.41476,-65.653,642.25,5.5274,-1.8425,-1.3858,7.3698,-1.2734e-11,-0.69291,0,0,0.083333,-0,-0,0.66667
0.45089,0.16681,5.4107,-0.49979,-76.289,577.48,7.2112,-2.4037,-1.1135,9.615,-3.6757e-12,-0.55677,0,0,0.083333,7.8949e-16,0,0.66667
0.34873,0.88002,4.1847,0.57003,95.995,776.78,-6.3611,2.1204,-0.84253,-8.4815,7.7351e-12,-0.42127,0,0,0.083333,-0,-0,0.66667
0.38328,0.36035,4.5994,-0.20947,-34.198,706.74,2.5692,-0.85639,-1.8396,3.4256,-3.1313e-12,-0.91978,0,0,0.083333,7.8949e-16,0,0.66667
0.18031,0.54288,2.1637,0.064326,11.912,1139,-0.37115,0.12372,-1.981,-0.49486,-8.8674e-11,-0.9905,0,0,0.083333,-3.9475e-16,0,0.66667
0.06813,0.81761,0.81756,0.47642,90.882,1395.2,-1.0387,0.34622,-1.1902,-1.3849,-2.9374e-07,-0.59509,0,0,0.083333,1.9737e-16,0,0.66667
0.55126,0.16418,6.6151,-0.50373,-67.165,402.93,8.8859,-2.962,-1.096,11.848,-3.8582e-12,-0.548,0,0,0.083333,-0,-0,0.66667
0.59587,0.4447,7.1504,-0.082947,-10.223,332.5,1.5816,-0.5272,-1.9778,2.1088,1.3927e-12,-0.98889,0,0,0.083333,-1.579e-15,0,0.66667
0.1455,0.37933,1.746,-0.181,-33.918,1217.7,0.84276,-0.28092,-1.8816,1.1237,8.5537e-10,-0.94079,0,0,0.083333,3.9475e-16,0,0.66667
0.23094,0.15872,2.7713,-0.51192,-92.887,1026.8,3.7832,-1.2611,-1.0686,5.0442,2.9083e-11,-0.53432,0,0,0.083333,-0,-0,0.66667
0.28638,0.74191,3.4365,0.36287,63.794,906.56,-3.3253,1.1084,-1.5291,-4.4338,-1.5269e-11,-0.76457,0,0,0.083333,-0,-0,0.66667
0.83075,0.99515,9.969,0.74273,44.178,67.596,-19.745,6.5816,-0.040092,-26.326,5.0843e-09,-0.020046,0,0,0.083333,3.9475e-16,0,0.66667
0.15342,0.031936,1.8411,-0.7021,-131.58,1200.1,3.4469,-1.149,-0.24918,4.5959,-5.9638e-08,-0.12459,0,0,0.083333,-0,-0,0.66667
0.55214,0.032638,6.6257,-0.70104,-93.515,402.2,12.386,-4.1288,-0.25077,16.515,-5.409e-12,-0.12538,0,0,0.083333,1.579e-15,0,0.66667
0.56814,0.19799,6.8177,-0.45302,-58.736,375.81,8.2361,-2.7454,-1.2669,10.981,-8.189e-13,-0.63346,0,0,0.083333,-0,-0,0.66667
0.34342,0.76378,4.121,0.39568,66.843,787.31,-4.3483,1.4494,-1.4496,-5.7977,-8.3933e-14,-0.72482,0,0,0.083333,-0,-0,0.66667
0.35062,0.99772,4.2074,0.74658,125.72,773.36,-8.3764,2.7921,-0.01515,-11.169,9.3969e-12,-0.0075748,0,0,0.083333,1.9737e-16,0,0.66667
0.95911,0.57855,11.509,0.11782,1.745,4.5654,-3.616,1.2053,-1.9468,-4.8214,-2.8201e-08,-0.97341,0,0,0.083333,-0,-0,0.66667
0.55334,0.21879,6.6401,-0.42181,-56.021,399.33,7.469,-2.4897,-1.365,9.9586,-1.402e-12,-0.68248,0,0,0.083333,-0,-0,0.66667
0.65273,0.84955,7.8328,0.52433,57.623,252.55,-10.952,3.6506,-1.0222,-14.602,-7.3275e-12,-0.51112,0,0,0.083333,1.579e-15,0,0.66667
0.49074,0.44587,5.8889,-0.081192,-11.788,504.77,1.275,-0.42501,-1.9729,1.7,-3.891e-12,-0.98643,0,0,0.083333,1.579e-15,0,0.66667
0.64665,0.085672,7.7598,-0.62149,-69.316,261.12,12.86,-4.2868,-0.6232,17.147,1.0214e-13,-0.3116,0,0,0.083333,-7.8949e-16,0,0.66667
0.60525,0.7387,7.263,0.35805,43.401,318.91,-6.9347,2.3116,-1.5424,-9.2463,2.7951e-12,-0.77122,0,0,0.083333,-7.8949e-16,0,0.66667
0.14517,0.082599,1.7421,-0.6261,-117.57,1218.7,2.9086,-0.96953,-0.60392,3.8781,9.0934e-09,-0.30196,0,0,0.083333,-0,-0,0.66667
0.33468,0.095343,4.0162,-0.60699,-103.37,805.65,6.5007,-2.1669,-0.68723,8.6676,6.9011e-13,-0.34361,0,0,0.083333,7.8949e-16,0,0.66667
0.46043,0.92953,5.5252,0.64429,97.38,560.32,-9.4929,3.1643,-0.52004,-12.657,-8.6242e-12,-0.26002,0,0,0.083333,7.8949e-16,0,0.66667
0.12782,0.81493,1.5339,0.47239,89.051,1258.1,-1.9322,0.64407,-1.2081,-2.5763,-3.5173e-09,-0.60405,0,0,0.083333,3.9475e-16,0,0.66667
0.36307,0.98364,4.3569,0.72547,120.9,748.08,-8.4287,2.8096,-0.12748,-11.238,8.189e-13,-0.063741,0,0,0.083333,-0,-0,0.66667
0.22814,0.20279,2.7377,-0.44581,-80.972,1032.8,3.2547,-1.0849,-1.2893,4.3395,-6.939e-11,-0.64467,0,0,0.083333,3.9475e-16,0,0.66667
0.8475,0.71505,10.17,0.32258,17.296,53.919,-8.7484,2.9161,-1.6297,-11.665,4.4405e-10,-0.81485,0,0,0.083333,-7.8949e-16,0,0.66667
0.34147,0.44094,4.0977,-0.08859,-14.975,791.03,0.96804,-0.32268,-1.9745,1.2907,1.2397e-11,-0.98727,0,0,0.083333,-0,-0,0.66667
0.22679,0.76364,2.7215,0.39547,71.857,1035.8,-2.87,0.95666,-1.4395,-3.8267,2.4716e-11,-0.71975,0,0,0.083333,-0,-0,0.66667
0.40818,0.28952,4.8982,-0.31572,-50.367,658.06,4.1239,-1.3746,-1.6481,5.4985,-1.0388e-11,-0.82406,0,0,0.083333,-0,-0,0.66667
0.68306,0.37592,8.1968,-0.18612,-18.96,212.5,4.0682,-1.3561,-1.8761,5.4242,-4.2446e-12,-0.93803,0,0,0.083333,-0,-0,0.66667
0.065622,0.75153,0.78746,0.3773,71.965,1401,-0.79229,0.2641,-1.495,-1.0564,-3.0598e-07,-0.74749,0,0,0.083333,-0,-0,0.66667
0.18073,0.67955,2.1688,0.26933,49.885,1138.1,-1.5576,0.5192,-1.7382,-2.0768,9.1587e-11,-0.86912,0,0,0.083333,-1.9737e-16,0,0.66667
0.69431,0.14693,8.3317,-0.5296,-52.511,199.6,11.767,-3.9222,-0.99873,15.689,-5.0715e-13,-0.49936,0,0,0.083333,-0,-0,0.66667
0.75226,0.021328,9.0271,-0.71801,-59.81,136.01,17.284,-5.7613,-0.16867,23.045,-1.5843e-11,-0.084333,0,0,0.083333,1.579e-15,0,0.66667
0.61775,0.20667,7.4131,-0.43999,-52.071,300.88,8.6978,-2.8993,-1.3073,11.597,3.1326e-12,-0.65367,0,0,0.083333,-0,-0,0.66667
0.8792,0.47542,10.55,-0.036873,-1.5857,34.328,1.0374,-0.3458,-1.9938,1.3832,-4.4227e-09,-0.99688,0,0,0.083333,-0,-0,0.66667
0.1688,0.90146,2.0256,0.6022,112.2,1165.2,-3.2528,1.0843,-0.71126,-4.3371,-3.4156e-09,-0.35563,0,0,0.083333,9.995e-17,-7.0778e-17,0.66667
0.70355,0.018279,8.4426,-0.72258,-70.034,189.47,16.268,-5.4226,-0.14961,21.69,3.217e-12,-0.074807,0,0,0.083333,-0,-0,0.66667
0.91726,0.070885,11.007,-0.64367,-19.506,18.771,18.893,-6.2978,-0.52473,25.191,-1.8649e-07,-0.26237,0,0,0.083333,-0,-0,0.66667
0.15074,0.52781,1.8089,0.041709,7.8019,1205.8,-0.20119,0.067064,-1.9914,-0.26826,-1.3121e-09,-0.9957,0,0,0.083333,1.9737e-16,0,0.66667
0.24376,0.012721,2.9252,-0.73092,-131.98,999.04,5.7015,-1.9005,-0.096535,7.602,-4.5843e-12,-0.048267,0,0,0.083333,-0,-0,0.66667
0.54668,0.99856,6.5602,0.74785,100.67,411.25,-13.083,4.3609,-0.019562,-17.444,3.9995e-12,-0.0097811,0,0,0.083333,-8.8818e-16,0,0.66667
0.34412,0.48962,4.1294,-0.01557,-2.6263,785.59,0.17145,-0.057151,-2.0055,0.2286,5.1528e-12,-1.0027,0,0,0.083333,-3.9475e-16,0,0.66667
0.69064,0.82371,8.2877,0.48556,48.596,203.89,-10.731,3.5771,-1.1615,-14.308,3.8396e-12,-0.58077,0,0,0.083333,-1.579e-15,0,0.66667
0.057568,0.96696,0.69081,0.70045,133.99,1419.7,-1.2903,0.43013,-0.25402,-1.7204,2.225e-05,-0.12701,0,0,0.083333,2.4672e-17,0,0.66667
0.16076,0.2414,1.9292,-0.3879,-72.385,1183.2,1.9955,-0.66517,-1.463,2.6607,2.0726e-11,-0.73149,0,0,0.083333,1.9737e-16,0,0.66667
0.71624,0.22011,8.5949,-0.41983,-39.088,173.47,9.6224,-3.2075,-1.3756,12.83,-9.3081e-13,-0.68782,0,0,0.083333,-0,-0,0.66667
0.97062,0.96997,11.647,0.70495,7.7888,5.0414,-21.896,7.2985,-0.23683,-29.194,-6.1776e-05,-0.11841,0,0,0.083333,-0,-0,0.66667
0.92955,0.34051,11.155,-0.23924,-6.1187,12.648,7.1164,-2.3721,-1.7931,9.4885,-1.9088e-07,-0.89655,0,0,0.083333,3.9475e-16,0,0.66667
0.90107,0.20697,10.813,-0.43954,-15.704,24.418,12.674,-4.2246,-1.31,16.898,-5.6122e-08,-0.65502,0,0,0.083333,-0,-0,0.66667
0.12774,0.17241,1.5329,-0.49138,-92.643,1258.3,2.0087,-0.66956,-1.1419,2.6782,4.6897e-09,-0.57097,0,0,0.083333,-0,-0,0.66667
0.14593,0.30722,1.7511,-0.28918,-54.196,1216.7,1.3504,-0.45013,-1.7002,1.8005,9.6334e-10,-0.85008,0,0,0.083333,-0,-0,0.66667
0.072265,0.42631,0.86718,-0.11053,-21.048,1385.6,0.25559,-0.085198,-1.953,0.34079,1.0597e-07,-0.97648,0,0,0.083333,-0,-0,0.66667
0.54254,0.11519,6.5105,-0.57721,-78.066,417.37,10.021,-3.3404,-0.81348,13.361,4.7784e-13,-0.40674,0,0,0.083333,-7.8949e-16,0,0.66667
0.88249,0.37526,10.59,-0.18711,-7.8451,32.733,5.284,-1.7613,-1.8727,7.0454,-7.8981e-09,-0.93636,0,0,0.083333,-3.158e-15,0,0.66667
0.53179,0.78252,6.3815,0.42378,58.187,434.72,-7.2116,2.4039,-1.3686,-9.6154,-1.3691e-12,-0.68429,0,0,0.083333,-0,-0,0.66667
0.78172,0.38596,9.3806,-0.17106,-12.679,105.63,4.2791,-1.4264,-1.902,5.7055,2.5621e-11,-0.951,0,0,0.083333,-0,-0,0.66667
0.18845,0.301,2.2614,-0.2985,-55.13,1120.8,1.8001,-0.60003,-1.6879,2.4001,-6.581e-11,-0.84394,0,0,0.083333,-0,-0,0.66667
0.86311,0.71527,10.357,0.32291,15.659,44.01,-8.9186,2.9729,-1.629,-11.891,3.3125e-09,-0.8145,0,0,0.083333,7.8949e-16,0,0.66667
0.18742,0.90243,2.2491,0.60365,111.71,1123.4,-3.6205,1.2068,-0.71236,-4.8273,2.7761e-09,-0.35618,0,0,0.083333,-0,4.2309e-17,0.66667
0.054764,0.79497,0.65717,0.44246,84.529,1426.1,-0.77539,0.25846,-1.2995,-1.0339,-3.6173e-08,-0.64974,0,0,0.083333,-0,-0,0.66667
0.42149,0.62865,5.0579,0.19298,30.364,632.31,-2.6028,0.8676,-1.8747,-3.4704,-3.83e-12,-0.93736,0,0,0.083333,-0,-0,0.66667
0.5551,0.16386,6.6613,-0.50421,-66.816,396.72,8.9564,-2.9855,-1.0921,11.942,-4.2046e-12,-0.54605,0,0,0.083333,-0,-0,0.66667
0.97074,0.74895,11.649,0.37342,3.9702,3.1722,-11.6,3.8666,-1.5077,-15.467,-2.5423e-06,-0.75386,0,0,0.083333,-4.9343e-16,0,0.66667
0.091754,0.59239,1.101,0.13858,26.305,1340.6,-0.40688,0.13563,-1.9352,-0.54251,-4.107e-08,-0.96758,0,0,0.083333,-2.0971e-16,0,0.66667
0.27392,0.28359,3.287,-0.32461,-57.496,933.17,2.8454,-0.94846,-1.6221,3.7938,-2.9181e-12,-0.81107,0,0,0.083333,-0,-0,0.66667
0.10511,0.48108,1.2613,-0.028376,-5.3715,1309.9,0.095441,-0.031814,-1.9951,0.12725,1.2552e-08,-0.99757,0,0,0.083333,-0,-0,0.66667
0.39044,0.77681,4.6853,0.41522,67.4,692.86,-5.1877,1.7292,-1.3946,-6.917,1.1847e-11,-0.69729,0,0,0.083333,-9.8686e-16,0,0.66667
0.28901,0.22681,3.4681,-0.40979,-71.94,901,3.7899,-1.2633,-1.3988,5.0532,4.2075e-12,-0.69942,0,0,0.083333,-0,-0,0.66667
0.5133,0.075364,6.1596,-0.63695,-89.97,466.61,10.462,-3.4875,-0.55884,13.95,-7.5584e-13,-0.27942,0,0,0.083333,-0,1.1233e-16,0.66667
0.34826,0.67315,4.1791,0.25972,43.685,777.26,-2.8943,0.96478,-1.7578,-3.8591,-1.253e-12,-0.8789,0,0,0.083333,-3.9475e-16,0,0.66667
0.92823,0.41132,11.139,-0.13302,-3.4595,12.892,3.9512,-1.3171,-1.9338,5.2683,-9.6142e-08,-0.9669,0,0,0.083333,-0,-0,0.66667
0.78995,0.43275,9.4794,-0.10088,-7.2243,98.153,2.55,-0.85,-1.9603,3.4,4.9247e-11,-0.98016,0,0,0.083333,-3.9475e-16,0,0.66667
0.86101,0.8875,10.332,0.58124,28.731,46.36,-16.015,5.3382,-0.80169,-21.353,-1.8238e-08,-0.40085,0,0,0.083333,1.579e-15,0,0.66667
0.1295,0.053844,1.554,-0.66923,-126.26,1254.4,2.7733,-0.92444,-0.40553,3.6978,-9.5037e-09,-0.20277,0,0,0.083333,-9.8686e-17,0,0.66667
0.57507,0.27064,6.9008,-0.34403,-44.051,364.68,6.331,-2.1103,-1.5792,8.4413,2.6783e-12,-0.78961,0,0,0.083333,-7.8949e-16,0,0.66667
0.21478,0.17028,2.5774,-0.49458,-90.416,1062.4,3.3993,-1.1331,-1.1287,4.5324,-5.424e-11,-0.56433,0,0,0.083333,3.9475e-16,0,0.66667
0.86824,0.10273,10.419,-0.59591,-28.036,42.127,16.556,-5.5188,-0.73345,22.075,1.1131e-08,-0.36673,0,0,0.083333,-0,-0,0.66667
0.015019,0.60019,0.18023,0.15028,28.764,1518.1,-0.07223,0.024077,-1.9258,-0.096307,2.433e-07,-0.96289,0,0,0.083333,-0,-0,0.66667
0.10574,0.29871,1.2689,-0.30193,-57.175,1308.5,1.0217,-0.34056,-1.6748,1.3622,3.726e-08,-0.83739,0,0,0.083333,-1.2523e-16,0,0.66667
0.37606,0.61931,4.5127,0.17896,29.403,721.08,-2.1536,0.71786,-1.8911,-2.8714,3.3871e-12,-0.94555,0,0,0.083333,1.9737e-16,0,0.66667
0.40209,0.93865,4.8251,0.65798,105.82,670.6,-8.4662,2.8221,-0.46024,-11.288,5.5804e-12,-0.23012,0,0,0.083333,-0,-1.34e-19,0.66667
0.27722,0.74272,3.3266,0.36408,64.368,926.13,-3.2297,1.0766,-1.5275,-4.3063,-1.4309e-11,-0.76373,0,0,0.083333,-1.9737e-16,0,0.66667
0.096063,0.90372,1.1528,0.60558,115.08,1330.9,-1.8616,0.62053,-0.6986,-2.4821,-7.2123e-08,-0.3493,0,0,0.083333,2.4672e-17,0,0.66667
0.11873,0.047085,1.4248,-0.67937,-128.53,1279,2.5812,-0.8604,-0.35493,3.4416,-1.409e-07,-0.17746,0,0,0.083333,-0,-0,0.66667
0.31794,0.85232,3.8153,0.52849,91.057,840.21,-5.3769,1.7923,-1.0039,-7.1693,-5.3011e-12,-0.50195,0,0,0.083333,-0,-0,0.66667
0.95079,0.10084,11.41,-0.59873,-10.908,8.1417,18.217,-6.0722,-0.72719,24.289,-2.2491e-06,-0.3636,0,0,0.083333,-0,-0,0.66667
0.20741,0.15554,2.4889,-0.51669,-94.778,1078.8,3.4293,-1.1431,-1.0503,4.5723,-4.6896e-11,-0.52513,0,0,0.083333,-1.4803e-16,0,0.66667
0.74728,0.73713,8.9674,0.3557,29.996,139.55,-8.5059,2.8353,-1.5507,-11.341,-3.9906e-12,-0.77535,0,0,0.083333,-7.8949e-16,0,0.66667
0.25819,0.083307,3.0983,-0.62504,-111.9,967.5,5.1641,-1.7214,-0.60667,6.8855,7.0109e-11,-0.30334,0,0,0.083333,-0,-0,0.66667
0.03724,0.51511,0.44688,0.022668,4.333,1466.6,-0.027013,0.0090042,-1.9943,-0.036018,-3.3372e-07,-0.99717,0,0,0.083333,-9.8686e-17,0,0.66667
0.016052,0.10748,0.19263,-0.58878,-112.88,1515.8,0.30243,-0.1008,-0.7734,0.40324,1.0857e-05,-0.3867,0,0,0.083333,-0,-0,0.66667
0.15271,0.48613,1.8325,-0.020811,-3.8904,1201.3,0.1017,-0.033898,-1.9975,0.13559,-1.1463e-09,-0.99875,0,0,0.083333,-0,-0,0.66667
0.46208,0.31167,5.545,-0.2825,-42.517,556.47,4.1773,-1.3924,-1.7135,5.5697,-4.3707e-12,-0.85677,0,0,0.083333,1.1842e-15,0,0.66667
0.7559,0.25769,9.0708,-0.36347,-29.749,130.79,8.792,-2.9307,-1.5269,11.723,9.071e-12,-0.76347,0,0,0.083333,-1.579e-15,0,0.66667
0.72881,0.74553,8.7458,0.36829,32.989,159.26,-8.5893,2.8631,-1.5151,-11.452,-3.8272e-12,-0.75755,0,0,0.083333,1.1842e-15,0,0.66667
0.35239,0.71762,4.2287,0.32643,54.738,768.91,-3.681,1.227,-1.6183,-4.908,4.4633e-12,-0.80913,0,0,0.083333,-5.3995e-16,0,0.66667
0.47914,0.78415,5.7497,0.42622,62.879,525.86,-6.535,2.1783,-1.352,-8.7134,-4.615e-12,-0.676,0,0,0.083333,1.579e-15,0,0.66667
0.81407,0.49966,9.7689,-0.00050605,-0.032475,77.87,0.013183,-0.0043943,-2.0046,0.017577,4.9474e-10,-1.0023,0,0,0.083333,-5.0577e-15,0,0.66667
0.8384,0.92464,10.061,0.63697,36.229,61.486,-17.089,5.6964,-0.55417,-22.785,-1.0325e-08,-0.27708,0,0,0.083333,1.579e-15,0,0.66667
0.31992,0.86752,3.839,0.55128,94.866,836.14,-5.6437,1.8812,-0.91543,-7.5249,1.5938e-12,-0.45772,0,0,0.083333,-5.9212e-16,0,0.66667
0.004265,0.70859,0.05118,0.31288,59.921,1543.1,-0.042701,0.014232,-1.6501,-0.056936,-2.3164e-06,-0.82504,0,0,0.083333,-0,-0,0.66667
0.046931,0.6721,0.56317,0.25816,49.324,1444.2,-0.3877,0.12923,-1.7701,-0.51693,-1.0713e-07,-0.88506,0,0,0.083333,-0,-0,0.66667
0.73781,0.43735,8.8537,-0.093982,-8.1679,149.04,2.2189,-0.73963,-1.9695,2.9585,-1.3201e-12,-0.98474,0,0,0.083333,-1.7764e-15,0,0.66667
0.27263,0.27182,3.2716,-0.34226,-60.672,935.95,2.986,-0.99533,-1.5794,3.9813,-9.1402e-12,-0.7897,0,0,0.083333,3.9475e-16,0,0.66667
0.48149,0.45736,5.7778,-0.063954,-9.3955,521.21,0.98537,-0.32846,-1.9858,1.3138,7.9853e-13,-0.99288,0,0,0.083333,-0,-0,0.66667
0.19203,0.87317,2.3044,0.55976,103.37,1113.1,-3.4397,1.1466,-0.88486,-4.5863,1.6922e-10,-0.44243,0,0,0.083333,-0,-0,0.66667
0.84711,0.65464,10.165,0.23197,12.455,53.952,-6.288,2.096,-1.8094,-8.384,5.1808e-10,-0.90469,0,0,0.083333,1.7764e-15,0,0.66667
0.50338,0.3426,6.0405,-0.2361,-33.721,482.77,3.8032,-1.2677,-1.8026,5.0709,3.1719e-12,-0.90128,0,0,0.083333,-0,-0,0.66667
0.52716,0.59032,6.3259,0.13548,18.708,442.02,-2.2855,0.76184,-1.934,-3.0473,-4.1034e-13,-0.96698,0,0,0.083333,3.9475e-16,0,0.66667
0.28808,0.59184,3.457,0.13776,24.178,902.76,-1.27,0.42333,-1.9295,-1.6933,-2.2593e-11,-0.96477,0,0,0.083333,-6.6989e-18,0,0.66667
0.512,0.0050055,6.144,-0.74249,-105.18,469.23,12.165,-4.055,-0.039523,16.22,-7.0521e-13,-0.019761,0,0,0.083333,3.158e-15,0,0.66667
0.0019636,0.26462,0.023564,-0.35307,-67.629,1548.4,0.022185,-0.0073929,-1.5589,0.02958,2.9226e-06,-0.77943,0,0,0.083333,-0,-0,0.66667
0.2773,0.82272,3.3275,0.48407,85.631,926.12,-4.2954,1.4318,-1.1654,-5.7272,-7.1543e-12,-0.58271,0,0,0.083333,-0,-0,0.66667
0.34876,0.43918,4.1852,-0.091233,-15.334,776.12,1.0182,-0.3394,-1.9688,1.3576,-4.5011e-12,-0.9844,0,0,0.083333,7.8949e-16,0,0.66667
0.28395,0.056621,3.4074,-0.66507,-117.31,912.2,6.0431,-2.0144,-0.42853,8.0575,1.1748e-11,-0.21426,0,0,0.083333,-3.9475e-16,0,0.66667
0.085952,0.497,1.0314,-0.0044972,-0.85446,1354,0.01237,-0.0041232,-1.9966,0.016493,-9.1125e-08,-0.99828,0,0,0.083333,-0,-0,0.66667
0.52178,0.62559,6.2614,0.18839,26.22,451.14,-3.1455,1.0485,-1.8714,-4.1941,-7.2786e-13,-0.93572,0,0,0.083333,-1.579e-15,0,0.66667
0.78848,0.46064,9.4617,-0.059035,-4.2537,99.426,1.4895,-0.49651,-1.9836,1.986,-1.7964e-11,-0.9918,0,0,0.083333,-0,-0,0.66667
0.9426,0.42139,11.311,-0.11791,-2.4573,8.4918,3.5565,-1.1855,-1.9475,4.742,-3.2278e-08,-0.97375,0,0,0.083333,-0,-0,0.66667
0.49729,0.57243,5.9675,0.10864,15.639,493.27,-1.7289,0.57628,-1.9588,-2.3051,-3.3125e-12,-0.97939,0,0,0.083333,-0,-0,0.66667
0.59375,0.57209,7.125,0.10814,13.381,335.69,-2.0546,0.68486,-1.9659,-2.7395,2.911e-12,-0.98295,0,0,0.083333,-0,-0,0.66667
0.29086,0.61677,3.4903,0.17516,30.689,896.86,-1.6303,0.54344,-1.8874,-2.1737,-2.5014e-11,-0.94372,0,0,0.083333,3.9475e-16,0,0.66667
0.14916,0.66568,1.7899,0.24852,46.526,1209.4,-1.1862,0.39541,-1.7763,-1.5816,-7.3518e-10,-0.88814,0,0,0.083333,-0,-0,0.66667
0.13187,0.73447,1.5825,0.35171,66.193,1248.8,-1.4842,0.49472,-1.5559,-1.9789,-4.9729e-09,-0.77794,0,0,0.083333,1.9737e-16,0,0.66667
0.73236,0.34327,8.7883,-0.2351,-20.805,155.08,5.5097,-1.8366,-1.8071,7.3462,1.7866e-12,-0.90353,0,0,0.083333,-2.9606e-16,0,0.66667
0.73447,0.44013,8.8136,-0.089805,-7.8895,152.61,2.1107,-0.70356,-1.9795,2.8143,-2.1056e-12,-0.98973,0,0,0.083333,-0,-0,0.66667
0.17935,0.52526,2.1522,0.03789,7.0188,1141.2,-0.21746,0.072486,-1.9911,-0.28994,-9.3364e-11,-0.99555,0,0,0.083333,-0,-0,0.66667
0.41356,0.24938,4.9627,-0.37593,-59.67,647.76,4.9751,-1.6584,-1.4947,6.6335,7.1836e-12,-0.74733,0,0,0.083333,-1.727e-16,0,0.66667
0.59414,0.30618,7.1297,-0.29072,-35.97,335.34,5.5274,-1.8425,-1.7062,7.3699,-2.8111e-12,-0.85309,0,0,0.083333,1.1842e-15,0,0.66667
0.12528,0.028402,1.5034,-0.7074,-133.64,1264.1,2.836,-0.94532,-0.22832,3.7813,-2.795e-07,-0.11416,0,0,0.083333,-0,-0,0.66667
0.78537,0.53462,9.4244,0.051929,3.7905,102.2,-1.3051,0.43503,-1.9896,-1.7401,3.8593e-11,-0.9948,0,0,0.083333,-0,-0,0.66667
0.61999,0.97729,7.4399,0.71594,84.585,298.72,-14.204,4.7347,-0.1749,-18.939,7.5406e-13,-0.087452,0,0,0.083333,-0,-0,0.66667
0.61522,0.1438,7.3827,-0.53431,-63.604,304.84,10.519,-3.5063,-0.98129,14.025,3.2072e-12,-0.49064,0,0,0.083333,-0,-0,0.66667
0.70121,0.72359,8.4145,0.33538,32.575,190.71,-7.5255,2.5085,-1.6031,-10.034,3.8858e-13,-0.80154,0,0,0.083333,-0,-0,0.66667
0.98718,0.23065,11.846,-0.40402,-1.8084,1.454,12.763,-4.2543,-1.42,17.017,-1.3775e-06,-0.71002,0,0,0.083333,1.579e-15,0,0.66667
0.56239,0.94628,6.7487,0.66942,87.798,385.64,-12.047,4.0158,-0.41391,-16.063,-2.4167e-12,-0.20695,0,0,0.083333,-0,-7.9765e-17,0.66667
0.86442,0.18481,10.373,-0.47279,-22.78,43.775,13.078,-4.3593,-1.2034,17.437,-9.1413e-09,-0.6017,0,0,0.083333,-1.7764e-15,0,0.66667
0.41871,0.46732,5.0245,-0.049024,-7.7339,637.56,0.65685,-0.21895,-1.9925,0.8758,-4.4634e-12,-0.99627,0,0,0.083333,3.9475e-16,0,0.66667
0.65447,0.36218,7.8536,-0.20673,-22.579,249.42,4.3295,-1.4432,-1.8506,5.7727,3.908e-14,-0.9253,0,0,0.083333,-7.8949e-16,0,0.66667
0.92526,0.89516,11.103,0.59274,16.246,15.553,-17.55,5.85,-0.75021,-23.4,6.9549e-07,-0.3751,0,0,0.083333,7.8949e-16,0,0.66667
0.66415,0.023376,7.9698,-0.71494,-76.681,238.31,15.194,-5.0648,-0.17858,20.259,2.4958e-13,-0.089292,0,0,0.083333,-0,-0,0.66667
0.30308,0.34674,3.637,-0.2299,-39.964,871.02,2.2297,-0.74322,-1.8092,2.9729,9.0594e-13,-0.90461,0,0,0.083333,-0,-0,0.66667
0.61995,0.97933,7.4393,0.71899,84.956,298.8,-14.263,4.7545,-0.15914,-19.018,6.9278e-14,-0.079569,0,0,0.083333,-0,-0,0.66667
0.35132,0.026396,4.2158,-0.71041,-119.52,771.84,7.9865,-2.6622,-0.20194,10.649,-5.1514e-12,-0.10097,0,0,0.083333,3.9475e-16,0,0.66667
0.32237,0.86407,3.8684,0.5461,93.806,831.03,-5.6334,1.8778,-0.93613,-7.5113,-6.8034e-13,-0.46806,0,0,0.083333,3.9475e-16,0,0.66667
0.61021,0.77502,7.3225,0.41253,49.546,311.76,-8.0553,2.6851,-1.4004,-10.74,4.3787e-13,-0.7002,0,0,0.083333,-3.9475e-16,0,0.66667
0.16032,0.98614,1.9239,0.72922,136.39,1184.5,-3.7411,1.247,-0.10754,-4.9882,9.3973e-10,-0.053771,0,0,0.083333,-0,-0,0.66667
0.48674,0.56437,5.8409,0.096555,14.091,511.86,-1.5039,0.5013,-1.9694,-2.0052,-2.5038e-12,-0.9847,0,0,0.083333,-0,-0,0.66667
0.94563,0.87144,11.348,0.55716,11.17,9.1761,-16.86,5.6199,-0.89283,-22.48,-1.0956e-06,-0.44642,0,0,0.083333,-0,-0,0.66667
0.38391,0.026221,4.607,-0.71067,-116.29,706.43,8.7307,-2.9102,-0.20081,11.641,1.3298e-11,-0.10041,0,0,0.083333,-0,-0,0.66667
0.18896,0.3976,2.2676,-0.1536,-28.353,1119.6,0.92881,-0.3096,-1.9197,1.2384,-4.0445e-11,-0.95986,0,0,0.083333,-0,-0,0.66667
0.46884,0.25317,5.6261,-0.37025,-55.298,544.31,5.5548,-1.8516,-1.5207,7.4063,-1.4833e-13,-0.76033,0,0,0.083333,-0,-0,0.66667
0.84091,0.14734,10.091,-0.52898,-29.591,59.182,14.234,-4.7448,-1.0057,18.979,6.6642e-10,-0.50283,0,0,0.083333,-0,-0,0.66667
0.84267,0.0057302,10.112,-0.7414,-41.259,59.186,19.992,-6.6641,-0.050485,26.656,6.6844e-09,-0.025243,0,0,0.083333,-0,5.9111e-17,0.66667
0.8278,0.069263,9.9336,-0.64611,-38.947,69.166,17.115,-5.7051,-0.52257,22.82,1.5211e-08,-0.26129,0,0,0.083333,-0,-6.6939e-17,0.66667
0.011476,0.066649,0.13771,-0.65003,-124.69,1526.4,0.23869,-0.079512,-0.49666,0.31828,7.8762e-05,-0.24833,0,0,0.083333,-0,-0,0.66667
0.26704,0.75264,3.2045,0.37896,67.408,948.03,-3.2383,1.0794,-1.4939,-4.3178,-1.4628e-12,-0.74697,0,0,0.083333,-7.8949e-16,0,0.66667
0.99988,0.8338,11.999,0.50071,-0.13807,1.3391,-16.021,5.3402,-1.1157,-21.361,-1.4266e-05,-0.55786,0,0,0.083333,7.8949e-16,-6.0775e-18,0.66667
0.11968,0.26451,1.4362,-0.35324,-66.689,1276.6,1.3528,-0.45095,-1.5531,1.8038,2.0931e-09,-0.77654,0,0,0.083333,-0,-0,0.66667
0.49009,0.72365,5.8811,0.33547,48.783,506.2,-5.2611,1.7537,-1.597,-7.0148,-1.4304e-12,-0.79852,0,0,0.083333,-0,-0,0.66667
0.79003,0.21443,9.4803,-0.42836,-30.744,98.814,10.829,-3.6098,-1.3442,14.439,-3.9799e-12,-0.67209,0,0,0.083333,1.1842e-15,0,0.66667
0.12221,0.62741,1.4666,0.19111,36.04,1270.8,-0.74739,0.24913,-1.8717,-0.99652,-5.4797e-09,-0.93587,0,0,0.083333,-0,-0,0.66667
0.66241,0.7714,7.9489,0.4071,43.699,239.36,-8.6294,2.8765,-1.407,-11.506,-9.5035e-13,-0.70351,0,0,0.083333,-7.8949e-16,0,0.66667
0.48808,0.77185,5.857,0.40777,59.474,509.89,-6.3688,2.1229,-1.4078,-8.4918,2.145e-13,-0.70391,0,0,0.083333,-0,-0,0.66667
0.19429,0.75179,2.3315,0.37768,69.613,1107.8,-2.3481,0.78272,-1.4899,-3.1309,1.4542e-10,-0.74495,0,0,0.083333,-7.8949e-16,0,0.66667
0.87863,0.66892,10.544,0.25339,10.962,34.93,-7.1243,2.3748,-1.7707,-9.499,6.7264e-09,-0.88533,0,0,0.083333,-0,-0,0.66667
0.18149,0.54719,2.1778,0.070791,13.103,1136.4,-0.41112,0.13704,-1.9783,-0.54817,-1.1685e-11,-0.98916,0,0,0.083333,3.9475e-16,0,0.66667
0.63905,0.6496,7.6686,0.22439,25.37,270.36,-4.5888,1.5296,-1.8245,-6.1184,3.2063e-13,-0.91227,0,0,0.083333,-1.1842e-15,0,0.66667
0.74083,0.71345,8.8899,0.32018,27.583,146.2,-7.5904,2.5301,-1.6321,-10.121,-7.7005e-13,-0.81606,0,0,0.083333,-3.9475e-16,0,0.66667
0.56267,0.3174,6.7521,-0.2739,-35.801,384.07,4.9317,-1.6439,-1.7408,6.5756,3.082e-13,-0.8704,0,0,0.083333,-0,-0,0.66667
0.62884,0.67071,7.5461,0.25606,29.59,284.66,-5.1526,1.7175,-1.7654,-6.8702,3.9035e-13,-0.88272,0,0,0.083333,-0,-0,0.66667
0.11897,0.69832,1.4276,0.29748,56.161,1278.2,-1.1325,0.37749,-1.6817,-1.5099,-6.4511e-09,-0.84083,0,0,0.083333,-0,-0,0.66667
0.30804,0.30569,3.6964,-0.29147,-50.508,860.63,2.8731,-0.95769,-1.6962,3.8307,8.0869e-13,-0.84808,0,0,0.083333,-3.9475e-16,0,0.66667
0.58696,0.82402,7.0435,0.48602,61.002,346.71,-9.1289,3.043,-1.156,-12.172,1.6342e-13,-0.57798,0,0,0.083333,-0,-0,0.66667
0.39546,0.068938,4.7456,-0.64659,-104.63,683.51,8.1825,-2.7275,-0.5113,10.91,-8.491e-12,-0.25565,0,0,0.083333,-0,-0,0.66667
0.66395,0.084435,7.9674,-0.62335,-66.811,238.14,13.244,-4.4146,-0.61425,17.658,1.6342e-13,-0.30713,0,0,0.083333,-7.8949e-16,0,0.66667
0.85195,0.33421,10.223,-0.24869,-12.962,50.803,6.7799,-2.26,-1.7759,9.0399,-8.0807e-10,-0.88796,0,0,0.083333,-0,-0,0.66667
0.19022,0.95525,2.2827,0.68287,126.3,1117.3,-4.1567,1.3856,-0.34253,-5.5423,-1.1462e-09,-0.17126,0,0,0.083333,-1.9737e-16,0,0.66667
0.90327,0.37994,10.839,-0.18009,-6.2667,22.662,5.2055,-1.7352,-1.8855,6.9407,-3.6505e-08,-0.94275,0,0,0.083333,-0,-0,0.66667
0.38318,0.17095,4.5981,-0.49357,-80.689,707.35,6.052,-2.0173,-1.1294,8.0694,4.4644e-12,-0.56468,0,0,0.083333,-0,-0,0.66667
0.94312,0.51738,11.317,0.026069,0.53797,8.2819,-0.78676,0.26225,-1.994,-1.049,-1.9451e-07,-0.99702,0,0,0.083333,-3.158e-15,0,0.66667
0.61738,0.82548,7.4086,0.48822,57.845,301.57,-9.6454,3.2151,-1.1481,-12.861,-1.1164e-12,-0.57404,0,0,0.083333,-0,-0,0.66667
0.7901,0.40025,9.4811,-0.14963,-10.711,98.074,3.783,-1.261,-1.9168,5.044,1.2376e-11,-0.95839,0,0,0.083333,-0,-0,0.66667
0.51478,0.39592,6.1773,-0.15612,-21.945,463.04,2.5718,-0.85727,-1.9184,3.4291,-4.7518e-13,-0.95918,0,0,0.083333,7.8949e-16,0,0.66667
0.53114,0.32311,6.3737,-0.26534,-36.437,435.49,4.5098,-1.5033,-1.7568,6.0131,-2.7152e-12,-0.87839,0,0,0.083333,-0,-0,0.66667
0.32759,0.9063,3.9311,0.60945,104.34,820.3,-6.3888,2.1296,-0.68678,-8.5184,-9.5999e-12,-0.34339,0,0,0.083333,-7.8949e-16,0,0.66667
0.12936,0.2785,1.5524,-0.33225,-62.568,1254.5,1.3754,-0.45847,-1.6065,1.8339,5.0496e-09,-0.80324,0,0,0.083333,2.4672e-16,0,0.66667
0.38382,0.86047,4.6059,0.54071,88.371,706.17,-6.6412,2.2137,-0.9562,-8.8549,5.0933e-12,-0.4781,0,0,0.083333,-0,-0,0.66667
0.21498,0.73514,2.5797,0.35271,64.43,1061.8,-2.4264,0.80878,-1.5563,-3.2351,1.0495e-11,-0.77817,0,0,0.083333,-0,-0,0.66667
0.032865,0.56739,0.39438,0.10109,19.33,1476.7,-0.10631,0.035438,-1.9674,-0.14175,3.5736e-07,-0.98369,0,0,0.083333,-0,-0,0.66667
0.27489,0.69785,3.2986,0.29677,52.529,931.07,-2.6105,0.87018,-1.683,-3.4807,-2.2365e-11,-0.84148,0,0,0.083333,-0,-0,0.66667
0.18058,0.11326,2.1669,-0.5801,-107.61,1138.7,3.3521,-1.1174,-0.79926,4.4695,-1.8959e-09,-0.39963,0,0,0.083333,-1.9737e-16,0,0.66667
0.87553,0.49453,10.506,-0.008206,-0.36302,36.33,0.22991,-0.076636,-2.0062,0.30654,1.0703e-08,-1.0031,0,0,0.083333,1.9737e-15,0,0.66667
0.081237,0.69773,0.97484,0.2966,56.426,1364.9,-0.77104,0.25701,-1.6872,-1.028,-9.8704e-08,-0.84359,0,0,0.083333,-0,-0,0.66667
0.1839,0.31932,2.2067,-0.27102,-50.138,1131,1.5948,-0.53161,-1.7383,2.1265,-8.7555e-11,-0.86916,0,0,0.083333,3.9475e-16,0,0.66667
0.70403,0.1336,8.4484,-0.5496,-53.071,188.08,12.382,-4.1273,-0.93105,16.509,9.5985e-12,-0.46552,0,0,0.083333,-0,-0,0.66667
0.91923,0.11438,11.031,-0.57844,-17.08,17.641,17.015,-5.6716,-0.81117,22.686,-3.5159e-08,-0.40559,0,0,0.083333,-0,1.1405e-17,0.66667
0.25146,0.13385,3.0175,-0.54922,-98.634,981.98,4.4194,-1.4731,-0.93109,5.8925,2.1201e-11,-0.46554,0,0,0.083333,-0,-0,0.66667
0.021301,0.55831,0.25561,0.087459,16.734,1503.6,-0.059616,0.019872,-1.9701,-0.079487,3.9982e-07,-0.98506,0,0,0.083333,-1.2336e-17,0,0.66667
0.9605,0.04349,11.526,-0.68476,-10.114,6.6201,21.047,-7.0157,-0.32843,28.063,-3.7458e-05,-0.16422,0,0,0.083333,-1.579e-15,0,0.66667
0.68222,0.17197,8.1866,-0.49205,-50.34,214.3,10.742,-3.5807,-1.1359,14.323,-4.5324e-12,-0.56795,0,0,0.083333,1.579e-15,0,0.66667
0.31066,0.6582,3.728,0.23731,41.041,855.07,-2.3591,0.78637,-1.8035,-3.1455,-5.2884e-12,-0.90173,0,0,0.083333,-0,-0,0.66667
0.47237,0.20238,5.6685,-0.44643,-66.42,538.07,6.7482,-2.2494,-1.2903,8.9975,-3.7796e-12,-0.64514,0,0,0.083333,-0,-0,0.66667
0.59926,0.48702,7.1911,-0.019466,-2.3839,327.4,0.37328,-0.12443,-1.9952,0.49771,-2.0737e-12,-0.99762,0,0,0.083333,7.8949e-16,0,0.66667
0.37387,0.86508,4.4864,0.54762,90.297,725.98,-6.5516,2.1839,-0.93805,-8.7355,3.5807e-12,-0.46902,0,0,0.083333,-0,9.5468e-17,0.66667
0.87449,0.032853,10.494,-0.70072,-31.601,39.201,19.609,-6.5362,-0.26133,26.145,2.5327e-07,-0.13066,0,0,0.083333,-0,-0,0.66667
0.72617,0.93322,8.7141,0.64983,58.88,163.28,-15.101,5.0335,-0.495,-20.134,1.8997e-11,-0.2475,0,0,0.083333,-0,-0,0.66667
0.95434,0.26746,11.452,-0.34881,-5.8166,6.1255,10.652,-3.5507,-1.5713,14.203,-5.7891e-07,-0.78565,0,0,0.083333,-0,-0,0.66667
0.35107,0.12445,4.2128,-0.56333,-94.685,772,6.3285,-2.1095,-0.86885,8.438,4.8717e-12,-0.43442,0,0,0.083333,3.454e-16,0,0.66667
0.93717,0.3407,11.246,-0.23895,-5.4584,10.257,7.1661,-2.3887,-1.8044,9.5548,-1.862e-07,-0.90219,0,0,0.083333,-3.9475e-16,0,0.66667
0.4791,0.76559,5.7492,0.39838,58.765,525.87,-6.1076,2.0359,-1.4325,-8.1435,-4.1935e-12,-0.71624,0,0,0.083333,7.8949e-16,0,0.66667
0.64232,0.090553,7.7079,-0.61417,-69.151,266.99,12.624,-4.208,-0.66261,16.832,-1.6964e-12,-0.3313,0,0,0.083333,1.9737e-16,0,0.66667
0.73665,0.31012,8.8398,-0.28482,-24.868,150.56,6.714,-2.238,-1.7142,8.952,2.4052e-12,-0.85711,0,0,0.083333,-9.8686e-16,0,0.66667
0.80934,0.89091,9.7121,0.58637,38.705,83.157,-15.186,5.0621,-0.77717,-20.248,7.316e-11,-0.38859,0,0,0.083333,-0,-0,0.66667
0.39626,0.89415,4.7551,0.59122,95.559,681.81,-7.4968,2.4989,-0.75372,-9.9958,6.5903e-13,-0.37686,0,0,0.083333,3.9475e-16,0,0.66667
0.44795,0.27074,5.3754,-0.34389,-52.62,582.63,4.9295,-1.6432,-1.5765,6.5726,-3.5798e-12,-0.78827,0,0,0.083333,-0,-0,0.66667
0.81728,0.33538,9.8073,-0.24692,-15.614,75.612,6.4578,-2.1526,-1.7809,8.6103,8.2179e-11,-0.89044,0,0,0.083333,-0,-0,0.66667
0.71756,0.077759,8.6107,-0.63336,-58.886,172.83,14.543,-4.8477,-0.57764,19.391,9.4866e-12,-0.28882,0,0,0.083333,-0,-0,0.66667
0.94085,0.1697,11.29,-0.49544,-10.758,10.139,14.916,-4.9721,-1.1266,19.889,3.6869e-07,-0.56331,0,0,0.083333,-1.579e-15,0,0.66667
0.9796,0.28008,11.755,-0.32988,-2.4028,1.868,10.341,-3.4469,-1.6118,13.788,2.3415e-06,-0.80592,0,0,0.083333,-2.9606e-16,0,0.66667
0.17891,0.3144,2.147,-0.27841,-51.603,1142.2,1.5939,-0.53131,-1.7214,2.1253,-1.0142e-10,-0.86068,0,0,0.083333,-0,-0,0.66667
0.22792,0.78968,2.735,0.43452,78.925,1033.3,-3.1691,1.0564,-1.3249,-4.2255,5.2036e-11,-0.66246,0,0,0.083333,-0,-0,0.66667
0.71599,0.98282,8.5918,0.72423,67.741,175.09,-16.593,5.5311,-0.13549,-22.124,2.4585e-12,-0.067747,0,0,0.083333,-0,9.7712e-17,0.66667
0.74738,0.39468,8.9686,-0.15798,-13.301,139.04,3.7782,-1.2594,-1.9121,5.0376,1.0096e-12,-0.95604,0,0,0.083333,-0,-0,0.66667
0.60318,0.78779,7.2382,0.43169,52.56,322.16,-8.3323,2.7774,-1.334,-11.11,-7.7538e-13,-0.66701,0,0,0.083333,1.579e-15,0,0.66667
0.8773,0.2043,10.528,-0.44355,-19.448,36.275,12.452,-4.1507,-1.3018,16.603,6.0671e-09,-0.65092,0,0,0.083333,-1.579e-15,0,0.66667
0.25199,0.84827,3.0239,0.5224,93.775,980.78,-4.2125,1.4042,-1.0326,-5.6166,1.747e-12,-0.51629,0,0,0.083333,-0,-0,0.66667
0.33949,0.70518,4.0738,0.30777,52.133,795.27,-3.3435,1.1145,-1.6612,-4.458,-3.5325e-12,-0.83059,0,0,0.083333,-0,-0,0.66667
0.49465,0.91912,5.9358,0.62868,91.064,498.92,-9.9512,3.3171,-0.59143,-13.268,2.7116e-12,-0.29572,0,0,0.083333,7.8949e-16,0,0.66667
0.31503,0.16911,3.7803,-0.49633,-85.676,846.25,5.0035,-1.6678,-1.125,6.6713,-4.2988e-12,-0.56252,0,0,0.083333,-0,-0,0.66667
0.54544,0.92985,6.5453,0.64477,86.868,412.87,-11.254,3.7513,-0.52562,-15.005,-2.6326e-12,-0.26281,0,0,0.083333,-0,-0,0.66667
0.68248,0.15082,8.1897,-0.52377,-53.567,214.1,11.439,-3.8129,-1.0224,15.252,-1.6049e-12,-0.51118,0,0,0.083333,-0,-0,0.66667
0.22037,0.13559,2.6444,-0.54661,-99.703,1050.1,3.8546,-1.2849,-0.94073,5.1394,-5.2125e-11,-0.47037,0,0,0.083333,-3.9475e-16,0,0.66667
0.48534,0.99547,5.824,0.74321,109.08,515.76,-11.543,3.8475,-0.041467,-15.39,-6.6462e-12,-0.020734,0,0,0.083333,-0,-0,0.66667
0.99298,0.84286,11.916,0.51429,1.2222,1.6333,-16.342,5.4472,-1.0568,-21.789,1.0752e-05,-0.52838,0,0,0.083333,2.3685e-15,0,0.66667
0.32416,0.68034,3.8899,0.27052,46.344,826.91,-2.8061,0.93537,-1.7387,-3.7415,1.1258e-12,-0.86934,0,0,0.083333,5.9212e-16,0,0.66667
0.035362,0.8435,0.42434,0.51524,98.644,1471,-0.58304,0.19435,-1.0559,-0.77739,-1.715e-06,-0.52795,0,0,0.083333,-5.7824e-17,0,0.66667
0.81735,0.041681,9.8082,-0.68748,-43.75,77.348,17.981,-5.9937,-0.31694,23.975,-1.7873e-09,-0.15847,0,0,0.083333,-0,-0,0.66667
0.50331,0.40403,6.0397,-0.14396,-20.558,482.8,2.3186,-0.77287,-1.927,3.0915,3.5165e-12,-0.9635,0,0,0.083333,-7.8949e-16,0,0.66667
0.052784,0.58146,0.63341,0.12218,23.325,1430.6,-0.20638,0.068793,-1.9432,-0.27517,-1.3629e-08,-0.97161,0,0,0.083333,-0,-0,0.66667
0.89031,0.67001,10.684,0.25501,10.021,28.884,-7.2653,2.4218,-1.7751,-9.687,2.2177e-08,-0.88755,0,0,0.083333,-0,-0,0.66667
0.40451,0.62195,4.8542,0.18293,29.275,665.03,-2.3679,0.78931,-1.8847,-3.1572,-4.3143e-12,-0.94237,0,0,0.083333,1.9737e-16,0,0.66667
0.92927,0.8715,11.151,0.55725,14.453,13.995,-16.571,5.5236,-0.8925,-22.094,2.2318e-07,-0.44625,0,0,0.083333,7.8949e-16,0,0.66667
0.40208,0.55247,4.8249,0.078702,12.622,669.71,-1.0126,0.33754,-1.9763,-1.3502,1.474e-12,-0.98813,0,0,0.083333,-3.9475e-16,0,0.66667
0.076832,0.83446,0.92199,0.50168,95.593,1375.1,-1.2335,0.41115,-1.1091,-1.6446,-9.8223e-08,-0.55454,0,0,0.083333,-0,-0,0.66667
0.2453,0.38432,2.9436,-0.17351,-31.214,995.03,1.362,-0.454,-1.8906,1.816,-1.2311e-12,-0.94531,0,0,0.083333,-0,-0,0.66667
0.35026,0.89047,4.2031,0.58571,98.526,773.69,-6.5648,2.1883,-0.77611,-8.7531,1.9771e-12,-0.38805,0,0,0.083333,-0,-0,0.66667
0.75073,0.17119,9.0087,-0.49321,-41.163,136.48,11.849,-3.9495,-1.1402,15.798,-1.4709e-11,-0.57012,0,0,0.083333,1.579e-15,0,0.66667
0.18475,0.30903,2.217,-0.28645,-52.978,1129.1,1.6935,-0.56449,-1.7097,2.2579,-8.2732e-11,-0.85487,0,0,0.083333,5.4696e-17,0,0.66667
0.43097,0.14895,5.1717,-0.52657,-82.167,614.82,7.262,-2.4207,-1.0105,9.6827,-1.0227e-12,-0.50523,0,0,0.083333,-3.9475e-16,0,0.66667
0.87325,0.71206,10.479,0.31809,14.349,38.08,-8.8886,2.9629,-1.6434,-11.852,5.3756e-09,-0.82169,0,0,0.083333,7.8949e-16,0,0.66667
0.53376,0.92753,6.4051,0.64129,87.948,432.1,-10.953,3.6512,-0.5389,-14.605,2.7871e-12,-0.26945,0,0,0.083333,-7.8949e-16,0,0.66667
0.10315,0.2647,1.2379,-0.35295,-66.884,1314.5,1.1651,-0.38835,-1.5531,1.5534,4.9524e-08,-0.77655,0,0,0.083333,-0,-0,0.66667
0.024522,0.50121,0.29427,0.0018121,0.34666,1496.1,-0.001422,0.00047643,-1.9972,-0.0018948,3.6353e-06,-0.9986,0,0,0.083333,-0,-0,0.66667
0.70581,0.36035,8.4697,-0.20947,-20.07,185.02,4.7311,-1.577,-1.8446,6.3082,-2.0335e-12,-0.92228,0,0,0.083333,-0,-0,0.66667
0.97913,0.22948,11.75,-0.40577,-3.0509,2.2115,12.714,-4.2379,-1.4115,16.952,4.1082e-06,-0.70576,0,0,0.083333,1.579e-15,0,0.66667
0.78517,0.72889,9.422,0.34334,25.123,102.87,-8.6265,2.8755,-1.5795,-11.502,-2.4994e-11,-0.78976,0,0,0.083333,-0,-0,0.66667
0.76473,0.23788,9.1767,-0.39318,-31.177,122.16,9.6216,-3.2072,-1.4551,12.829,1.5009e-11,-0.72756,0,0,0.083333,-0,-0,0.66667
0.67545,0.56173,8.1054,0.092591,9.6136,221.98,-2.0013,0.66709,-1.97,-2.6684,1.5323e-12,-0.98502,0,0,0.083333,-1.0856e-15,0,0.66667
0.7955,0.18289,9.546,-0.47567,-33.368,94.22,12.109,-4.0362,-1.1999,16.145,1.1962e-10,-0.59993,0,0,0.083333,-1.579e-15,0,0.66667
0.040018,0.3316,0.48021,-0.2526,-48.291,1460.2,0.32348,-0.10783,-1.7689,0.4313,4.2432e-08,-0.88446,0,0,0.083333,-0,-0,0.66667
0.26468,0.2003,3.1762,-0.44954,-80.098,953.2,3.8076,-1.2692,-1.2861,5.0767,-3.0915e-12,-0.64305,0,0,0.083333,-0,-0,0.66667
0.6954,0.34,8.3448,-0.24,-23.671,197.46,5.3406,-1.7802,-1.7917,7.1208,-7.4163e-13,-0.89586,0,0,0.083333,-1.8887e-16,0,0.66667
0.86699,0.29003,10.404,-0.31495,-14.865,41.675,8.7378,-2.9126,-1.6432,11.65,-4.3591e-09,-0.82159,0,0,0.083333,-0,-0,0.66667
0.67461,0.86005,8.0953,0.54008,56.352,224.07,-11.659,3.8863,-0.96338,-15.545,2.5491e-13,-0.48169,0,0,0.083333,-0,-0,0.66667
0.17628,0.12409,2.1153,-0.56386,-104.75,1148.4,3.1807,-1.0602,-0.86882,4.2409,-5.773e-11,-0.43441,0,0,0.083333,-4.9343e-17,0,0.66667
0.93631,0.74351,11.236,0.36527,8.4865,10.897,-10.944,3.6481,-1.5301,-14.592,2.8633e-07,-0.76507,0,0,0.083333,-0,-0,0.66667
0.90338,0.39915,10.841,-0.15127,-5.2566,22.569,4.3729,-1.4576,-1.9194,5.8305,-3.221e-08,-0.95968,0,0,0.083333,-0,-0,0.66667
0.086679,0.98346,1.0401,0.7252,138.16,1352.6,-2.0115,0.6705,-0.12574,-2.682,1.2135e-06,-0.06287,0,0,0.083333,2.053e-16,0,0.66667
0.193,0.95178,2.316,0.67766,125.19,1111,-4.1853,1.3951,-0.36375,-5.5803,9.3921e-10,-0.18188,0,0,0.083333,-0,-0,0.66667
0.27519,0.24525,3.3023,-0.38212,-67.646,930.5,3.365,-1.1217,-1.4778,4.4867,-1.781e-12,-0.73888,0,0,0.083333,1.9737e-16,0,0.66667
0.73841,0.54548,8.8609,0.068225,5.9174,148.38,-1.6121,0.53737,-1.9817,-2.1495,-2.8628e-12,-0.99086,0,0,0.083333,1.579e-15,0,0.66667
0.85937,0.43075,10.312,-0.10387,-5.1552,45.868,2.8564,-0.95215,-1.9694,3.8086,-1.9181e-09,-0.98471,0,0,0.083333,-0,-0,0.66667
0.57832,0.13276,6.9399,-0.55085,-70.242,360.2,10.194,-3.3981,-0.9282,13.592,3.8547e-13,-0.4641,0,0,0.083333,-0,-0,0.66667
0.19965,0.90285,2.3957,0.60427,111.27,1096.1,-3.8605,1.2868,-0.70188,-5.1473,-2.7162e-09,-0.35094,0,0,0.083333,9.8686e-17,0,0.66667
0.41509,0.24887,4.9811,-0.37669,-59.699,644.82,5.0036,-1.6679,-1.4927,6.6714,2.8701e-12,-0.74633,0,0,0.083333,-2.9606e-16,0,0.66667
0.13786,0.83499,1.6543,0.50248,94.482,1235.2,-2.2167,0.7389,-1.103,-2.9556,-1.0893e-08,-0.5515,0,0,0.083333,-9.8686e-17,0,0.66667
0.9174,0.070891,11.009,-0.64366,-19.475,18.72,18.896,-6.2986,-0.52494,25.194,-1.9829e-07,-0.26247,0,0,0.083333,-0,-0,0.66667
0.76453,0.35302,9.1744,-0.22047,-17.471,121.92,5.3938,-1.7979,-1.8316,7.1918,1.0099e-11,-0.91582,0,0,0.083333,-0,-0,0.66667
0.51021,0.8731,6.1226,0.55965,79.337,471.65,-9.1374,3.0458,-0.88431,-12.183,-4.2597e-12,-0.44216,0,0,0.083333,2.9606e-16,0,0.66667
0.45358,0.35125,5.4429,-0.22313,-33.909,572.04,3.2386,-1.0795,-1.8294,4.3181,-6.69e-12,-0.91469,0,0,0.083333,1.579e-15,0,0.66667
0.097842,0.98906,1.1741,0.7336,139.48,1326.9,-2.2969,0.76562,-0.084865,-3.0625,7.8884e-08,-0.042432,0,0,0.083333,9.8686e-17,0,0.66667
0.31868,0.31583,3.8241,-0.27626,-47.515,838.34,2.8171,-0.93905,-1.7257,3.7562,8.074e-12,-0.86287,0,0,0.083333,-0,-0,0.66667
0.12063,0.30679,1.4476,-0.28982,-54.692,1274.4,1.1188,-0.37292,-1.6998,1.4917,5.818e-09,-0.84992,0,0,0.083333,-0,-0,0.66667
0.78234,0.87581,9.3881,0.56372,41.846,106.26,-14.113,4.7042,-0.87586,-18.817,6.1728e-12,-0.43793,0,0,0.083333,-3.158e-15,0,0.66667
0.54488,0.57959,6.5386,0.11939,16.049,412.61,-2.0817,0.69391,-1.9514,-2.7757,5.6188e-12,-0.97568,0,0,0.083333,-7.8949e-16,0,0.66667
0.22728,0.29595,2.7273,-0.30608,-55.582,1034.6,2.2261,-0.74202,-1.6625,2.9681,-5.7834e-12,-0.83127,0,0,0.083333,-0,-0,0.66667
0.2242,0.18597,2.6904,-0.47104,-85.727,1041.5,3.3795,-1.1265,-1.2091,4.506,-4.9057e-11,-0.60454,0,0,0.083333,1.9737e-16,0,0.66667
0.2604,0.82258,3.1248,0.48387,86.44,962.5,-4.032,1.344,-1.1645,-5.376,4.3077e-14,-0.58227,0,0,0.083333,-0,-0,0.66667
0.30887,0.85683,3.7065,0.53525,92.81,859.21,-5.2904,1.7635,-0.98029,-7.0538,-6.4331e-12,-0.49015,0,0,0.083333,-0,-0,0.66667
0.38771,0.72858,4.6525,0.34287,55.778,698.14,-4.2539,1.418,-1.5824,-5.6718,2.5047e-13,-0.79118,0,0,0.083333,7.8949e-16,0,0.66667
0.29755,0.321,3.5706,-0.2685,-46.851,882.73,2.5565,-0.85218,-1.7493,3.4087,1.4433e-14,-0.87467,0,0,0.083333,-0,-0,0.66667
0.67956,0.63185,8.1547,0.19777,20.329,216.9,-4.3007,1.4336,-1.857,-5.7343,2.2804e-12,-0.9285,0,0,0.083333,-0,-0,0.66667
0.035074,0.57293,0.42088,0.1094,20.916,1471.6,-0.12278,0.040928,-1.9562,-0.16371,2.0808e-07,-0.97811,0,0,0.083333,-0,-0,0.66667
0.32811,0.48092,3.9373,-0.028619,-4.8867,818.58,0.30049,-0.10016,-2.0044,0.40065,9.609e-13,-1.0022,0,0,0.083333,-0,-0,0.66667
0.74529,0.026481,8.9435,-0.71028,-60.581,143.12,16.94,-5.6466,-0.20444,22.586,3.8352e-12,-0.10222,0,0,0.083333,-0,1.2191e-16,0.66667
0.94281,0.52096,11.314,0.031446,0.65255,8.3696,-0.94872,0.31624,-1.9934,-1.265,-7.6759e-08,-0.99671,0,0,0.083333,1.579e-15,0,0.66667
0.80273,0.23002,9.6328,-0.40498,-27.484,87.819,10.403,-3.4676,-1.4133,13.87,1.5463e-10,-0.70663,0,0,0.083333,-0,-0,0.66667
0.24083,0.46578,2.8899,-0.051333,-9.2545,1004.8,0.39559,-0.13186,-1.9876,0.52746,4.7623e-13,-0.99382,0,0,0.083333,4.9343e-16,0,0.66667
0.23292,0.0442,2.795,-0.6837,-124.08,1022.7,5.0958,-1.6986,-0.3413,6.7944,-3.2461e-10,-0.17065,0,0,0.083333,-0,-0,0.66667
0.19034,0.43366,2.284,-0.099508,-18.356,1116.5,0.60608,-0.20203,-1.966,0.80811,-4.5694e-11,-0.98302,0,0,0.083333,1.9737e-16,0,0.66667
0.8825,0.96486,10.59,0.69729,29.559,34.851,-19.691,6.5638,-0.26776,-26.255,-4.0427e-07,-0.13388,0,0,0.083333,-0,-0,0.66667
0.23786,0.66532,2.8543,0.24799,44.791,1011.3,-1.8875,0.62917,-1.7808,-2.5167,1.1983e-11,-0.89038,0,0,0.083333,-0,-0,0.66667
0.75818,0.80429,9.0982,0.45643,37.092,128.82,-11.074,3.6913,-1.2552,-14.765,2.5673e-11,-0.6276,0,0,0.083333,-7.8949e-16,0,0.66667
0.26105,0.29049,3.1326,-0.31427,-56.077,960.9,2.6253,-0.87509,-1.6467,3.5004,-9.069e-12,-0.82333,0,0,0.083333,7.8949e-16,0,0.66667
0.033082,0.166,0.39698,-0.50099,-95.924,1476.3,0.53036,-0.17679,-1.1102,0.70715,-1.2218e-06,-0.55511,0,0,0.083333,-0,-0,0.66667
0.73345,0.31348,8.8014,-0.27978,-24.68,153.99,6.5665,-2.1888,-1.7278,8.7553,4.6252e-12,-0.86391,0,0,0.083333,-3.158e-15,0,0.66667
0.7262,0.072275,8.7144,-0.64159,-58.121,163.21,14.91,-4.9698,-0.5322,19.879,-3.1433e-12,-0.2661,0,0,0.083333,-0,-0,0.66667
0.088959,0.9787,1.0675,0.71805,136.74,1347.3,-2.0441,0.68135,-0.16429,-2.7254,2.3307e-06,-0.082145,0,0,0.083333,-1.9737e-16,0,0.66667
0.3267,0.20181,3.9204,-0.44728,-76.544,821.85,4.6761,-1.5587,-1.292,6.2348,1.334e-12,-0.64602,0,0,0.083333,-0,-0,0.66667
0.94837,0.52731,11.38,0.040972,0.76757,6.9234,-1.2434,0.41446,-1.9923,-1.6579,2.3866e-08,-0.99615,0,0,0.083333,-7.8949e-16,0,0.66667
0.16295,0.60649,1.9554,0.15974,29.766,1178.1,-0.83292,0.27764,-1.9051,-1.1106,-3.7063e-11,-0.95255,0,0,0.083333,-0,-0,0.66667
0.086672,0.311,1.0401,-0.2835,-53.881,1352.4,0.78628,-0.26209,-1.7113,1.0484,5.1922e-08,-0.85563,0,0,0.083333,1.2336e-17,0,0.66667
0.5946,0.10846,7.1352,-0.58732,-72.764,335.47,11.175,-3.725,-0.77837,14.9,1.287e-12,-0.38919,0,0,0.083333,-0,-0,0.66667
0.93099,0.41975,11.172,-0.12038,-3.0115,11.965,3.5862,-1.1954,-1.9444,4.7817,-1.0319e-07,-0.97218,0,0,0.083333,-0,-0,0.66667
0.13378,0.9244,1.6053,0.63659,119.93,1244.6,-2.7252,0.9084,-0.55485,-3.6336,1.0674e-07,-0.27743,0,0,0.083333,-0,-0,0.66667
0.51301,0.60154,6.1561,0.15231,21.462,466.05,-2.5004,0.83347,-1.9187,-3.3339,-8.9306e-13,-0.95933,0,0,0.083333,-0,-0,0.66667
0.684,0.41984,8.208,-0.12025,-12.217,211.26,2.632,-0.87732,-1.9477,3.5093,-3.1031e-12,-0.97386,0,0,0.083333,-0,-0,0.66667
0.17183,0.15753,2.062,-0.5137,-95.559,1158.3,2.8246,-0.94153,-1.0703,3.7661,2.1733e-09,-0.53514,0,0,0.083333,3.9475e-16,-9.0738e-17,0.66667
0.01126,0.78351,0.13512,0.42526,81.471,1526.9,-0.15323,0.051073,-1.356,-0.2043,-3.044e-06,-0.67802,0,0,0.083333,-0,-0,0.66667
0.88768,0.07628,10.652,-0.63558,-25.768,31.799,18.054,-6.0181,-0.56379,24.072,3.4526e-09,-0.2819,0,0,0.083333,-0,-0,0.66667
0.035231,0.98496,0.42278,0.72744,139.47,1471.4,-0.82014,0.27337,-0.11691,-1.0935,-1.1304e-05,-0.058454,0,0,0.083333,4.9343e-17,0,0.66667
0.25746,0.23209,3.0895,-0.40187,-71.877,968.77,3.3108,-1.1036,-1.4214,4.4145,9.166e-13,-0.71069,0,0,0.083333,3.9475e-16,0,0.66667
0.65168,0.14148,7.8202,-0.53778,-59.25,254,11.215,-3.7382,-0.96928,14.953,-2.8377e-12,-0.48464,0,0,0.083333,7.8949e-16,0,0.66667
0.28578,0.30973,3.4294,-0.2854,-50.179,907.75,2.61,-0.87,-1.7091,3.48,4.0556e-12,-0.85457,0,0,0.083333,-5.9212e-16,0,0.66667
0.0097076,0.94142,0.11649,0.66212,127.03,1530.5,-0.20568,0.068503,-0.4384,-0.27428,-8.7707e-05,-0.2192,0,0,0.083333,-0,-0,0.66667
0.57545,0.82088,6.9054,0.48132,61.647,364.44,-8.8633,2.9544,-1.1772,-11.818,7.3186e-13,-0.58862,0,0,0.083333,-0,-0,0.66667
0.30779,0.67716,3.6935,0.26574,46.053,861.12,-2.6174,0.87246,-1.7465,-3.4898,-8.8827e-12,-0.87324,0,0,0.083333,-0,-0,0.66667
0.15151,0.8789,1.8182,0.56835,106.48,1204.3,-2.7556,0.91854,-0.84979,-3.6742,-3.6579e-09,-0.42489,0,0,0.083333,-0,-0,0.66667
0.97128,0.84119,11.655,0.51178,5.4029,3.7266,-15.907,5.3022,-1.0708,-21.209,-9.1735e-06,-0.53541,0,0,0.083333,1.9737e-16,0,0.66667
0.16497,0.62094,1.9797,0.18141,33.782,1173.6,-0.95766,0.31922,-1.8796,-1.2769,-1.8625e-10,-0.93981,0,0,0.083333,-1.9737e-16,0,0.66667
0.72724,0.38019,8.7268,-0.17972,-16.158,160.6,4.1823,-1.3941,-1.8815,5.5764,2.5135e-13,-0.94077,0,0,0.083333,-0,-0,0.66667
0.89072,0.65823,10.689,0.23735,9.2908,28.636,-6.7652,2.2551,-1.808,-9.0202,2.1929e-08,-0.90398,0,0,0.083333,-0,-0,0.66667
0.85872,0.75999,10.305,0.38998,19.497,46.923,-10.716,3.5721,-1.4648,-14.288,2.2767e-09,-0.73242,0,0,0.083333,1.579e-15,0,0.66667
0.18426,0.61874,2.2111,0.17811,32.937,1130.2,-1.0502,0.35005,-1.8874,-1.4002,1.2328e-10,-0.94368,0,0,0.083333,9.8686e-17,0,0.66667
0.23681,0.011331,2.8417,-0.733,-132.83,1014.2,5.5546,-1.8515,-0.090832,7.4061,5.3197e-12,-0.045416,0,0,0.083333,-7.8949e-16,0,0.66667
0.018363,0.034815,0.22035,-0.69778,-133.87,1510.4,0.40999,-0.13668,-0.27023,0.54665,-2.1303e-05,-0.13512,0,0,0.083333,-0,-0,0.66667
0.93141,0.11443,11.177,-0.57836,-14.575,13.421,17.238,-5.746,-0.80695,22.984,-3.6772e-07,-0.40347,0,0,0.083333,7.8949e-16,0,0.66667
0.88712,0.7494,10.645,0.3741,15.136,30.833,-10.62,3.54,-1.5031,-14.16,1.3933e-08,-0.75153,0,0,0.083333,1.6777e-15,0,0.66667
0.59547,0.73087,7.1456,0.34631,42.756,333.46,-6.5989,2.1996,-1.5763,-8.7986,2.0131e-12,-0.78816,0,0,0.083333,-0,-0,0.66667
0.10937,0.85699,1.3124,0.53548,101.43,1300.3,-1.8741,0.62469,-0.98773,-2.4988,3.1784e-08,-0.49386,0,0,0.083333,1.9737e-16,0,0.66667
0.17354,0.94325,2.0825,0.66487,123.73,1154.6,-3.6923,1.2308,-0.4317,-4.923,1.0366e-08,-0.21585,0,0,0.083333,-0,-0,0.66667
0.57696,0.38179,6.9235,-0.17731,-22.613,361.47,3.2736,-1.0912,-1.8928,4.3648,1.6669e-12,-0.94639,0,0,0.083333,-0,-0,0.66667
0.25166,0.617,3.0199,0.1755,31.465,981.18,-1.4133,0.4711,-1.8937,-1.8844,1.8285e-13,-0.94685,0,0,0.083333,-0,-0,0.66667
0.30017,0.32765,3.6021,-0.25853,-45.032,877.18,2.4833,-0.82777,-1.7618,3.3111,9.7322e-13,-0.8809,0,0,0.083333,-3.9475e-16,0,0.66667
0.17099,0.40007,2.0518,-0.14989,-27.854,1160,0.82015,-0.27338,-1.9255,1.0935,-1.522e-10,-0.96274,0,0,0.083333,-2.9606e-16,0,0.66667
0.18959,0.45801,2.2751,-0.062984,-11.622,1118.2,0.38212,-0.12737,-1.9879,0.50949,-6.0221e-12,-0.99393,0,0,0.083333,-1.9737e-16,0,0.66667
0.46342,0.76701,5.5611,0.40052,60.217,554.23,-5.9394,1.9798,-1.4264,-7.9193,-7.943e-12,-0.71318,0,0,0.083333,-0,-0,0.66667
0.50987,0.59604,6.1185,0.14405,20.387,471.44,-2.3504,0.78346,-1.9238,-3.1339,-4.1387e-12,-0.9619,0,0,0.083333,1.579e-15,0,0.66667
0.51158,0.87649,6.139,0.56473,79.908,469.32,-9.2449,3.0816,-0.86571,-12.327,-1.3971e-12,-0.43286,0,0,0.083333,-0,-0,0.66667
0.99714,0.3853,11.966,-0.17205,-0.093664,0.22504,5.4898,-1.8299,-1.8952,7.3197,-1.2881e-06,-0.94759,0,0,0.083333,-0,-0,0.66667
0.1296,0.097212,1.5551,-0.60418,-113.93,1254.1,2.5056,-0.8352,-0.70064,3.3408,4.5388e-09,-0.35032,0,0,0.083333,3.9475e-16,0,0.66667
0.75617,0.18122,9.074,-0.47817,-39.147,130.91,11.57,-3.8568,-1.1837,15.427,-3.0183e-11,-0.59185,0,0,0.083333,-3.9475e-16,0,0.66667
0.79376,0.88384,9.5251,0.57575,40.758,96.175,-14.624,4.8748,-0.82144,-19.499,7.0077e-13,-0.41072,0,0,0.083333,-1.579e-15,0,0.66667
0.58488,0.072043,7.0186,-0.64194,-80.989,350.43,12.015,-4.0049,-0.53082,16.019,-5.1195e-12,-0.26541,0,0,0.083333,-0,-0,0.66667
0.46274,0.84465,5.5529,0.51697,77.847,555.74,-7.6551,2.5517,-1.0474,-10.207,-1.5969e-11,-0.5237,0,0,0.083333,1.579e-15,0,0.66667
0.89343,0.92174,10.721,0.63261,24.403,28.957,-18.086,6.0287,-0.57744,-24.115,-2.237e-07,-0.28872,0,0,0.083333,-1.579e-15,0,0.66667
0.82818,0.56253,9.9382,0.093788,5.6025,67.083,-2.4855,0.82851,-1.9775,-3.3141,3.1638e-10,-0.98875,0,0,0.083333,3.158e-15,0,0.66667
0.050291,0.91,0.60349,0.615,117.66,1436.5,-0.98972,0.32991,-0.6554,-1.3196,-6.4143e-07,-0.3277,0,0,0.083333,-0,-0,0.66667
0.96298,0.69259,11.556,0.28889,3.8867,4.1759,-8.9022,2.9674,-1.7004,-11.87,-9.3357e-08,-0.85019,0,0,0.083333,-0,-0,0.66667
0.0073399,0.77878,0.088079,0.41818,80.117,1536,-0.098218,0.032737,-1.375,-0.13096,-3.7595e-06,-0.68751,0,0,0.083333,-4.6259e-18,0,0.66667
0.57313,0.69458,6.8776,0.29187,37.486,367.61,-5.3529,1.7843,-1.6947,-7.1372,1.6449e-12,-0.84734,0,0,0.083333,-0,-0,0.66667
0.57243,0.39127,6.8692,-0.16309,-20.962,368.52,2.9875,-0.99584,-1.9018,3.9833,1.8618e-12,-0.95091,0,0,0.083333,-0,-0,0.66667
0.83438,0.63342,10.013,0.20012,11.565,62.703,-5.3434,1.7811,-1.854,-7.1245,1.6777e-10,-0.92698,0,0,0.083333,-0,-0,0.66667
0.38472,0.93039,4.6166,0.64559,105.51,704.66,-7.9478,2.6493,-0.51483,-10.597,4.0488e-12,-0.25741,0,0,0.083333,-0,-0,0.66667
0.091041,0.51944,1.0925,0.02916,5.5353,1342.3,-0.084951,0.028317,-1.9976,-0.11327,8.7767e-09,-0.9988,0,0,0.083333,-0,-0,0.66667
0.58169,0.17715,6.9802,-0.48428,-61.356,354.79,9.0144,-3.0048,-1.1653,12.019,-6.0973e-12,-0.58265,0,0,0.083333,7.8949e-16,0,0.66667
0.024846,0.30672,0.29815,-0.28992,-55.486,1495.4,0.23051,-0.076837,-1.6977,0.30734,-2.0587e-06,-0.84886,0,0,0.083333,1.2336e-17,0,0.66667
0.3618,0.81508,4.3415,0.47262,78.699,750.07,-5.4717,1.8239,-1.2081,-7.2956,9.8304e-12,-0.60405,0,0,0.083333,-0,-0,0.66667
0.98532,0.54813,11.824,0.072202,0.36238,0.77122,-2.2766,0.75885,-1.9861,-3.0354,-7.575e-07,-0.99303,0,0,0.083333,-0,-0,0.66667
0.86878,0.45417,10.425,-0.068743,-3.1968,40.19,1.9111,-0.63704,-1.9792,2.5481,-7.9602e-10,-0.98961,0,0,0.083333,1.579e-15,0,0.66667
0.1525,0.53753,1.83,0.056292,10.524,1201.8,-0.2747,0.091567,-1.988,-0.36627,-1.3217e-09,-0.99402,0,0,0.083333,-0,-0,0.66667
0.79883,0.36958,9.5859,-0.19563,-13.486,90.575,5.0007,-1.6669,-1.8668,6.6676,1.8129e-11,-0.93339,0,0,0.083333,-3.9475e-16,0,0.66667
0.811,0.21045,9.732,-0.43432,-28.375,81.147,11.271,-3.7572,-1.3328,15.029,3.0292e-11,-0.66642,0,0,0.083333,-0,-0,0.66667
0.92821,0.0032513,11.138,-0.74512,-19.799,15.56,22.132,-7.3774,-0.02295,29.509,2.2191e-06,-0.011475,0,0,0.083333,-0,-0,0.66667
0.22438,0.044699,2.6926,-0.68295,-124.46,1041.4,4.9038,-1.6346,-0.33808,6.5384,-1.6266e-10,-0.16904,0,0,0.083333,3.9475e-16,0,0.66667
0.49897,0.2008,5.9876,-0.4488,-64.548,490.84,7.166,-2.3887,-1.2882,9.5546,2.1405e-12,-0.64411,0,0,0.083333,-0,-0,0.66667
0.82744,0.030681,9.9293,-0.70398,-42.573,69.777,18.64,-6.2134,-0.2448,24.853,-8.5054e-09,-0.1224,0,0,0.083333,-1.4803e-15,0,0.66667
0.66733,0.471,8.008,-0.043495,-4.6067,232.36,0.92881,-0.3096,-1.9921,1.2384,-4.6886e-12,-0.99605,0,0,0.083333,1.579e-15,0,0.66667
0.59394,0.9495,7.1272,0.67425,83.714,336.82,-12.815,4.2716,-0.39037,-17.086,-1.2239e-12,-0.19519,0,0,0.083333,-0,-0,0.66667
0.65198,0.6444,7.8237,0.21661,23.795,252.77,-4.5191,1.5064,-1.8312,-6.0255,-2.4327e-12,-0.9156,0,0,0.083333,-0,-0,0.66667
0.23852,0.028947,2.8622,-0.70658,-127.9,1010.5,5.393,-1.7977,-0.22422,7.1906,2.2095e-11,-0.11211,0,0,0.083333,4.9343e-16,0,0.66667
0.02554,0.77605,0.30648,0.41407,79.282,1493.8,-0.33841,0.11281,-1.3875,-0.45122,4.8283e-06,-0.69376,0,0,0.083333,-0,-0,0.66667
0.73626,0.50273,8.8351,0.004102,0.35825,150.66,-0.096643,0.032214,-2.0034,-0.12886,-4.7874e-13,-1.0017,0,0,0.083333,-0,-0,0.66667
0.32679,0.79698,3.9215,0.44547,76.227,821.66,-4.6584,1.5528,-1.298,-6.2112,1.6911e-12,-0.64901,0,0,0.083333,-3.87e-16,0,0.66667
0.37676,0.50623,4.5211,0.0093459,1.5343,719.62,-0.11268,0.037559,-2.0029,-0.15024,1.2285e-11,-1.0014,0,0,0.083333,-0,-0,0.66667
0.61262,0.62438,7.3514,0.18657,22.275,307.81,-3.6574,1.2191,-1.8774,-4.8766,2.8781e-12,-0.93868,0,0,0.083333,4.9343e-17,0,0.66667
0.65717,0.2622,7.886,-0.35671,-38.749,246.13,7.5013,-2.5004,-1.5523,10.002,-5.2713e-13,-0.77617,0,0,0.083333,-0,-0,0.66667
0.2029,0.44737,2.4348,-0.078939,-14.487,1088.5,0.51253,-0.17084,-1.9847,0.68337,9.2898e-12,-0.99233,0,0,0.083333,-0,-0,0.66667
0.82603,0.012646,9.9124,-0.73103,-44.566,70.999,19.323,-6.4411,-0.10175,25.764,-2.3328e-09,-0.050877,0,0,0.083333,-0,-0,0.66667
0.38021,0.38165,4.5625,-0.17752,-29.059,712.81,2.1598,-0.71993,-1.8853,2.8797,4.5985e-13,-0.94267,0,0,0.083333,7.8949e-16,0,0.66667
0.63174,0.62914,7.5809,0.19371,22.243,280.48,-3.916,1.3053,-1.8632,-5.2214,-2.1214e-12,-0.93162,0,0,0.083333,-0,-0,0.66667
0.96641,0.9337,11.597,0.65055,8.1558,5.3227,-20.118,6.7061,-0.49754,-26.824,-2.7159e-06,-0.24877,0,0,0.083333,-0,-0,0.66667
0.56479,0.17086,6.7774,-0.49371,-64.392,381.23,8.923,-2.9743,-1.1347,11.897,9.619e-13,-0.56736,0,0,0.083333,-7.8949e-16,0,0.66667
0.35891,0.26251,4.3069,-0.35624,-59.426,755.72,4.0914,-1.3638,-1.5547,5.4552,5.8726e-12,-0.77737,0,0,0.083333,-0,-0,0.66667
0.61897,0.67482,7.4276,0.26223,30.924,298.72,-5.194,1.7313,-1.7517,-6.9253,1.2674e-12,-0.87585,0,0,0.083333,-7.8949e-16,0,0.66667
0.50179,0.47176,6.0215,-0.042359,-6.0605,485.38,0.68018,-0.22673,-1.9972,0.9069,1.2452e-12,-0.99861,0,0,0.083333,-0,-0,0.66667
0.45238,0.67688,5.4285,0.26532,40.38,574.3,-3.8407,1.2802,-1.755,-5.121,-6.805e-12,-0.8775,0,0,0.083333,-0,-0,0.66667
0.73227,0.793,8.7872,0.4395,38.967,155.72,-10.299,3.4329,-1.3151,-13.731,-4.6274e-13,-0.65755,0,0,0.083333,-0,-0,0.66667
0.92451,0.63185,11.094,0.19778,5.4095,14.275,-5.8511,1.9504,-1.8621,-7.8015,1.3672e-07,-0.93106,0,0,0.083333,-0,-0,0.66667
0.47927,0.71357,5.7513,0.32035,47.226,525.42,-4.9131,1.6377,-1.6328,-6.5508,-1.2186e-12,-0.8164,0,0,0.083333,-0,-0,0.66667
0.08823,0.94708,1.0588,0.67062,127.68,1349,-1.8934,0.63114,-0.39773,-2.5245,1.3232e-06,-0.19887,0,0,0.083333,-0,-0,0.66667
0.56965,0.58594,6.8358,0.12891,16.646,372.85,-2.3499,0.78331,-1.9369,-3.1333,-3.3307e-15,-0.96847,0,0,0.083333,-0,-0,0.66667
0.24495,0.44031,2.9394,-0.089532,-16.107,995.77,0.70179,-0.23393,-1.9696,0.93572,-1.4221e-11,-0.98482,0,0,0.083333,7.8949e-16,0,0.66667
0.039578,0.20941,0.47493,-0.43588,-83.39,1461.2,0.55204,-0.18401,-1.3203,0.73606,1.8582e-06,-0.66016,0,0,0.083333,4.9343e-17,0,0.66667
0.78814,0.89843,9.4577,0.59764,43.343,101.21,-15.073,5.0243,-0.72615,-20.097,-1.2342e-09,-0.36307,0,0,0.083333,-7.8949e-16,0,0.66667
0.27277,0.71393,3.2732,0.3209,56.875,935.64,-2.801,0.93366,-1.6303,-3.7346,-2.2625e-11,-0.81515,0,0,0.083333,3.9475e-16,0,0.66667
0.77707,0.58001,9.3248,0.12002,9.0605,109.84,-2.9843,0.99478,-1.9469,-3.9791,-1.0661e-11,-0.97343,0,0,0.083333,-0,-0,0.66667
0.48821,0.89328,5.8585,0.58992,86.136,510.14,-9.2161,3.072,-0.76128,-12.288,2.9523e-12,-0.38064,0,0,0.083333,-0,-0,0.66667
0.31794,0.42023,3.8152,-0.11966,-20.585,839.78,1.2174,-0.40581,-1.9457,1.6232,-1.9069e-11,-0.97286,0,0,0.083333,-0,-0,0.66667
0.31403,0.9157,3.7683,0.62356,107.8,848.58,-6.266,2.0887,-0.6209,-8.3547,-2.6241e-12,-0.31045,0,0,0.083333,-0,-0,0.66667
0.042025,0.50116,0.5043,0.0017365,0.33181,1455.5,-0.0023353,0.00077726,-1.9987,-0.0031143,-1.7614e-06,-0.99933,0,0,0.083333,-0,-0,0.66667
0.5344,0.014319,6.4128,-0.72852,-99.906,431.38,12.458,-4.1528,-0.11262,16.611,4.6656e-12,-0.05631,0,0,0.083333,-0,-0,0.66667
0.82355,0.94548,9.8826,0.66823,41.202,72.475,-17.61,5.8701,-0.41029,-23.48,1.3765e-09,-0.20515,0,0,0.083333,-1.579e-15,0,0.66667
0.083895,0.67282,1.0067,0.25923,49.289,1358.8,-0.69594,0.23198,-1.7574,-0.92792,-7.1921e-08,-0.8787,0,0,0.083333,-0,-0,0.66667
0.10856,0.37041,1.3027,-0.19438,-36.775,1302,0.67525,-0.22508,-1.8714,0.90033,2.1602e-08,-0.93572,0,0,0.083333,9.8686e-17,0,0.66667
0.52926,0.083308,6.3511,-0.62504,-86.28,439.56,10.586,-3.5286,-0.61316,14.114,-5.5289e-12,-0.30658,0,0,0.083333,7.8949e-16,-8.7826e-17,0.66667
0.66014,0.12242,7.9217,-0.56637,-61.213,242.88,11.964,-3.9881,-0.85912,15.952,-2.2871e-12,-0.42956,0,0,0.083333,9.8686e-16,0,0.66667
0.69475,0.84787,8.337,0.5218,51.672,199.04,-11.601,3.8669,-1.0284,-15.468,-6.4215e-13,-0.51421,0,0,0.083333,-0,-0,0.66667
0.31322,0.72766,3.7587,0.34148,58.974,849.81,-3.4227,1.1409,-1.5909,-4.5636,-5.1126e-12,-0.79544,0,0,0.083333,-0,-0,0.66667
0.037778,0.51168,0.45333,0.017517,3.3482,1465.4,-0.021176,0.0070583,-1.9949,-0.028235,-5.6785e-07,-0.99743,0,0,0.083333,-0,-0,0.66667
0.41456,0.82318,4.9748,0.48476,76.914,646.04,-6.4309,2.1436,-1.1602,-8.5745,-1.7288e-12,-0.5801,0,0,0.083333,-0,-0,0.66667
0.22604,0.66723,2.7125,0.25085,45.572,1037.3,-1.8145,0.60483,-1.772,-2.4193,1.3189e-11,-0.886,0,0,0.083333,-0,-0,0.66667
0.0011148,0.8879,0.013378,0.58185,111.58,1550.4,-0.020749,0.0069464,-0.80051,-0.027651,4.4985e-05,-0.40025,0,0,0.083333,-0,-0,0.66667
0.68572,0.62398,8.2286,0.18597,18.815,209.2,-4.0808,1.3603,-1.881,-5.441,1.5348e-12,-0.94051,0,0,0.083333,2.9606e-16,0,0.66667
0.95206,0.33799,11.425,-0.24301,-4.2392,6.3248,7.4035,-2.4678,-1.795,9.8713,-7.4804e-08,-0.89749,0,0,0.083333,-7.8949e-16,0,0.66667
0.39115,0.18595,4.6938,-0.47108,-76.442,691.56,5.8964,-1.9655,-1.2181,7.8619,6.0818e-12,-0.60904,0,0,0.083333,-2.4672e-16,0,0.66667
0.3003,0.96131,3.6036,0.69196,120.82,877.57,-6.6494,2.2165,-0.29726,-8.8659,7.7787e-12,-0.14863,0,0,0.083333,-0,-0,0.66667
0.55375,0.33471,6.645,-0.24793,-32.877,398.33,4.3934,-1.4645,-1.7774,5.8578,-4.2366e-13,-0.88872,0,0,0.083333,-7.8949e-16,0,0.66667
0.85198,0.46698,10.224,-0.049526,-2.578,50.519,1.3502,-0.45008,-1.9882,1.8003,-1.4527e-09,-0.99409,0,0,0.083333,-1.7764e-15,0,0.66667
0.79497,0.82856,9.5396,0.49283,34.661,94.752,-12.537,4.1791,-1.1386,-16.716,-2.8055e-11,-0.56931,0,0,0.083333,1.579e-15,0,0.66667
0.68476,0.92505,8.2171,0.63758,64.913,211.75,-13.971,4.6569,-0.55516,-18.628,-1.7577e-12,-0.27758,0,0,0.083333,7.8949e-16,0,0.66667
0.43211,0.81786,5.1853,0.47679,74.285,612.57,-6.5928,2.1976,-1.1891,-8.7903,-3.6793e-12,-0.59456,0,0,0.083333,-0,-0,0.66667
0.69043,0.48274,8.2852,-0.025893,-2.5864,203.28,0.57207,-0.19069,-1.9977,0.76276,2.3316e-12,-0.99886,0,0,0.083333,-0,-0,0.66667
0.21603,0.31413,2.5923,-0.2788,-50.892,1059.4,1.9273,-0.64244,-1.7255,2.5698,-4.1104e-11,-0.86274,0,0,0.083333,-0,-0,0.66667
0.28394,0.64158,3.4073,0.21237,37.374,911.62,-1.9297,0.64323,-1.8402,-2.5729,-1.9802e-11,-0.9201,0,0,0.083333,-0,-0,0.66667
0.77782,0.85455,9.3338,0.53182,40.178,110.26,-13.237,4.4124,-0.99375,-17.649,-4.4752e-11,-0.49688,0,0,0.083333,-1.579e-15,0,0.66667
0.92998,0.58147,11.16,0.1222,3.1013,12.297,-3.6367,1.2122,-1.9425,-4.849,1.0316e-07,-0.97126,0,0,0.083333,-1.579e-15,0,0.66667
0.19005,0.68764,2.2806,0.28146,51.947,1117.2,-1.7117,0.57057,-1.7209,-2.2823,6.5768e-11,-0.86043,0,0,0.083333,7.8949e-16,0,0.66667
0.29606,0.87598,3.5528,0.56398,98.649,886.27,-5.3431,1.781,-0.87552,-7.1242,1.0385e-11,-0.43776,0,0,0.083333,-0,1.2039e-17,0.66667
0.0062103,0.86618,0.074523,0.54928,105.31,1538.6,-0.10915,0.036374,-0.92363,-0.14554,-1.2999e-05,-0.46181,0,0,0.083333,-6.1679e-18,0,0.66667
0.43156,0.11637,5.1787,-0.57544,-89.769,613.83,7.9469,-2.649,-0.81918,10.596,-1.6991e-12,-0.40959,0,0,0.083333,3.9475e-16,0,0.66667
0.2103,0.57264,2.5235,0.10896,19.934,1072.1,-0.73326,0.24442,-1.9536,-0.97768,3.6452e-11,-0.9768,0,0,0.083333,-0,-0,0.66667
0.64142,0.3382,7.6971,-0.2427,-27.299,267.13,4.9815,-1.6605,-1.7962,6.642,2.1139e-12,-0.89812,0,0,0.083333,-7.8949e-16,0,0.66667
0.70959,0.78758,8.5151,0.43136,40.951,181.15,-9.7949,3.265,-1.3349,-13.06,3.479e-12,-0.66744,0,0,0.083333,-1.579e-15,0,0.66667
0.11878,0.49182,1.4253,-0.012266,-2.3146,1278.6,0.046621,-0.01554,-1.9959,0.062161,-1.2821e-08,-0.99793,0,0,0.083333,-2.9606e-16,0,0.66667
0.082144,0.80883,0.98573,0.46325,88.176,1362.9,-1.2177,0.4059,-1.2363,-1.6236,-3.5986e-08,-0.61813,0,0,0.083333,1.2336e-16,0,0.66667
0.90634,0.57723,10.876,0.11584,3.9054,21.239,-3.3597,1.1199,-1.9593,-4.4796,2.6126e-08,-0.97964,0,0,0.083333,1.579e-15,0,0.66667
0.38924,0.23035,4.6709,-0.40447,-65.725,695.21,5.038,-1.6793,-1.4219,6.7173,-3.3218e-12,-0.71094,0,0,0.083333,-0,-0,0.66667
0.5334,0.67716,6.4008,0.26574,36.369,431.73,-4.5358,1.5119,-1.7508,-6.0478,3.0669e-12,-0.87539,0,0,0.083333,-7.8949e-16,0,0.66667
0.96324,0.52363,11.559,0.035451,0.47057,3.7064,-1.0927,0.36425,-1.9925,-1.457,-2.7684e-08,-0.99626,0,0,0.083333,-0,-0,0.66667
0.75905,0.78484,9.1086,0.42725,34.6,127.85,-10.378,3.4593,-1.3478,-13.837,-6.2537e-12,-0.67389,0,0,0.083333,-0,-0,0.66667
0.32554,0.55126,3.9065,0.076891,13.154,823.93,-0.80099,0.267,-1.9799,-1.068,-3.6524e-12,-0.98994,0,0,0.083333,-0,-0,0.66667
0.085849,0.29063,1.0302,-0.31406,-59.704,1354.3,0.86278,-0.28759,-1.6451,1.1504,5.0407e-08,-0.82255,0,0,0.083333,-1.9737e-16,0,0.66667
0.53602,0.83952,6.4323,0.50929,69.528,427.91,-8.7357,2.9119,-1.076,-11.648,-3.2276e-12,-0.53799,0,0,0.083333,-7.7356e-17,0,0.66667
0.33613,0.32556,4.0335,-0.26167,-44.43,802.14,2.8145,-0.93816,-1.7521,3.7527,3.1277e-12,-0.87607,0,0,0.083333,-0,-0,0.66667
0.021685,0.34446,0.26022,-0.23331,-44.651,1502.7,0.1619,-0.053968,-1.8041,0.21587,-1.3123e-06,-0.90207,0,0,0.083333,-0,-0,0.66667
0.77115,0.89637,9.2538,0.59456,46.141,116.8,-14.672,4.8906,-0.73987,-19.562,5.7207e-10,-0.36994,0,0,0.083333,-0,-0,0.66667
0.38491,0.65606,4.6189,0.23409,38.163,703.53,-2.8833,0.96111,-1.8032,-3.8444,-6.4171e-12,-0.9016,0,0,0.083333,7.9566e-16,0,0.66667
0.57132,0.93655,6.8559,0.65483,84.598,371.49,-11.972,3.9906,-0.47259,-15.962,-1.0498e-12,-0.23629,0,0,0.083333,-2.9606e-16,0,0.66667
0.75574,0.61748,9.0689,0.17622,14.412,130.55,-4.2616,1.4205,-1.8864,-5.6821,-7.4496e-12,-0.9432,0,0,0.083333,-0,-0,0.66667
0.94085,0.75185,11.29,0.37778,8.1627,9.6243,-11.374,3.7912,-1.4933,-15.165,1.571e-07,-0.74663,0,0,0.083333,3.158e-15,0,0.66667
0.61232,0.25147,7.3479,-0.37279,-44.576,308.57,7.3046,-2.4349,-1.5073,9.7394,3.8307e-12,-0.75367,0,0,0.083333,-0,-0,0.66667
0.3154,0.22927,3.7848,-0.4061,-70.047,845.34,4.0986,-1.3662,-1.414,5.4648,4.3059e-12,-0.70699,0,0,0.083333,-0,-0,0.66667
0.11008,0.74138,1.3209,0.36206,68.512,1298.6,-1.2753,0.42512,-1.5395,-1.7005,-2.4851e-08,-0.76974,0,0,0.083333,-0,-0,0.66667
0.073919,0.94857,0.88703,0.67286,128.41,1381.9,-1.5916,0.53053,-0.38842,-2.1221,-4.9477e-06,-0.19421,0,0,0.083333,-0,-0,0.66667
0.31969,0.41931,3.8363,-0.12103,-20.794,836.11,1.2382,-0.41272,-1.9436,1.6509,-1.6853e-11,-0.97178,0,0,0.083333,-0,-0,0.66667
0.66084,0.3612,7.9301,-0.2082,-22.405,240.98,4.4028,-1.4676,-1.8434,5.8703,-1.1693e-12,-0.92171,0,0,0.083333,-0,-0,0.66667
0.69515,0.36788,8.3418,-0.19818,-19.556,197.69,4.4085,-1.4695,-1.8564,5.878,-2.7143e-12,-0.92819,0,0,0.083333,3.9475e-16,0,0.66667
0.20772,0.73831,2.4926,0.35747,65.511,1077.9,-2.3761,0.79203,-1.5433,-3.1681,3.976e-11,-0.77164,0,0,0.083333,-0,-0,0.66667
0.082796,0.67823,0.99355,0.26735,50.842,1361.3,-0.70833,0.23611,-1.7436,-0.94443,-8.1514e-08,-0.87179,0,0,0.083333,-0,-0,0.66667
0.30551,0.52817,3.6661,0.042256,7.3313,865.81,-0.41311,0.1377,-1.9904,-0.55081,-1.1439e-11,-0.9952,0,0,0.083333,1.9737e-16,0,0.66667
0.54757,0.35916,6.5709,-0.21126,-28.287,408.3,3.7018,-1.2339,-1.8465,4.9357,-4.321e-13,-0.92327,0,0,0.083333,-0,-0,0.66667
0.75467,0.17376,9.056,-0.48936,-40.282,132.46,11.818,-3.9393,-1.146,15.757,-1.549e-11,-0.57298,0,0,0.083333,-7.8949e-16,0,0.66667
0.52966,0.44107,6.3559,-0.088389,-12.159,437.8,1.4981,-0.49937,-1.9762,1.9975,4.5874e-12,-0.9881,0,0,0.083333,-1.579e-15,0,0.66667
0.28698,0.80929,3.4438,0.46394,81.573,905.39,-4.2606,1.4202,-1.2321,-5.6808,-9.1456e-12,-0.61607,0,0,0.083333,-4.0847e-16,0,0.66667
0.62418,0.90794,7.4902,0.61191,71.594,292.29,-12.222,4.074,-0.67497,-16.296,-2.0011e-12,-0.33749,0,0,0.083333,-0,2.0159e-17,0.66667
0.26484,0.15852,3.178,-0.51222,-91.289,952.95,4.341,-1.447,-1.0734,5.7879,-6.0338e-12,-0.53669,0,0,0.083333,-0,-0,0.66667
0.65269,0.3553,7.8323,-0.21704,-23.804,251.81,4.5332,-1.5111,-1.8316,6.0443,-1.3989e-12,-0.91581,0,0,0.083333,-0,-0,0.66667
0.8419,0.89203,10.103,0.58805,32.747,58.797,-15.843,5.2809,-0.77283,-21.123,1.7966e-09,-0.38641,0,0,0.083333,-0,1.183e-16,0.66667
0.63895,0.18698,7.6674,-0.46953,-53.179,271.09,9.6001,-3.2,-1.2205,12.8,-8.7308e-13,-0.61025,0,0,0.083333,-3.454e-16,0,0.66667
0.56563,0.34366,6.7876,-0.23452,-30.498,379.32,4.2448,-1.4149,-1.8059,5.6598,-5.2029e-12,-0.90293,0,0,0.083333,4.3175e-17,0,0.66667
0.30714,0.19339,3.6857,-0.45992,-79.807,862.72,4.5204,-1.5068,-1.2452,6.0272,2.0037e-12,-0.62262,0,0,0.083333,-0,-0,0.66667
0.87678,0.66786,10.521,0.25179,11.05,35.938,-7.0644,2.3548,-1.7772,-9.4192,6.3737e-09,-0.88861,0,0,0.083333,-0,-0,0.66667
0.98882,0.96964,11.866,0.70446,2.9584,3.0938,-22.291,7.4303,-0.2348,-29.721,0.00013527,-0.1174,0,0,0.083333,-0,-0,0.66667
0.77748,0.33041,9.3298,-0.25439,-19.187,109.67,6.329,-2.1097,-1.7686,8.4387,2.0915e-11,-0.8843,0,0,0.083333,7.8949e-16,0,0.66667
0.57364,0.040194,6.8837,-0.68971,-88.785,368,12.661,-4.2202,-0.3066,16.881,-1.5445e-12,-0.1533,0,0,0.083333,-0,5.028e-17,0.66667
0.14128,0.53468,1.6954,0.052027,9.7595,1227.3,-0.23521,0.078403,-1.9968,-0.31361,9.5329e-10,-0.99839,0,0,0.083333,-0,-0,0.66667
0.31493,0.96343,3.7791,0.69515,120.17,846.85,-7.0055,2.3352,-0.28369,-9.3407,-7.5859e-12,-0.14184,0,0,0.083333,-1.9737e-16,0,0.66667
0.36686,0.80289,4.4023,0.45433,75.324,739.84,-5.3337,1.7779,-1.2619,-7.1115,8.2934e-12,-0.63093,0,0,0.083333,-0,-0,0.66667
0.2919,0.9046,3.5027,0.60691,106.48,895.18,-5.6689,1.8896,-0.6888,-7.5585,-3.7475e-11,-0.3444,0,0,0.083333,1.4803e-16,0,0.66667
0.44595,0.45973,5.3514,-0.06041,-9.2571,586.06,0.86208,-0.28736,-1.9829,1.1494,-2.6191e-12,-0.99147,0,0,0.083333,-0,-0,0.66667
0.61063,0.26,7.3276,-0.36,-43.185,311.01,7.0345,-2.3448,-1.5432,9.3793,2.4087e-12,-0.7716,0,0,0.083333,-0,-0,0.66667
0.21291,0.26616,2.555,-0.35077,-64.134,1066.4,2.3899,-0.79662,-1.5588,3.1865,-1.426e-11,-0.7794,0,0,0.083333,-3.9475e-16,0,0.66667
0.24976,0.47458,2.9971,-0.038133,-6.8427,985.27,0.30477,-0.10159,-2.002,0.40637,-1.3251e-12,-1.001,0,0,0.083333,-0,-0,0.66667
0.11215,0.21552,1.3458,-0.42672,-80.731,1293.9,1.5314,-0.51047,-1.354,2.0419,1.2678e-08,-0.67702,0,0,0.083333,-9.8686e-17,0,0.66667
0.30759,0.83241,3.6911,0.49862,86.515,861.84,-4.9078,1.6359,-1.1133,-6.5438,-2.0592e-12,-0.55664,0,0,0.083333,3.9475e-16,0,0.66667
0.49745,0.16486,5.9694,-0.50271,-72.474,493.63,8.0023,-2.6674,-1.1026,10.67,-1.5117e-12,-0.55132,0,0,0.083333,-0,-0,0.66667
0.48981,0.36145,5.8777,-0.20782,-30.217,506.52,3.2574,-1.0858,-1.8431,4.3432,2.4454e-12,-0.92154,0,0,0.083333,7.8949e-16,0,0.66667
0.99558,0.89597,11.947,0.59395,0.87727,1.9935,-18.922,6.3075,-0.74365,-25.23,2.3061e-06,-0.37182,0,0,0.083333,7.8949e-16,0,0.66667
0.98111,0.77957,11.773,0.41935,2.8452,2.0585,-13.166,4.3885,-1.3756,-17.554,-3.4822e-06,-0.6878,0,0,0.083333,1.579e-15,0,0.66667
0.43656,0.84552,5.2388,0.51828,80.387,604.26,-7.2404,2.4135,-1.0509,-9.6539,-9.539e-12,-0.52543,0,0,0.083333,-0,-1.0893e-16,0.66667
0.97202,0.93598,11.664,0.65397,6.8365,4.4794,-20.341,6.7805,-0.48027,-27.122,-4.8736e-05,-0.24014,0,0,0.083333,-7.8949e-16,0,0.66667
0.2144,0.87543,2.5728,0.56315,103.01,1063.3,-3.8636,1.2879,-0.87183,-5.1515,-4.1173e-11,-0.43592,0,0,0.083333,-7.8949e-16,0,0.66667
0.54112,0.71619,6.4935,0.32429,43.878,419.05,-5.6153,1.8718,-1.6236,-7.4871,-4.2411e-12,-0.81181,0,0,0.083333,3.9475e-16,0,0.66667
0.45344,0.45992,5.4412,-0.060118,-9.1346,572.18,0.87231,-0.29077,-1.9938,1.1631,5.283e-13,-0.9969,0,0,0.083333,-0,-0,0.66667
0.96761,0.011828,11.611,-0.73226,-8.9404,5.709,22.673,-7.5577,-0.097663,30.231,-1.2272e-05,-0.048832,0,0,0.083333,-0,9.2859e-17,0.66667
0.83618,0.93103,10.034,0.64654,37.244,63.108,-17.3,5.7667,-0.50983,-23.067,-2.5724e-08,-0.25492,0,0,0.083333,7.8949e-16,0,0.66667
0.21415,0.084764,2.5698,-0.62285,-113.99,1063.9,4.2682,-1.4227,-0.61844,5.691,-5.1335e-10,-0.30922,0,0,0.083333,-0,-0,0.66667
0.43954,0.93456,5.2745,0.65184,100.88,599.04,-9.1682,3.0561,-0.49233,-12.224,-1.5827e-12,-0.24616,0,0,0.083333,1.9737e-16,0,0.66667
0.16848,0.84561,2.0217,0.51841,96.551,1165.9,-2.7949,0.93163,-1.045,-3.7265,-3.6235e-09,-0.52252,0,0,0.083333,-0,-0,0.66667
0.52909,0.96164,6.349,0.69245,95.674,440.09,-11.724,3.9079,-0.2973,-15.632,-3.4639e-13,-0.14865,0,0,0.083333,-0,-0,0.66667
0.79348,0.27304,9.5218,-0.34044,-24.052,95.499,8.6442,-2.8814,-1.5876,11.526,5.6858e-11,-0.79379,0,0,0.083333,-0,-0,0.66667
0.035879,0.48529,0.43055,-0.022063,-4.2178,1469.8,0.025331,-0.0084437,-1.9957,0.033775,1.2734e-07,-0.99787,0,0,0.083333,-0,-0,0.66667
0.19136,0.026703,2.2963,-0.70995,-131.28,1114.8,4.3473,-1.4491,-0.2073,5.7965,-2.322e-10,-0.10365,0,0,0.083333,1.9737e-16,0,0.66667
0.97746,0.28172,11.729,-0.32742,-2.6479,2.1043,10.241,-3.4137,-1.6161,13.655,2.575e-06,-0.80806,0,0,0.083333,3.158e-15,0,0.66667
0.9608,0.01254,11.53,-0.73119,-10.77,6.9006,22.481,-7.4936,-0.094721,29.974,-1.1225e-05,-0.04736,0,0,0.083333,-0,-0,0.66667
0.55659,0.81711,6.6791,0.47566,62.868,394.25,-8.4719,2.824,-1.1926,-11.296,-5.5449e-12,-0.59631,0,0,0.083333,-0,-0,0.66667
0.64609,0.68533,7.7531,0.278,30.955,260.82,-5.7476,1.9159,-1.7231,-7.6634,-6.4273e-12,-0.86153,0,0,0.083333,1.1842e-15,0,0.66667
0.27209,0.8454,3.2651,0.5181,91.952,937.33,-4.5111,1.5037,-1.0428,-6.0148,7.3568e-12,-0.52142,0,0,0.083333,-0,-0,0.66667
0.95209,0.037442,11.425,-0.69384,-12.4,8.4628,21.139,-7.0464,-0.29326,28.185,-1.3214e-05,-0.14663,0,0,0.083333,-0,6.2719e-17,0.66667
0.66977,0.21161,8.0373,-0.43258,-45.629,229.87,9.2715,-3.0905,-1.3369,12.362,6.4837e-13,-0.66847,0,0,0.083333,-1.1842e-15,0,0.66667
0.66681,0.019403,8.0017,-0.7209,-76.837,234.89,15.382,-5.1275,-0.14928,20.51,1.5188e-13,-0.074641,0,0,0.083333,-0,-0,0.66667
0.011103,0.17334,0.13324,-0.49,-93.904,1527.2,0.17409,-0.058025,-1.1439,0.23213,9.4753e-06,-0.57197,0,0,0.083333,-0,-0,0.66667
0.85297,0.59001,10.236,0.13502,6.9863,49.949,-3.6853,1.2284,-1.9321,-4.9137,8.2978e-10,-0.96604,0,0,0.083333,1.1842e-15,0,0.66667
0.77833,0.0073443,9.3399,-0.73898,-55.92,110.89,18.405,-6.1351,-0.058916,24.541,-1.2701e-12,-0.029458,0,0,0.083333,-0,-7.0969e-17,0.66667
0.68492,0.67393,8.2191,0.26089,26.458,210.31,-5.7181,1.906,-1.7588,-7.6241,1.005e-12,-0.87941,0,0,0.083333,-0,-0,0.66667
0.74078,0.83099,8.8894,0.49649,42.852,146.82,-11.769,3.9231,-1.1195,-15.692,-6.5787e-12,-0.55976,0,0,0.083333,7.8949e-16,0,0.66667
0.15657,0.33546,1.8789,-0.24681,-46.098,1192.6,1.2366,-0.4122,-1.7901,1.6488,4.0515e-10,-0.89504,0,0,0.083333,9.8686e-17,0,0.66667
0.71878,0.57047,8.6253,0.1057,9.7494,169.96,-2.4313,0.81042,-1.9679,-3.2417,-9.3348e-13,-0.98393,0,0,0.083333,-0,-0,0.66667
0.096818,0.70117,1.1618,0.30175,57.246,1329,-0.93488,0.31163,-1.6761,-1.2465,-4.822e-08,-0.83806,0,0,0.083333,-1.9737e-16,0,0.66667
0.70695,0.89364,8.4834,0.59046,56.578,184.83,-13.358,4.4525,-0.75904,-17.81,1.1203e-11,-0.37952,0,0,0.083333,-7.8949e-16,0,0.66667
0.0026318,0.10243,0.031582,-0.59636,-114.37,1546.9,0.050215,-0.016755,-0.73657,0.066944,-2.5751e-05,-0.36828,0,0,0.083333,6.1679e-18,-5.5388e-17,0.66667
0.77621,0.89618,9.3145,0.59427,45.226,112.05,-14.761,4.9203,-0.74154,-19.681,2.2887e-10,-0.37077,0,0,0.083333,7.8949e-16,0,0.66667
0.49156,0.16976,5.8987,-0.49536,-71.965,503.96,7.7919,-2.5973,-1.1232,10.389,3.6056e-12,-0.56158,0,0,0.083333,-0,-0,0.66667
0.20439,0.90836,2.4526,0.61254,112.58,1085.6,-4.0063,1.3354,-0.67097,-5.3417,-1.0392e-09,-0.33549,0,0,0.083333,-0,-0,0.66667
0.72925,0.41868,8.751,-0.12197,-10.896,158.32,2.8464,-0.94879,-1.9441,3.7952,2.1103e-12,-0.97204,0,0,0.083333,-0,-0,0.66667
0.31565,0.54415,3.7878,0.066219,11.409,844.53,-0.66887,0.22296,-1.9842,-0.89183,1.378e-12,-0.99208,0,0,0.083333,-0,-0,0.66667
0.88382,0.91013,10.606,0.61519,25.734,33.655,-17.399,5.7997,-0.65104,-23.199,6.9603e-08,-0.32552,0,0,0.083333,-0,-0,0.66667
0.18023,0.3165,2.1628,-0.27525,-50.993,1139.2,1.5875,-0.52917,-1.7271,2.1167,-8.9031e-11,-0.86357,0,0,0.083333,-0,-0,0.66667
0.93855,0.72397,11.263,0.33595,7.5271,10.131,-10.09,3.3633,-1.6038,-13.453,2.2684e-07,-0.80188,0,0,0.083333,-0,-0,0.66667
0.97075,0.41629,11.649,-0.12557,-1.3185,2.5307,3.9007,-1.3002,-1.9462,5.2009,5.6496e-07,-0.97308,0,0,0.083333,-0,-0,0.66667
0.30449,0.12282,3.6538,-0.56577,-98.414,868.49,5.5126,-1.8375,-0.85868,7.3501,1.2563e-12,-0.42934,0,0,0.083333,9.8686e-17,0,0.66667
0.86249,0.39431,10.35,-0.15854,-7.7075,44.025,4.3755,-1.4585,-1.9105,5.834,-1.4597e-09,-0.95525,0,0,0.083333,-0,-0,0.66667
0.84218,0.12743,10.106,-0.55885,-31.05,58.453,15.061,-5.0203,-0.89378,20.081,-1.3945e-10,-0.44689,0,0,0.083333,-0,8.3915e-17,0.66667
0.42461,0.24593,5.0954,-0.3811,-59.814,626.6,5.1782,-1.7261,-1.485,6.9043,-4.2455e-12,-0.7425,0,0,0.083333,1.9737e-16,0,0.66667
0.36368,0.45678,4.3642,-0.064837,-10.765,745.84,0.75457,-0.25152,-1.983,1.0061,-2.5824e-12,-0.99151,0,0,0.083333,-0,-0,0.66667
0.28244,0.41166,3.3892,-0.13251,-23.338,914.79,1.1976,-0.39921,-1.9422,1.5968,4.8868e-12,-0.97112,0,0,0.083333,7.8949e-16,0,0.66667
0.99324,0.54349,11.919,0.065233,0.13107,0.24271,-2.0733,0.69112,-1.9807,-2.7645,7.9881e-07,-0.99034,0,0,0.083333,1.579e-15,0,0.66667
0.25575,0.16402,3.069,-0.50397,-90.272,972.59,4.1245,-1.3748,-1.0937,5.4993,-3.753e-12,-0.54686,0,0,0.083333,-0,-0,0.66667
0.92068,0.42194,11.048,-0.1171,-3.3587,15.53,3.4499,-1.15,-1.9552,4.5998,-6.4602e-08,-0.97758,0,0,0.083333,1.579e-15,0,0.66667
0.42834,0.66732,5.14,0.25098,39.218,619.33,-3.4402,1.1467,-1.772,-4.5869,-9.5404e-12,-0.88602,0,0,0.083333,-0,-0,0.66667
0.93543,0.38454,11.225,-0.17318,-4.06,10.648,5.184,-1.728,-1.8955,6.912,-1.3253e-07,-0.94773,0,0,0.083333,-0,-0,0.66667
0.83884,0.035132,10.066,-0.6973,-39.619,61.538,18.718,-6.2392,-0.26929,24.957,-3.0833e-09,-0.13465,0,0,0.083333,-0,-0,0.66667
0.15578,0.83278,1.8693,0.49918,93.354,1194.5,-2.4883,0.82944,-1.1201,-3.3178,3.6533e-09,-0.56003,0,0,0.083333,-1.9737e-16,0,0.66667
0.57428,0.88002,6.8914,0.57003,73.21,366.54,-10.476,3.4919,-0.844,-13.967,2.2631e-12,-0.422,0,0,0.083333,-0,-0,0.66667
0.6735,0.33368,8.082,-0.24948,-26.043,224.65,5.3768,-1.7923,-1.7818,7.1691,-3.1761e-12,-0.89089,0,0,0.083333,-0,-0,0.66667
0.40582,0.83678,4.8698,0.50516,80.857,662.97,-6.5602,2.1867,-1.0992,-8.7469,1.6183e-12,-0.54959,0,0,0.083333,3.9475e-16,0,0.66667
0.004877,0.40127,0.058525,-0.14809,-28.349,1541.7,0.023111,-0.0077031,-1.92,0.030816,1.0301e-06,-0.96,0,0,0.083333,-3.084e-18,0,0.66667
0.32533,0.62406,3.904,0.1861,31.847,824.41,-1.9374,0.64579,-1.8787,-2.5832,6.89e-13,-0.93937,0,0,0.083333,-5.181e-16,0,0.66667
0.83894,0.15074,10.067,-0.52389,-29.635,60.52,14.065,-4.6882,-1.0221,18.753,-9.4925e-10,-0.51105,0,0,0.083333,3.9475e-16,0,0.66667
0.062824,0.53924,0.75389,0.058864,11.223,1407.4,-0.11834,0.039446,-1.9944,-0.15778,-1.1372e-07,-0.99719,0,0,0.083333,-0,-0,0.66667
0.10542,0.076539,1.265,-0.63519,-120.5,1309.4,2.1428,-0.71426,-0.56384,2.857,-2.4269e-07,-0.28192,0,0,0.083333,-1.9737e-16,0,0.66667
0.70179,0.9331,8.4214,0.64965,63.206,191.18,-14.589,4.8631,-0.50385,-19.452,-7.9226e-13,-0.25193,0,0,0.083333,7.8949e-16,-4.7759e-17,0.66667
0.51416,0.58594,6.1699,0.12891,18.135,464.07,-2.121,0.70699,-1.9446,-2.828,7.7449e-13,-0.9723,0,0,0.083333,-3.9475e-16,0,0.66667
0.49817,0.097724,5.978,-0.60341,-86.979,492.67,9.6192,-3.2064,-0.70873,12.826,9.4387e-12,-0.35437,0,0,0.083333,-0,4.5414e-17,0.66667
0.37361,0.13991,4.4833,-0.54014,-89.079,726.48,6.4576,-2.1525,-0.96612,8.6102,2.4105e-12,-0.48306,0,0,0.083333,-0,-0,0.66667
0.60351,0.94096,7.2422,0.66144,80.655,322.47,-12.774,4.258,-0.44173,-17.032,-3.0607e-12,-0.22087,0,0,0.083333,-0,-0,0.66667
0.85147,0.35039,10.218,-0.22442,-11.73,51.067,6.1148,-2.0383,-1.817,8.153,-6.916e-10,-0.90851,0,0,0.083333,-0,-0,0.66667
0.27692,0.80696,3.3231,0.46044,81.458,926.88,-4.0802,1.3601,-1.2448,-5.4403,-1.2931e-11,-0.62238,0,0,0.083333,1.9737e-16,0,0.66667
0.84476,0.9507,10.137,0.67605,37.099,57.349,-18.275,6.0918,-0.37938,-24.367,2.408e-08,-0.18969,0,0,0.083333,1.579e-15,0,0.66667
0.41662,0.63669,4.9994,0.20504,32.424,641.66,-2.7336,0.91118,-1.8474,-3.6447,3.042e-13,-0.9237,0,0,0.083333,-0,-0,0.66667
0.50098,0.51115,6.0118,0.016729,2.3961,486.78,-0.2682,0.089398,-2.0036,-0.35759,-2.8524e-12,-1.0018,0,0,0.083333,1.579e-15,0,0.66667
0.72962,0.98144,8.7555,0.72216,64.811,159.88,-16.861,5.6203,-0.1431,-22.481,-4.5652e-13,-0.071548,0,0,0.083333,1.579e-15,0,0.66667
0.25872,0.98466,3.1047,0.72699,130.21,966.54,-6.0189,2.0063,-0.1165,-8.0251,9.3361e-12,-0.05825,0,0,0.083333,3.9475e-16,0,0.66667
0.92164,0.60261,11.06,0.15392,4.3641,15.227,-4.5394,1.5131,-1.9226,-6.0525,8.2534e-08,-0.96131,0,0,0.083333,1.579e-15,0,0.66667
0.70207,0.13128,8.4248,-0.55309,-53.703,190.41,12.426,-4.1419,-0.91724,16.568,3.2996e-12,-0.45862,0,0,0.083333,1.579e-15,0,0.66667
0.61893,0.33593,7.4272,-0.2461,-29.022,298.75,4.8742,-1.6247,-1.7812,6.4989,-2.8173e-12,-0.8906,0,0,0.083333,3.9475e-16,0,0.66667
0.27301,0.9016,3.2761,0.60241,106.92,935.5,-5.2628,1.7543,-0.70612,-7.017,4.5366e-11,-0.35306,0,0,0.083333,-9.8686e-17,0,0.66667
0.69585,0.70998,8.3502,0.31498,31.041,197.07,-7.0136,2.3379,-1.6432,-9.3515,-2.1756e-12,-0.82158,0,0,0.083333,7.8949e-16,0,0.66667
0.25721,0.075316,3.0866,-0.63703,-114.11,969.63,5.2433,-1.7478,-0.5528,6.991,-9.3259e-14,-0.2764,0,0,0.083333,3.9475e-16,0,0.66667
0.81645,0.36453,9.7974,-0.2032,-12.898,76.172,5.309,-1.7697,-1.8518,7.0786,1.3752e-10,-0.92588,0,0,0.083333,-0,-0,0.66667
0.011472,0.17335,0.13767,-0.48998,-93.9,1526.4,0.17988,-0.059953,-1.1445,0.23984,9.1844e-06,-0.57224,0,0,0.083333,-0,-0,0.66667
0.16654,0.077767,1.9985,-0.63335,-118.12,1170.4,3.3752,-1.1251,-0.57046,4.5003,-1.9151e-08,-0.28523,0,0,0.083333,-0,-0,0.66667
0.55783,0.50684,6.6939,0.010264,1.3514,391.59,-0.18321,0.061072,-1.9976,-0.24429,-1.4706e-11,-0.99879,0,0,0.083333,3.158e-15,0,0.66667
0.71228,0.77762,8.5474,0.41642,39.221,177.99,-9.4915,3.1638,-1.3803,-12.655,1.0498e-12,-0.69016,0,0,0.083333,-3.9475e-16,0,0.66667
0.49248,0.13862,5.9098,-0.54208,-78.685,502.46,8.5428,-2.8476,-0.95078,11.39,2.2897e-12,-0.47539,0,0,0.083333,-0,-0,0.66667
0.87781,0.14713,10.534,-0.52931,-23.163,36.387,14.868,-4.9561,-1.0045,19.824,-1.0641e-08,-0.50224,0,0,0.083333,-0,-0,0.66667
0.97587,0.9162,11.71,0.6243,5.603,3.7694,-19.496,6.4985,-0.61004,-25.994,-4.1786e-05,-0.30502,0,0,0.083333,-1.579e-15,0,0.66667
0.46428,0.87242,5.5713,0.55863,83.992,553.04,-8.2994,2.7665,-0.8893,-11.066,2.3093e-14,-0.44465,0,0,0.083333,-8.8818e-16,0,0.66667
0.76799,0.93882,9.2158,0.65824,51.753,120.15,-16.177,5.3922,-0.46213,-21.569,-8.147e-10,-0.23107,0,0,0.083333,-0,-0,0.66667
0.49477,0.59227,5.9373,0.13841,19.991,497.7,-2.1913,0.73044,-1.9301,-2.9218,1.3574e-12,-0.96505,0,0,0.083333,-1.9737e-16,0,0.66667
0.6651,0.07643,7.9812,-0.63535,-67.921,236.69,13.522,-4.5075,-0.56046,18.03,8.0025e-13,-0.28023,0,0,0.083333,-0,-0,0.66667
0.22487,0.96408,2.6985,0.69613,126.84,1040.4,-5.0093,1.6698,-0.27392,-6.6791,6.2438e-11,-0.13696,0,0,0.083333,9.8686e-17,0,0.66667
0.10954,0.38954,1.3145,-0.16569,-31.338,1299.8,0.58079,-0.1936,-1.9091,0.77439,1.6404e-08,-0.95457,0,0,0.083333,-0,-0,0.66667
0.97901,0.4721,11.748,-0.041852,-0.30947,1.3742,1.3112,-0.43705,-1.9915,1.7482,1.4869e-08,-0.99575,0,0,0.083333,-0,-0,0.66667
0.81499,0.78087,9.7799,0.4213,26.993,77.912,-10.987,3.6625,-1.3715,-14.65,7.7671e-12,-0.68575,0,0,0.083333,2.3438e-15,0,0.66667
0.28538,0.52687,3.4246,0.040305,7.0849,908.48,-0.36808,0.12269,-1.9932,-0.49077,-2.5462e-11,-0.99662,0,0,0.083333,3.9475e-16,0,0.66667
0.58583,0.1774,7.0299,-0.48391,-60.859,348.43,9.0716,-3.0239,-1.1632,12.095,-1.9718e-12,-0.58158,0,0,0.083333,-7.8949e-16,0,0.66667
0.38007,0.46947,4.5609,-0.045794,-7.4958,713.02,0.55696,-0.18565,-1.9911,0.74262,6.5097e-12,-0.99553,0,0,0.083333,-0,-0,0.66667
0.17634,0.25812,2.1161,-0.36282,-67.334,1148.1,2.0474,-0.68245,-1.53,2.7298,-6.3464e-11,-0.76501,0,0,0.083333,-0,-0,0.66667
0.41884,0.34825,5.026,-0.22763,-35.917,637.43,3.0508,-1.0169,-1.8165,4.0678,-6.4826e-12,-0.90827,0,0,0.083333,-0,-0,0.66667
0.29719,0.94853,3.5663,0.6728,117.69,884.1,-6.3983,2.1328,-0.39701,-8.5311,-2.8888e-12,-0.1985,0,0,0.083333,-0,-0,0.66667
0.016624,0.2961,0.19949,-0.30586,-58.56,1514.4,0.16271,-0.054237,-1.6718,0.21694,-1.0937e-06,-0.83591,0,0,0.083333,-0,-0,0.66667
0.38737,0.78577,4.6484,0.42866,69.784,698.94,-5.3136,1.7712,-1.347,-7.0847,9.9294e-12,-0.67352,0,0,0.083333,-0,-0,0.66667
0.92091,0.56351,11.051,0.09527,2.7242,15.42,-2.8075,0.93584,-1.9738,-3.7434,6.9115e-08,-0.98688,0,0,0.083333,3.158e-15,0,0.66667
0.8282,0.44734,9.9384,-0.078991,-4.7179,67.057,2.0934,-0.69781,-1.9851,2.7913,-1.2521e-10,-0.99253,0,0,0.083333,1.579e-15,0,0.66667
0.57407,0.62939,6.8889,0.19409,24.878,365.99,-3.5655,1.1885,-1.8652,-4.754,-3.6704e-13,-0.93259,0,0,0.083333,1.579e-15,0,0.66667
0.31865,0.24546,3.8238,-0.38181,-65.699,838.52,3.8932,-1.2977,-1.4786,5.1909,3.1011e-12,-0.7393,0,0,0.083333,-0,-0,0.66667
0.23126,0.69081,2.7752,0.28621,51.871,1025.8,-2.1181,0.70604,-1.7096,-2.8241,4.7418e-12,-0.85478,0,0,0.083333,-0,-0,0.66667
0.95602,0.77061,11.472,0.40591,6.537,5.9788,-12.418,4.1393,-1.4145,-16.557,1.3537e-06,-0.70726,0,0,0.083333,-0,-0,0.66667
0.56461,0.36265,6.7753,-0.20602,-26.835,380.9,3.7223,-1.2408,-1.8509,4.9631,1.45e-13,-0.92546,0,0,0.083333,-0,-0,0.66667
0.21761,0.47162,2.6113,-0.042574,-7.7625,1055.9,0.29646,-0.09882,-1.9988,0.39528,4.8948e-11,-0.99938,0,0,0.083333,-0,-0,0.66667
0.24948,0.63019,2.9938,0.19528,35.054,985.93,-1.559,0.51966,-1.8709,-2.0787,8.4488e-12,-0.93546,0,0,0.083333,-0,-0,0.66667
0.9596,0.90128,11.515,0.60192,9.0251,6.2515,-18.483,6.161,-0.70848,-24.644,1.5137e-05,-0.35424,0,0,0.083333,1.579e-15,0,0.66667
0.23881,0.26484,2.8658,-0.35274,-63.704,1009.3,2.6957,-0.89856,-1.5553,3.5943,-6.664e-12,-0.77765,0,0,0.083333,-0,-0,0.66667
0.10671,0.92568,1.2806,0.63852,121.1,1306.5,-2.1805,0.72682,-0.55108,-2.9073,2.4962e-07,-0.27554,0,0,0.083333,-2.7688e-17,1.0694e-16,0.66667
0.18396,0.70113,2.2075,0.3017,55.818,1130.9,-1.776,0.59201,-1.6754,-2.368,5.8598e-11,-0.83771,0,0,0.083333,-0,-0,0.66667
0.76622,0.043036,9.1947,-0.68545,-54.274,122,16.807,-5.6022,-0.33508,22.409,2.4784e-10,-0.16754,0,0,0.083333,-0,-0,0.66667
0.70876,0.83208,8.5052,0.49812,47.433,182.34,-11.298,3.7659,-1.1143,-15.063,3.6406e-12,-0.55716,0,0,0.083333,-0,-0,0.66667
0.43794,0.41619,5.2553,-0.12571,-19.436,601.08,1.7617,-0.58724,-1.95,2.349,1.5079e-12,-0.975,0,0,0.083333,-0,-0,0.66667
0.7938,0.15426,9.5257,-0.5186,-36.671,95.869,13.173,-4.3911,-1.0449,17.565,-3.7566e-11,-0.52244,0,0,0.083333,-2.1711e-15,0,0.66667
0.51751,0.33621,6.2102,-0.24569,-34.411,458.46,4.0688,-1.3563,-1.7881,5.425,8.7708e-13,-0.89405,0,0,0.083333,-0,-0,0.66667
0.4136,0.82155,4.9632,0.48233,76.6,647.89,-6.3837,2.1279,-1.1687,-8.5116,-3.5065e-12,-0.58435,0,0,0.083333,7.8949e-16,0,0.66667
0.11744,0.69551,1.4093,0.29327,55.386,1281.7,-1.1022,0.36738,-1.6901,-1.4695,-8.1761e-09,-0.84507,0,0,0.083333,-0,-0,0.66667
0.88391,0.27061,10.607,-0.34409,-14.29,32.38,9.7326,-3.2442,-1.575,12.977,-7.3352e-09,-0.78748,0,0,0.083333,7.8949e-16,0,0.66667
0.27559,0.84032,3.3071,0.51048,90.408,929.81,-4.5019,1.5006,-1.0709,-6.0026,3.7477e-12,-0.53546,0,0,0.083333,-3.9475e-16,0,0.66667
0.61626,0.071645,7.3951,-0.64253,-76.415,303.76,12.671,-4.2237,-0.52808,16.895,2.1503e-12,-0.26404,0,0,0.083333,-0,-0,0.66667
0.98458,0.4275,11.815,-0.10875,-0.57689,0.86925,3.4265,-1.1422,-1.9648,4.5686,-1.9902e-07,-0.9824,0,0,0.083333,7.8949e-16,0,0.66667
0.18942,0.54934,2.273,0.074005,13.656,1118.6,-0.44857,0.14952,-1.9828,-0.59809,4.7171e-11,-0.99138,0,0,0.083333,-0,-0,0.66667
0.96519,0.74377,11.582,0.36566,4.6403,4.0399,-11.294,3.7646,-1.5242,-15.058,-2.466e-07,-0.76211,0,0,0.083333,-7.8949e-16,0,0.66667
0.65272,0.27386,7.8326,-0.33921,-37.224,252.01,7.0851,-2.3617,-1.5904,9.4467,1.2439e-12,-0.7952,0,0,0.083333,-1.1842e-15,0,0.66667
0.12873,0.62091,1.5448,0.18136,34.145,1255.9,-0.74712,0.24904,-1.8827,-0.99615,-4.4858e-09,-0.94135,0,0,0.083333,2.4672e-16,0,0.66667
0.77193,0.10576,9.2631,-0.59136,-45.755,116.05,14.608,-4.8692,-0.75266,19.477,-4.9005e-10,-0.37633,0,0,0.083333,-0,-0,0.66667
0.95178,0.8465,11.421,0.51975,9.2351,7.4631,-15.83,5.2767,-1.0442,-21.107,1.6407e-06,-0.5221,0,0,0.083333,-0,-0,0.66667
0.56278,0.8287,6.7534,0.49305,64.519,384.41,-8.8792,2.9597,-1.1421,-11.839,4.1744e-14,-0.57104,0,0,0.083333,-0,-0,0.66667
0.68856,0.084959,8.2627,-0.62256,-62.748,207,13.717,-4.5725,-0.62654,18.29,6.4055e-12,-0.31327,0,0,0.083333,-7.8949e-16,0,0.66667
0.026348,0.2432,0.31617,-0.3852,-73.742,1491.9,0.32478,-0.10826,-1.4701,0.43304,-3.7476e-06,-0.73506,0,0,0.083333,2.4672e-17,0,0.66667
0.98908,0.41068,11.869,-0.13399,-0.48332,0.55423,4.2407,-1.4136,-1.9344,5.6543,-1.808e-07,-0.96721,0,0,0.083333,3.158e-15,0,0.66667
0.31846,0.66236,3.8215,0.24353,41.889,838.76,-2.4818,0.82725,-1.7859,-3.309,-2.7245e-13,-0.89297,0,0,0.083333,7.8949e-16,0,0.66667
0.023904,0.55138,0.28685,0.077066,14.744,1497.5,-0.05895,0.01965,-1.9746,-0.0786,1.7584e-07,-0.9873,0,0,0.083333,2.4672e-17,0,0.66667
0.80856,0.51856,9.7028,0.027847,1.8349,82.306,-0.72053,0.24018,-1.9957,-0.9607,-1.0065e-12,-0.99786,0,0,0.083333,1.579e-15,0,0.66667
0.97325,0.66548,11.679,0.24822,2.3864,2.408,-7.7305,2.5768,-1.7789,-10.307,-1.4912e-06,-0.88943,0,0,0.083333,-0,-0,0.66667
0.73759,0.58605,8.8511,0.12907,11.227,149.3,-3.0465,1.0155,-1.9408,-4.062,-2.7582e-12,-0.97039,0,0,0.083333,-0,-0,0.66667
0.0027358,0.94114,0.03283,0.66171,126.96,1546.7,-0.057952,0.019356,-0.4447,-0.07725,5.8012e-05,-0.22235,0,0,0.083333,-0,4.7066e-16,0.66667
0.063361,0.84953,0.76033,0.5243,100.1,1406.2,-1.063,0.35434,-1.0281,-1.4174,-5.6281e-08,-0.51405,0,0,0.083333,-0,-0,0.66667
0.58427,0.26975,7.0112,-0.34538,-43.517,350.46,6.4574,-2.1525,-1.5721,8.6099,-2.6157e-12,-0.78603,0,0,0.083333,7.8949e-16,0,0.66667
0.33572,0.56652,4.0286,0.099784,16.942,802.88,-1.072,0.35732,-1.9611,-1.4293,-1.0519e-11,-0.98054,0,0,0.083333,-0,-0,0.66667
0.88183,0.85003,10.582,0.52504,22.26,34.209,-14.816,4.9387,-1.0162,-19.755,3.5149e-09,-0.50808,0,0,0.083333,-0,-0,0.66667
0.87367,0.84528,10.484,0.51792,23.38,38.62,-14.48,4.8266,-1.0512,-19.306,1.9452e-09,-0.52562,0,0,0.083333,-0,-0,0.66667
0.98752,0.56755,11.85,0.10132,0.42454,0.62351,-3.2018,1.0673,-1.964,-4.2691,6.5556e-07,-0.98199,0,0,0.083333,-0,-0,0.66667
0.71583,0.72078,8.59,0.33118,30.848,173.68,-7.5861,2.5287,-1.6114,-10.115,1.4206e-12,-0.80572,0,0,0.083333,-0,-0,0.66667
0.87688,0.53042,10.523,0.045626,1.9977,35.592,-1.2803,0.42676,-1.9964,-1.707,9.2911e-09,-0.9982,0,0,0.083333,1.579e-15,0,0.66667
0.31965,0.95201,3.8358,0.67802,116.81,836.96,-6.9353,2.3118,-0.36111,-9.247,-1.5666e-11,-0.18056,0,0,0.083333,7.8949e-16,0,0.66667
0.11118,0.94499,1.3341,0.66749,126.49,1296.3,-2.3747,0.79157,-0.41876,-3.1663,2.4483e-08,-0.20938,0,0,0.083333,-0,-0,0.66667
0.86536,0.52211,10.384,0.033162,1.5798,42.184,-0.91832,0.30611,-1.9925,-1.2244,4.1483e-10,-0.99627,0,0,0.083333,-0,-0,0.66667
0.30347,0.93564,3.6417,0.65346,113.82,870.79,-6.3458,2.1153,-0.47888,-8.4611,7.9625e-12,-0.23944,0,0,0.083333,-9.8686e-17,0,0.66667
0.41933,0.99204,5.032,0.73806,116.78,637.58,-9.9038,3.3013,-0.064441,-13.205,-4.0625e-12,-0.03222,0,0,0.083333,-0,7.4938e-17,0.66667
0.64603,0.073512,7.7524,-0.63973,-71.464,262.04,13.225,-4.4084,-0.54165,17.634,-1.1058e-12,-0.27083,0,0,0.083333,-0,-0,0.66667
0.6051,0.14723,7.2612,-0.52916,-64.244,319.62,10.246,-3.4154,-1.0026,13.662,7.7449e-13,-0.50132,0,0,0.083333,-0,-0,0.66667
0.42092,0.13332,5.0511,-0.55001,-86.744,633.99,7.4084,-2.4695,-0.92933,9.8779,-1.3367e-11,-0.46466,0,0,0.083333,7.8949e-16,0,0.66667
0.38615,0.62572,4.6338,0.18858,30.706,701.04,-2.3303,0.77677,-1.8728,-3.1071,7.1869e-12,-0.93638,0,0,0.083333,-0,-0,0.66667
0.12268,0.35356,1.4722,-0.21966,-41.423,1269.7,0.86235,-0.28745,-1.83,1.1498,6.3952e-09,-0.915,0,0,0.083333,-0,-0,0.66667
0.53386,0.87758,6.4063,0.56637,77.608,431.67,-9.6756,3.2252,-0.86139,-12.901,7.752e-12,-0.4307,0,0,0.083333,-1.579e-15,0,0.66667
0.23285,0.67426,2.7942,0.26138,47.331,1022.3,-1.9477,0.64922,-1.7602,-2.5969,9.7172e-12,-0.88012,0,0,0.083333,-3.9475e-16,0,0.66667
0.75481,0.99197,9.0577,0.73796,60.95,133.55,-17.825,5.9415,-0.061352,-23.766,-1.8934e-11,-0.030676,0,0,0.083333,7.8949e-16,0,0.66667
0.67487,0.33042,8.0984,-0.25437,-26.464,222.92,5.4933,-1.8311,-1.77,7.3244,-2.5069e-12,-0.88498,0,0,0.083333,-0,-0,0.66667
0.071927,0.85321,0.86312,0.52982,101.04,1386.4,-1.2195,0.40649,-0.99821,-1.626,-2.5183e-07,-0.49911,0,0,0.083333,-0,-0,0.66667
0.98926,0.6389,11.871,0.20835,0.7421,0.67598,-6.5956,2.1985,-1.8428,-8.7941,3.8507e-07,-0.92142,0,0,0.083333,1.579e-15,0,0.66667
0.78046,0.28548,9.3655,-0.32179,-23.997,107.09,8.0365,-2.6788,-1.6377,10.715,2.8072e-11,-0.81886,0,0,0.083333,-0,-0,0.66667
0.22783,0.58834,2.7339,0.13252,24.048,1033.3,-0.96611,0.32204,-1.9341,-1.2881,5.3816e-12,-0.96706,0,0,0.083333,4.9343e-16,0,0.66667
0.030743,0.30867,0.36891,-0.287,-54.908,1481.7,0.28234,-0.094114,-1.7139,0.37645,-1.229e-06,-0.85694,0,0,0.083333,-4.9343e-17,0,0.66667
0.47837,0.3079,5.7405,-0.28816,-42.522,526.98,4.4111,-1.4704,-1.7018,5.8814,-3.2729e-12,-0.85089,0,0,0.083333,9.8686e-16,0,0.66667
0.35274,0.37965,4.2329,-0.18053,-30.249,768.05,2.0377,-0.67925,-1.8808,2.717,4.4933e-12,-0.94038,0,0,0.083333,-0,-0,0.66667
0.54651,0.75877,6.5581,0.38815,52.1,410.35,-6.7881,2.2627,-1.4708,-9.0508,-4.8366e-12,-0.73541,0,0,0.083333,1.579e-15,0,0.66667
0.65966,0.95569,7.916,0.68353,74.061,244.02,-14.429,4.8096,-0.33808,-19.238,-1.5099e-12,-0.16904,0,0,0.083333,7.8949e-16,0,0.66667
0.79722,0.53956,9.5666,0.059346,4.1182,91.798,-1.514,0.50466,-1.9941,-2.0186,-5.5274e-11,-0.99704,0,0,0.083333,-1.579e-15,0,0.66667
0.013544,0.95853,0.16253,0.68779,131.97,1521.6,-0.29809,0.099302,-0.32003,-0.39749,-9.2646e-05,-0.16002,0,0,0.083333,1.2336e-17,0,0.66667
0.7143,0.74003,8.5715,0.36004,33.696,175.51,-8.2296,2.7432,-1.537,-10.973,1.6929e-12,-0.76851,0,0,0.083333,-7.8949e-16,0,0.66667
0.29531,0.23865,3.5438,-0.39202,-68.538,887.6,3.7046,-1.2349,-1.4567,4.9395,-1.7764e-14,-0.72837,0,0,0.083333,-0,-0,0.66667
0.9864,0.49396,11.837,-0.009055,-0.041671,0.6555,0.28582,-0.095278,-2.0023,0.38109,-7.8462e-06,-1.0012,0,0,0.083333,2.3685e-15,0,0.66667
0.84624,0.47034,10.155,-0.044487,-2.3989,54.301,1.2047,-0.40157,-1.9953,1.6063,-1.5006e-09,-0.99765,0,0,0.083333,-0,-0,0.66667
0.5604,0.53674,6.7248,0.055103,7.2252,387.48,-0.98815,0.32938,-1.9917,-1.3175,3.8272e-12,-0.99586,0,0,0.083333,-1.579e-15,0,0.66667
0.59777,0.074711,7.1732,-0.63793,-78.614,330.92,12.203,-4.0676,-0.55141,16.27,3.6202e-12,-0.2757,0,0,0.083333,-0,-0,0.66667
0.19208,0.76766,2.3049,0.4015,74.076,1112.8,-2.4678,0.82259,-1.4244,-3.2904,9.1466e-11,-0.71221,0,0,0.083333,-3.9475e-16,0,0.66667
0.22625,0.24048,2.715,-0.38927,-70.749,1036.9,2.8184,-0.93946,-1.457,3.7578,-1.4785e-11,-0.72851,0,0,0.083333,-1.9737e-16,0,0.66667
0.15401,0.19809,1.8482,-0.45286,-84.719,1198.5,2.2319,-0.74396,-1.2725,2.9758,-1.7071e-09,-0.63625,0,0,0.083333,-0,-0,0.66667
0.37781,0.86326,4.5338,0.54489,89.535,718.11,-6.5878,2.1959,-0.94476,-8.7837,4.4671e-12,-0.47238,0,0,0.083333,-0,-0,0.66667
0.11196,0.70221,1.3435,0.30331,57.357,1294.3,-1.0866,0.36221,-1.6737,-1.4488,-1.806e-08,-0.83684,0,0,0.083333,-1.9737e-16,0,0.66667
0.51127,0.8317,6.1353,0.49755,70.395,469.65,-8.1403,2.7134,-1.1177,-10.854,-1.5552e-12,-0.55886,0,0,0.083333,-0,-0,0.66667
0.63848,0.68781,7.6617,0.28172,31.899,271.26,-5.7558,1.9186,-1.7211,-7.6745,-2.077e-12,-0.86057,0,0,0.083333,-0,-0,0.66667
0.12221,0.059733,1.4665,-0.6604,-124.82,1271,2.5827,-0.8609,-0.45085,3.4436,2.2028e-07,-0.22542,0,0,0.083333,4.9343e-17,0,0.66667
0.3442,0.67316,4.1304,0.25974,43.829,785.56,-2.8609,0.95363,-1.7661,-3.8145,-6.5252e-12,-0.88304,0,0,0.083333,-0,-0,0.66667
0.070348,0.47901,0.84417,-0.031482,-5.9964,1390,0.070871,-0.023624,-1.9922,0.094495,5.4281e-08,-0.9961,0,0,0.083333,-0,-0,0.66667
0.52576,0.68992,6.3091,0.28488,39.435,444.55,-4.7929,1.5976,-1.7092,-6.3906,4.3126e-12,-0.85461,0,0,0.083333,-1.579e-15,0,0.66667
0.65029,0.34471,7.8035,-0.23294,-25.689,255.06,4.8473,-1.6158,-1.8048,6.4631,-4.9738e-13,-0.90238,0,0,0.083333,-0,-0,0.66667
0.61547,0.05929,7.3857,-0.66107,-78.759,304.98,13.02,-4.3399,-0.44336,17.36,1.7089e-12,-0.22168,0,0,0.083333,1.1842e-15,0,0.66667
0.81387,0.55144,9.7664,0.077167,4.9576,78.058,-2.0097,0.6699,-1.9825,-2.6796,-8.943e-11,-0.99123,0,0,0.083333,-0,-0,0.66667
0.23557,0.0050586,2.8268,-0.74241,-134.62,1017,5.5964,-1.8655,-0.044987,7.4619,1.7392e-11,-0.022494,0,0,0.083333,-0,-0,0.66667
0.61818,0.93901,7.4182,0.65851,78.029,301.06,-13.026,4.3422,-0.45531,-17.369,-2.4549e-12,-0.22765,0,0,0.083333,-0,-0,0.66667
0.30283,0.13792,3.6339,-0.54312,-94.565,871.94,5.2631,-1.7544,-0.94743,7.0175,-1.1493e-12,-0.47371,0,0,0.083333,-0,-0,0.66667
0.088768,0.53462,1.0652,0.051934,9.8626,1347.5,-0.14752,0.049174,-1.9885,-0.1967,-5.6607e-08,-0.99426,0,0,0.083333,1.9737e-16,0,0.66667
0.30526,0.22629,3.6631,-0.41057,-71.316,866.61,4.0106,-1.3369,-1.3967,5.3474,-3.0465e-12,-0.69835,0,0,0.083333,-0,-0,0.66667
0.071356,0.71687,0.85628,0.3253,61.985,1387.7,-0.74279,0.2476,-1.6208,-0.99039,-2.5522e-07,-0.8104,0,0,0.083333,-1.0046e-16,0,0.66667
0.95857,0.85906,11.503,0.53859,8.2379,6.0863,-16.521,5.5069,-0.96522,-22.028,6.7844e-06,-0.48261,0,0,0.083333,-1.579e-15,0,0.66667
0.72717,0.20937,8.726,-0.43594,-39.274,161.28,10.144,-3.3813,-1.3202,13.525,-2.0428e-13,-0.66008,0,0,0.083333,7.8949e-16,0,0.66667
0.10146,0.13603,1.2175,-0.54595,-103.59,1318.5,1.7726,-0.59085,-0.93591,2.3634,-4.5165e-08,-0.46795,0,0,0.083333,-0,-0,0.66667
0.78627,0.78415,9.4352,0.42623,31.075,102.15,-10.724,3.5747,-1.3522,-14.299,2.1013e-11,-0.6761,0,0,0.083333,-0,-0,0.66667
0.35216,0.82593,4.2259,0.4889,82.063,769.64,-5.5094,1.8365,-1.1458,-7.3458,8.864e-13,-0.57289,0,0,0.083333,-0,-0,0.66667
0.91144,0.56666,10.937,0.09999,3.1927,19.092,-2.9163,0.9721,-1.9622,-3.8884,1.1587e-08,-0.98111,0,0,0.083333,-0,-0,0.66667
0.4955,0.889,5.946,0.58349,84.391,497.28,-9.2518,3.0839,-0.7871,-12.336,2.645e-12,-0.39355,0,0,0.083333,-0,-0,0.66667
0.87269,0.78984,10.472,0.43476,19.732,38.801,-12.141,4.0471,-1.3296,-16.188,2.7688e-09,-0.66482,0,0,0.083333,-0,-0,0.66667
0.22053,0.91023,2.6464,0.61535,112.28,1049.8,-4.3425,1.4475,-0.65714,-5.79,4.2898e-10,-0.32857,0,0,0.083333,-0,-0,0.66667
0.36719,0.030129,4.4063,-0.70481,-117.03,739.74,8.2816,-2.7605,-0.23077,11.042,-1.9663e-11,-0.11538,0,0,0.083333,6.9081e-16,0,0.66667
0.36684,0.64267,4.402,0.214,35.445,739.57,-2.5121,0.83738,-1.8327,-3.3495,1.2343e-12,-0.91637,0,0,0.083333,-3.9475e-16,0,0.66667
0.097133,0.2981,1.1656,-0.30285,-57.45,1328.3,0.94133,-0.31378,-1.6732,1.2551,4.8328e-08,-0.8366,0,0,0.083333,-0,-0,0.66667
0.33101,0.16031,3.9722,-0.50953,-86.951,813.03,5.3972,-1.7991,-1.078,7.1963,-1.4531e-12,-0.539,0,0,0.083333,7.8949e-16,0,0.66667
0.65971,0.87449,7.9165,0.56174,60.77,243.43,-11.859,3.9529,-0.87879,-15.812,1.4131e-12,-0.4394,0,0,0.083333,-1.0856e-15,0,0.66667
0.46654,0.36704,5.5985,-0.19944,-29.85,548.24,2.9776,-0.99252,-1.8605,3.9701,-3.6195e-12,-0.93027,0,0,0.083333,-0,-0,0.66667
0.87923,0.12808,10.551,-0.55787,-24.164,35.763,15.696,-5.232,-0.89252,20.928,-5.358e-08,-0.44626,0,0,0.083333,-3.158e-15,0,0.66667
0.26967,0.82695,3.236,0.49043,87.151,942.5,-4.2321,1.4107,-1.1431,-5.6428,-3.4213e-12,-0.57154,0,0,0.083333,3.9475e-16,0,0.66667
0.35482,0.63572,4.2578,0.20358,34.057,763.85,-2.3115,0.7705,-1.8504,-3.082,-2.7935e-12,-0.92518,0,0,0.083333,7.8949e-16,0,0.66667
0.32035,0.41546,3.8443,-0.12681,-21.777,834.73,1.3,-0.43332,-1.9386,1.7333,-1.6271e-11,-0.96932,0,0,0.083333,-0,-0,0.66667
0.55174,0.82339,6.6209,0.48509,64.62,402.1,-8.5645,2.8548,-1.1607,-11.419,-3.5971e-12,-0.58035,0,0,0.083333,-0,-0,0.66667
0.18822,0.16183,2.2586,-0.50726,-93.783,1121.5,3.0552,-1.0184,-1.091,4.0736,-6.0866e-10,-0.5455,0,0,0.083333,-0,-0,0.66667
0.17324,0.74696,2.0789,0.37045,68.827,1155,-2.0537,0.68456,-1.5167,-2.7382,2.1518e-10,-0.75834,0,0,0.083333,4.9343e-17,0,0.66667
0.93948,0.53816,11.274,0.057246,1.2569,9.3131,-1.721,0.57368,-1.9909,-2.2947,1.767e-07,-0.99547,0,0,0.083333,-0,-0,0.66667
0.37665,0.70871,4.5198,0.31306,51.43,720.03,-3.7733,1.2578,-1.6546,-5.031,4.2233e-12,-0.82728,0,0,0.083333,-0,-0,0.66667
0.5871,0.90861,7.0452,0.61292,76.999,346.94,-11.515,3.8383,-0.66132,-15.353,-3.6495e-12,-0.33066,0,0,0.083333,-0,-0,0.66667
0.055152,0.95702,0.66183,0.68553,131.16,1425.3,-1.2099,0.4033,-0.32471,-1.6132,1.6128e-05,-0.16236,0,0,0.083333,-0,-0,0.66667
0.14086,0.28325,1.6903,-0.32512,-61.031,1228.3,1.4655,-0.48849,-1.632,1.954,1.8081e-09,-0.81601,0,0,0.083333,-3.9475e-16,0,0.66667
0.096359,0.44133,1.1563,-0.088012,-16.691,1330,0.27138,-0.090461,-1.9742,0.36184,1.7636e-08,-0.98708,0,0,0.083333,-0,-0,0.66667
0.81212,0.68719,9.7454,0.28078,18.214,79.774,-7.2969,2.4323,-1.7274,-9.7293,-8.2749e-11,-0.86372,0,0,0.083333,3.9475e-16,0,0.66667
0.10315,0.74702,1.2378,0.37053,70.221,1314.5,-1.223,0.40766,-1.509,-1.6307,-5.1858e-08,-0.75449,0,0,0.083333,-1.9737e-16,0,0.66667
0.51632,0.57336,6.1958,0.11004,15.432,460.37,-1.8181,0.60602,-1.9624,-2.4241,-7.8049e-14,-0.98118,0,0,0.083333,-0,-0,0.66667
0.15558,0.22373,1.8669,-0.41441,-77.473,1194.9,2.0631,-0.68771,-1.3955,2.7508,-4.8361e-10,-0.69775,0,0,0.083333,-0,-0,0.66667
0.27882,0.89741,3.3458,0.59612,105.43,923.04,-5.3186,1.7729,-0.73791,-7.0915,3.2546e-11,-0.36896,0,0,0.083333,1.9737e-16,0,0.66667
0.8826,0.3607,10.591,-0.20895,-8.7544,32.713,5.9015,-1.9672,-1.8403,7.8687,-8.8025e-09,-0.92015,0,0,0.083333,1.579e-15,0,0.66667
0.63159,0.41182,7.5791,-0.13227,-15.19,280.63,2.6732,-0.89108,-1.9343,3.5643,-4.4533e-12,-0.96716,0,0,0.083333,1.579e-15,0,0.66667
0.96366,0.48145,11.564,-0.02782,-0.36493,3.6271,0.8579,-0.28597,-1.9943,1.1439,-1.0753e-07,-0.99713,0,0,0.083333,3.158e-15,0,0.66667
0.59971,0.20392,7.1966,-0.44412,-54.435,327.34,8.5231,-2.841,-1.2949,11.364,7.8515e-13,-0.64743,0,0,0.083333,7.8949e-16,0,0.66667
0.0095197,0.90442,0.11424,0.60663,116.34,1530.9,-0.18479,0.061563,-0.68897,-0.2464,-4.8652e-05,-0.34449,0,0,0.083333,-1.5553e-17,0,0.66667
0.41564,0.27589,4.9877,-0.33617,-53.238,643.69,4.4713,-1.4904,-1.5949,5.9617,-5.2665e-12,-0.79746,0,0,0.083333,3.9475e-16,0,0.66667
0.022442,0.69757,0.2693,0.29636,56.726,1500.9,-0.21283,0.070943,-1.6837,-0.28377,2.104e-06,-0.84183,0,0,0.083333,-0,-0,0.66667
0.31398,0.27115,3.7678,-0.34327,-59.252,848.21,3.449,-1.1497,-1.5845,4.5987,1.7109e-12,-0.79223,0,0,0.083333,-0,-0,0.66667
0.48162,0.09111,5.7795,-0.61333,-90.326,521.91,9.4527,-3.1509,-0.6641,12.604,-4.106e-12,-0.33205,0,0,0.083333,3.9475e-16,1.1325e-16,0.66667
0.57546,0.42752,6.9055,-0.10873,-13.9,363.75,2.0022,-0.66739,-1.9588,2.6696,-3.5898e-12,-0.9794,0,0,0.083333,7.8949e-16,0,0.66667
0.23865,0.34422,2.8638,-0.23366,-42.185,1009.6,1.7845,-0.59482,-1.8054,2.3793,-5.7429e-12,-0.9027,0,0,0.083333,-0,-0,0.66667
0.55829,0.65889,6.6994,0.23833,31.372,391.02,-4.2579,1.4193,-1.7972,-5.6771,-2.9265e-13,-0.89861,0,0,0.083333,1.579e-15,0,0.66667
0.39492,0.11675,4.739,-0.57488,-93.024,684.39,7.265,-2.4217,-0.82321,9.6867,5.0489e-12,-0.4116,0,0,0.083333,-3.9475e-16,0,0.66667
0.50658,0.6597,6.079,0.23955,34.065,477.22,-3.8832,1.2944,-1.7928,-5.1777,-3.3651e-12,-0.89641,0,0,0.083333,1.579e-15,0,0.66667
0.19597,0.40206,2.3516,-0.14691,-27.04,1104,0.92123,-0.30708,-1.9198,1.2283,-9.4551e-11,-0.95989,0,0,0.083333,1.1604e-16,0,0.66667
0.15675,0.35344,1.881,-0.21984,-41.055,1192.2,1.1027,-0.36757,-1.8342,1.4703,3.5217e-10,-0.9171,0,0,0.083333,3.9475e-16,0,0.66667
0.75452,0.037676,9.0542,-0.69349,-57.289,133.59,16.744,-5.5813,-0.28825,22.325,-8.8326e-11,-0.14413,0,0,0.083333,1.579e-15,0,0.66667
0.32997,0.30211,3.9597,-0.29684,-50.642,814.88,3.1344,-1.0448,-1.6892,4.1792,4.1811e-12,-0.84462,0,0,0.083333,-3.9475e-16,0,0.66667
0.6442,0.52222,7.7303,0.03333,3.7243,263.14,-0.68708,0.22903,-1.9953,-0.9161,8.0219e-13,-0.99767,0,0,0.083333,-0,-0,0.66667
0.56546,0.57795,6.7855,0.11692,15.205,379.47,-2.1157,0.70523,-1.9514,-2.8209,2.2826e-12,-0.97572,0,0,0.083333,-0,-0,0.66667
0.89953,0.93405,10.794,0.65108,23.763,26.219,-18.741,6.2471,-0.48958,-24.988,-2.5431e-07,-0.24479,0,0,0.083333,-5.2318e-16,0,0.66667
0.88068,0.73,10.568,0.34499,14.705,34.083,-9.7226,3.2409,-1.5733,-12.963,3.1099e-09,-0.78667,0,0,0.083333,-0,-0,0.66667
0.44311,0.61645,5.3173,0.17468,26.856,591.43,-2.4768,0.82561,-1.8883,-3.3024,-8.864e-12,-0.94416,0,0,0.083333,-0,-0,0.66667
0.20474,0.85457,2.4568,0.53186,97.682,1084.7,-3.4845,1.1615,-0.9973,-4.646,-1.516e-10,-0.49865,0,0,0.083333,-0,-0,0.66667
0.63219,0.11451,7.5863,-0.57823,-66.512,280.86,11.698,-3.8992,-0.80699,15.597,7.9581e-13,-0.40349,0,0,0.083333,-7.8949e-16,0,0.66667
0.63684,0.6087,7.642,0.16304,18.518,273.35,-3.3226,1.1075,-1.9041,-4.4302,-4.2903e-12,-0.95206,0,0,0.083333,-0,-0,0.66667
0.69242,0.17986,8.309,-0.4802,-47.83,201.71,10.64,-3.5467,-1.1777,14.187,1.4406e-12,-0.58884,0,0,0.083333,-0,-0,0.66667
0.90747,0.84591,10.89,0.51887,17.425,21.992,-15.067,5.0225,-1.0479,-20.09,8.3924e-08,-0.52395,0,0,0.083333,-0,-0,0.66667
0.78258,0.79663,9.391,0.44494,32.941,105.54,-11.142,3.7142,-1.2997,-14.857,6.2026e-11,-0.64985,0,0,0.083333,1.579e-15,0,0.66667
0.62529,0.025064,7.5035,-0.7124,-83.261,291.15,14.255,-4.7516,-0.2025,19.006,2.3217e-12,-0.10125,0,0,0.083333,-7.8949e-16,0,0.66667
0.60097,0.25755,7.2116,-0.36368,-44.446,325.27,6.9939,-2.3313,-1.5258,9.3252,4.6518e-12,-0.76289,0,0,0.083333,-0,-0,0.66667
0.21276,0.05614,2.5531,-0.66579,-121.96,1067.1,4.5329,-1.511,-0.42067,6.0439,1.961e-09,-0.21033,0,0,0.083333,-7.1394e-17,0,0.66667
0.65137,0.27906,7.8164,-0.33141,-36.479,253.81,6.9079,-2.3026,-1.6079,9.2105,1.2461e-12,-0.80395,0,0,0.083333,-9.8686e-16,0,0.66667
0.8145,0.42002,9.774,-0.11997,-7.6846,77.595,3.1268,-1.0423,-1.9509,4.1691,7.3193e-11,-0.97543,0,0,0.083333,-0,-0,0.66667
0.92232,0.14444,11.068,-0.53334,-15.137,16.262,15.741,-5.247,-0.99467,20.988,-8.2056e-09,-0.49734,0,0,0.083333,-0,-0,0.66667
0.91665,0.8757,11,0.56355,17.142,18.531,-16.53,5.5102,-0.86917,-22.041,9.8862e-08,-0.43459,0,0,0.083333,-0,-0,0.66667
0.5611,0.10312,6.7332,-0.59532,-78.187,387.42,10.689,-3.563,-0.74358,14.252,-1.4646e-12,-0.37179,0,0,0.083333,-0,9.1746e-17,0.66667
0.25983,0.23635,3.118,-0.39548,-70.638,963.61,3.2883,-1.0961,-1.4402,4.3843,2.649e-12,-0.72012,0,0,0.083333,-3.9475e-16,0,0.66667
0.3338,0.068058,4.0056,-0.64791,-110.44,807.57,6.9207,-2.3069,-0.50452,9.2276,1.4033e-12,-0.25226,0,0,0.083333,7.8949e-16,0,0.66667
0.99776,0.75501,11.973,0.38251,0.16317,0.8283,-12.213,4.071,-1.482,-16.284,2.8364e-06,-0.74102,0,0,0.083333,3.158e-15,0,0.66667
0.5256,0.8604,6.3072,0.5406,74.97,445.42,-9.0924,3.0308,-0.95733,-12.123,-1.6298e-12,-0.47866,0,0,0.083333,-0,-0,0.66667
0.81591,0.42173,9.7909,-0.11741,-7.4689,76.481,3.0654,-1.0218,-1.9502,4.0871,1.0567e-10,-0.97512,0,0,0.083333,-1.579e-15,0,0.66667
0.59702,0.8014,7.1642,0.4521,55.696,331.4,-8.6371,2.879,-1.2729,-11.516,3.495e-12,-0.63646,0,0,0.083333,-0,-0,0.66667
0.50693,0.080306,6.0832,-0.62954,-89.702,477.53,10.212,-3.4041,-0.58656,13.616,-8.8818e-16,-0.29328,0,0,0.083333,-0,-0,0.66667
0.34854,0.985,4.1825,0.7275,122.69,777.54,-8.1141,2.7047,-0.11546,-10.819,-5.7998e-12,-0.057729,0,0,0.083333,7.8949e-16,0,0.66667
0.53777,0.72092,6.4532,0.33139,45.07,424.59,-5.7027,1.9009,-1.6066,-7.6036,-2.9385e-12,-0.80332,0,0,0.083333,-1.579e-15,0,0.66667
0.0067347,0.70592,0.080816,0.30887,59.151,1537.4,-0.066565,0.022187,-1.6566,-0.088754,-1.7342e-06,-0.8283,0,0,0.083333,1.2336e-17,0,0.66667
0.87669,0.31612,10.52,-0.27582,-12.116,36.047,7.7377,-2.5792,-1.7333,10.317,-5.9041e-09,-0.86663,0,0,0.083333,-0,-0,0.66667
0.56149,0.035161,6.7378,-0.69726,-91.612,387.2,12.528,-4.176,-0.27676,16.704,3.9702e-13,-0.13838,0,0,0.083333,-0,-4.3218e-17,0.66667
0.024281,0.35853,0.29138,-0.2122,-40.604,1496.7,0.16488,-0.054961,-1.8356,0.21984,-1.2415e-06,-0.91778,0,0,0.083333,-0,-0,0.66667
0.81817,0.11886,9.8181,-0.57171,-36.149,76.072,14.968,-4.9894,-0.83489,19.958,1.2186e-09,-0.41744,0,0,0.083333,-1.1842e-15,0,0.66667
0.13535,0.077722,1.6243,-0.63342,-119.28,1241,2.7435,-0.91452,-0.57022,3.6581,-1.041e-07,-0.28511,0,0,0.083333,1.9737e-16,0,0.66667
0.030639,0.14839,0.36766,-0.52741,-101.01,1482,0.5171,-0.17237,-1.0169,0.68946,-6.8968e-06,-0.50845,0,0,0.083333,2.4672e-17,0,0.66667
0.46234,0.58827,5.548,0.13241,19.914,555.86,-1.959,0.653,-1.9343,-2.612,-5.7347e-12,-0.96714,0,0,0.083333,-0,-0,0.66667
0.96066,0.28815,11.528,-0.31778,-4.5543,4.7057,9.7688,-3.2563,-1.637,13.025,-2.9912e-07,-0.81851,0,0,0.083333,-0,-0,0.66667
0.093614,0.20254,1.1234,-0.44619,-84.749,1336.4,1.3366,-0.44554,-1.299,1.7822,4.2724e-08,-0.64949,0,0,0.083333,1.9737e-16,0,0.66667
0.065599,0.53313,0.78718,0.049695,9.4715,1401,-0.10432,0.034772,-1.9923,-0.13909,-5.4369e-08,-0.99617,0,0,0.083333,1.9737e-16,0,0.66667
0.87994,0.49529,10.559,-0.0070684,-0.3022,33.925,0.19903,-0.066344,-1.9978,0.26538,1.7214e-08,-0.99888,0,0,0.083333,3.9475e-16,0,0.66667
0.82137,0.55112,9.8565,0.076686,4.746,72.201,-2.0156,0.67187,-1.975,-2.6875,-4.3182e-11,-0.98748,0,0,0.083333,-0,-0,0.66667
0.81997,0.68595,9.8396,0.27893,17.407,73.594,-7.3188,2.4396,-1.7203,-9.7584,-1.0495e-10,-0.86015,0,0,0.083333,-5.6943e-16,0,0.66667
0.46782,0.12852,5.6138,-0.55723,-83.427,546.6,8.3418,-2.7806,-0.90163,11.122,-4.5643e-12,-0.45082,0,0,0.083333,1.579e-15,0,0.66667
0.42749,0.71754,5.1299,0.32631,51.047,621.03,-4.4638,1.4879,-1.6193,-5.9518,-9.4635e-12,-0.80966,0,0,0.083333,-1.9737e-16,0,0.66667
0.40107,0.85402,4.8128,0.53103,85.402,672.27,-6.8153,2.2718,-0.99443,-9.087,4.4937e-12,-0.49722,0,0,0.083333,-0,-0,0.66667
0.58222,0.013568,6.9866,-0.72965,-92.582,354.9,13.594,-4.5313,-0.10528,18.125,-2.399e-12,-0.052642,0,0,0.083333,1.579e-15,0,0.66667
0.72897,0.23493,8.7476,-0.39761,-35.607,159.18,9.275,-3.0917,-1.4345,12.367,6.06e-12,-0.71727,0,0,0.083333,-2.4423e-15,0,0.66667
0.78429,0.54908,9.4115,0.073622,5.398,103.19,-1.8477,0.61591,-1.9807,-2.4636,-1.6853e-11,-0.99033,0,0,0.083333,-0,-0,0.66667
0.6548,0.36977,7.8576,-0.19535,-21.319,248.96,4.0932,-1.3644,-1.8684,5.4576,5.9597e-13,-0.93419,0,0,0.083333,-1.1842e-15,0,0.66667
0.56247,0.5296,6.7496,0.044395,5.8014,384.18,-0.79906,0.26635,-2.0015,-1.0654,-3.6138e-14,-1.0008,0,0,0.083333,1.9737e-16,0,0.66667
0.41239,0.46755,4.9487,-0.048671,-7.7274,649.7,0.6423,-0.2141,-1.9891,0.85639,-1.1083e-11,-0.99455,0,0,0.083333,-4.9343e-17,0,0.66667
0.31992,0.81286,3.839,0.4693,80.716,836,-4.8043,1.6014,-1.2141,-6.4058,-7.5038e-12,-0.60706,0,0,0.083333,-0,-0,0.66667
0.28625,0.61132,3.435,0.16698,29.341,906.67,-1.5295,0.50985,-1.8979,-2.0394,-2.0891e-11,-0.94897,0,0,0.083333,-3.9475e-16,0,0.66667
0.29618,0.59724,3.5541,0.14587,25.468,885.56,-1.3825,0.46083,-1.9306,-1.8433,-2.3132e-11,-0.96531,0,0,0.083333,-0,-0,0.66667
0.68275,0.51705,8.193,0.025582,2.6072,212.76,-0.55892,0.18631,-1.995,-0.74523,1.8026e-12,-0.99751,0,0,0.083333,-0,-0,0.66667
0.76244,0.018706,9.1493,-0.72194,-58.004,125.89,17.614,-5.8713,-0.14655,23.485,1.1013e-11,-0.073276,0,0,0.083333,-0,-0,0.66667
0.59762,0.58582,7.1714,0.12873,15.816,329.9,-2.4618,0.82061,-1.94,-3.2825,-6.2617e-13,-0.97,0,0,0.083333,3.9475e-16,0,0.66667
0.22286,0.38373,2.6744,-0.1744,-31.726,1044.3,1.2438,-0.41459,-1.8903,1.6584,-1.4722e-11,-0.94517,0,0,0.083333,-0,-0,0.66667
0.1944,0.80605,2.3327,0.45908,84.645,1107.7,-2.8558,0.95192,-1.2469,-3.8077,2.5433e-10,-0.62347,0,0,0.083333,9.8686e-17,0,0.66667
0.76569,0.602,9.1882,0.153,12.068,120.7,-3.7488,1.2496,-1.9242,-4.9985,-1.4009e-11,-0.9621,0,0,0.083333,-0,-0,0.66667
0.97869,0.68049,11.744,0.27073,2.054,1.7833,-8.4789,2.8263,-1.7363,-11.305,-1.6782e-06,-0.86815,0,0,0.083333,1.579e-15,0,0.66667
0.01591,0.40263,0.19092,-0.14605,-27.952,1516.1,0.074357,-0.024786,-1.9316,0.099142,-3.1791e-07,-0.96578,0,0,0.083333,-3.7007e-17,0,0.66667
0.2489,0.9486,2.9868,0.6729,121.12,987.75,-5.3595,1.7865,-0.39438,-7.146,-1.5087e-10,-0.19719,0,0,0.083333,3.9475e-16,0,0.66667
0.79231,0.16239,9.5078,-0.50642,-36.033,97.115,12.84,-4.2799,-1.0863,17.12,6.0092e-11,-0.54316,0,0,0.083333,-0,-0,0.66667
0.71917,0.3993,8.63,-0.15105,-13.917,169.56,3.4761,-1.1587,-1.9254,4.6349,-1.6274e-12,-0.96272,0,0,0.083333,-0,-0,0.66667
0.24598,0.85955,2.9518,0.53933,97.133,993.89,-4.2452,1.4151,-0.96408,-5.6603,-3.4227e-11,-0.48204,0,0,0.083333,-0,-0,0.66667
0.55489,0.017995,6.6587,-0.72301,-96.045,397.86,12.838,-4.2794,-0.13694,17.117,-8.3764e-12,-0.068472,0,0,0.083333,1.579e-15,0,0.66667
0.58559,0.028822,7.027,-0.70677,-89.12,349.63,13.244,-4.4146,-0.2207,17.659,-4.2988e-12,-0.11035,0,0,0.083333,-0,-0,0.66667
0.72138,0.0046581,8.6566,-0.74301,-68.412,169.1,17.152,-5.7173,-0.038606,22.869,4.5688e-12,-0.019303,0,0,0.083333,-0,-0,0.66667
0.46367,0.96224,5.5641,0.69336,104.45,554.56,-10.288,3.4293,-0.28821,-13.717,2.7356e-12,-0.14411,0,0,0.083333,3.9475e-16,0,0.66667
0.40485,0.39068,4.8582,-0.16398,-26.233,664.37,2.1244,-0.70813,-1.9078,2.8325,-6.1244e-12,-0.9539,0,0,0.083333,7.8949e-16,0,0.66667
0.30801,0.84948,3.6961,0.52422,90.945,861,-5.1669,1.7223,-1.0212,-6.8891,3.1526e-12,-0.51062,0,0,0.083333,-0,-0,0.66667
0.23831,0.48299,2.8597,-0.025513,-4.6054,1010.3,0.19456,-0.064853,-1.9961,0.25941,1.3486e-11,-0.99806,0,0,0.083333,-3.9475e-16,0,0.66667
0.092503,0.70356,1.11,0.30534,57.975,1339,-0.90384,0.30128,-1.6723,-1.2051,-4.0783e-08,-0.83616,0,0,0.083333,-0,-0,0.66667
0.64588,0.27362,7.7506,-0.33957,-37.841,261.23,7.0182,-2.3394,-1.5873,9.3577,-8.6642e-13,-0.79363,0,0,0.083333,3.9475e-16,0,0.66667
0.66957,0.9191,8.0348,0.62865,66.478,230.88,-13.47,4.4899,-0.59625,-17.959,1.1724e-12,-0.29813,0,0,0.083333,-0,-1.2979e-16,0.66667
0.68734,0.37769,8.2481,-0.18346,-18.482,207.19,4.0352,-1.3451,-1.8883,5.3803,-1.5774e-12,-0.94414,0,0,0.083333,-0,-0,0.66667
0.0031457,0.66448,0.037749,0.24672,47.241,1545.7,-0.024835,0.0082771,-1.7837,-0.033114,-1.8971e-06,-0.89183,0,0,0.083333,-0,-0,0.66667
0.43825,0.44637,5.259,-0.080445,-12.433,600.47,1.1282,-0.37606,-1.9824,1.5042,3.5528e-12,-0.9912,0,0,0.083333,-0,-0,0.66667
0.12255,0.69273,1.4706,0.28909,54.529,1270,-1.1337,0.37791,-1.7047,-1.5117,-5.4606e-09,-0.85233,0,0,0.083333,-0,-0,0.66667
0.52661,0.36666,6.3193,-0.20001,-27.644,443.01,3.3705,-1.1235,-1.8556,4.494,1.9411e-12,-0.92779,0,0,0.083333,-0,-0,0.66667
0.97974,0.81182,11.757,0.46773,3.4353,2.4271,-14.664,4.8881,-1.2211,-19.552,-5.9813e-06,-0.61057,0,0,0.083333,-0,-0,0.66667
0.49928,0.56382,5.9913,0.095735,13.744,489.79,-1.5295,0.50985,-1.974,-2.0394,-6.4759e-12,-0.98701,0,0,0.083333,1.579e-15,0,0.66667
0.37465,0.44306,4.4958,-0.085413,-14.048,723.84,1.024,-0.34133,-1.981,1.3653,2.7532e-12,-0.99049,0,0,0.083333,-0,-0,0.66667
0.81384,0.48757,9.7661,-0.018645,-1.1979,78.058,0.48558,-0.16186,-2.0024,0.64744,1.7459e-10,-1.0012,0,0,0.083333,-7.8949e-16,0,0.66667
0.9682,0.31474,11.618,-0.27789,-3.1993,3.2443,8.6096,-2.8699,-1.7323,11.479,9.428e-07,-0.86617,0,0,0.083333,-3.158e-15,0,0.66667
0.28712,0.88204,3.4455,0.57307,100.82,905.27,-5.2653,1.7551,-0.8291,-7.0204,-4.1647e-12,-0.41455,0,0,0.083333,-0,-0,0.66667
0.803,0.64524,9.636,0.21786,14.741,87.096,-5.5981,1.866,-1.8275,-7.4642,-4.4025e-11,-0.91373,0,0,0.083333,7.8949e-16,0,0.66667
0.99614,0.49506,11.954,-0.0074053,-0.0066261,0.10028,0.23605,-0.078673,-1.9991,0.31474,1.6981e-05,-0.99956,0,0,0.083333,-0,-0,0.66667
0.11182,0.90163,1.3419,0.60245,114.1,1294.7,-2.1558,0.7186,-0.71141,-2.8744,4.4734e-08,-0.35571,0,0,0.083333,-4.9343e-17,0,0.66667
0.53105,0.46964,6.3726,-0.045537,-6.251,435.46,0.77383,-0.25794,-2.0008,1.0318,2.1174e-12,-1.0004,0,0,0.083333,-0,-0,0.66667
0.81353,0.69091,9.7623,0.28636,18.45,78.661,-7.4548,2.4849,-1.7138,-9.9397,-8.2492e-11,-0.85692,0,0,0.083333,-0,-0,0.66667
0.37629,0.50666,4.5155,0.0099884,1.6404,720.54,-0.12027,0.040091,-2.0039,-0.16037,1.5534e-11,-1.0019,0,0,0.083333,-0,-0,0.66667
0.44577,0.54931,5.3493,0.07397,11.337,586.4,-1.0552,0.35172,-1.9762,-1.4069,-2.4593e-12,-0.98808,0,0,0.083333,-7.8949e-16,0,0.66667
0.7509,0.28924,9.0108,-0.31614,-26.322,135.73,7.5965,-2.5322,-1.6497,10.129,1.0479e-11,-0.82487,0,0,0.083333,-1.579e-15,0,0.66667
0.098346,0.82575,1.1802,0.48862,92.743,1325.6,-1.5377,0.51257,-1.1487,-2.0503,-5.2903e-08,-0.57433,0,0,0.083333,1.9737e-16,0,0.66667
0.36053,0.12265,4.3263,-0.56603,-94.409,752.82,6.5302,-2.1767,-0.86612,8.7069,1.5703e-12,-0.43306,0,0,0.083333,-1.9737e-16,0,0.66667
0.56371,0.36723,6.7645,-0.19915,-25.979,382.33,3.5924,-1.1975,-1.8633,4.7899,-2.3848e-13,-0.93166,0,0,0.083333,3.9475e-16,0,0.66667
0.23859,0.27512,2.863,-0.33732,-60.921,1009.8,2.5753,-0.85844,-1.5941,3.4337,-4.6811e-12,-0.79705,0,0,0.083333,-0,-0,0.66667
0.83995,0.80416,10.079,0.45624,25.628,59.521,-12.263,4.0877,-1.2589,-16.351,-1.9913e-10,-0.62945,0,0,0.083333,7.8949e-16,0,0.66667
0.76585,0.22319,9.1902,-0.41521,-32.794,121.14,10.176,-3.3919,-1.3945,13.567,1.6177e-11,-0.69724,0,0,0.083333,-0,-0,0.66667
0.96554,0.61717,11.587,0.17575,2.1885,3.4491,-5.4304,1.8101,-1.8902,-7.2405,-3.7627e-07,-0.9451,0,0,0.083333,7.8949e-16,0,0.66667
0.52299,0.88229,6.2759,0.57344,79.847,449.92,-9.5968,3.1989,-0.82688,-12.796,-2.1485e-12,-0.41344,0,0,0.083333,-0,-0,0.66667
0.10652,0.22447,1.2783,-0.41329,-78.283,1306.8,1.4088,-0.4696,-1.3936,1.8784,4.6032e-08,-0.69681,0,0,0.083333,-0,-0,0.66667
0.93662,0.71312,11.239,0.31967,7.3813,10.649,-9.5812,3.1937,-1.6421,-12.775,2.5611e-07,-0.82105,0,0,0.083333,-1.579e-15,0,0.66667
0.83424,0.32772,10.011,-0.25842,-14.953,62.925,6.8986,-2.2995,-1.7586,9.1982,4.3547e-12,-0.87932,0,0,0.083333,-0,-0,0.66667
0.54442,0.65691,6.533,0.23536,31.671,413.49,-4.1003,1.3668,-1.8056,-5.467,5.0759e-13,-0.90282,0,0,0.083333,-0,-0,0.66667
0.8363,0.67029,10.036,0.25544,14.611,61.445,-6.8359,2.2786,-1.7636,-9.1146,5.8104e-11,-0.88179,0,0,0.083333,-0,-0,0.66667
0.88169,0.6626,10.58,0.24389,10.298,33.268,-6.8812,2.2937,-1.7849,-9.175,8.8624e-09,-0.89244,0,0,0.083333,-0,-0,0.66667
0.77608,0.26882,9.313,-0.34678,-26.32,111.2,8.612,-2.8707,-1.5694,11.483,1.9697e-11,-0.78468,0,0,0.083333,-7.8949e-16,0,0.66667
0.57125,0.88668,6.855,0.58002,74.887,371.31,-10.603,3.5343,-0.79962,-14.137,4.2055e-12,-0.39981,0,0,0.083333,-0,-0,0.66667
0.6153,0.65155,7.3836,0.22733,27.002,303.96,-4.476,1.492,-1.8133,-5.968,1.0405e-12,-0.90665,0,0,0.083333,7.5908e-16,0,0.66667
0.84439,0.16263,10.133,-0.50605,-27.725,56.694,13.674,-4.5579,-1.0955,18.232,4.5185e-09,-0.54773,0,0,0.083333,-0,-0,0.66667
0.62222,0.23257,7.4666,-0.40114,-47.034,294.37,7.9871,-2.6624,-1.4283,10.649,1.2976e-12,-0.71413,0,0,0.083333,-0,-0,0.66667
0.20648,0.93416,2.4778,0.65125,119.62,1081,-4.303,1.4343,-0.4924,-5.7374,3.4199e-10,-0.2462,0,0,0.083333,-0,-0,0.66667
0.69149,0.20646,8.2979,-0.44031,-43.948,202.7,9.743,-3.2477,-1.3091,12.991,-8.7486e-13,-0.65455,0,0,0.083333,-0,-0,0.66667
0.53201,0.87383,6.3842,0.56075,77.046,434.73,-9.5464,3.1821,-0.88853,-12.729,5.933e-13,-0.44427,0,0,0.083333,3.454e-16,0,0.66667
0.26325,0.39347,3.159,-0.1598,-28.466,956.05,1.3461,-0.4487,-1.9105,1.7948,-3.1082e-12,-0.95523,0,0,0.083333,-0,-0,0.66667
0.00078654,0.50475,0.0094385,0.0071234,1.3635,1551.2,-0.00017943,8.4917e-05,-2.0056,-0.00022669,3.7659e-05,-1.0028,0,0,0.083333,-0,-0,0.66667
0.2355,0.038739,2.826,-0.69189,-125.42,1017,5.214,-1.738,-0.30249,6.9521,-9.4559e-11,-0.15124,0,0,0.083333,-0,-0,0.66667
0.67357,0.21411,8.0828,-0.42884,-44.813,225.01,9.2433,-3.0811,-1.3497,12.324,-3.2241e-13,-0.67484,0,0,0.083333,-3.9475e-16,0,0.66667
0.87832,0.45599,10.54,-0.06602,-2.8589,34.818,1.8556,-0.61853,-1.984,2.4741,-5.9331e-09,-0.99198,0,0,0.083333,-0,-0,0.66667
0.8307,0.70722,9.9684,0.31083,18.347,65.616,-8.2627,2.7542,-1.6574,-11.017,-1.5419e-10,-0.82869,0,0,0.083333,-7.8949e-16,0,0.66667
0.10811,0.54864,1.2973,0.072964,13.803,1303.1,-0.25242,0.084139,-1.9848,-0.33655,-7.1258e-09,-0.99242,0,0,0.083333,1.9737e-16,0,0.66667
0.071125,0.11008,0.8535,-0.58488,-111.6,1388.3,1.3312,-0.44373,-0.77936,1.7749,6.4287e-07,-0.38968,0,0,0.083333,-8.4229e-17,0,0.66667
0.76159,0.35928,9.1391,-0.21108,-16.907,124.78,5.1441,-1.7147,-1.8399,6.8588,5.8735e-12,-0.91993,0,0,0.083333,1.579e-15,0,0.66667
0.28483,0.901,3.418,0.60151,105.99,910.2,-5.4825,1.8275,-0.71327,-7.31,-1.512e-11,-0.35664,0,0,0.083333,-0,-0,0.66667
0.2718,0.18837,3.2616,-0.46745,-82.953,937.88,4.0658,-1.3553,-1.2206,5.421,2.2781e-11,-0.61032,0,0,0.083333,-0,-0,0.66667
0.0020003,0.0071759,0.024004,-0.73924,-141.92,1548.4,0.048134,-0.016073,-0.058633,0.064164,-4.2796e-05,-0.029316,0,0,0.083333,-0,-0,0.66667
0.098539,0.62422,1.1825,0.18633,35.327,1325,-0.58756,0.19585,-1.8754,-0.78341,-3.5957e-08,-0.93769,0,0,0.083333,2.4672e-16,0,0.66667
0.1356,0.41263,1.6272,-0.13105,-24.625,1240.2,0.56863,-0.18954,-1.9365,0.75818,1.5477e-09,-0.96827,0,0,0.083333,-0,-0,0.66667
0.15936,0.67684,1.9123,0.26526,49.5,1186.3,-1.3527,0.45089,-1.7498,-1.8036,-2.4602e-10,-0.87488,0,0,0.083333,-1.9737e-16,0,0.66667
0.44531,0.34086,5.3438,-0.23871,-36.618,587.38,3.4016,-1.1339,-1.7941,4.5355,-3.1974e-12,-0.89703,0,0,0.083333,1.0856e-15,0,0.66667
0.81414,0.92379,9.7696,0.63569,41.049,79.576,-16.561,5.5204,-0.56608,-22.082,5.6992e-09,-0.28304,0,0,0.083333,-1.579e-15,0,0.66667
0.8123,0.092795,9.7476,-0.61081,-39.774,80.903,15.877,-5.2923,-0.68162,21.169,2.7122e-09,-0.34081,0,0,0.083333,-2.0724e-15,-1.1693e-17,0.66667
0.90999,0.89039,10.92,0.58558,19.196,21.301,-17.052,5.684,-0.77948,-22.736,1.2831e-07,-0.38974,0,0,0.083333,-1.579e-15,0,0.66667
0.44359,0.03121,5.3231,-0.70318,-108.4,591.63,9.9817,-3.3272,-0.23968,13.309,-5.0182e-12,-0.11984,0,0,0.083333,-1.9018e-16,0,0.66667
0.70871,0.38419,8.5045,-0.17371,-16.505,181.58,3.9396,-1.3132,-1.8895,5.2528,-1.3805e-12,-0.94474,0,0,0.083333,-0,-0,0.66667
0.48833,0.87911,5.86,0.56867,83.007,509.85,-8.8865,2.9622,-0.84948,-11.849,4.0981e-12,-0.42474,0,0,0.083333,-0,-0,0.66667
0.049843,0.39337,0.59811,-0.15994,-30.543,1437.4,0.2551,-0.085032,-1.9091,0.34013,1.4806e-08,-0.95457,0,0,0.083333,-0,-0,0.66667
0.080431,0.2615,0.96518,-0.35774,-68.081,1366.8,0.92076,-0.30692,-1.5464,1.2277,1.0434e-07,-0.77321,0,0,0.083333,1.9737e-16,0,0.66667
0.24594,0.87117,2.9513,0.55676,100.29,994,-4.3818,1.4606,-0.89705,-5.8424,-7.9722e-11,-0.44852,0,0,0.083333,-3.9475e-16,0,0.66667
0.98162,0.37245,11.779,-0.19133,-1.2335,1.2776,6.01,-2.0033,-1.8715,8.0133,6.8673e-07,-0.93574,0,0,0.083333,7.8949e-16,0,0.66667
0.69192,0.28051,8.303,-0.32923,-32.795,201.86,7.2897,-2.4299,-1.6139,9.7195,-4.0181e-12,-0.80694,0,0,0.083333,1.1349e-15,0,0.66667
0.26801,0.50003,3.2161,4.1974e-05,0.0074556,945.74,-0.00035998,0.00011999,-2.0029,-0.00047997,-1.0277e-11,-1.0014,0,0,0.083333,-0,-0,0.66667
0.70626,0.83926,8.4752,0.50889,48.81,185.3,-11.501,3.8337,-1.0798,-15.335,2.9114e-12,-0.5399,0,0,0.083333,7.8949e-16,0,0.66667
0.66135,0.53672,7.9362,0.055081,5.918,240.18,-1.1657,0.38856,-1.9869,-1.5542,-3.9462e-12,-0.99344,0,0,0.083333,-0,-0,0.66667
0.04329,0.19648,0.51948,-0.45528,-87.081,1452.6,0.63069,-0.21023,-1.2623,0.84091,2.418e-06,-0.63114,0,0,0.083333,-0,-0,0.66667
0.36149,0.42846,4.3379,-0.10731,-17.85,750.29,1.2413,-0.41378,-1.9611,1.6551,4.5366e-12,-0.98056,0,0,0.083333,-0,-0,0.66667
0.77373,0.27243,9.2847,-0.34136,-26.147,113.39,8.4518,-2.8173,-1.5816,11.269,1.3615e-11,-0.79078,0,0,0.083333,7.8949e-16,0,0.66667
0.078523,0.1796,0.94227,-0.48061,-91.542,1371.2,1.2076,-0.40255,-1.1852,1.6102,5.3164e-08,-0.59261,0,0,0.083333,-9.8686e-17,0,0.66667
0.88438,0.88156,10.613,0.57234,23.801,33.121,-16.197,5.3991,-0.83188,-21.596,3.2601e-08,-0.41594,0,0,0.083333,-0,-0,0.66667
0.93087,0.21978,11.17,-0.42033,-10.604,12.81,12.521,-4.1736,-1.3691,16.694,-3.1963e-07,-0.68455,0,0,0.083333,-0,-0,0.66667
0.85309,0.51708,10.237,0.025622,1.3244,49.794,-0.69945,0.23315,-1.9937,-0.93261,-3.7155e-10,-0.99683,0,0,0.083333,-0,-0,0.66667
0.11738,0.68085,1.4085,0.27127,51.229,1281.9,-1.0189,0.33964,-1.7345,-1.3586,-9.0579e-09,-0.86723,0,0,0.083333,-9.8686e-17,0,0.66667
0.56517,0.32986,6.7821,-0.25521,-33.217,380.07,4.6157,-1.5386,-1.769,6.1542,-9.7611e-13,-0.88452,0,0,0.083333,-0,-0,0.66667
0.70756,0.59401,8.4907,0.14102,13.441,182.88,-3.193,1.0643,-1.9287,-4.2573,1.0461e-12,-0.96433,0,0,0.083333,-0,-0,0.66667
0.88798,0.39999,10.656,-0.15002,-6.0077,29.843,4.2628,-1.4209,-1.9212,5.6838,-1.2263e-08,-0.96062,0,0,0.083333,1.579e-15,0,0.66667
0.095776,0.57822,1.1493,0.11733,22.255,1331.4,-0.35961,0.11987,-1.953,-0.47948,-2.6696e-08,-0.9765,0,0,0.083333,1.9737e-16,0,0.66667
0.81577,0.54341,9.7892,0.06511,4.1441,76.547,-1.6997,0.56656,-1.9845,-2.2662,6.0808e-11,-0.99225,0,0,0.083333,-0,-0,0.66667
0.27802,0.97921,3.3362,0.71882,127.31,924.99,-6.395,2.1317,-0.16258,-8.5266,-1.2814e-11,-0.081292,0,0,0.083333,-0,-0,0.66667
0.59229,0.4139,7.1074,-0.12915,-16.025,337.93,2.4479,-0.81596,-1.9444,3.2638,1.9209e-12,-0.9722,0,0,0.083333,-0,-0,0.66667
0.7198,0.32524,8.6375,-0.26214,-24.12,169.03,6.038,-2.0127,-1.76,8.0507,-5.6932e-13,-0.88002,0,0,0.083333,-0,-0,0.66667
0.77702,0.94369,9.3242,0.66553,50.55,111.67,-16.548,5.5161,-0.42374,-22.064,-2.0108e-11,-0.21187,0,0,0.083333,-0,3.8698e-18,0.66667
0.29466,0.88692,3.536,0.58039,101.62,889.26,-5.4726,1.8242,-0.80396,-7.2968,-4.698e-12,-0.40198,0,0,0.083333,-0,-0,0.66667
0.60738,0.23086,7.2885,-0.40372,-48.751,315.89,7.8467,-2.6156,-1.4226,10.462,3.4097e-12,-0.71129,0,0,0.083333,-0,-0,0.66667
0.28747,0.85008,3.4497,0.52512,92.335,904.44,-4.8307,1.6102,-1.0162,-6.4409,-8.427e-12,-0.50808,0,0,0.083333,-0,-0,0.66667
0.99832,0.9494,11.98,0.67409,0.3597,2.4546,-21.535,7.1781,-0.38723,-28.713,-0.00011204,-0.19361,0,0,0.083333,-0,-0,0.66667
0.81451,0.47683,9.7741,-0.034749,-2.2254,77.533,0.90571,-0.3019,-1.9981,1.2076,-7.1461e-11,-0.99905,0,0,0.083333,-1.579e-15,0,0.66667
0.41398,0.67123,4.9677,0.25685,40.731,646.79,-3.4025,1.1342,-1.761,-4.5367,-5.3419e-12,-0.88048,0,0,0.083333,-0,-0,0.66667
0.87914,0.064453,10.55,-0.65332,-28.396,36.353,18.38,-6.1265,-0.48181,24.506,-2.8936e-07,-0.2409,0,0,0.083333,-0,-0,0.66667
0.7325,0.067974,8.79,-0.64804,-57.567,156.35,15.19,-5.0634,-0.50984,20.253,1.0203e-11,-0.25492,0,0,0.083333,-1.579e-15,0,0.66667
0.92875,0.4071,11.145,-0.13935,-3.5985,12.727,4.1416,-1.3805,-1.9282,5.5221,-9.4523e-08,-0.96409,0,0,0.083333,-0,-0,0.66667
0.17161,0.74723,2.0593,0.37085,68.942,1158.7,-2.0365,0.67884,-1.5186,-2.7154,3.2714e-10,-0.75932,0,0,0.083333,-2.9606e-16,0,0.66667
0.29484,0.49468,3.538,-0.0079807,-1.3944,888.37,0.075296,-0.025099,-2.0024,0.10039,1.0805e-11,-1.0012,0,0,0.083333,-1.1842e-15,0,0.66667
0.093737,0.61069,1.1248,0.16603,31.506,1336.1,-0.49802,0.16601,-1.9092,-0.66403,-3.8968e-08,-0.9546,0,0,0.083333,-0,-0,0.66667
0.31798,0.069938,3.8158,-0.64509,-111.24,840.36,6.5641,-2.188,-0.51741,8.7521,-1.4418e-11,-0.25871,0,0,0.083333,-0,-0,0.66667
0.38119,0.056603,4.5743,-0.6651,-109.06,711.7,8.1129,-2.7043,-0.42388,10.817,1.6712e-11,-0.21194,0,0,0.083333,-3.9475e-16,0,0.66667
0.63271,0.45312,7.5926,-0.070319,-8.0557,279.02,1.4237,-0.47458,-1.9779,1.8983,2.7157e-12,-0.98897,0,0,0.083333,-7.8949e-16,0,0.66667
0.47152,0.25066,5.6582,-0.37401,-55.68,539.47,5.6433,-1.8811,-1.5046,7.5244,1.0042e-11,-0.75231,0,0,0.083333,-1.579e-15,0,0.66667
0.71767,0.51415,8.612,0.021222,1.9636,171.17,-0.48737,0.16246,-2.0026,-0.64982,-3.7498e-14,-1.0013,0,0,0.083333,-0,-0,0.66667
0.26922,0.0027919,3.2307,-0.74581,-132.81,943.92,6.4253,-2.1418,-0.022359,8.567,-4.1012e-12,-0.01118,0,0,0.083333,1.579e-15,0,0.66667
0.17306,0.095606,2.0767,-0.60659,-112.85,1155.7,3.3592,-1.1197,-0.69702,4.4789,1.51e-09,-0.34851,0,0,0.083333,-3.9475e-16,0,0.66667
0.37912,0.55089,4.5495,0.07633,12.505,714.92,-0.92603,0.30868,-1.9775,-1.2347,2.1177e-12,-0.98877,0,0,0.083333,3.9475e-16,0,0.66667
0.43808,0.74618,5.257,0.36927,57.129,601.1,-5.1766,1.7255,-1.5217,-6.9022,-8.7876e-12,-0.76085,0,0,0.083333,5.9212e-16,0,0.66667
0.42213,0.089047,5.0655,-0.61643,-97.148,631.87,8.3268,-2.7756,-0.65628,11.102,-6.0352e-12,-0.32814,0,0,0.083333,-0,-0,0.66667
0.91357,0.6794,10.963,0.2691,8.4085,18.537,-7.867,2.6223,-1.7385,-10.489,5.4735e-08,-0.86924,0,0,0.083333,1.579e-15,0,0.66667
0.26957,0.055595,3.2348,-0.66661,-118.61,943.02,5.7503,-1.9168,-0.41896,7.667,-1.5186e-11,-0.20948,0,0,0.083333,-1.9737e-16,0,0.66667
0.35204,0.29457,4.2245,-0.30814,-51.682,769.59,3.4714,-1.1571,-1.658,4.6285,3.4133e-12,-0.829,0,0,0.083333,-0,-0,0.66667
0.21521,0.32759,2.5825,-0.25861,-47.22,1061.2,1.781,-0.59366,-1.7612,2.3746,-3.5223e-11,-0.88062,0,0,0.083333,-3.9475e-16,0,0.66667
0.37192,0.22084,4.4631,-0.41875,-69.11,729.63,4.9837,-1.6612,-1.3777,6.645,1.0919e-11,-0.68883,0,0,0.083333,-0,-0,0.66667
0.38986,0.3029,4.6783,-0.29565,-47.991,693.83,3.6883,-1.2294,-1.6945,4.9177,-4.529e-12,-0.84726,0,0,0.083333,3.9475e-16,0,0.66667
0.57543,0.20341,6.9051,-0.44489,-56.966,364.37,8.192,-2.7307,-1.2968,10.923,-2.002e-12,-0.64841,0,0,0.083333,-0,-0,0.66667
0.27836,0.34648,3.3404,-0.23028,-40.666,923.56,2.0513,-0.68376,-1.8128,2.735,2.772e-12,-0.9064,0,0,0.083333,-0,-0,0.66667
0.25949,0.0021308,3.1139,-0.7468,-133.73,964.91,6.2013,-2.0671,-0.014351,8.2684,6.8332e-12,-0.0071754,0,0,0.083333,-0,-0,0.66667
0.71906,0.90357,8.6287,0.60536,56.01,171,-13.929,4.6431,-0.70454,-18.572,-3.6473e-11,-0.35227,0,0,0.083333,-7.8949e-16,0,0.66667
0.91018,0.030298,10.922,-0.70455,-23.161,21.968,20.521,-6.8402,-0.23497,27.361,3.9531e-06,-0.11749,0,0,0.083333,-1.579e-15,0,0.66667
0.1221,0.40545,1.4652,-0.14182,-26.745,1271,0.55412,-0.18471,-1.9302,0.73883,7.5759e-09,-0.96509,0,0,0.083333,-6.1679e-17,0,0.66667
0.18229,0.24035,2.1875,-0.38947,-72.128,1134.7,2.2719,-0.7573,-1.4577,3.0292,7.1076e-11,-0.72887,0,0,0.083333,-0,-0,0.66667
0.13311,0.3601,1.5973,-0.20985,-39.465,1245.9,0.89386,-0.29795,-1.839,1.1918,3.6527e-09,-0.91948,0,0,0.083333,-0,-0,0.66667
0.68361,0.78134,8.2033,0.42201,42.993,212.34,-9.2318,3.0773,-1.3669,-12.309,-3.8884e-12,-0.68347,0,0,0.083333,3.158e-15,0,0.66667
0.21401,0.72615,2.5681,0.33923,61.992,1063.9,-2.3232,0.77438,-1.5886,-3.0975,1.891e-11,-0.79432,0,0,0.083333,-0,-0,0.66667
0.60457,0.082913,7.2549,-0.62563,-76.105,320.76,12.104,-4.0345,-0.60573,16.138,6.2981e-12,-0.30287,0,0,0.083333,-7.8949e-16,0,0.66667
0.20168,0.51455,2.4201,0.021827,4.0077,1091.2,-0.14087,0.046956,-2.0016,-0.18782,-4.554e-11,-1.0008,0,0,0.083333,-0,-0,0.66667
0.81776,0.27441,9.8131,-0.33839,-21.366,75.47,8.855,-2.9517,-1.5902,11.807,1.0264e-11,-0.79509,0,0,0.083333,-0,-0,0.66667
0.31611,0.17578,3.7933,-0.48634,-83.881,843.97,4.9195,-1.6398,-1.1581,6.5593,-3.503e-12,-0.57903,0,0,0.083333,-0,-0,0.66667
0.66962,0.74389,8.0354,0.36583,38.583,229.89,-7.839,2.613,-1.5262,-10.452,-3.384e-13,-0.76311,0,0,0.083333,-0,-0,0.66667
0.14873,0.14992,1.7848,-0.52512,-98.437,1210.5,2.4993,-0.8331,-1.0157,3.3324,-4.6907e-09,-0.50784,0,0,0.083333,-2.9606e-16,0,0.66667
0.30595,0.71867,3.6713,0.328,56.927,865.07,-3.2112,1.0704,-1.615,-4.2817,-1.5907e-11,-0.80749,0,0,0.083333,3.367e-17,0,0.66667
0.29724,0.091263,3.5669,-0.61311,-107.2,883.87,5.8317,-1.9439,-0.67085,7.7756,9.5874e-12,-0.33542,0,0,0.083333,-1.9737e-16,0,0.66667
0.63508,0.65302,7.621,0.22952,26.173,275.88,-4.6645,1.5548,-1.8103,-6.2194,-1.3105e-12,-0.90514,0,0,0.083333,-9.8686e-16,0,0.66667
0.68088,0.68528,8.1706,0.27792,28.482,215.38,-6.0553,2.0184,-1.7224,-8.0737,2.1014e-12,-0.86122,0,0,0.083333,-1.1842e-15,0,0.66667
0.84525,0.36392,10.143,-0.20412,-11.081,55.148,5.5209,-1.8403,-1.8552,7.3612,-2.3607e-10,-0.92759,0,0,0.083333,-0,-0,0.66667
0.18335,0.93796,2.2002,0.65693,121.8,1132.6,-3.8543,1.2848,-0.46527,-5.1391,-1.7267e-08,-0.23263,0,0,0.083333,7.8949e-16,0,0.66667
0.76043,0.21763,9.1252,-0.42355,-34.129,126.48,10.307,-3.4355,-1.3605,13.742,1.1021e-11,-0.68023,0,0,0.083333,6.06e-16,0,0.66667
0.71194,0.29792,8.5433,-0.30312,-28.552,178.07,6.9057,-2.3019,-1.669,9.2075,1.8274e-12,-0.83452,0,0,0.083333,-1.6326e-15,0,0.66667
0.55754,0.24686,6.6905,-0.37971,-50.076,392.48,6.7745,-2.2582,-1.4856,9.0327,-4.2504e-12,-0.74278,0,0,0.083333,-0,-0,0.66667
0.65016,0.73326,7.802,0.34989,38.622,255.47,-7.2795,2.4265,-1.5608,-9.706,-5.2931e-12,-0.78041,0,0,0.083333,1.579e-15,0,0.66667
0.089995,0.13806,1.0799,-0.5429,-103.24,1344.8,1.5635,-0.52116,-0.95075,2.0846,1.536e-07,-0.47537,0,0,0.083333,-0,-0,0.66667
0.14688,0.48388,1.7625,-0.024173,-4.5269,1214.5,0.11361,-0.037871,-1.9939,0.15148,-4.5768e-10,-0.99696,0,0,0.083333,1.9737e-16,0,0.66667
0.41557,0.29715,4.9869,-0.30427,-48.183,643.78,4.0463,-1.3488,-1.6668,5.395,-7.1982e-12,-0.83339,0,0,0.083333,7.8949e-16,0,0.66667
0.71137,0.52401,8.5364,0.036014,3.3945,178.38,-0.81981,0.27327,-1.9914,-1.0931,1.392e-12,-0.99572,0,0,0.083333,7.8949e-16,0,0.66667
0.16782,0.14053,2.0139,-0.53921,-100.46,1167.4,2.8957,-0.96524,-0.96446,3.861,1.98e-09,-0.48223,0,0,0.083333,-0,-0,0.66667
0.38898,0.83404,4.6677,0.50106,81.486,695.9,-6.2369,2.079,-1.1104,-8.3159,3.4812e-12,-0.5552,0,0,0.083333,-0,-0,0.66667
0.49795,0.92253,5.9754,0.63379,91.409,493.16,-10.099,3.3663,-0.57367,-13.465,4.7429e-13,-0.28683,0,0,0.083333,7.8949e-16,9.8515e-17,0.66667
0.93505,0.55284,11.221,0.079267,1.8672,10.646,-2.3718,0.7906,-1.9789,-3.1624,5.3508e-08,-0.98947,0,0,0.083333,7.8949e-16,0,0.66667
0.055196,0.98,0.66235,0.72,137.79,1425.2,-1.2717,0.42391,-0.1525,-1.6956,9.9639e-06,-0.076249,0,0,0.083333,-0,-0,0.66667
0.82901,0.96905,9.9481,0.70357,42.198,68.621,-18.665,6.2215,-0.24634,-24.886,1.4056e-08,-0.12317,0,0,0.083333,-0,-0,0.66667
0.98416,0.73062,11.81,0.34593,1.9286,1.4724,-10.894,3.6315,-1.5812,-14.526,-9.8937e-07,-0.79061,0,0,0.083333,-0,-0,0.66667
0.26727,0.079996,3.2073,-0.63001,-112.21,947.89,5.3883,-1.7961,-0.59162,7.1844,1.508e-11,-0.29581,0,0,0.083333,-0,-0,0.66667
0.89006,0.15945,10.681,-0.51082,-20.221,29.936,14.549,-4.8497,-1.0789,19.399,-8.8709e-10,-0.53945,0,0,0.083333,-0,-0,0.66667
0.2903,0.47104,3.4836,-0.043437,-7.6117,898,0.40351,-0.1345,-1.9904,0.53801,-6.6303e-12,-0.99518,0,0,0.083333,7.8949e-16,0,0.66667
0.79901,0.91405,9.5881,0.62108,43.004,91.901,-15.88,5.2933,-0.63063,-21.173,7.6422e-10,-0.31532,0,0,0.083333,-0,-0,0.66667
0.45986,0.085968,5.5183,-0.62105,-93.911,561.3,9.139,-3.0463,-0.6248,12.185,8.1624e-13,-0.3124,0,0,0.083333,3.9475e-16,0,0.66667
0.59761,0.95646,7.1713,0.68469,84.445,331.36,-13.094,4.3646,-0.33176,-17.458,1.4859e-12,-0.16588,0,0,0.083333,-7.8949e-16,0,0.66667
0.23667,0.95245,2.84,0.67867,122.93,1014.5,-5.1398,1.7133,-0.36371,-6.8531,1.2816e-10,-0.18186,0,0,0.083333,3.9475e-16,0,0.66667
0.68761,0.71755,8.2514,0.32633,32.876,207.12,-7.1804,2.3935,-1.6297,-9.5738,-1.8763e-12,-0.81487,0,0,0.083333,7.8949e-16,0,0.66667
0.14868,0.1198,1.7842,-0.5703,-106.94,1210.7,2.7134,-0.90447,-0.8399,3.6179,2.6953e-09,-0.41995,0,0,0.083333,2.8541e-16,0,0.66667
0.55969,0.78058,6.7162,0.42086,55.325,389.14,-7.5377,2.5126,-1.3721,-10.05,2.2737e-13,-0.68605,0,0,0.083333,2.8814e-16,0,0.66667
0.49433,0.88877,5.9319,0.58315,84.47,499.33,-9.2245,3.0748,-0.78732,-12.299,1.5232e-12,-0.39366,0,0,0.083333,7.8949e-16,0,0.66667
0.83721,0.89265,10.046,0.58897,33.689,62.063,-15.779,5.2596,-0.7625,-21.038,2.3608e-09,-0.38125,0,0,0.083333,-0,-0,0.66667
0.48147,0.80111,5.7776,0.45167,66.45,521.75,-6.9589,2.3196,-1.2749,-9.2785,2.415e-12,-0.63746,0,0,0.083333,-7.8949e-16,0,0.66667
0.78473,0.85756,9.4168,0.53634,39.411,103.97,-13.468,4.4894,-0.97634,-17.958,-1.1347e-10,-0.48817,0,0,0.083333,-0,-0,0.66667
0.40029,0.63914,4.8035,0.20871,33.54,673.27,-2.6735,0.89117,-1.8413,-3.5647,-8.7708e-13,-0.92066,0,0,0.083333,-7.8949e-16,0,0.66667
0.30791,0.64452,3.6949,0.21677,37.559,860.85,-2.1359,0.71195,-1.8305,-2.8478,-5.1679e-12,-0.91527,0,0,0.083333,-3.6463e-16,0,0.66667
0.78723,0.13407,9.4467,-0.5489,-39.928,101.79,13.827,-4.6091,-0.92523,18.437,1.9913e-11,-0.46262,0,0,0.083333,1.579e-15,0,0.66667
0.41846,0.55708,5.0216,0.085616,13.51,638.04,-1.1465,0.38216,-1.9739,-1.5286,-5.7919e-12,-0.98696,0,0,0.083333,9.8686e-16,0,0.66667
0.49677,0.43418,5.9612,-0.098732,-14.222,494.18,1.5695,-0.52317,-1.9659,2.0927,3.0975e-13,-0.98297,0,0,0.083333,9.8686e-16,0,0.66667
0.57732,0.25909,6.9279,-0.36137,-46.096,361.22,6.6761,-2.2254,-1.5409,8.9014,4.6407e-13,-0.77047,0,0,0.083333,-0,-0,0.66667
0.81967,0.76601,9.836,0.39901,24.973,74.185,-10.466,3.4886,-1.4295,-13.954,1.836e-11,-0.71476,0,0,0.083333,-0,-0,0.66667
0.58132,0.42556,6.9758,-0.11166,-14.13,354.67,2.077,-0.69235,-1.9554,2.7694,4.8939e-13,-0.97769,0,0,0.083333,-7.8949e-16,0,0.66667
0.40614,0.76356,4.8737,0.39534,63.217,662.13,-5.138,1.7127,-1.4513,-6.8507,2.6015e-12,-0.72563,0,0,0.083333,-7.8949e-16,0,0.66667
0.16059,0.9862,1.927,0.7293,136.39,1183.9,-3.7477,1.2492,-0.10673,-4.997,9.6663e-11,-0.053363,0,0,0.083333,1.9737e-16,0,0.66667
0.70211,0.45597,8.4253,-0.066047,-6.3916,189.23,1.4839,-0.49464,-1.9889,1.9786,-2.9687e-13,-0.99447,0,0,0.083333,-0,-0,0.66667
0.88323,0.45637,10.599,-0.065439,-2.725,32.196,1.8495,-0.61651,-1.9804,2.466,-7.0666e-09,-0.9902,0,0,0.083333,1.579e-15,0,0.66667
0.10838,0.86201,1.3005,0.54302,102.88,1302.6,-1.8833,0.62775,-0.95607,-2.511,5.5634e-08,-0.47803,0,0,0.083333,-0,1.1292e-16,0.66667
0.46621,0.14011,5.5946,-0.53984,-80.969,549.47,8.0538,-2.6846,-0.96468,10.738,4.2988e-13,-0.48234,0,0,0.083333,-7.8949e-16,0,0.66667
0.93454,0.80444,11.214,0.45665,10.936,11.811,-13.656,4.5521,-1.259,-18.208,2.937e-07,-0.62949,0,0,0.083333,1.579e-15,0,0.66667
0.56351,0.462,6.7621,-0.056998,-7.4355,382.53,1.0278,-0.3426,-1.9934,1.3704,-5.4264e-12,-0.99671,0,0,0.083333,7.8949e-16,0,0.66667
0.54525,0.84944,6.543,0.52416,70.562,412.76,-9.1456,3.0485,-1.0267,-12.194,-1.4246e-12,-0.51335,0,0,0.083333,-0,-0,0.66667
0.063476,0.28965,0.76171,-0.31553,-60.186,1405.9,0.6409,-0.21363,-1.6509,0.85454,2.5255e-07,-0.82544,0,0,0.083333,1.9737e-16,0,0.66667
0.5353,0.3209,6.4236,-0.26865,-36.663,428.58,4.6018,-1.5339,-1.742,6.1357,-1.1422e-12,-0.871,0,0,0.083333,-0,-0,0.66667
0.65454,0.3904,7.8545,-0.16441,-17.951,249.27,3.4436,-1.1479,-1.9066,4.5914,-1.3118e-12,-0.95329,0,0,0.083333,-0,-0,0.66667
0.14659,0.15396,1.7591,-0.51906,-97.36,1215.4,2.4349,-0.81162,-1.0395,3.2465,-4.0546e-09,-0.51974,0,0,0.083333,4.9343e-17,0,0.66667
0.95636,0.50805,11.476,0.012075,0.19086,5.0654,-0.36954,0.12318,-1.9994,-0.49272,1.1717e-06,-0.99971,0,0,0.083333,-0,-0,0.66667
0.19615,0.49968,2.3538,-0.00048224,-0.088746,1103.5,0.003027,-0.001009,-1.9973,0.0040359,2.012e-10,-0.99865,0,0,0.083333,5.7978e-16,0,0.66667
0.67393,0.52099,8.0871,0.031492,3.2819,223.89,-0.67914,0.22638,-1.9986,-0.90552,4.6824e-12,-0.99929,0,0,0.083333,-1.579e-15,0,0.66667
0.27434,0.58863,3.2921,0.13294,23.528,932.14,-1.1671,0.38902,-1.9336,-1.5561,-1.434e-11,-0.96681,0,0,0.083333,-0,-0,0.66667
0.10843,0.35218,1.3012,-0.22172,-41.953,1302.3,0.76934,-0.25645,-1.8301,1.0258,2.2866e-08,-0.91507,0,0,0.083333,-0,-0,0.66667
0.2609,0.33691,3.1308,-0.24463,-43.644,961.17,2.0424,-0.68079,-1.7851,2.7232,-6.3483e-13,-0.89256,0,0,0.083333,1.9737e-16,0,0.66667
0.33415,0.77339,4.0098,0.41008,69.776,806.39,-4.3849,1.4616,-1.3986,-5.8466,8.7397e-13,-0.69932,0,0,0.083333,3.9475e-16,0,0.66667
0.46473,0.93001,5.5768,0.64502,96.999,552.47,-9.5924,3.1975,-0.51946,-12.79,-4.0643e-12,-0.25973,0,0,0.083333,-3.9475e-16,0,0.66667
0.23436,0.72636,2.8123,0.33954,61.453,1019.1,-2.5463,0.84878,-1.5977,-3.3951,7.0162e-12,-0.79887,0,0,0.083333,-0,-0,0.66667
0.7275,0.094182,8.73,-0.60873,-54.897,161.61,14.171,-4.7238,-0.6798,18.895,4.861e-11,-0.3399,0,0,0.083333,-0,-0,0.66667
0.80719,0.53525,9.6863,0.052868,3.5062,83.437,-1.3656,0.4552,-1.9877,-1.8208,-6.4747e-11,-0.99387,0,0,0.083333,-0,-0,0.66667
0.79098,0.92435,9.4917,0.63652,45.647,98.913,-16.111,5.3704,-0.55569,-21.482,5.1533e-10,-0.27785,0,0,0.083333,-7.8949e-16,0,0.66667
0.71575,0.49834,8.589,-0.0024972,-0.23238,173.35,0.057196,-0.019065,-2.0013,0.076262,-2.4625e-12,-1.0007,0,0,0.083333,2.0724e-15,0,0.66667
0.26964,0.72303,3.2357,0.33455,59.406,942.37,-2.8867,0.96222,-1.6012,-3.8489,-1.592e-11,-0.80062,0,0,0.083333,-0,-0,0.66667
0.21046,0.52258,2.5255,0.033873,6.1958,1071.7,-0.22812,0.076041,-1.9918,-0.30416,-9.6418e-12,-0.99591,0,0,0.083333,-0,-0,0.66667
0.10913,0.33713,1.3095,-0.24431,-46.221,1300.7,0.85314,-0.28438,-1.7949,1.1375,2.2759e-08,-0.89743,0,0,0.083333,-9.8686e-17,0,0.66667
0.39668,0.4187,4.7602,-0.12195,-19.661,680.27,1.548,-0.516,-1.9433,2.064,1.1586e-12,-0.97166,0,0,0.083333,-0,-0,0.66667
0.087267,0.25741,1.0472,-0.36388,-69.171,1351,1.0162,-0.33872,-1.5255,1.3549,2.8192e-08,-0.76277,0,0,0.083333,1.9737e-16,0,0.66667
0.65539,0.69228,7.8647,0.28842,31.447,248.33,-6.0489,2.0163,-1.7099,-8.0652,-3.5048e-12,-0.85493,0,0,0.083333,-0,-0,0.66667
0.94983,0.2142,11.398,-0.4287,-7.8835,7.4865,13.03,-4.3433,-1.3469,17.373,-4.669e-07,-0.67343,0,0,0.083333,1.6767e-16,0,0.66667
0.75563,0.7108,9.0676,0.31621,25.895,130.93,-7.646,2.5487,-1.6413,-10.195,-1.1251e-11,-0.82067,0,0,0.083333,-7.8949e-16,0,0.66667
0.11689,0.275,1.4027,-0.33749,-63.756,1283,1.2624,-0.4208,-1.5912,1.6832,6.5236e-09,-0.79559,0,0,0.083333,-9.8686e-17,0,0.66667
0.020481,0.45033,0.24577,-0.074498,-14.255,1505.5,0.048826,-0.016275,-1.9775,0.065101,-2.1087e-07,-0.98876,0,0,0.083333,-0,-0,0.66667
0.33489,0.45488,4.0187,-0.067687,-11.499,804.57,0.72536,-0.24179,-1.9795,0.96715,1.3174e-11,-0.98973,0,0,0.083333,-7.9133e-16,0,0.66667
0.99288,0.53825,11.915,0.057381,0.12312,0.25521,-1.8231,0.6077,-1.9844,-2.4308,6.6897e-07,-0.99221,0,0,0.083333,-0,-0,0.66667
0.31283,0.21314,3.754,-0.43029,-74.363,850.74,4.3075,-1.4358,-1.3487,5.7433,5.3562e-12,-0.67433,0,0,0.083333,-0,-0,0.66667
0.73751,0.49241,8.8501,-0.011388,-0.99059,149.32,0.26876,-0.089588,-1.9997,0.35835,-1.5276e-12,-0.99986,0,0,0.083333,-7.8949e-16,0,0.66667
0.71653,0.9375,8.5984,0.65624,61.219,174.11,-15.047,5.0157,-0.47201,-20.063,6.0085e-12,-0.23601,0,0,0.083333,3.8398e-16,0,0.66667
0.57256,0.67636,6.8707,0.26453,34.005,368.46,-4.8467,1.6156,-1.7478,-6.4623,-1.1124e-12,-0.87391,0,0,0.083333,7.8949e-16,0,0.66667
0.36765,0.69952,4.4118,0.29928,49.548,738.03,-3.5209,1.1736,-1.6772,-4.6945,-8.6398e-13,-0.8386,0,0,0.083333,-0,-0,0.66667
0.20827,0.14151,2.4992,-0.53773,-98.614,1076.9,3.5837,-1.1946,-0.9688,4.7783,4.1975e-12,-0.4844,0,0,0.083333,-0,-0,0.66667
0.98,0.36891,11.76,-0.19664,-1.3883,1.4577,6.1667,-2.0556,-1.8609,8.2222,8.9906e-07,-0.93047,0,0,0.083333,2.1593e-15,0,0.66667
0.065894,0.74339,0.79073,0.36508,69.629,1400.3,-0.76982,0.25661,-1.5259,-1.0264,-2.9795e-07,-0.76297,0,0,0.083333,-9.8686e-17,0,0.66667
0.23623,0.81295,2.8347,0.46942,84.932,1015.1,-3.5485,1.1828,-1.2205,-4.7313,4.4362e-11,-0.61024,0,0,0.083333,7.8949e-16,0,0.66667
0.3089,0.77446,3.7068,0.41169,71.335,858.96,-4.0695,1.3565,-1.3968,-5.426,-2.8124e-12,-0.69842,0,0,0.083333,-5.9212e-16,0,0.66667
0.9095,0.47248,10.914,-0.041282,-1.3457,19.846,1.2015,-0.40049,-1.9944,1.602,-3.8285e-08,-0.99722,0,0,0.083333,-0,-0,0.66667
0.71337,0.74036,8.5604,0.36054,33.834,176.57,-8.2303,2.7434,-1.5347,-10.974,4.956e-13,-0.76736,0,0,0.083333,-0,-0,0.66667
0.26537,0.87586,3.1845,0.56379,100.48,951.87,-4.7877,1.5959,-0.87785,-6.3836,3.5524e-11,-0.43892,0,0,0.083333,-7.8949e-16,0,0.66667
0.1645,0.15509,1.974,-0.51737,-96.488,1174.8,2.7234,-0.90782,-1.0453,3.6313,3.3144e-09,-0.52266,0,0,0.083333,-9.8686e-17,0,0.66667
0.8805,0.82132,10.566,0.48199,20.631,34.715,-13.58,4.5268,-1.1709,-18.107,-8.3456e-09,-0.58544,0,0,0.083333,1.579e-15,0,0.66667
0.79378,0.65352,9.5254,0.23028,16.233,94.974,-5.8494,1.9498,-1.8124,-7.7992,-4.817e-11,-0.90621,0,0,0.083333,2.3501e-16,0,0.66667
0.038387,0.32472,0.46065,-0.26292,-50.271,1464,0.32296,-0.10765,-1.7499,0.43062,-3.3486e-08,-0.87496,0,0,0.083333,-0,-0,0.66667
0.8793,0.76816,10.552,0.40224,17.351,35.025,-11.318,3.7727,-1.4227,-15.091,-4.3111e-09,-0.71133,0,0,0.083333,-0,-0,0.66667
0.58794,0.79362,7.0553,0.44043,55.163,345.08,-8.2862,2.7621,-1.3067,-11.048,-1.9904e-12,-0.65334,0,0,0.083333,1.579e-15,0,0.66667
0.45754,0.80761,5.4904,0.46142,69.879,565.13,-6.7557,2.2519,-1.2415,-9.0076,-8.2316e-12,-0.62077,0,0,0.083333,3.9475e-16,0,0.66667
0.67385,0.025757,8.0862,-0.71136,-74.522,225.8,15.339,-5.1131,-0.20353,20.452,-2.5757e-14,-0.10176,0,0,0.083333,-0,-0,0.66667
0.039443,0.69116,0.47331,0.28674,54.825,1461.5,-0.36191,0.12064,-1.7042,-0.48255,-1.3367e-07,-0.85211,0,0,0.083333,-9.8686e-17,0,0.66667
0.33032,0.82292,3.9639,0.48437,82.688,814.42,-5.12,1.7067,-1.1676,-6.8266,3.0731e-13,-0.58378,0,0,0.083333,-0,-0,0.66667
0.088048,0.50142,1.0566,0.0021283,0.40423,1349.2,-0.0059967,0.001999,-1.9978,-0.0079955,1.213e-07,-0.99889,0,0,0.083333,-0,-0,0.66667
0.68364,0.18775,8.2036,-0.46838,-47.733,212.46,10.246,-3.4155,-1.2202,13.662,-7.276e-12,-0.61009,0,0,0.083333,3.158e-15,0,0.66667
0.39801,0.78264,4.7761,0.42395,68.336,678.02,-5.3996,1.7999,-1.3579,-7.1995,6.3132e-12,-0.67896,0,0,0.083333,-0,-0,0.66667
0.47895,0.36755,5.7474,-0.19868,-29.287,525.83,3.045,-1.015,-1.8567,4.06,-5.8431e-12,-0.92837,0,0,0.083333,3.9475e-16,0,0.66667
0.2898,0.83643,3.4776,0.50465,88.593,899.45,-4.6799,1.56,-1.0906,-6.2399,-1.5985e-11,-0.54531,0,0,0.083333,-2.2315e-16,0,0.66667
0.78829,0.78435,9.4595,0.42652,30.835,100.34,-10.759,3.5864,-1.3499,-14.346,1.1167e-11,-0.67495,0,0,0.083333,-0,-0,0.66667
0.046513,0.38134,0.55815,-0.17799,-34.002,1445.1,0.26492,-0.088307,-1.8941,0.35323,-6.223e-09,-0.94707,0,0,0.083333,-0,-0,0.66667
0.28113,0.51985,3.3735,0.029777,5.248,917.57,-0.26788,0.089292,-2.0038,-0.35717,-1.5947e-11,-1.0019,0,0,0.083333,-0,-0,0.66667
0.5906,0.81796,7.0872,0.47693,59.465,341.15,-9.0136,3.0045,-1.1916,-12.018,-2.2027e-13,-0.59582,0,0,0.083333,-0,-0,0.66667
0.79013,0.95734,9.4816,0.686,49.418,99.929,-17.345,5.7817,-0.32262,-23.127,4.2e-10,-0.16131,0,0,0.083333,-0,-0,0.66667
0.6016,0.47447,7.2192,-0.038298,-4.6697,323.91,0.73729,-0.24576,-1.991,0.98305,-9.1693e-13,-0.9955,0,0,0.083333,-0,-0,0.66667
0.73049,0.70496,8.7659,0.30744,27.381,157.27,-7.1867,2.3956,-1.6624,-9.5823,-5.3513e-13,-0.83121,0,0,0.083333,-0,-0,0.66667
0.023528,0.064396,0.28233,-0.65341,-125.29,1498.5,0.49194,-0.16402,-0.47881,0.65591,-5.1928e-05,-0.23941,0,0,0.083333,-0,-0,0.66667
0.25492,0.46422,3.0591,-0.053665,-9.603,974.05,0.43778,-0.14593,-1.9877,0.58371,-3.6067e-12,-0.99387,0,0,0.083333,-4.9343e-16,0,0.66667
0.042092,0.78866,0.5051,0.43298,82.817,1455.4,-0.5832,0.1944,-1.3312,-0.7776,-1.9817e-06,-0.66559,0,0,0.083333,-0,-0,0.66667
0.50001,0.50244,6.0001,0.0036639,0.52545,488.48,-0.058624,0.019541,-2.0084,-0.078165,7.201e-13,-1.0042,0,0,0.083333,-0,-0,0.66667
0.98914,0.90718,11.87,0.61078,2.4131,2.4232,-19.333,6.4442,-0.67241,-25.777,5.2524e-05,-0.3362,0,0,0.083333,-0,-0,0.66667
0.013531,0.76749,0.16237,0.40124,76.856,1521.6,-0.17373,0.057908,-1.4294,-0.23163,-8.3846e-07,-0.7147,0,0,0.083333,8.6483e-18,0,0.66667
0.44088,0.33311,5.2905,-0.25033,-38.591,595.68,3.5317,-1.1772,-1.7767,4.7089,8.1801e-13,-0.88833,0,0,0.083333,-3.9475e-16,0,0.66667
0.0047864,0.10515,0.057437,-0.59228,-113.58,1541.9,0.090707,-0.030231,-0.75018,0.12094,6.8978e-06,-0.37509,0,0,0.083333,-0,-0,0.66667
0.61289,0.027611,7.3547,-0.70858,-84.899,308.94,13.897,-4.6323,-0.21487,18.529,6.0121e-12,-0.10743,0,0,0.083333,-3.9475e-16,0,0.66667
0.18336,0.69746,2.2003,0.29619,54.811,1132.2,-1.7379,0.5793,-1.6864,-2.3172,6.977e-11,-0.8432,0,0,0.083333,-0,-0,0.66667
0.71274,0.82461,8.5529,0.48692,45.832,177.7,-11.105,3.7018,-1.1533,-14.807,2.1165e-12,-0.57663,0,0,0.083333,-0,-0,0.66667
0.15965,0.53158,1.9158,0.047376,8.8368,1185.6,-0.24203,0.080678,-1.9929,-0.32271,-1.6596e-10,-0.99646,0,0,0.083333,-3.9475e-16,0,0.66667
0.82858,0.085825,9.9429,-0.62126,-37.277,68.457,16.472,-5.4908,-0.63402,21.963,2.8585e-09,-0.31701,0,0,0.083333,7.8949e-16,0,0.66667
0.20618,0.40713,2.4741,-0.1393,-25.531,1081.2,0.91908,-0.30636,-1.9324,1.2254,-4.0977e-11,-0.9662,0,0,0.083333,-0,-0,0.66667
0.35222,0.51707,4.2266,0.025604,4.2912,769.06,-0.28858,0.096194,-1.9933,-0.38478,8.5145e-12,-0.99664,0,0,0.083333,-0,-0,0.66667
0.23058,0.27093,2.7669,-0.34361,-62.307,1027.4,2.5353,-0.84511,-1.579,3.3804,-9.8173e-12,-0.78951,0,0,0.083333,1.9737e-16,0,0.66667
0.80768,0.74374,9.6922,0.3656,24.241,83.596,-9.4494,3.1498,-1.5226,-12.599,-9.9752e-11,-0.7613,0,0,0.083333,1.1842e-15,0,0.66667
0.49027,0.032144,5.8832,-0.70178,-102.3,506.87,11.01,-3.67,-0.24664,14.68,6.8381e-12,-0.12332,0,0,0.083333,-0,-0,0.66667
0.87383,0.81098,10.486,0.46648,21.007,38.292,-13.044,4.348,-1.2317,-17.392,2.0663e-10,-0.61586,0,0,0.083333,-2.3685e-15,0,0.66667
0.13009,0.090971,1.561,-0.61354,-115.69,1253,2.554,-0.85134,-0.65967,3.4054,-8.0293e-09,-0.32983,0,0,0.083333,1.9737e-16,0,0.66667
0.49896,0.47162,5.9875,-0.042576,-6.1147,490.32,0.6798,-0.2266,-1.999,0.9064,-9.9593e-13,-0.99951,0,0,0.083333,-0,-0,0.66667
0.77661,0.80209,9.3194,0.45314,34.361,111.06,-11.261,3.7537,-1.2676,-15.015,-4.3716e-11,-0.63379,0,0,0.083333,7.8949e-16,0,0.66667
0.98121,0.96932,11.775,0.70397,4.9827,3.7213,-22.104,7.368,-0.23912,-29.472,-3.0803e-05,-0.11956,0,0,0.083333,-0,-0,0.66667
0.67338,0.02095,8.0805,-0.71858,-75.373,226.44,15.484,-5.1613,-0.16746,20.645,-2.9043e-13,-0.083728,0,0,0.083333,-0,-0,0.66667
0.183,0.38086,2.196,-0.1787,-33.064,1133,1.0465,-0.34883,-1.8848,1.3953,-1.307e-10,-0.94238,0,0,0.083333,-0,-0,0.66667
0.75977,0.56098,9.1173,0.091473,7.372,126.43,-2.224,0.74132,-1.9679,-2.9653,-6.1509e-12,-0.98395,0,0,0.083333,-1.6777e-15,0,0.66667
0.074635,0.33789,0.89562,-0.24317,-46.301,1380.1,0.58076,-0.19359,-1.7895,0.77435,1.6722e-07,-0.89477,0,0,0.083333,-4.9343e-17,0,0.66667
0.76277,0.55075,9.1533,0.076118,6.0675,123.47,-1.8579,0.61931,-1.9798,-2.4772,-4.2647e-12,-0.98988,0,0,0.083333,-0,-0,0.66667
0.82782,0.7945,9.9338,0.44176,26.525,68.176,-11.702,3.9007,-1.3125,-15.603,-3.3003e-11,-0.65626,0,0,0.083333,1.579e-15,0,0.66667
0.55921,0.024074,6.7105,-0.71389,-94.165,390.9,12.775,-4.2583,-0.1879,17.033,-3.6273e-12,-0.093952,0,0,0.083333,-0,-0,0.66667
0.49272,0.55737,5.9126,0.086054,12.462,501.28,-1.3568,0.45228,-1.97,-1.8091,-6.0293e-12,-0.98501,0,0,0.083333,3.9475e-16,0,0.66667
0.93653,0.075036,11.238,-0.63745,-14.94,12.194,19.104,-6.3678,-0.55983,25.471,2.317e-06,-0.27991,0,0,0.083333,-0,-0,0.66667
9.6951e-05,0.66354,0.0011634,0.2453,46.971,1552.8,-0.00076028,0.00025179,-1.7935,-0.0010145,-2.4573e-06,-0.89674,0,0,0.083333,-0,-2.5722e-16,0.66667
0.0095669,0.8698,0.1148,0.55471,106.35,1530.8,-0.16981,0.056587,-0.90283,-0.22642,-2.3993e-05,-0.45142,0,0,0.083333,-1.8504e-17,0,0.66667
0.25195,0.53254,3.0234,0.048806,8.7476,980.51,-0.3935,0.13117,-1.9951,-0.52466,-9.0736e-13,-0.99754,0,0,0.083333,-0,-0,0.66667
0.50568,0.16472,6.0681,-0.50291,-71.707,479.31,8.138,-2.7127,-1.0975,10.851,1.1378e-12,-0.54874,0,0,0.083333,-0,-0,0.66667
0.54042,0.17315,6.485,-0.49027,-66.477,420.6,8.4785,-2.8262,-1.1412,11.305,-1.8963e-12,-0.57062,0,0,0.083333,-0,-0,0.66667
0.37129,0.02789,4.4555,-0.70817,-117.18,731.53,8.414,-2.8047,-0.21671,11.219,-6.855e-12,-0.10835,0,0,0.083333,-1.9737e-16,-3.7882e-17,0.66667
0.29271,0.66384,3.5125,0.24577,43.016,892.97,-2.302,0.76734,-1.7838,-3.0694,-1.8139e-11,-0.89189,0,0,0.083333,-0,-0,0.66667
0.20237,0.94452,2.4284,0.66678,122.7,1090.1,-4.3179,1.4393,-0.42482,-5.7572,3.7122e-09,-0.21241,0,0,0.083333,-0,-0,0.66667
0.80028,0.0095423,9.6034,-0.73569,-50.771,91.487,18.84,-6.2801,-0.07512,25.12,-9.4863e-10,-0.03756,0,0,0.083333,3.158e-15,0,0.66667
0.31592,0.62313,3.7911,0.18469,31.82,844.02,-1.8671,0.62237,-1.8793,-2.4895,1.8004e-12,-0.93963,0,0,0.083333,-4.4409e-16,0,0.66667
0.49247,0.70933,5.9096,0.31399,45.514,501.97,-4.9482,1.6494,-1.6453,-6.5976,-3.9444e-12,-0.82263,0,0,0.083333,3.9475e-16,0,0.66667
0.81129,0.57736,9.7355,0.11603,7.5488,80.153,-3.0124,1.0041,-1.956,-4.0165,-5.6138e-11,-0.97801,0,0,0.083333,1.579e-15,0,0.66667
0.61236,0.76847,7.3483,0.40271,48.159,308.6,-7.8912,2.6304,-1.4234,-10.522,-1.191e-12,-0.71172,0,0,0.083333,-0,-0,0.66667
0.40861,0.58763,4.9033,0.13144,20.949,657.05,-1.7187,0.57289,-1.9404,-2.2916,-1.3942e-12,-0.97022,0,0,0.083333,-0,-0,0.66667
0.1769,0.2461,2.1229,-0.38085,-70.669,1146.8,2.1559,-0.71865,-1.4823,2.8746,-3.811e-11,-0.74113,0,0,0.083333,-2.9606e-16,0,0.66667
0.39765,0.54835,4.7718,0.072522,11.681,678.35,-0.92284,0.30761,-1.977,-1.2304,-5.6005e-12,-0.98848,0,0,0.083333,7.8949e-16,0,0.66667
0.48521,0.072983,5.8226,-0.64053,-93.926,515.61,9.9453,-3.3151,-0.5463,13.26,1.1484e-12,-0.27315,0,0,0.083333,-0,-0,0.66667
0.99058,0.50395,11.887,0.005929,0.017872,0.36377,-0.18794,0.06265,-1.9968,-0.25059,4.9767e-06,-0.99842,0,0,0.083333,-0,-0,0.66667
0.2842,0.34423,3.4103,-0.23366,-41.116,911.09,2.125,-0.70832,-1.8076,2.8333,7.4161e-12,-0.90378,0,0,0.083333,-7.8949e-16,0,0.66667
0.16564,0.37379,1.9877,-0.18931,-35.248,1172.1,1.0035,-0.33448,-1.87,1.3379,2.2278e-10,-0.93501,0,0,0.083333,1.9737e-16,0,0.66667
0.22058,0.77582,2.6469,0.41373,75.404,1049.5,-2.9203,0.97343,-1.3945,-3.8937,3.1493e-12,-0.69726,0,0,0.083333,4.9343e-16,0,0.66667
0.21147,0.9348,2.5376,0.65219,119.53,1069.9,-4.4134,1.4711,-0.48436,-5.8845,-1.9888e-09,-0.24218,0,0,0.083333,-5.4278e-16,0,0.66667
0.076048,0.51227,0.91257,0.018412,3.504,1376.8,-0.044807,0.014936,-2.0007,-0.059743,-1.4111e-07,-1.0004,0,0,0.083333,-0,-0,0.66667
0.36491,0.34747,4.3789,-0.22879,-37.957,743.47,2.6716,-0.89053,-1.8114,3.5621,-3.2203e-12,-0.9057,0,0,0.083333,7.8949e-16,0,0.66667
0.28473,0.46319,3.4168,-0.055211,-9.709,909.86,0.50305,-0.16768,-1.989,0.67074,5.5539e-12,-0.9945,0,0,0.083333,-0,-0,0.66667
0.88759,0.059514,10.651,-0.66073,-26.832,32.001,18.767,-6.2555,-0.4488,25.022,5.7097e-09,-0.2244,0,0,0.083333,-3.9475e-16,0,0.66667
0.78026,0.49029,9.3631,-0.014563,-1.0853,106.84,0.36362,-0.12121,-2.004,0.48482,2.0928e-11,-1.002,0,0,0.083333,-7.8949e-16,0,0.66667
0.10906,0.92227,1.3088,0.63341,120.06,1301.1,-2.2107,0.73689,-0.57981,-2.9475,1.8686e-07,-0.2899,0,0,0.083333,-1.9737e-16,-9.8622e-17,0.66667
0.8505,0.95279,10.206,0.67918,36.004,53.56,-18.485,6.1615,-0.35561,-24.646,9.4837e-09,-0.17781,0,0,0.083333,1.579e-15,0,0.66667
0.1096,0.88191,1.3152,0.57287,108.53,1299.8,-2.0091,0.66971,-0.84025,-2.6789,9.0417e-08,-0.42013,0,0,0.083333,-0,-0,0.66667
0.72021,0.23833,8.6425,-0.39251,-36.105,168.89,9.046,-3.0153,-1.4556,12.061,2.2649e-13,-0.7278,0,0,0.083333,7.8949e-16,0,0.66667
0.57282,0.33338,6.8739,-0.24993,-32.112,368.02,4.5814,-1.5271,-1.7748,6.1085,-1.9451e-13,-0.88741,0,0,0.083333,-7.8949e-16,0,0.66667
0.086808,0.87481,1.0417,0.56221,106.99,1352.2,-1.5617,0.52058,-0.87349,-2.0823,-1.9153e-07,-0.43674,0,0,0.083333,-2.6985e-16,0,0.66667
0.90533,0.45149,10.864,-0.072758,-2.4778,21.634,2.1078,-0.70261,-1.9858,2.8104,-1.9453e-08,-0.99292,0,0,0.083333,-0,-0,0.66667
0.87457,0.84426,10.495,0.51639,23.154,38.11,-14.452,4.8172,-1.0595,-19.269,-1.2831e-09,-0.52974,0,0,0.083333,-0,-0,0.66667
0.84385,0.23736,10.126,-0.39396,-21.612,56.606,10.638,-3.5461,-1.4552,14.184,-7.9341e-11,-0.72758,0,0,0.083333,-0,-0,0.66667
0.36957,0.5191,4.4348,0.028647,4.7323,734,-0.33879,0.11293,-1.9938,-0.45171,-3.7648e-12,-0.99689,0,0,0.083333,-0,-0,0.66667
0.22295,0.43047,2.6754,-0.10429,-18.968,1044.1,0.74404,-0.24801,-1.9599,0.99205,1.5877e-12,-0.97994,0,0,0.083333,-0,-0,0.66667
0.99711,0.50527,11.965,0.0079011,0.0041363,0.068771,-0.2521,0.08402,-2.0007,-0.33615,-2.2371e-05,-1.0004,0,0,0.083333,-0,-0,0.66667
0.81734,0.080668,9.8081,-0.629,-39.981,77.022,16.451,-5.4838,-0.59056,21.935,-4.6617e-09,-0.29528,0,0,0.083333,-0,-0,0.66667
0.042128,0.96095,0.50554,0.69142,132.46,1455.4,-0.93211,0.31067,-0.29795,-1.2428,-4.253e-05,-0.14898,0,0,0.083333,4.9343e-17,0,0.66667
0.37328,0.13563,4.4793,-0.54655,-90.166,727.16,6.5285,-2.1762,-0.94072,8.7046,3.1171e-12,-0.47036,0,0,0.083333,-0,-0,0.66667
0.81219,0.50778,9.7462,0.011666,0.75551,79.376,-0.30319,0.10106,-2.0063,-0.40425,-1.858e-10,-1.0031,0,0,0.083333,-0,-0,0.66667
0.52838,0.49377,6.3406,-0.0093479,-1.2882,439.91,0.15806,-0.052686,-2.0005,0.21074,1.2615e-12,-1.0003,0,0,0.083333,1.579e-15,0,0.66667
0.24713,0.68265,2.9656,0.27397,49.251,991.1,-2.1666,0.7222,-1.7342,-2.8888,1.1924e-13,-0.86708,0,0,0.083333,5.9212e-16,0,0.66667
0.79289,0.23283,9.5147,-0.40076,-28.405,96.208,10.168,-3.3894,-1.4273,13.558,5.2561e-11,-0.71365,0,0,0.083333,-0,-0,0.66667
0.26175,0.72137,3.141,0.33205,59.231,959.4,-2.7813,0.9271,-1.6077,-3.7084,-7.1174e-12,-0.80383,0,0,0.083333,-0,-0,0.66667
0.00039838,0.38209,0.0047806,-0.17686,-33.86,1552.1,0.0022541,-0.00075033,-1.8954,0.0030061,1.5732e-06,-0.94769,0,0,0.083333,-7.7099e-19,0,0.66667
0.23132,0.81532,2.7758,0.47298,85.786,1025.9,-3.5011,1.167,-1.2056,-4.6681,9.9404e-11,-0.60281,0,0,0.083333,-0,-0,0.66667
0.99337,0.47712,11.92,-0.034323,-0.067112,0.22004,1.0911,-0.36369,-1.992,1.4547,1.8176e-07,-0.99599,0,0,0.083333,-0,-0,0.66667
0.6562,0.28182,7.8744,-0.32727,-35.624,247.34,6.8722,-2.2907,-1.6279,9.1629,1.4255e-12,-0.81393,0,0,0.083333,-1.579e-15,0,0.66667
0.22067,0.98312,2.648,0.72468,132.33,1049.7,-5.1172,1.7057,-0.13499,-6.8229,1.5919e-11,-0.067495,0,0,0.083333,-0,-0,0.66667
0.68614,0.8728,8.2337,0.55921,56.675,209.7,-12.278,4.0927,-0.89292,-16.371,1.0205e-12,-0.44646,0,0,0.083333,9.8686e-16,-8.5304e-17,0.66667
0.68694,0.31488,8.2432,-0.27768,-28.016,207.85,6.1039,-2.0346,-1.7327,8.1386,-6.7368e-12,-0.86634,0,0,0.083333,1.579e-15,0,0.66667
0.64074,0.58544,7.6889,0.12817,14.432,267.92,-2.6279,0.87596,-1.9489,-3.5038,1.6742e-13,-0.97443,0,0,0.083333,-7.8949e-16,0,0.66667
0.070549,0.94505,0.84658,0.66758,127.46,1389.7,-1.5071,0.50237,-0.4114,-2.0095,-3.6508e-06,-0.2057,0,0,0.083333,-1.9737e-16,0,0.66667
0.24296,0.21133,2.9156,-0.43301,-78.062,1000.3,3.3666,-1.1222,-1.3295,4.4888,3.3138e-12,-0.66473,0,0,0.083333,-1.9737e-16,0,0.66667
0.87084,0.17019,10.45,-0.49472,-22.79,40.115,13.786,-4.5954,-1.1279,18.382,-7.4357e-09,-0.56394,0,0,0.083333,-0,-0,0.66667
0.73474,0.14917,8.8169,-0.52624,-46.337,153.38,12.373,-4.1243,-1.022,16.497,5.1941e-12,-0.51102,0,0,0.083333,-0,-0,0.66667
0.16782,0.72634,2.0138,0.33951,63.192,1167.2,-1.8232,0.60773,-1.5889,-2.4309,1.8975e-10,-0.79443,0,0,0.083333,-0,-0,0.66667
0.29859,0.30533,3.5831,-0.29201,-50.923,880.55,2.7901,-0.93004,-1.7,3.7201,-4.8181e-12,-0.84999,0,0,0.083333,3.9475e-16,0,0.66667
0.56272,0.36168,6.7527,-0.20748,-27.11,383.9,3.7361,-1.2454,-1.8536,4.9814,-1.9393e-12,-0.92678,0,0,0.083333,7.8949e-16,0,0.66667
0.82645,0.99167,9.9173,0.73751,44.872,70.732,-19.504,6.5015,-0.06917,-26.006,2.2634e-09,-0.034585,0,0,0.083333,9.7871e-16,0,0.66667
0.20052,0.16403,2.4062,-0.50395,-92.707,1094.1,3.2336,-1.0779,-1.0982,4.3115,3.1201e-10,-0.54908,0,0,0.083333,-0,-0,0.66667
0.10167,0.99874,1.22,0.74812,142.15,1318.1,-2.4338,0.81128,-0.0070087,-3.2451,3.0793e-07,-0.0035044,0,0,0.083333,3.9475e-16,0,0.66667
0.38187,0.53458,4.5824,0.051867,8.4762,709.45,-0.63381,0.21127,-1.9872,-0.84508,1.5132e-13,-0.99359,0,0,0.083333,-0,-0,0.66667
0.91235,0.24369,10.948,-0.38447,-12.207,19.391,11.225,-3.7416,-1.4711,14.966,-2.0299e-08,-0.73556,0,0,0.083333,-1.579e-15,0,0.66667
0.26051,0.52966,3.1262,0.044484,7.9354,961.93,-0.37084,0.12361,-1.9913,-0.49445,-8.4827e-12,-0.99563,0,0,0.083333,-1.9737e-16,0,0.66667
0.1083,0.56559,1.2997,0.098388,18.612,1302.6,-0.34099,0.11366,-1.9709,-0.45465,-1.8346e-08,-0.98547,0,0,0.083333,3.9475e-16,0,0.66667
0.055943,0.15873,0.67132,-0.51191,-97.819,1423.4,0.91641,-0.30547,-1.0653,1.2219,-5.8016e-07,-0.53265,0,0,0.083333,-0,-0,0.66667
0.35167,0.32482,4.22,-0.26277,-44.078,770.3,2.9571,-0.9857,-1.7501,3.9428,1.1546e-12,-0.87505,0,0,0.083333,-0,-0,0.66667
0.037627,0.37532,0.45152,-0.18702,-35.755,1465.7,0.22518,-0.075061,-1.8732,0.30024,-1.8451e-07,-0.9366,0,0,0.083333,-0,-0,0.66667
0.58303,0.57185,6.9964,0.10778,13.598,352.02,-2.0109,0.6703,-1.9561,-2.6812,1.1957e-12,-0.97806,0,0,0.083333,-0,-0,0.66667
0.67256,0.39057,8.0707,-0.16415,-17.169,225.73,3.5328,-1.1776,-1.9095,4.7104,-3.151e-12,-0.95474,0,0,0.083333,-0,-0,0.66667
0.46048,0.89103,5.5258,0.58654,88.603,560.05,-8.643,2.881,-0.77234,-11.524,-4.2046e-12,-0.38617,0,0,0.083333,7.8949e-16,0,0.66667
0.74112,0.92567,8.8934,0.6385,55.156,147.1,-15.143,5.0475,-0.54629,-20.19,-1.8119e-12,-0.27315,0,0,0.083333,-0,-0,0.66667
0.50102,0.1426,6.0123,-0.53611,-76.941,487.48,8.5953,-2.8651,-0.9825,11.46,2.6308e-12,-0.49125,0,0,0.083333,-7.8949e-16,0,0.66667
0.70235,0.51993,8.4282,0.029896,2.8911,188.93,-0.67192,0.22397,-2.002,-0.8959,8.2884e-13,-1.001,0,0,0.083333,-0,-0,0.66667
0.23064,0.34984,2.7677,-0.22524,-40.826,1027.2,1.6624,-0.55413,-1.819,2.2165,3.285e-12,-0.90948,0,0,0.083333,-0,-0,0.66667
0.74461,0.047222,8.9353,-0.67917,-58.029,143.65,16.183,-5.3943,-0.35659,21.577,2.2677e-11,-0.17829,0,0,0.083333,-0,-0,0.66667
0.50164,0.77911,6.0196,0.41867,59.988,486.11,-6.7206,2.2402,-1.3809,-8.9608,-5.3735e-14,-0.69045,0,0,0.083333,-0,-0,0.66667
0.70537,0.68015,8.4644,0.27022,25.932,185.64,-6.0995,2.0332,-1.7423,-8.1326,3.5394e-13,-0.87116,0,0,0.083333,3.9475e-16,0,0.66667
0.4467,0.08029,5.3604,-0.62956,-96.648,585.61,8.9992,-2.9997,-0.58668,11.999,3.1974e-13,-0.29334,0,0,0.083333,-7.8949e-16,0,0.66667
0.50594,0.34805,6.0713,-0.22793,-32.44,478.31,3.6902,-1.2301,-1.8124,4.9203,1.64e-12,-0.90619,0,0,0.083333,-0,-0,0.66667
0.041535,0.68024,0.49842,0.27035,51.681,1456.7,-0.35933,0.11978,-1.7373,-0.47911,-1.7521e-07,-0.86865,0,0,0.083333,2.4672e-17,0,0.66667
0.48931,0.53802,5.8717,0.057029,8.295,507.29,-0.89296,0.29765,-1.9861,-1.1906,-3.1919e-12,-0.99305,0,0,0.083333,-0,-0,0.66667
0.14229,0.87903,1.7075,0.56854,106.81,1225.2,-2.5887,0.8629,-0.85443,-3.4516,5.983e-09,-0.42721,0,0,0.083333,-0,-0,0.66667
0.1425,0.33311,1.71,-0.25034,-46.959,1224.5,1.1415,-0.3805,-1.7796,1.522,1.4318e-09,-0.88982,0,0,0.083333,-0,-0,0.66667
0.43335,0.40162,5.2002,-0.14758,-22.931,609.74,2.0465,-0.68215,-1.9215,2.7286,2.4885e-12,-0.96076,0,0,0.083333,5.9212e-16,0,0.66667
0.57621,0.92844,6.9146,0.64267,82.323,363.81,-11.85,3.95,-0.534,-15.8,2.6574e-12,-0.267,0,0,0.083333,-0,-0,0.66667
0.34305,0.49925,4.1166,-0.0011251,-0.18994,787.79,0.012351,-0.004117,-2.0068,0.016468,1.0822e-11,-1.0034,0,0,0.083333,-1.1842e-15,0,0.66667
0.16049,0.33873,1.9259,-0.2419,-45.122,1183.7,1.2423,-0.41411,-1.7907,1.6564,2.0195e-10,-0.89535,0,0,0.083333,-0,-0,0.66667
0.74141,0.77551,8.8969,0.41326,35.562,145.86,-9.8046,3.2682,-1.3891,-13.073,2.6175e-12,-0.69455,0,0,0.083333,-3.9475e-16,0,0.66667
0.96309,0.98507,11.557,0.72761,10.097,6.4468,-22.424,7.4747,-0.11411,-29.899,1.3606e-05,-0.057053,0,0,0.083333,-0,-0,0.66667
0.73364,0.45643,8.8037,-0.065352,-5.7563,153.49,1.5342,-0.51142,-1.99,2.0457,1.5831e-12,-0.99502,0,0,0.083333,-0,-0,0.66667
0.077064,0.52718,0.92477,0.040764,7.7566,1374.5,-0.10053,0.033509,-1.9993,-0.13404,1.7405e-08,-0.99965,0,0,0.083333,-0,-0,0.66667
0.84091,0.1331,10.091,-0.55035,-30.799,59.285,14.809,-4.9364,-0.92376,19.746,1.7689e-10,-0.46188,0,0,0.083333,-0,-0,0.66667
0.067514,0.3904,0.81017,-0.1644,-31.33,1396.5,0.35519,-0.1184,-1.9009,0.47358,1.2793e-07,-0.95046,0,0,0.083333,-0,-0,0.66667
0.43631,0.89494,5.2357,0.5924,91.959,604.93,-8.2711,2.757,-0.75629,-11.028,-2.2036e-12,-0.37814,0,0,0.083333,-0,-0,0.66667
0.92886,0.65588,11.146,0.23382,6.0368,12.863,-6.9499,2.3166,-1.8029,-9.2666,1.8373e-07,-0.90145,0,0,0.083333,-2.3191e-15,0,0.66667
0.26318,0.68553,3.1582,0.2783,49.592,956.27,-2.3437,0.78125,-1.727,-3.125,-3.503e-12,-0.86349,0,0,0.083333,-5.4278e-16,0,0.66667
0.12795,0.10336,1.5354,-0.59497,-112.23,1257.9,2.4361,-0.81203,-0.7417,3.2481,1.8534e-08,-0.37085,0,0,0.083333,-0,-0,0.66667
0.76224,0.22871,9.1469,-0.40693,-32.568,124.64,9.9256,-3.3085,-1.4107,13.234,1.153e-11,-0.70537,0,0,0.083333,1.579e-15,0,0.66667
0.92861,0.36518,11.143,-0.20223,-5.2367,12.88,6.0093,-2.0031,-1.8506,8.0125,-1.6193e-07,-0.92529,0,0,0.083333,-0,-0,0.66667
0.32577,0.24551,3.9092,-0.38174,-65.35,823.7,3.9795,-1.3265,-1.484,5.3059,6.7484e-12,-0.74199,0,0,0.083333,-5.9212e-16,0,0.66667
0.23246,0.2141,2.7895,-0.42885,-77.721,1023.3,3.19,-1.0633,-1.3491,4.2534,-2.9338e-11,-0.67457,0,0,0.083333,-4.9343e-16,0,0.66667
0.18249,0.7706,2.1898,0.40591,75.171,1134.3,-2.3703,0.7901,-1.4114,-3.1604,-2.6033e-11,-0.70569,0,0,0.083333,-1.9737e-16,0,0.66667
0.96324,0.61619,11.559,0.17428,2.319,3.8571,-5.372,1.7907,-1.8889,-7.1627,-2.3766e-07,-0.94443,0,0,0.083333,7.8949e-16,0,0.66667
0.57663,0.98105,6.9196,0.72157,92.444,363.48,-13.315,4.4382,-0.15203,-17.753,3.8138e-12,-0.076013,0,0,0.083333,-0,-0,0.66667
0.86009,0.31223,10.321,-0.28165,-13.932,45.741,7.7518,-2.5839,-1.7248,10.336,-2.0183e-09,-0.8624,0,0,0.083333,-2.4672e-16,0,0.66667
0.30834,0.77585,3.7001,0.41378,71.724,860.13,-4.0828,1.3609,-1.3901,-5.4437,-1.0173e-11,-0.69503,0,0,0.083333,1.9737e-16,0,0.66667
0.056436,0.24122,0.67724,-0.38818,-74.127,1422.2,0.70103,-0.23368,-1.4607,0.93471,1.1247e-07,-0.73034,0,0,0.083333,-0,-0,0.66667
0.4538,0.85581,5.4457,0.53372,81.217,572.18,-7.7505,2.5835,-0.99256,-10.334,-6.9753e-12,-0.49628,0,0,0.083333,-0,-0,0.66667
0.20711,0.3319,2.4853,-0.25215,-46.205,1079.2,1.6711,-0.55704,-1.7724,2.2282,-5.163e-11,-0.88619,0,0,0.083333,-0,-0,0.66667
0.51898,0.38886,6.2278,-0.16671,-23.294,455.87,2.7686,-0.92287,-1.9005,3.6915,2.8211e-12,-0.95027,0,0,0.083333,-0,-0,0.66667
0.53799,0.30862,6.4559,-0.28707,-39.021,424.15,4.942,-1.6473,-1.7037,6.5893,-4.6891e-12,-0.85186,0,0,0.083333,1.5928e-16,0,0.66667
0.29429,0.54457,3.5315,0.066859,11.687,889.54,-0.62963,0.20988,-1.9849,-0.8395,-1.8902e-11,-0.99246,0,0,0.083333,-0,-0,0.66667
0.30745,0.34045,3.6894,-0.23933,-41.482,861.81,2.3547,-0.78488,-1.7944,3.1395,-6.8965e-12,-0.8972,0,0,0.083333,2.884e-16,0,0.66667
0.024174,0.36262,0.29008,-0.20608,-39.432,1496.9,0.15941,-0.053138,-1.8447,0.21255,-1.1929e-06,-0.92235,0,0,0.083333,-0,-0,0.66667
0.4204,0.86712,5.0448,0.55069,86.897,634.99,-7.4083,2.4694,-0.92542,-9.8778,-6.1462e-13,-0.46271,0,0,0.083333,3.9475e-16,0,0.66667
0.32369,0.11956,3.8843,-0.57066,-97.946,828.32,5.9109,-1.9703,-0.84057,7.8812,-8.0509e-12,-0.42028,0,0,0.083333,1.9737e-16,0,0.66667
0.61949,0.2447,7.4339,-0.38296,-45.145,298.23,7.5916,-2.5305,-1.4758,10.122,2.8253e-12,-0.73792,0,0,0.083333,-7.8949e-16,0,0.66667
0.85976,0.64633,10.317,0.2195,10.874,45.798,-6.0389,2.013,-1.835,-8.0519,1.7539e-09,-0.91752,0,0,0.083333,-0,-0,0.66667
0.49264,0.092421,5.9117,-0.61137,-88.775,502.39,9.6379,-3.2126,-0.66803,12.851,1.0297e-11,-0.33401,0,0,0.083333,-7.8949e-16,0,0.66667
0.082708,0.71921,0.9925,0.32881,62.545,1361.5,-0.87026,0.29009,-1.6147,-1.1603,-7.7845e-08,-0.80736,0,0,0.083333,-0,-0,0.66667
0.93348,0.034588,11.202,-0.69812,-17.185,13.526,20.854,-6.9512,-0.26648,27.805,-1.2151e-06,-0.13324,0,0,0.083333,-0,-3.8788e-17,0.66667
0.80833,0.59907,9.6999,0.1486,9.806,82.591,-3.8438,1.2813,-1.9203,-5.1251,-5.7904e-11,-0.96015,0,0,0.083333,-3.158e-15,0,0.66667
0.36552,0.88209,4.3862,0.57314,95.201,742.78,-6.7038,2.2346,-0.82861,-8.9384,2.3048e-13,-0.41431,0,0,0.083333,7.8949e-16,0,0.66667
0.33073,0.072396,3.9687,-0.64141,-109.58,813.89,6.7882,-2.2627,-0.5382,9.0509,4.3965e-14,-0.2691,0,0,0.083333,7.8949e-16,0,0.66667
0.93793,0.86542,11.255,0.54812,12.509,11.25,-16.451,5.4838,-0.93801,-21.935,-3.6782e-07,-0.469,0,0,0.083333,-0,-0,0.66667
0.37489,0.79099,4.4987,0.43648,71.858,723.72,-5.2363,1.7454,-1.3298,-6.9817,8.5962e-12,-0.66489,0,0,0.083333,-0,-0,0.66667
0.6358,0.63864,7.6296,0.20796,23.676,274.84,-4.2312,1.4104,-1.8435,-5.6416,1.152e-12,-0.92175,0,0,0.083333,-1.579e-15,0,0.66667
0.98534,0.328,11.824,-0.258,-1.3086,1.0913,8.1351,-2.7117,-1.7678,10.847,3.415e-07,-0.88392,0,0,0.083333,-0,-0,0.66667
0.03674,0.65771,0.44088,0.23656,45.234,1467.8,-0.27812,0.092706,-1.799,-0.37082,2.3281e-07,-0.8995,0,0,0.083333,-0,-0,0.66667
0.31463,0.0093527,3.7756,-0.73597,-127.3,847.57,7.4099,-2.47,-0.076119,9.8799,-3.5776e-12,-0.03806,0,0,0.083333,-1.579e-15,0,0.66667
0.23124,0.72638,2.7748,0.33958,61.555,1025.9,-2.5127,0.83757,-1.5902,-3.3503,1.2909e-11,-0.79508,0,0,0.083333,-0,-0,0.66667
0.92237,0.61519,11.068,0.17279,4.8557,14.994,-5.1,1.7,-1.8999,-6.8,1.0247e-07,-0.94995,0,0,0.083333,-0,-0,0.66667
0.55114,0.35017,6.6136,-0.22475,-29.925,402.53,3.9637,-1.3212,-1.8189,5.2849,3.9706e-12,-0.90947,0,0,0.083333,-1.579e-15,0,0.66667
0.053714,0.80622,0.64456,0.45934,87.771,1428.5,-0.78952,0.26317,-1.2461,-1.0527,-6.7608e-08,-0.62307,0,0,0.083333,-9.8686e-17,0,0.66667
0.75525,0.52341,9.063,0.035118,2.8762,130.92,-0.84874,0.28291,-1.9928,-1.1316,1.1597e-12,-0.99641,0,0,0.083333,-0,-0,0.66667
0.68408,0.71792,8.209,0.32688,33.236,211.49,-7.1556,2.3852,-1.6209,-9.5408,1.2639e-12,-0.81043,0,0,0.083333,2.4672e-16,0,0.66667
0.66217,0.34227,7.9461,-0.23659,-25.383,239.28,5.0132,-1.6711,-1.7986,6.6843,-1.414e-12,-0.8993,0,0,0.083333,-2.9606e-16,0,0.66667
0.95573,0.022927,11.469,-0.71561,-11.859,7.8118,21.886,-7.2953,-0.18032,29.181,-2.6276e-05,-0.090159,0,0,0.083333,-0,-0,0.66667
0.8746,0.64374,10.495,0.21561,9.6159,37.064,-6.0343,2.0114,-1.8409,-8.0458,6.0951e-09,-0.92043,0,0,0.083333,-1.579e-15,0,0.66667
0.75325,0.43548,9.039,-0.096785,-7.9836,132.97,2.3329,-0.77764,-1.9675,3.1106,8.5196e-12,-0.98375,0,0,0.083333,-3.9475e-16,0,0.66667
0.22267,0.40135,2.672,-0.14798,-26.92,1044.7,1.0544,-0.35147,-1.9214,1.4059,-7.0011e-12,-0.96069,0,0,0.083333,-0,-0,0.66667
0.13801,0.47717,1.6562,-0.034245,-6.4299,1234.7,0.15124,-0.050414,-1.9969,0.20166,-1.6942e-10,-0.99846,0,0,0.083333,-0,-0,0.66667
0.22089,0.46397,2.6507,-0.054052,-9.8402,1048.6,0.38206,-0.12735,-1.9921,0.50941,1.7694e-11,-0.99607,0,0,0.083333,9.8686e-17,0,0.66667
0.20551,0.68147,2.4661,0.27221,49.919,1082.8,-1.7901,0.59671,-1.7384,-2.3868,5.3655e-11,-0.86918,0,0,0.083333,-0,-0,0.66667
0.56796,0.424,6.8156,-0.11399,-14.761,375.5,2.0718,-0.6906,-1.9504,2.7624,-3.096e-12,-0.97521,0,0,0.083333,-0,-0,0.66667
0.66304,0.12591,7.9565,-0.56114,-60.23,239.05,11.906,-3.9687,-0.87767,15.875,-8.1535e-13,-0.43883,0,0,0.083333,-0,-0,0.66667
0.52742,0.039493,6.329,-0.69076,-95.672,442.88,11.658,-3.8861,-0.30241,15.544,8.3507e-12,-0.15121,0,0,0.083333,-1.579e-15,0,0.66667
0.056349,0.29911,0.67619,-0.30134,-57.526,1422.4,0.54337,-0.18112,-1.6732,0.72449,1.4755e-07,-0.83661,0,0,0.083333,-9.8686e-17,0,0.66667
0.36316,0.039103,4.358,-0.69135,-115.17,747.81,8.0343,-2.6781,-0.29965,10.712,-1.4473e-11,-0.14982,0,0,0.083333,-7.8949e-16,0,0.66667
0.96773,0.87059,11.613,0.55588,6.6315,4.5174,-17.214,5.7381,-0.90659,-22.952,-4.0948e-06,-0.45329,0,0,0.083333,1.579e-15,4.9827e-17,0.66667
0.69551,0.87182,8.3461,0.55772,55.138,198.26,-12.413,4.1376,-0.89064,-16.551,6.918e-12,-0.44532,0,0,0.083333,-0,-0,0.66667
0.36974,0.69169,4.4369,0.28754,47.517,733.82,-3.402,1.134,-1.7037,-4.5361,2.863e-12,-0.85186,0,0,0.083333,-0,-0,0.66667
0.67163,0.61842,8.0595,0.17763,18.623,226.94,-3.8176,1.2725,-1.8949,-5.0901,3.3353e-12,-0.94745,0,0,0.083333,-1.1842e-15,0,0.66667
0.26511,0.76073,3.1813,0.3911,69.647,952.21,-3.3179,1.106,-1.4621,-4.4238,-9.4311e-12,-0.73103,0,0,0.083333,-0,-0,0.66667
0.077478,0.81861,0.92973,0.47791,91.042,1373.6,-1.1849,0.39496,-1.1939,-1.5798,-8.8802e-08,-0.59697,0,0,0.083333,-0,-0,0.66667
0.52807,0.090709,6.3368,-0.61394,-84.887,441.51,10.374,-3.4581,-0.6606,13.833,-7.3932e-12,-0.3303,0,0,0.083333,7.8949e-16,0,0.66667
0.28977,0.06578,3.4772,-0.65133,-114.46,899.79,6.0395,-2.0132,-0.48831,8.0527,1.162e-11,-0.24415,0,0,0.083333,-7.8949e-16,0,0.66667
0.48165,0.58499,5.7798,0.12748,18.726,520.94,-1.9649,0.65496,-1.943,-2.6198,-3.0725e-12,-0.97152,0,0,0.083333,-7.8949e-16,0,0.66667
0.90199,0.6359,10.824,0.20385,7.1855,23.273,-5.8838,1.9613,-1.8504,-7.8451,3.8625e-08,-0.92518,0,0,0.083333,-1.579e-15,0,0.66667
0.65174,0.1193,7.8209,-0.57105,-62.93,254.05,11.91,-3.9699,-0.83885,15.88,-1.867e-12,-0.41943,0,0,0.083333,-0,-0,0.66667
0.72332,0.28612,8.6798,-0.32082,-29.217,165.21,7.4258,-2.4753,-1.6324,9.9011,1.1728e-12,-0.8162,0,0,0.083333,-0,-0,0.66667
0.10259,0.07752,1.231,-0.63372,-120.29,1315.9,2.0804,-0.69345,-0.56781,2.7738,-2.2017e-07,-0.28391,0,0,0.083333,1.9737e-16,0,0.66667
0.47966,0.16321,5.7559,-0.50519,-74.52,525.12,7.7542,-2.5847,-1.0904,10.339,-4.8144e-12,-0.54522,0,0,0.083333,-0,-0,0.66667
0.40434,0.72655,4.8521,0.33982,54.421,665.54,-4.3969,1.4656,-1.5921,-5.8625,-1.9993e-12,-0.79603,0,0,0.083333,-0,-0,0.66667
0.64686,0.2863,7.7623,-0.32055,-35.64,259.87,6.6351,-2.2117,-1.6315,8.8468,-2.4856e-12,-0.81573,0,0,0.083333,1.579e-15,0,0.66667
0.28774,0.79918,3.4528,0.44878,78.863,903.77,-4.1321,1.3774,-1.2798,-5.5095,-2.145e-13,-0.63991,0,0,0.083333,-3.9475e-16,0,0.66667
0.38306,0.18867,4.5968,-0.46699,-76.338,707.52,5.7244,-1.9081,-1.2216,7.6325,6.7928e-12,-0.6108,0,0,0.083333,-0,-0,0.66667
0.98102,0.27259,11.772,-0.34111,-2.3051,1.7566,10.708,-3.5694,-1.586,14.278,2.1788e-06,-0.79298,0,0,0.083333,1.579e-15,0,0.66667
0.11481,0.20952,1.3777,-0.43572,-82.386,1287.8,1.6008,-0.5336,-1.3219,2.1344,1.1049e-09,-0.66094,0,0,0.083333,9.8686e-17,0,0.66667
0.19991,0.41875,2.3989,-0.12187,-22.395,1095.2,0.77962,-0.25987,-1.9468,1.0395,-3.1119e-11,-0.97342,0,0,0.083333,-0,-0,0.66667
0.23905,0.42839,2.8686,-0.10741,-19.383,1008.7,0.82162,-0.27387,-1.9567,1.0955,-6.689e-12,-0.97835,0,0,0.083333,1.9737e-16,0,0.66667
0.69665,0.5648,8.3599,0.097198,9.5491,195.77,-2.1668,0.72228,-1.9635,-2.8891,-2.0064e-12,-0.98176,0,0,0.083333,1.579e-15,0,0.66667
0.71369,0.93119,8.5643,0.64679,60.834,177.3,-14.771,4.9238,-0.51016,-19.695,8.9884e-13,-0.25508,0,0,0.083333,-1.1842e-15,0,0.66667
0.78475,0.092771,9.4171,-0.61084,-44.935,104.31,15.34,-5.1132,-0.6739,20.453,1.6268e-09,-0.33695,0,0,0.083333,2.0724e-15,0,0.66667
0.38104,0.80416,4.5725,0.45624,74.711,711.51,-5.5631,1.8544,-1.2564,-7.4174,4.15e-12,-0.6282,0,0,0.083333,-0,-0,0.66667
0.8524,0.41338,10.229,-0.12993,-6.7471,50.308,3.5441,-1.1814,-1.9361,4.7255,-6.476e-10,-0.96807,0,0,0.083333,-0,-0,0.66667
0.69735,0.60291,8.3682,0.15437,15.14,194.99,-3.4448,1.1483,-1.9119,-4.5931,-4.7518e-14,-0.95594,0,0,0.083333,-0,-0,0.66667
0.71326,0.81707,8.5591,0.47561,44.694,177.06,-10.855,3.6185,-1.1931,-14.474,-1.7391e-12,-0.59657,0,0,0.083333,1.579e-15,0,0.66667
0.82199,0.10694,9.8639,-0.58959,-36.584,73.227,15.508,-5.1695,-0.76013,20.678,2.0667e-09,-0.38007,0,0,0.083333,-0,-0,0.66667
0.62892,0.28476,7.5471,-0.32287,-37.317,284.67,6.4978,-2.1659,-1.6288,8.6638,-2.8635e-12,-0.81441,0,0,0.083333,1.579e-15,0,0.66667
0.42223,0.39104,5.0667,-0.16344,-25.695,630.88,2.2082,-0.73608,-1.9112,2.9443,-2.0017e-12,-0.95562,0,0,0.083333,7.8949e-16,0,0.66667
0.030799,0.44358,0.36959,-0.084627,-16.184,1481.5,0.083405,-0.027802,-1.9811,0.11121,-3.6016e-07,-0.99055,0,0,0.083333,-0,-0,0.66667
0.59546,0.31477,7.1455,-0.27785,-34.292,333.34,5.2943,-1.7648,-1.7294,7.0591,-3.8547e-13,-0.86472,0,0,0.083333,-0,-0,0.66667
0.56376,0.1086,6.7652,-0.5871,-76.763,383.15,10.591,-3.5305,-0.77822,14.122,1.5197e-12,-0.38911,0,0,0.083333,-0,-0,0.66667
0.60081,0.042332,7.2097,-0.6865,-84.165,326.59,13.199,-4.3995,-0.32009,17.598,9.7344e-12,-0.16005,0,0,0.083333,-1.579e-15,0,0.66667
0.32285,0.21016,3.8742,-0.43476,-74.605,829.83,4.4917,-1.4972,-1.325,5.9889,2.7729e-12,-0.66252,0,0,0.083333,-0,-0,0.66667
0.55488,0.28243,6.6586,-0.32636,-43.214,396.64,5.7949,-1.9316,-1.6183,7.7266,-7.5939e-14,-0.80914,0,0,0.083333,-0,-0,0.66667
0.17166,0.64815,2.0599,0.22223,41.292,1158.5,-1.2207,0.40689,-1.8314,-1.6276,5.6934e-11,-0.9157,0,0,0.083333,-0,-0,0.66667
0.64986,0.42536,7.7983,-0.11196,-12.354,255.49,2.3283,-0.77609,-1.9514,3.1044,1.2825e-12,-0.97571,0,0,0.083333,-7.8949e-16,0,0.66667
0.071673,0.80958,0.86008,0.46437,88.534,1387,-1.0651,0.35502,-1.2303,-1.4201,-2.6679e-07,-0.61515,0,0,0.083333,1.4458e-16,0,0.66667
0.87508,0.94955,10.501,0.67433,30.252,38.704,-18.883,6.2943,-0.39031,-25.177,3.2871e-08,-0.19515,0,0,0.083333,1.579e-15,0,0.66667
0.21614,0.28575,2.5937,-0.32137,-58.667,1059.2,2.2227,-0.74091,-1.6344,2.9636,-2.6812e-11,-0.81719,0,0,0.083333,-0,-0,0.66667
0.29384,0.91009,3.5261,0.61514,107.79,891.06,-5.7842,1.9281,-0.65548,-7.7122,-3.2806e-11,-0.32774,0,0,0.083333,-0,-0,0.66667
0.88474,0.87537,10.617,0.56306,23.342,32.889,-15.941,5.3137,-0.87061,-21.255,2.6383e-08,-0.43531,0,0,0.083333,-0,-0,0.66667
0.88359,0.66685,10.603,0.25028,10.407,32.284,-7.0766,2.3589,-1.7731,-9.4354,1.0586e-08,-0.88655,0,0,0.083333,1.579e-15,0,0.66667
0.83627,0.8254,10.035,0.4881,28.012,62.241,-13.062,4.3539,-1.1485,-17.416,1.5429e-09,-0.57426,0,0,0.083333,-0,-0,0.66667
0.32694,0.67756,3.9232,0.26634,45.535,821.14,-2.7864,0.9288,-1.752,-3.7152,9.2815e-14,-0.87598,0,0,0.083333,-0,-0,0.66667
0.90234,0.30937,10.828,-0.28594,-10.056,23.311,8.2565,-2.7522,-1.7088,11.009,-4.7324e-08,-0.85442,0,0,0.083333,-1.3118e-15,0,0.66667
0.7718,0.9036,9.2616,0.6054,46.874,116.24,-14.952,4.984,-0.69408,-19.936,7.8591e-10,-0.34704,0,0,0.083333,-1.7764e-15,0,0.66667
0.65808,0.3206,7.897,-0.2691,-29.155,244.72,5.667,-1.889,-1.7453,7.5559,-1.5294e-12,-0.87265,0,0,0.083333,-0,-0,0.66667
0.8998,0.67711,10.798,0.26566,9.5739,24.4,-7.6494,2.5498,-1.7451,-10.199,4.2693e-08,-0.87257,0,0,0.083333,7.8949e-16,0,0.66667
0.78313,0.19468,9.3976,-0.45798,-33.836,105.09,11.477,-3.8257,-1.257,15.303,-1.139e-10,-0.62851,0,0,0.083333,-0,-0,0.66667
0.42475,0.25533,5.097,-0.367,-57.588,626.31,4.9882,-1.6627,-1.5221,6.651,-5.1132e-12,-0.76103,0,0,0.083333,-0,-0,0.66667
0.32426,0.30159,3.8911,-0.29762,-50.988,826.74,3.0881,-1.0294,-1.6837,4.1175,1.0075e-11,-0.84186,0,0,0.083333,-3.9475e-16,0,0.66667
0.39388,0.39443,4.7265,-0.15835,-25.598,685.79,1.9959,-0.66529,-1.9105,2.6612,-6.8623e-13,-0.95523,0,0,0.083333,3.9475e-16,0,0.66667
0.061412,0.24962,0.73695,-0.37557,-71.674,1410.7,0.73807,-0.24602,-1.5043,0.9841,2.327e-07,-0.75215,0,0,0.083333,1.2336e-16,0,0.66667
0.36343,0.10731,4.3612,-0.58904,-98.026,747.01,6.8504,-2.2835,-0.76461,9.1338,7.3141e-13,-0.3823,0,0,0.083333,-0,-0,0.66667
0.35304,0.7713,4.2365,0.40695,68.228,767.69,-4.5974,1.5325,-1.4073,-6.1299,1.859e-12,-0.70367,0,0,0.083333,-0,-0,0.66667
0.86562,0.6549,10.387,0.23236,11.062,42.273,-6.4363,2.1454,-1.8055,-8.5817,3.1168e-09,-0.90273,0,0,0.083333,-1.7764e-15,0,0.66667
0.8887,0.57654,10.664,0.11482,4.5687,29.437,-3.2652,1.0884,-1.9553,-4.3536,1.0807e-08,-0.97766,0,0,0.083333,-1.579e-15,0,0.66667
0.96305,0.81396,11.557,0.47094,6.3918,4.8739,-14.513,4.8378,-1.2092,-19.351,1.8002e-06,-0.60461,0,0,0.083333,-0,-0,0.66667
0.3282,0.027373,3.9384,-0.70894,-121.41,819.28,7.4456,-2.4819,-0.22098,9.9274,-7.0219e-12,-0.11049,0,0,0.083333,-0,-0,0.66667
0.69332,0.95508,8.3198,0.68263,67.994,201.48,-15.145,5.0483,-0.3395,-20.193,1.7319e-12,-0.16975,0,0,0.083333,7.8949e-16,0,0.66667
0.63307,0.5994,7.5968,0.1491,17.071,278.58,-3.0205,1.0068,-1.9172,-4.0273,-4.6882e-12,-0.9586,0,0,0.083333,-0,-0,0.66667
0.24244,0.79486,2.9093,0.4423,79.761,1001.5,-3.4314,1.1438,-1.3,-4.5752,-9.261e-12,-0.65,0,0,0.083333,-3.9475e-16,0,0.66667
0.86999,0.89016,10.44,0.58524,27.185,41.057,-16.293,5.4309,-0.77925,-21.724,-5.4403e-11,-0.38963,0,0,0.083333,-0,-0,0.66667
0.2141,0.29111,2.5692,-0.31333,-57.251,1063.7,2.1467,-0.71557,-1.6486,2.8623,-4.1442e-11,-0.8243,0,0,0.083333,-0,-0,0.66667
0.74771,0.97281,8.9726,0.70922,59.997,140.61,-16.969,5.6564,-0.21392,-22.626,5.7501e-12,-0.10696,0,0,0.083333,-0,-4.464e-17,0.66667
0.14466,0.96519,1.736,0.69778,131.11,1219.9,-3.2302,1.0767,-0.2681,-4.3069,-1.0661e-09,-0.13405,0,0,0.083333,-2.4672e-16,0,0.66667
0.10682,0.12218,1.2818,-0.56673,-107.43,1306.2,1.9372,-0.64573,-0.86001,2.5829,-1.2226e-07,-0.43,0,0,0.083333,2.2204e-16,8.0269e-19,0.66667
0.72032,0.95738,8.6439,0.68608,63.313,169.98,-15.814,5.2714,-0.32952,-21.086,1.6673e-11,-0.16476,0,0,0.083333,-0,-0,0.66667
0.52632,0.94254,6.3158,0.66382,92.063,444.62,-11.18,3.7267,-0.43114,-14.907,-2.9559e-12,-0.21557,0,0,0.083333,-0,-0,0.66667
0.44292,0.27849,5.315,-0.33226,-51.124,591.98,4.7093,-1.5698,-1.6053,6.279,-9.2988e-12,-0.80263,0,0,0.083333,2.9606e-16,0,0.66667
0.77818,0.95955,9.3382,0.68933,52.141,110.73,-17.166,5.7218,-0.31062,-22.887,9.4289e-11,-0.15531,0,0,0.083333,-7.8949e-16,0,0.66667
0.35874,0.71202,4.3049,0.31804,53.052,756.01,-3.651,1.217,-1.6463,-4.868,-1.692e-12,-0.82317,0,0,0.083333,6.0716e-16,0,0.66667
0.85335,0.49528,10.24,-0.007086,-0.36564,49.622,0.1935,-0.064499,-1.9968,0.258,1.4238e-09,-0.9984,0,0,0.083333,-0,-0,0.66667
0.96217,0.57067,11.546,0.10601,1.4501,3.956,-3.264,1.088,-1.9562,-4.352,-6.2612e-08,-0.97812,0,0,0.083333,-0,-0,0.66667
0.97913,0.85427,11.75,0.53141,4.0608,2.8266,-16.65,5.55,-0.99288,-22.2,-1.1527e-05,-0.49644,0,0,0.083333,1.579e-15,0,0.66667
0.27763,0.48881,3.3315,-0.016783,-2.9641,925.06,0.1491,-0.0497,-1.998,0.1988,-2.6931e-12,-0.99902,0,0,0.083333,-0,-0,0.66667
0.41501,0.88573,4.9801,0.5786,91.821,645.4,-7.684,2.5613,-0.80554,-10.245,4.2166e-12,-0.40277,0,0,0.083333,-7.8949e-16,0,0.66667
0.72501,0.30149,8.7001,-0.29776,-26.973,163.27,6.9082,-2.3027,-1.6809,9.211,-1.7071e-12,-0.84044,0,0,0.083333,7.8949e-16,0,0.66667
0.89487,0.35344,10.738,-0.21984,-8.2916,26.592,6.2953,-2.0984,-1.8264,8.3938,-2.9215e-08,-0.91319,0,0,0.083333,-0,-0,0.66667
0.71131,0.15703,8.5357,-0.51445,-48.64,179.45,11.71,-3.9033,-1.0561,15.613,2.0615e-12,-0.52804,0,0,0.083333,-3.158e-15,0,0.66667
0.75813,0.89858,9.0976,0.59787,48.686,129.47,-14.504,4.8348,-0.72506,-19.339,-2.3898e-10,-0.36253,0,0,0.083333,-7.8949e-16,0,0.66667
0.8834,0.36374,10.601,-0.20439,-8.5072,32.284,5.7779,-1.926,-1.8472,7.7038,-9.3759e-09,-0.9236,0,0,0.083333,-0,-0,0.66667
0.36695,0.32603,4.4034,-0.26096,-43.223,739.39,3.0643,-1.0214,-1.7534,4.0857,5.3577e-12,-0.87672,0,0,0.083333,-0,-0,0.66667
0.54254,0.69403,6.5105,0.29104,39.287,416.65,-5.0529,1.6843,-1.6973,-6.7371,-1.5188e-13,-0.84863,0,0,0.083333,-0,-0,0.66667
0.53477,0.56825,6.4172,0.10238,13.977,429.28,-1.752,0.584,-1.9625,-2.336,-6.2306e-13,-0.98124,0,0,0.083333,1.579e-15,0,0.66667
0.64758,0.45064,7.771,-0.074034,-8.2108,258.55,1.5342,-0.5114,-1.9762,2.0456,-2.647e-12,-0.98811,0,0,0.083333,-0,-0,0.66667
0.89518,0.59869,10.742,0.14804,5.5632,26.315,-4.2407,1.4136,-1.9204,-5.6543,1.7443e-08,-0.96022,0,0,0.083333,-0,-0,0.66667
0.60083,0.0087298,7.2099,-0.73691,-90.395,326.79,14.168,-4.7227,-0.065189,18.891,2.2755e-12,-0.032595,0,0,0.083333,-0,-0,0.66667
0.96994,0.18092,11.639,-0.47863,-5.2765,3.7572,14.856,-4.9519,-1.19,19.808,4.9704e-06,-0.595,0,0,0.083333,7.8949e-16,0,0.66667
0.73214,0.71999,8.7856,0.32998,29.241,155.53,-7.731,2.577,-1.6158,-10.308,4.3539e-12,-0.80789,0,0,0.083333,-3.158e-15,0,0.66667
0.41529,0.77649,4.9835,0.41473,65.727,644.5,-5.5115,1.8372,-1.3851,-7.3487,1.2736e-12,-0.69254,0,0,0.083333,-3.4622e-16,0,0.66667
0.58114,0.78705,6.9737,0.43058,54.583,355.48,-8.0072,2.6691,-1.3414,-10.676,4.2384e-12,-0.67071,0,0,0.083333,-1.579e-15,0,0.66667
0.92232,0.76645,11.068,0.39967,11.292,15.649,-11.796,3.932,-1.438,-15.728,1.5183e-07,-0.719,0,0,0.083333,-0,-0,0.66667
0.6185,0.055975,7.422,-0.66604,-78.878,300.63,13.182,-4.3941,-0.41917,17.576,4.8175e-12,-0.20958,0,0,0.083333,-7.8949e-16,0,0.66667
0.70993,0.86622,8.5191,0.54933,52.165,181.19,-12.48,4.1598,-0.92311,-16.639,-1.0825e-11,-0.46155,0,0,0.083333,-0,-0,0.66667
0.66129,0.83645,7.9355,0.50468,54.363,241.14,-10.68,3.5599,-1.0919,-14.24,-6.1817e-12,-0.54594,0,0,0.083333,1.1842e-15,0,0.66667
0.33615,0.16339,4.0338,-0.50492,-85.829,802.43,5.4312,-1.8104,-1.0896,7.2416,3.9564e-12,-0.54479,0,0,0.083333,-0,-0,0.66667
0.20333,0.68331,2.44,0.27496,50.471,1087.6,-1.7891,0.59637,-1.7387,-2.3855,5.5794e-11,-0.86936,0,0,0.083333,9.8686e-17,0,0.66667
0.40781,0.60288,4.8938,0.15432,24.615,658.61,-2.0139,0.67129,-1.9186,-2.6851,-5.7632e-12,-0.95932,0,0,0.083333,-0,-0,0.66667
0.15077,0.59032,1.8092,0.13548,25.344,1205.7,-0.65362,0.21787,-1.9324,-0.8715,-8.0669e-10,-0.96618,0,0,0.083333,9.398e-17,0,0.66667
0.82633,0.26684,9.916,-0.34973,-21.138,68.957,9.2479,-3.0826,-1.5676,12.331,1.7804e-10,-0.7838,0,0,0.083333,-1.579e-15,0,0.66667
0.71046,0.78904,8.5255,0.43356,41.058,180.14,-9.857,3.2857,-1.3276,-13.143,2.8804e-12,-0.66382,0,0,0.083333,-0,-0,0.66667
0.40106,0.61814,4.8127,0.17722,28.455,671.76,-2.2744,0.75812,-1.8857,-3.0325,-6.745e-12,-0.94286,0,0,0.083333,2.3747e-16,0,0.66667
0.17138,0.049424,2.0566,-0.67586,-125.88,1159.5,3.7066,-1.2355,-0.38171,4.9421,-1.2837e-08,-0.19085,0,0,0.083333,1.9737e-16,9.606e-17,0.66667
0.8758,0.63445,10.51,0.20168,8.9121,36.371,-5.6521,1.884,-1.8606,-7.5361,5.7205e-09,-0.93031,0,0,0.083333,-0,-0,0.66667
0.63906,0.89305,7.6688,0.58958,66.837,271.36,-12.057,4.019,-0.76714,-16.076,-4.1629e-12,-0.38357,0,0,0.083333,7.8949e-16,1.139e-16,0.66667
0.9966,0.21687,11.959,-0.4247,-0.38473,1.0431,13.544,-4.5147,-1.3593,18.059,-2.8456e-06,-0.67964,0,0,0.083333,-1.8262e-15,0,0.66667
0.1011,0.98751,1.2132,0.73126,138.95,1319.4,-2.3657,0.78857,-0.094339,-3.1543,-2.0001e-07,-0.047169,0,0,0.083333,-0,-0,0.66667
0.24485,0.66684,2.9382,0.25026,45.039,996.06,-1.9608,0.6536,-1.7744,-2.6144,4.5453e-13,-0.88719,0,0,0.083333,-0,-0,0.66667
0.083655,0.23528,1.0039,-0.39709,-75.54,1359.4,1.063,-0.35433,-1.4359,1.4173,4.4049e-08,-0.71795,0,0,0.083333,-0,-0,0.66667
0.74474,0.00090398,8.9369,-0.74864,-64.014,143.91,17.841,-5.9472,-0.005519,23.789,1.8652e-13,-0.0027595,0,0,0.083333,-0,-0,0.66667
0.15958,0.2859,1.9149,-0.32115,-59.938,1185.8,1.6399,-0.54665,-1.6335,2.1866,2.1645e-10,-0.81676,0,0,0.083333,-3.9475e-16,0,0.66667
0.88166,0.70227,10.58,0.30341,12.824,33.438,-8.5601,2.8534,-1.6685,-11.413,6.7147e-09,-0.83424,0,0,0.083333,-1.579e-15,0,0.66667
0.49148,0.99858,5.8978,0.74787,108.9,504.92,-11.762,3.9207,-0.0083564,-15.683,1.1831e-12,-0.0041782,0,0,0.083333,-9.8686e-16,0,0.66667
0.52617,0.41923,6.314,-0.12116,-16.753,443.68,2.04,-0.67999,-1.9448,2.72,2.629e-12,-0.97241,0,0,0.083333,-0,-0,0.66667
0.04252,0.78422,0.51024,0.42633,81.539,1454.4,-0.58008,0.19336,-1.3527,-0.77345,-1.8039e-06,-0.67635,0,0,0.083333,9.8686e-17,0,0.66667
0.61405,0.85366,7.3686,0.53049,63.294,306.52,-10.424,3.4747,-0.99704,-13.899,-1.4149e-12,-0.49852,0,0,0.083333,-0,-0,0.66667
0.22761,0.71451,2.7314,0.32177,58.425,1033.9,-2.3436,0.78121,-1.6285,-3.1248,1.5284e-11,-0.81426,0,0,0.083333,-0,-0,0.66667
0.2135,0.71716,2.562,0.32574,59.538,1065.1,-2.2255,0.74184,-1.6209,-2.9674,3.2651e-11,-0.81045,0,0,0.083333,4.4409e-16,0,0.66667
0.89532,0.2267,10.744,-0.40995,-15.449,26.949,11.745,-3.9151,-1.4003,15.66,-5.2908e-08,-0.70013,0,0,0.083333,-0,-0,0.66667
0.88801,0.79504,10.656,0.44257,17.798,30.647,-12.576,4.192,-1.3043,-16.768,1.131e-08,-0.65217,0,0,0.083333,-0,-0,0.66667
0.0052652,0.64798,0.063182,0.22198,42.5,1540.8,-0.037399,0.012466,-1.822,-0.049866,-1.2868e-06,-0.91098,0,0,0.083333,-0,-0,0.66667
0.8323,0.28814,9.9876,-0.31778,-18.596,64.47,8.4638,-2.8213,-1.6395,11.285,1.4341e-10,-0.81976,0,0,0.083333,-0,-0,0.66667
0.9023,0.90172,10.828,0.60259,21.378,24.685,-17.399,5.7996,-0.70819,-23.198,1.469e-08,-0.3541,0,0,0.083333,7.8949e-16,0,0.66667
0.51195,0.85414,6.1434,0.53122,75.108,468.59,-8.7026,2.9009,-0.99565,-11.603,2.8688e-13,-0.49783,0,0,0.083333,-0,-0,0.66667
0.65617,0.66839,7.8741,0.25258,27.485,247.22,-5.3036,1.7679,-1.7803,-7.0715,-3.8756e-12,-0.89013,0,0,0.083333,-0,-0,0.66667
0.76779,0.41411,9.2134,-0.12883,-10.081,118.64,3.1653,-1.0551,-1.9431,4.2204,1.3638e-11,-0.97153,0,0,0.083333,-0,-0,0.66667
0.68544,0.83276,8.2253,0.49915,50.647,210.33,-10.948,3.6494,-1.1162,-14.598,-1.4486e-12,-0.55808,0,0,0.083333,7.8949e-16,0,0.66667
0.45912,0.97478,5.5094,0.71217,107.87,562.96,-10.463,3.4877,-0.19347,-13.951,4.9294e-12,-0.096735,0,0,0.083333,-0,-0,0.66667
0.57345,0.11401,6.8814,-0.57899,-74.473,367.87,10.625,-3.5416,-0.80565,14.166,1.0667e-12,-0.40283,0,0,0.083333,-0,-0,0.66667
0.57406,0.77051,6.8887,0.40576,52.065,366.4,-7.4538,2.4846,-1.413,-9.9384,1.0938e-12,-0.70649,0,0,0.083333,-7.8949e-16,0,0.66667
0.84213,0.47502,10.106,-0.037463,-2.07,57.09,1.0096,-0.33652,-1.9985,1.3461,-3.5991e-10,-0.99925,0,0,0.083333,-0,-0,0.66667
0.24044,0.97903,2.8853,0.71854,129.95,1006.3,-5.5286,1.8429,-0.16055,-7.3714,2.483e-11,-0.080277,0,0,0.083333,3.9475e-16,0,0.66667
0.75723,0.56479,9.0867,0.097187,7.9047,128.97,-2.355,0.78499,-1.9633,-3.14,-1.1613e-11,-0.98163,0,0,0.083333,-0,-0,0.66667
0.81234,0.75023,9.748,0.37534,24.346,79.865,-9.7569,3.2523,-1.5075,-13.009,4.8789e-11,-0.75375,0,0,0.083333,-0,-0,0.66667
0.79703,0.80607,9.5644,0.45911,31.984,92.84,-11.71,3.9032,-1.2579,-15.613,-2.121e-10,-0.62896,0,0,0.083333,-3.9475e-16,0,0.66667
0.80771,0.26664,9.6925,-0.35005,-23.203,83.529,9.0475,-3.0158,-1.5616,12.063,9.1097e-11,-0.78081,0,0,0.083333,-9.5652e-16,0,0.66667
0.82928,0.93794,9.9514,0.65691,39.299,68.14,-17.432,5.8108,-0.47132,-23.243,-3.1498e-08,-0.23566,0,0,0.083333,3.158e-15,0,0.66667
0.41752,0.65419,5.0102,0.23129,36.544,639.96,-3.0901,1.03,-1.8089,-4.1202,-6.0782e-12,-0.90445,0,0,0.083333,-8.8818e-16,0,0.66667
0.61789,0.76972,7.4146,0.40459,47.856,300.59,-7.9997,2.6666,-1.4137,-10.666,-1.8923e-12,-0.70686,0,0,0.083333,7.8949e-16,0,0.66667
0.75525,0.51887,9.0629,0.028308,2.3185,130.92,-0.68414,0.22805,-1.994,-0.91219,-1.5067e-12,-0.99701,0,0,0.083333,-0,-0,0.66667
0.76977,0.0099375,9.2372,-0.73509,-57.491,118.89,18.107,-6.0357,-0.077049,24.143,-7.6774e-11,-0.038525,0,0,0.083333,-0,-0,0.66667
0.9586,0.017567,11.503,-0.72365,-11.236,7.2745,22.198,-7.3994,-0.1347,29.598,-1.95e-05,-0.06735,0,0,0.083333,-5.4284e-15,0,0.66667
0.97508,0.037552,11.701,-0.69367,-6.4979,4.3454,21.644,-7.2147,-0.28568,28.859,8.4177e-05,-0.14284,0,0,0.083333,-0,-0,0.66667
0.56473,0.92279,6.7768,0.63418,82.825,381.78,-11.461,3.8202,-0.57149,-15.281,1.3145e-13,-0.28575,0,0,0.083333,-7.8949e-16,0,0.66667
0.46574,0.80396,5.5889,0.45595,68.385,550.12,-6.7953,2.2651,-1.2611,-9.0603,-7.4221e-12,-0.63057,0,0,0.083333,-3.9475e-16,0,0.66667
0.83553,0.050552,10.026,-0.67417,-39.002,63.732,18.025,-6.0084,-0.37962,24.034,1.3766e-08,-0.18981,0,0,0.083333,-7.8949e-16,0,0.66667
0.21996,0.088681,2.6395,-0.61698,-112.61,1051.1,4.3428,-1.4476,-0.65121,5.7903,-5.2894e-10,-0.3256,0,0,0.083333,3.9475e-16,0,0.66667
0.7664,0.7811,9.1968,0.42165,33.238,120.64,-10.341,3.447,-1.3746,-13.788,-1.7252e-11,-0.68728,0,0,0.083333,2.2204e-16,0,0.66667
0.19201,0.95311,2.3041,0.67967,125.61,1113.2,-4.1761,1.392,-0.35514,-5.5682,1.1239e-10,-0.17757,0,0,0.083333,-0,-0,0.66667
0.59163,0.43464,7.0995,-0.098046,-12.179,338.9,1.8562,-0.61874,-1.9687,2.4749,5.6799e-13,-0.98435,0,0,0.083333,-3.9475e-16,0,0.66667
0.60683,0.4064,7.282,-0.1404,-16.951,316.23,2.7264,-0.90881,-1.9324,3.6352,-3.6249e-12,-0.96622,0,0,0.083333,1.579e-15,0,0.66667
0.44184,0.77908,5.3021,0.41861,64.515,594.14,-5.9188,1.9729,-1.376,-7.8917,-7.4687e-12,-0.68802,0,0,0.083333,-7.8949e-16,0,0.66667
0.86455,0.66916,10.375,0.25373,12.172,42.961,-7.0197,2.3399,-1.768,-9.3596,3.0283e-09,-0.884,0,0,0.083333,-0,-0,0.66667
0.54348,0.82878,6.5218,0.49316,66.556,415.57,-8.5768,2.8589,-1.1345,-11.436,-1.3003e-12,-0.56726,0,0,0.083333,-0,-0,0.66667
0.49273,0.55387,5.9128,0.080802,11.701,501.26,-1.274,0.42468,-1.9727,-1.6987,-6.8486e-12,-0.98635,0,0,0.083333,7.8949e-16,0,0.66667
0.41813,0.22147,5.0175,-0.41779,-66.024,639.06,5.59,-1.8633,-1.3792,7.4534,-1.4742e-11,-0.68962,0,0,0.083333,1.579e-15,0,0.66667
0.062225,0.86446,0.7467,0.54669,104.41,1408.9,-1.0886,0.36286,-0.94397,-1.4514,2.9274e-07,-0.47199,0,0,0.083333,-0,9.9469e-17,0.66667
0.36215,0.97278,4.3458,0.70917,118.26,749.9,-8.2184,2.7395,-0.21317,-10.958,-6.0751e-12,-0.10659,0,0,0.083333,-0,-0,0.66667
0.092815,0.84327,1.1138,0.51491,97.851,1338.3,-1.5293,0.50977,-1.0635,-2.0391,-7.8142e-08,-0.53177,0,0,0.083333,-3.7007e-17,0,0.66667
0.56564,0.81434,6.7877,0.47151,61.399,379.81,-8.5346,2.8449,-1.2106,-11.379,2.8066e-12,-0.60528,0,0,0.083333,-1.579e-15,0,0.66667
0.6405,0.12523,7.686,-0.56215,-63.511,269.28,11.522,-3.8406,-0.88492,15.363,-4.9099e-12,-0.44246,0,0,0.083333,-0,-0,0.66667
0.76778,0.55578,9.2134,0.083668,6.5463,118.6,-2.0556,0.68521,-1.9773,-2.7408,5.3906e-12,-0.98866,0,0,0.083333,-0,-0,0.66667
0.63254,0.38361,7.5904,-0.17458,-20.012,279.35,3.5338,-1.1779,-1.8875,4.7117,-3.3902e-12,-0.94376,0,0,0.083333,1.579e-15,0,0.66667
0.18706,0.16559,2.2447,-0.50162,-92.778,1124.1,3.0026,-1.0009,-1.1116,4.0035,-7.056e-10,-0.5558,0,0,0.083333,-0,-0,0.66667
0.75024,0.28735,9.0029,-0.31897,-26.619,136.41,7.6579,-2.5526,-1.6454,10.211,8.725e-12,-0.8227,0,0,0.083333,-0,-0,0.66667
0.54886,0.83253,6.5863,0.49879,66.756,406.81,-8.7606,2.9202,-1.1176,-11.681,-2.3137e-12,-0.55879,0,0,0.083333,-0,-0,0.66667
0.10217,0.51943,1.226,0.029144,5.5203,1316.7,-0.095286,0.031762,-1.9927,-0.12705,-1.2205e-08,-0.99634,0,0,0.083333,-0,-0,0.66667
0.024827,0.7116,0.29792,0.3174,60.751,1495.4,-0.25216,0.084055,-1.6382,-0.33621,2.4618e-06,-0.8191,0,0,0.083333,-0,-0,0.66667
0.29875,0.048527,3.585,-0.67721,-118.35,880.82,6.474,-2.158,-0.3717,8.6321,-5.3619e-12,-0.18585,0,0,0.083333,-3.9475e-16,0,0.66667
0.69002,0.60901,8.2802,0.16351,16.356,203.88,-3.6104,1.2035,-1.9059,-4.8138,-2.7829e-12,-0.95293,0,0,0.083333,1.579e-15,0,0.66667
0.93279,0.52742,11.193,0.041127,1.0019,11.326,-1.2276,0.40921,-1.9923,-1.6368,2.1332e-08,-0.99617,0,0,0.083333,-0,-0,0.66667
0.9665,0.089648,11.598,-0.61553,-7.6689,5.0798,19.037,-6.3457,-0.6553,25.383,2.1492e-06,-0.32765,0,0,0.083333,2.3685e-15,0,0.66667
0.76455,0.44707,9.1746,-0.079398,-6.2878,121.73,1.9425,-0.64751,-1.9821,2.59,-5.4112e-13,-0.99104,0,0,0.083333,-0,-0,0.66667
0.29325,0.24457,3.519,-0.38314,-67.071,891.96,3.5954,-1.1985,-1.4777,4.7938,-3.7053e-12,-0.73884,0,0,0.083333,7.6576e-16,0,0.66667
0.62207,0.93099,7.4648,0.64648,75.995,295.44,-12.869,4.2897,-0.51469,-17.159,-1.0196e-12,-0.25734,0,0,0.083333,1.1842e-15,0,0.66667
0.2311,0.31647,2.7732,-0.2753,-49.895,1026.2,2.0359,-0.67862,-1.7309,2.7145,-2.2513e-12,-0.86547,0,0,0.083333,-0,-0,0.66667
0.75069,0.24721,9.0083,-0.37919,-31.612,136.12,9.1089,-3.0363,-1.4952,12.145,3.8849e-12,-0.74759,0,0,0.083333,-1.9737e-16,0,0.66667
0.16587,0.0021379,1.9904,-0.74679,-139.44,1172,3.9638,-1.3213,-0.014489,5.2851,3.5653e-09,-0.0072445,0,0,0.083333,-0,-0,0.66667
0.75647,0.56323,9.0776,0.094842,7.7347,129.73,-2.2958,0.76528,-1.9654,-3.0611,-7.4474e-12,-0.98272,0,0,0.083333,-3.158e-15,0,0.66667
0.86859,0.77441,10.423,0.41161,19.238,41.063,-11.441,3.8136,-1.394,-15.254,6.7168e-09,-0.69702,0,0,0.083333,-2.7518e-16,0,0.66667
0.51951,0.49522,6.2341,-0.0071758,-1.0017,454.9,0.11929,-0.039764,-1.9991,0.15906,-1.2991e-13,-0.99957,0,0,0.083333,1.3816e-15,0,0.66667
0.065635,0.96551,0.78762,0.69826,133.43,1401,-1.4666,0.48886,-0.26722,-1.9554,1.0564e-06,-0.13361,0,0,0.083333,-1.2336e-16,0,0.66667
0.44889,0.18768,5.3867,-0.46848,-71.657,581.11,6.7295,-2.2432,-1.2193,8.9727,-6.7497e-12,-0.60965,0,0,0.083333,1.579e-15,0,0.66667
0.83783,0.79776,10.054,0.44664,25.39,60.967,-11.975,3.9916,-1.2869,-15.966,1.0405e-10,-0.64346,0,0,0.083333,-1.579e-15,0,0.66667
0.17975,0.31887,2.157,-0.27169,-50.342,1140.3,1.5628,-0.52093,-1.7337,2.0837,-9.7601e-11,-0.86683,0,0,0.083333,3.9475e-16,0,0.66667
0.038559,0.64731,0.46271,0.22097,42.246,1463.6,-0.27266,0.090885,-1.8223,-0.36354,1.1111e-07,-0.91114,0,0,0.083333,-0,-0,0.66667
0.73269,0.46514,8.7923,-0.052295,-4.6201,154.51,1.2261,-0.40871,-1.994,1.6348,5.429e-12,-0.99701,0,0,0.083333,-7.8949e-16,0,0.66667
0.56304,0.50767,6.7565,0.011504,1.5018,383.26,-0.20726,0.069088,-2.0056,-0.27635,-4.7997e-12,-1.0028,0,0,0.083333,-0,-0,0.66667
0.042061,0.4233,0.50473,-0.11506,-21.986,1455.4,0.15486,-0.05162,-1.9502,0.20648,3.1903e-09,-0.9751,0,0,0.083333,-4.9343e-17,0,0.66667
0.98489,0.79755,11.819,0.44633,2.4027,1.827,-14.067,4.6889,-1.2975,-18.755,5.9598e-07,-0.64873,0,0,0.083333,-1.579e-15,0,0.66667
0.56933,0.96942,6.832,0.70413,91.322,374.81,-12.828,4.2761,-0.23445,-17.104,-4.3716e-12,-0.11722,0,0,0.083333,1.579e-15,0,0.66667
0.58516,0.34209,7.0219,-0.23686,-29.781,348.9,4.4352,-1.4784,-1.7975,5.9136,-3.8014e-13,-0.89877,0,0,0.083333,7.8949e-16,0,0.66667
0.78991,0.25661,9.4789,-0.36508,-26.197,98.708,9.2281,-3.076,-1.5223,12.304,2.2202e-11,-0.76117,0,0,0.083333,-0,-0,0.66667
0.90263,0.44197,10.832,-0.087045,-3.0459,22.825,2.5142,-0.83808,-1.9728,3.3523,-1.8437e-08,-0.98642,0,0,0.083333,-0,-0,0.66667
0.060751,0.48691,0.72901,-0.019642,-3.7459,1412.2,0.038184,-0.012728,-2.0013,0.050912,-2.679e-07,-1.0006,0,0,0.083333,9.8686e-17,0,0.66667
0.34851,0.42516,4.1822,-0.11226,-18.872,776.63,1.252,-0.41733,-1.9526,1.6693,-3.7995e-12,-0.97629,0,0,0.083333,-0,-0,0.66667
0.20009,0.85509,2.4011,0.53263,98.017,1095,-3.4104,1.1368,-0.99133,-4.5472,-4.1446e-10,-0.49567,0,0,0.083333,-0,-0,0.66667
0.46515,0.11181,5.5818,-0.58229,-87.475,551.52,8.6673,-2.8891,-0.79342,11.556,1.5152e-12,-0.39671,0,0,0.083333,-0,-0,0.66667
0.091468,0.023298,1.0976,-0.71505,-136.1,1341.5,2.0929,-0.69765,-0.18385,2.7906,-2.4831e-06,-0.091926,0,0,0.083333,-0,7.4888e-17,0.66667
0.068086,0.34419,0.81703,-0.23372,-44.543,1395.2,0.50921,-0.16974,-1.8039,0.67895,1.9188e-07,-0.90194,0,0,0.083333,1.9737e-16,0,0.66667
0.30089,0.64732,3.6107,0.22098,38.469,875.63,-2.1277,0.70923,-1.825,-2.8369,-1.3245e-11,-0.91249,0,0,0.083333,-0,-0,0.66667
0.90435,0.165,10.852,-0.50251,-17.413,23.253,14.542,-4.8474,-1.1047,19.389,-6.6096e-08,-0.55237,0,0,0.083333,-0,-0,0.66667
0.97554,0.09895,11.707,-0.60157,-5.4556,3.6656,18.78,-6.2598,-0.70974,25.039,3.3731e-05,-0.35487,0,0,0.083333,-3.158e-15,0,0.66667
0.76372,0.42414,9.1646,-0.11379,-9.0397,122.57,2.7809,-0.92696,-1.9562,3.7079,4.4857e-12,-0.97811,0,0,0.083333,-0,-0,0.66667
0.00074091,0.7009,0.008891,0.30134,57.711,1551.3,-0.0071436,0.0023793,-1.6823,-0.0095258,-2.8759e-06,-0.84114,0,0,0.083333,-0,-0,0.66667
0.73522,0.5078,8.8226,0.011694,1.0248,151.78,-0.27513,0.091708,-2.0048,-0.36683,6.0067e-12,-1.0024,0,0,0.083333,-3.158e-15,0,0.66667
0.021993,0.48901,0.26391,-0.016483,-3.1537,1502,0.0116,-0.0038676,-1.9951,0.015467,-1.2351e-06,-0.99755,0,0,0.083333,-5.0716e-17,0,0.66667
0.16857,0.88915,2.0228,0.58373,108.76,1165.7,-3.1487,1.0496,-0.78791,-4.1983,-1.7151e-09,-0.39396,0,0,0.083333,-0,-0,0.66667
0.010514,0.5907,0.12617,0.13605,26.042,1528.6,-0.045774,0.015258,-1.9322,-0.061032,-1.944e-07,-0.96611,0,0,0.083333,-3.0551e-18,0,0.66667
0.14913,0.66125,1.7895,0.24188,45.282,1209.5,-1.1543,0.38475,-1.7884,-1.539,-7.5775e-10,-0.89419,0,0,0.083333,-0,-0,0.66667
0.68751,0.849,8.2501,0.52349,52.846,207.87,-11.517,3.839,-1.0336,-15.356,-7.514e-13,-0.5168,0,0,0.083333,-0,-0,0.66667
0.70202,0.66322,8.4242,0.24483,23.713,189.55,-5.5,1.8333,-1.7916,-7.3333,2.5646e-12,-0.89578,0,0,0.083333,-1.579e-15,0,0.66667
0.37108,0.62406,4.4529,0.18608,30.707,731.04,-2.2096,0.73655,-1.8768,-2.9462,-5.4332e-12,-0.93841,0,0,0.083333,2.9606e-16,0,0.66667
0.73119,0.38961,8.7743,-0.16559,-14.704,156.24,3.8745,-1.2915,-1.9021,5.166,1.5321e-12,-0.95107,0,0,0.083333,-0,-0,0.66667
0.8473,0.93495,10.168,0.65242,35.242,55.505,-17.69,5.8965,-0.48676,-23.586,8.1974e-08,-0.24338,0,0,0.083333,1.7764e-15,0,0.66667
0.13036,0.34722,1.5643,-0.22917,-43.132,1252.2,0.95597,-0.31866,-1.811,1.2746,4.4566e-09,-0.90549,0,0,0.083333,-0,-0,0.66667
0.087407,0.31784,1.0489,-0.27324,-51.923,1350.7,0.76426,-0.25475,-1.7312,1.019,4.9671e-08,-0.86561,0,0,0.083333,1.9737e-16,0,0.66667
0.37192,0.38719,4.4631,-0.16922,-27.903,729.34,2.014,-0.67133,-1.8981,2.6853,2.8288e-12,-0.94905,0,0,0.083333,-0,-0,0.66667
0.40388,0.36851,4.8466,-0.19723,-31.585,666.27,2.5491,-0.8497,-1.8635,3.3988,-4.6123e-12,-0.93174,0,0,0.083333,-0,-0,0.66667
0.2764,0.26887,3.3169,-0.3467,-61.322,927.86,3.0665,-1.0222,-1.5699,4.0887,-5.814e-12,-0.78495,0,0,0.083333,3.9475e-16,0,0.66667
0.75417,0.94955,9.05,0.67432,55.756,133.84,-16.274,5.4246,-0.38141,-21.698,2.073e-10,-0.1907,0,0,0.083333,-0,-0,0.66667
0.32179,0.38059,3.8614,-0.17911,-30.73,831.78,1.8443,-0.61477,-1.8826,2.4591,-2.7829e-12,-0.94129,0,0,0.083333,-0,-0,0.66667
0.80014,0.32556,9.6017,-0.26167,-17.941,89.586,6.6999,-2.2333,-1.7561,8.9332,5.4376e-11,-0.87804,0,0,0.083333,-0,-0,0.66667
0.91131,0.010434,10.936,-0.73435,-23.883,21.716,21.415,-7.1383,-0.079767,28.553,3.6727e-07,-0.039884,0,0,0.083333,3.158e-15,0,0.66667
0.51315,0.34174,6.1578,-0.23739,-33.453,465.91,3.8982,-1.2994,-1.8019,5.1976,3.5714e-12,-0.90096,0,0,0.083333,1.9737e-16,0,0.66667
0.42942,0.85161,5.1531,0.52741,82.434,617.76,-7.2474,2.4158,-1.0069,-9.6632,-5.6195e-12,-0.50347,0,0,0.083333,-0,-0,0.66667
0.091595,0.89346,1.0991,0.59018,112.23,1341.2,-1.7298,0.57662,-0.76326,-2.3065,-1.3655e-07,-0.38163,0,0,0.083333,-0,1.1199e-16,0.66667
0.27368,0.57463,3.2841,0.11194,19.819,933.55,-0.98035,0.32678,-1.9511,-1.3071,-1.6274e-11,-0.97553,0,0,0.083333,-0,-0,0.66667
0.88665,0.22596,10.64,-0.41106,-16.71,31.211,11.663,-3.8876,-1.3981,15.551,-8.5947e-09,-0.69903,0,0,0.083333,-0,-0,0.66667
0.24594,0.84764,2.9513,0.52147,93.908,993.94,-4.104,1.368,-1.0323,-5.4721,2.2382e-13,-0.51617,0,0,0.083333,7.8949e-16,0,0.66667
0.62119,0.40113,7.4543,-0.14831,-17.404,295.38,2.948,-0.98268,-1.9212,3.9307,-1.4349e-12,-0.96058,0,0,0.083333,7.8949e-16,0,0.66667
0.49501,0.13347,5.9401,-0.5498,-79.547,498.04,8.7089,-2.903,-0.92265,11.612,1.4646e-12,-0.46132,0,0,0.083333,-0,-0,0.66667
0.094373,0.39387,1.1325,-0.15919,-30.204,1334.6,0.48075,-0.16025,-1.9154,0.641,3.7608e-08,-0.95771,0,0,0.083333,-0,-0,0.66667
0.89937,0.2333,10.792,-0.40005,-14.514,25.028,11.513,-3.8378,-1.4267,15.351,-5.7681e-08,-0.71333,0,0,0.083333,-1.579e-15,0,0.66667
0.067771,0.42028,0.81325,-0.11958,-22.786,1395.9,0.25933,-0.086442,-1.9459,0.34577,1.0107e-07,-0.97297,0,0,0.083333,-0,-0,0.66667
0.6807,0.99542,8.1684,0.74312,76.56,217.33,-16.187,5.3957,-0.033085,-21.583,1.1546e-12,-0.016542,0,0,0.083333,-3.9475e-16,0,0.66667
0.972,0.03792,11.664,-0.69312,-7.2895,4.756,21.559,-7.1862,-0.29197,28.745,7.2681e-05,-0.14598,0,0,0.083333,-0,-0,0.66667
0.70937,0.60707,8.5125,0.16061,15.23,180.79,-3.6457,1.2152,-1.9043,-4.861,1.2821e-12,-0.95216,0,0,0.083333,-0,-0,0.66667
0.32591,0.44267,3.9109,-0.085998,-14.708,823.16,0.89688,-0.29896,-1.976,1.1958,-3.9315e-12,-0.988,0,0,0.083333,-7.8949e-16,0,0.66667
0.07344,0.089115,0.88128,-0.61633,-117.58,1383,1.4484,-0.48281,-0.64764,1.9312,1.3087e-06,-0.32382,0,0,0.083333,-0,-0,0.66667
0.57974,0.45462,6.9568,-0.068069,-8.6373,357.09,1.2628,-0.42093,-1.9864,1.6837,-1.5543e-13,-0.99322,0,0,0.083333,-0,-0,0.66667
0.73352,0.54604,8.8022,0.069061,6.0854,153.63,-1.621,0.54035,-1.9879,-2.1614,1.929e-12,-0.99393,0,0,0.083333,-1.579e-15,0,0.66667
0.35885,0.30163,4.3062,-0.29756,-49.629,755.78,3.4169,-1.139,-1.691,4.5559,7.0473e-12,-0.84552,0,0,0.083333,-3.9475e-16,0,0.66667
0.65375,0.45072,7.845,-0.073922,-8.0843,250.25,1.5464,-0.51548,-1.9816,2.0619,-3.2271e-12,-0.99078,0,0,0.083333,-0,-0,0.66667
0.56659,0.28236,6.7991,-0.32645,-42.403,377.95,5.9189,-1.973,-1.6207,7.8919,1.6076e-13,-0.81037,0,0,0.083333,-0,-0,0.66667
0.034106,0.81002,0.40928,0.46503,89.015,1473.9,-0.50754,0.16918,-1.2326,-0.67671,1.2008e-07,-0.61628,0,0,0.083333,1.2336e-17,0,0.66667
0.92069,0.71045,11.048,0.31568,9.0808,15.945,-9.3007,3.1002,-1.65,-12.401,1.2809e-07,-0.82501,0,0,0.083333,1.579e-15,0,0.66667
0.38001,0.39284,4.5601,-0.16074,-26.316,713.2,1.9547,-0.65155,-1.9052,2.6062,4.3332e-13,-0.9526,0,0,0.083333,-3.9475e-16,0,0.66667
0.3794,0.47358,4.5528,-0.039633,-6.4911,714.35,0.48117,-0.16039,-1.993,0.64157,6.9691e-12,-0.99649,0,0,0.083333,-0,-0,0.66667
0.84636,0.95139,10.156,0.67708,36.806,56.285,-18.338,6.1126,-0.37073,-24.45,2.1843e-08,-0.18536,0,0,0.083333,-1.579e-15,0,0.66667
0.48428,0.74198,5.8113,0.36298,53.185,516.56,-5.625,1.875,-1.5389,-7.5,4.0625e-12,-0.76946,0,0,0.083333,-3.9475e-16,0,0.66667
0.45107,0.58382,5.4128,0.12573,19.158,576.59,-1.8149,0.60496,-1.9459,-2.4198,-8.4817e-12,-0.97295,0,0,0.083333,-0,-0,0.66667
0.63986,0.077903,7.6783,-0.63315,-71.687,270.45,12.964,-4.3213,-0.57972,17.285,1.5286e-12,-0.28986,0,0,0.083333,-7.8949e-16,0,0.66667
0.21177,0.37721,2.5413,-0.18419,-33.677,1068.8,1.2482,-0.41606,-1.8763,1.6643,-5.3396e-11,-0.93815,0,0,0.083333,7.8949e-16,0,0.66667
0.5283,0.65954,6.3396,0.2393,32.997,440.22,-4.0456,1.3485,-1.7975,-5.3941,-8.0971e-12,-0.89876,0,0,0.083333,-0,-0,0.66667
0.66857,0.73875,8.0228,0.35812,37.864,231.22,-7.6617,2.5539,-1.5436,-10.216,-5.0804e-13,-0.77178,0,0,0.083333,-0,-0,0.66667
0.53878,0.53461,6.4653,0.051909,7.0433,422.62,-0.89496,0.29832,-1.987,-1.1933,-5.6621e-15,-0.99351,0,0,0.083333,-0,-0,0.66667
0.70876,0.51033,8.5051,0.015493,1.4713,181.41,-0.35138,0.11713,-1.9958,-0.46851,4.8833e-12,-0.99789,0,0,0.083333,-3.158e-15,0,0.66667
0.59854,0.27236,7.1824,-0.34145,-41.915,328.85,6.5399,-2.18,-1.5831,8.7199,2.2444e-12,-0.79153,0,0,0.083333,7.8949e-16,0,0.66667
0.84141,0.97782,10.097,0.71673,40.152,59.888,-19.298,6.4327,-0.17506,-25.731,-1.0712e-08,-0.087532,0,0,0.083333,-0,-0,0.66667
0.87917,0.69178,10.55,0.28767,12.398,34.725,-8.0931,2.6977,-1.7047,-10.791,5.859e-09,-0.85237,0,0,0.083333,-0,-0,0.66667
0.097839,0.91423,1.1741,0.62134,118.04,1326.8,-1.9453,0.64844,-0.62592,-2.5938,4.4309e-08,-0.31296,0,0,0.083333,-0,-0,0.66667
0.25859,0.81313,3.1031,0.46969,83.983,966.39,-3.8867,1.2956,-1.2128,-5.1823,3.9169e-12,-0.60641,0,0,0.083333,7.8949e-16,0,0.66667
0.054656,0.72675,0.65587,0.34013,64.952,1426.3,-0.59488,0.19829,-1.5846,-0.79317,-1.5558e-07,-0.7923,0,0,0.083333,-0,-0,0.66667
0.22889,0.72613,2.7467,0.3392,61.557,1031.1,-2.4845,0.82816,-1.588,-3.3126,1.4948e-11,-0.79398,0,0,0.083333,-0,-0,0.66667
0.72092,0.92251,8.651,0.63376,58.336,169.05,-14.62,4.8735,-0.57355,-19.494,-2.0835e-11,-0.28677,0,0,0.083333,1.579e-15,0,0.66667
0.078545,0.26805,0.94254,-0.34793,-66.231,1371.1,0.8745,-0.2915,-1.5756,1.166,1.4149e-07,-0.78782,0,0,0.083333,-0,-0,0.66667
0.15512,0.29818,1.8614,-0.30273,-56.579,1195.9,1.5027,-0.50091,-1.6782,2.0036,4.3342e-10,-0.83912,0,0,0.083333,-1.9737e-16,0,0.66667
0.77077,0.53238,9.2492,0.04857,3.7571,115.72,-1.198,0.39932,-1.99,-1.5973,-3.1764e-11,-0.99499,0,0,0.083333,3.158e-15,0,0.66667
0.44433,0.61235,5.3319,0.16852,25.875,589.16,-2.3961,0.79871,-1.8948,-3.1948,-5.6553e-12,-0.9474,0,0,0.083333,-0,-0,0.66667
0.29012,0.25853,3.4814,-0.36221,-63.528,898.59,3.3627,-1.1209,-1.5296,4.4836,3.3595e-13,-0.76481,0,0,0.083333,-0,-0,0.66667
0.64398,0.052056,7.7278,-0.67192,-75.429,264.97,13.847,-4.6155,-0.39429,18.462,1.4406e-12,-0.19714,0,0,0.083333,-7.8949e-16,0,0.66667
0.88694,0.78263,10.643,0.42394,17.197,31.114,-12.032,4.0108,-1.3612,-16.043,8.7989e-09,-0.68059,0,0,0.083333,-3.158e-15,0,0.66667
0.037605,0.21276,0.45127,-0.43086,-82.44,1465.8,0.51849,-0.17283,-1.3365,0.69132,1.264e-06,-0.66826,0,0,0.083333,-4.9343e-17,0,0.66667
0.69309,0.34974,8.3171,-0.22539,-22.367,200.22,4.9989,-1.6663,-1.8165,6.6652,-3.5443e-12,-0.90825,0,0,0.083333,1.579e-15,0,0.66667
0.66855,0.79927,8.0226,0.4489,47.498,231.5,-9.6036,3.2012,-1.2829,-12.805,1.2177e-12,-0.64147,0,0,0.083333,-7.8949e-16,0,0.66667
0.86801,0.95452,10.416,0.68178,32.205,42.767,-18.937,6.3124,-0.34297,-25.25,2.8816e-08,-0.17148,0,0,0.083333,5.5105e-16,0,0.66667
0.19637,0.81264,2.3565,0.46895,86.4,1103.3,-2.9469,0.98228,-1.2155,-3.9291,3.0724e-10,-0.60775,0,0,0.083333,7.8949e-16,0,0.66667
0.71279,0.15627,8.5535,-0.5156,-48.54,177.75,11.761,-3.9202,-1.0527,15.681,-9.2859e-12,-0.52633,0,0,0.083333,3.158e-15,0,0.66667
0.1039,0.056099,1.2468,-0.66585,-126.38,1313,2.2138,-0.73795,-0.42078,2.9518,5.5174e-08,-0.21039,0,0,0.083333,9.8686e-17,0,0.66667
0.056626,0.54676,0.67952,0.070139,13.383,1421.7,-0.12709,0.042365,-1.9788,-0.16946,-1.0866e-07,-0.98938,0,0,0.083333,-9.8686e-17,0,0.66667
0.6808,0.40741,8.1696,-0.13889,-14.229,215.27,3.0258,-1.0086,-1.9286,4.0344,-4.4387e-13,-0.96432,0,0,0.083333,-1.579e-15,0,0.66667
0.022635,0.96403,0.27162,0.69604,133.51,1500.5,-0.50414,0.1681,-0.27388,-0.67216,7.7169e-05,-0.13694,0,0,0.083333,3.7007e-17,0,0.66667
0.044299,0.56065,0.53159,0.090972,17.38,1450.2,-0.12896,0.042987,-1.9727,-0.17195,-7.9423e-08,-0.98635,0,0,0.083333,-4.9343e-17,0,0.66667
0.036953,0.65012,0.44344,0.22519,43.057,1467.3,-0.26628,0.088761,-1.8167,-0.35504,2.1809e-07,-0.90836,0,0,0.083333,-4.9343e-17,0,0.66667
0.46541,0.98725,5.5849,0.73087,109.91,551.53,-10.885,3.6283,-0.10014,-14.513,2.4576e-12,-0.050069,0,0,0.083333,-0,-0,0.66667
0.75787,0.97817,9.0944,0.71726,58.58,130.37,-17.395,5.7983,-0.16658,-23.193,2.9221e-12,-0.083292,0,0,0.083333,-0,-0,0.66667
0.9922,0.35965,11.906,-0.21052,-0.515,0.50696,6.6841,-2.228,-1.8379,8.9121,-8.2041e-07,-0.91897,0,0,0.083333,-0,-0,0.66667
0.22661,0.051699,2.7193,-0.67245,-122.4,1036.5,4.8762,-1.6254,-0.3879,6.5017,-4.8506e-10,-0.19395,0,0,0.083333,1.9737e-16,0,0.66667
0.79238,0.9928,9.5086,0.73919,52.803,98.281,-18.743,6.2477,-0.05535,-24.991,-1.067e-10,-0.027675,0,0,0.083333,1.579e-15,7.5265e-17,0.66667
0.79525,0.63474,9.543,0.20211,14.155,93.655,-5.1432,1.7144,-1.8579,-6.8576,-4.0216e-11,-0.92894,0,0,0.083333,-0,-0,0.66667
0.87224,0.73008,10.467,0.34512,15.691,38.73,-9.6329,3.211,-1.5771,-12.844,4.921e-09,-0.78853,0,0,0.083333,-0,-0,0.66667
0.31426,0.1988,3.7711,-0.4518,-78.011,847.79,4.5434,-1.5145,-1.2769,6.0579,9.349e-12,-0.63846,0,0,0.083333,-7.8949e-16,0,0.66667
0.13293,0.97676,1.5951,0.71514,134.84,1246.6,-3.0419,1.014,-0.17754,-4.0559,-1.1149e-07,-0.088771,0,0,0.083333,-0,-0,0.66667
0.7967,0.4663,9.5604,-0.050555,-3.5161,92.239,1.2889,-0.42962,-1.9989,1.7185,7.7202e-11,-0.99943,0,0,0.083333,3.9475e-16,0,0.66667
0.56746,0.72882,6.8096,0.34323,44.521,376.61,-6.2326,2.0775,-1.5784,-8.3102,-6.1964e-12,-0.78922,0,0,0.083333,1.579e-15,0,0.66667
0.41465,0.95374,4.9758,0.68061,108.14,646.37,-9.031,3.0103,-0.34854,-12.041,5.0333e-12,-0.17427,0,0,0.083333,-7.8949e-16,0,0.66667
0.058642,0.28368,0.7037,-0.32448,-61.931,1417.1,0.60889,-0.20296,-1.6254,0.81185,1.7197e-07,-0.8127,0,0,0.083333,-0,-0,0.66667
0.0065569,0.5739,0.078683,0.11085,21.218,1537.8,-0.023258,0.0077524,-1.9523,-0.03101,-3.0269e-07,-0.97613,0,0,0.083333,-0,-0,0.66667
0.31602,0.75669,3.7923,0.38504,66.378,844,-3.8938,1.2979,-1.4725,-5.1917,-2.6832e-12,-0.73625,0,0,0.083333,-0,-0,0.66667
0.27146,0.081049,3.2575,-0.62843,-111.66,938.88,5.4589,-1.8196,-0.59218,7.2786,-2.7012e-11,-0.29609,0,0,0.083333,-0,-0,0.66667
0.47572,0.10702,5.7087,-0.58947,-87.433,532.41,8.9736,-2.9912,-0.76023,11.965,-2.6361e-12,-0.38011,0,0,0.083333,-7.8949e-16,0,0.66667
0.92361,0.70004,11.083,0.30007,8.3186,14.844,-8.8687,2.9562,-1.6825,-11.825,1.7704e-07,-0.84127,0,0,0.083333,1.579e-15,0,0.66667
0.41668,0.22976,5.0002,-0.40536,-64.149,641.8,5.4051,-1.8017,-1.4127,7.2068,-7.8595e-12,-0.70637,0,0,0.083333,-0,-0,0.66667
0.28788,0.10823,3.4546,-0.58766,-103.35,903.67,5.4137,-1.8046,-0.76791,7.2182,1.0692e-11,-0.38396,0,0,0.083333,-3.9475e-16,0,0.66667
0.84525,0.91623,10.143,0.62435,34.119,56.719,-16.887,5.6291,-0.61741,-22.516,2.2432e-08,-0.30871,0,0,0.083333,-0,-0,0.66667
0.30695,0.78329,3.6834,0.42494,73.733,863.07,-4.1739,1.3913,-1.3558,-5.5653,-7.9932e-12,-0.67788,0,0,0.083333,-0,-0,0.66667
0.91558,0.72742,10.987,0.34113,10.433,17.96,-9.9946,3.3315,-1.5826,-13.326,5.5607e-08,-0.79128,0,0,0.083333,-0,-0,0.66667
0.86341,0.41234,10.361,-0.13149,-6.3514,43.428,3.633,-1.211,-1.9374,4.844,-1.3183e-09,-0.96871,0,0,0.083333,3.158e-15,0,0.66667
0.63882,0.45407,7.6658,-0.068897,-7.7901,270.53,1.4084,-0.46947,-1.9856,1.8779,-2.7263e-12,-0.99279,0,0,0.083333,7.8949e-16,0,0.66667
0.74768,0.11919,8.9721,-0.57122,-48.224,139.94,13.667,-4.5556,-0.84184,18.222,-8.5381e-12,-0.42092,0,0,0.083333,1.1842e-15,0,0.66667
0.15732,0.51803,1.8879,0.02704,5.0474,1190.8,-0.13613,0.045376,-2.0017,-0.1815,2.4875e-11,-1.0008,0,0,0.083333,-0,-0,0.66667
0.60287,0.40279,7.2345,-0.14582,-17.739,322.08,2.8131,-0.9377,-1.9213,3.7508,-2.5537e-12,-0.96065,0,0,0.083333,9.6798e-16,0,0.66667
0.32704,0.77317,3.9244,0.40975,70.09,821.1,-4.2881,1.4294,-1.4076,-5.7175,5.3912e-13,-0.70382,0,0,0.083333,-0,-0,0.66667
0.48868,0.32935,5.8641,-0.25597,-37.278,508.57,4.0028,-1.3343,-1.7649,5.3371,5.409e-13,-0.88247,0,0,0.083333,-0,-0,0.66667
0.22539,0.050825,2.7046,-0.67376,-122.72,1039.2,4.8594,-1.6198,-0.38183,6.4792,-3.4492e-10,-0.19092,0,0,0.083333,3.9475e-16,0,0.66667
0.90196,0.60304,10.823,0.15455,5.4471,23.205,-4.4608,1.4869,-1.9133,-5.9478,2.9774e-08,-0.95663,0,0,0.083333,-0,-0,0.66667
0.41153,0.42271,4.9384,-0.11593,-18.423,651.39,1.5267,-0.50889,-1.949,2.0356,-7.7222e-12,-0.97449,0,0,0.083333,-0,-0,0.66667
0.47673,0.70617,5.7208,0.30926,45.733,529.96,-4.7179,1.5726,-1.6555,-6.2905,-4.2646e-12,-0.82777,0,0,0.083333,-0,-0,0.66667
0.7214,0.15836,8.6568,-0.51246,-47.028,167.97,11.83,-3.9434,-1.0682,15.773,3.7277e-12,-0.53408,0,0,0.083333,-0,-0,0.66667
0.1222,0.17644,1.4664,-0.48533,-91.628,1270.9,1.8978,-0.6326,-1.163,2.5304,-6.7553e-09,-0.58149,0,0,0.083333,-0,-0,0.66667
0.50307,0.68793,6.0368,0.28189,40.284,483.37,-4.5379,1.5126,-1.7189,-6.0505,-1.791e-12,-0.85947,0,0,0.083333,-0,-0,0.66667
0.81315,0.36156,9.7578,-0.20766,-13.396,78.794,5.4034,-1.8011,-1.8521,7.2045,1.0237e-10,-0.92605,0,0,0.083333,-0,-0,0.66667
0.67734,0.69818,8.1281,0.29728,30.744,219.87,-6.4434,2.1478,-1.6825,-8.5912,1.4464e-12,-0.84127,0,0,0.083333,-0,-0,0.66667
0.32165,0.80098,3.8598,0.45147,77.546,832.35,-4.6469,1.549,-1.2713,-6.1958,-6.648e-13,-0.63564,0,0,0.083333,-0,-0,0.66667
0.71067,0.039029,8.528,-0.69146,-65.649,181.01,15.725,-5.2415,-0.29601,20.966,2.5375e-12,-0.14801,0,0,0.083333,-0,-0,0.66667
0.93444,0.58484,11.213,0.12727,3.0268,10.882,-3.8055,1.2685,-1.9426,-5.074,1.0021e-07,-0.97129,0,0,0.083333,-7.8949e-16,0,0.66667
0.89478,0.50953,10.737,0.014295,0.53886,26.405,-0.4093,0.13643,-1.9976,-0.54573,3.3291e-08,-0.99882,0,0,0.083333,-3.158e-15,0,0.66667
0.74223,0.14996,8.9068,-0.52505,-45.116,145.4,12.471,-4.1569,-1.0159,16.628,6.8043e-12,-0.50797,0,0,0.083333,-0,-0,0.66667
0.2661,0.93073,3.1932,0.64609,115.17,950.44,-5.5016,1.8339,-0.52219,-7.3355,1.1599e-11,-0.2611,0,0,0.083333,1.9737e-16,0,0.66667
0.37249,0.86234,4.4698,0.54351,89.725,728.73,-6.4785,2.1595,-0.95064,-8.638,3.1255e-12,-0.47532,0,0,0.083333,-4.4111e-16,0,0.66667
0.55842,0.31668,6.701,-0.27499,-36.195,390.87,4.9138,-1.6379,-1.7303,6.5518,-2.4603e-12,-0.86513,0,0,0.083333,-0,-0,0.66667
0.38105,0.070133,4.5726,-0.6448,-105.73,711.92,7.8624,-2.6208,-0.51828,10.483,5.9495e-12,-0.25914,0,0,0.083333,-0,-0,0.66667
0.45575,0.84494,5.469,0.51742,78.551,568.56,-7.5459,2.5153,-1.0503,-10.061,-1.2172e-11,-0.52513,0,0,0.083333,1.579e-15,0,0.66667
0.79353,0.18086,9.5223,-0.47872,-33.872,95.943,12.156,-4.052,-1.1851,16.208,3.9465e-11,-0.59254,0,0,0.083333,-0,-0,0.66667
0.10394,0.71371,1.2473,0.32057,60.731,1312.7,-1.0662,0.35541,-1.632,-1.4216,-4.3929e-08,-0.81601,0,0,0.083333,-0,-0,0.66667
0.973,0.92263,11.676,0.63395,6.3792,4.2093,-19.738,6.5795,-0.56904,-26.318,-4.4482e-05,-0.28452,0,0,0.083333,-0,-0,0.66667
0.70462,0.8528,8.4554,0.52921,51.006,187.3,-11.932,3.9775,-1.0077,-15.91,-1.2141e-12,-0.50386,0,0,0.083333,-0,-0,0.66667
0.86473,0.52076,10.377,0.031139,1.49,42.563,-0.86167,0.28722,-1.9934,-1.1489,8.7419e-10,-0.99671,0,0,0.083333,-0,-0,0.66667
0.78168,0.68811,9.3802,0.28216,20.931,105.87,-7.0579,2.3526,-1.7245,-9.4106,-3.6787e-11,-0.86225,0,0,0.083333,-0,-0,0.66667
0.43218,0.39892,5.1862,-0.15162,-23.588,611.95,2.0968,-0.69894,-1.9155,2.7958,6.668e-12,-0.95773,0,0,0.083333,-3.9475e-16,0,0.66667
0.94251,0.66326,11.31,0.24489,5.1231,8.7473,-7.386,2.462,-1.7843,-9.848,1.3756e-07,-0.89216,0,0,0.083333,-0,-0,0.66667
0.25309,0.76368,3.037,0.39553,70.91,978.25,-3.2033,1.0678,-1.4436,-4.271,-1.9651e-12,-0.7218,0,0,0.083333,-0,-0,0.66667
0.046248,0.68612,0.55498,0.27918,53.348,1445.8,-0.41317,0.13772,-1.7297,-0.5509,-1.8456e-07,-0.86487,0,0,0.083333,3.1518e-17,0,0.66667
0.096878,0.058385,1.1625,-0.66242,-125.91,1329.1,2.0536,-0.68453,-0.44048,2.7381,-7.5307e-08,-0.22024,0,0,0.083333,-1.4803e-16,0,0.66667
0.20074,0.92202,2.4088,0.63304,116.54,1093.7,-4.0664,1.3555,-0.57634,-5.4218,1.5537e-09,-0.28817,0,0,0.083333,-3.9475e-16,0,0.66667
0.53908,0.92003,6.469,0.63004,85.705,423.25,-10.869,3.6228,-0.58417,-14.491,-2.6379e-13,-0.29209,0,0,0.083333,-0,-0,0.66667
0.2236,0.96428,2.6832,0.69642,126.97,1043.2,-4.9831,1.661,-0.27361,-6.6441,2.5835e-11,-0.13681,0,0,0.083333,1.9737e-16,0,0.66667
0.83532,0.38831,10.024,-0.16754,-9.6294,61.977,4.4784,-1.4928,-1.8958,5.9712,-4.856e-11,-0.94792,0,0,0.083333,-0,-0,0.66667
0.0093387,0.58342,0.11206,0.12514,23.953,1531.3,-0.037396,0.012465,-1.9405,-0.049861,-4.0157e-07,-0.97024,0,0,0.083333,1.2336e-17,0,0.66667
0.7459,0.015099,8.9508,-0.72735,-61.928,142.58,17.361,-5.787,-0.11714,23.148,-8.594e-12,-0.058572,0,0,0.083333,3.158e-15,0,0.66667
0.96901,0.0082624,11.628,-0.73761,-8.628,5.5287,22.872,-7.624,-0.072339,30.496,-2.3188e-05,-0.03617,0,0,0.083333,-0,-0,0.66667
0.26718,0.74307,3.2062,0.36461,64.845,947.7,-3.1173,1.0391,-1.5309,-4.1565,-9.0004e-12,-0.76545,0,0,0.083333,-0,-0,0.66667
0.62382,0.32965,7.4858,-0.25552,-29.837,291.78,5.1007,-1.7002,-1.7718,6.801,-2.887e-12,-0.88591,0,0,0.083333,7.8949e-16,0,0.66667
0.71478,0.52636,8.5774,0.039541,3.6901,174.47,-0.90442,0.30147,-1.9936,-1.2059,2.3427e-12,-0.9968,0,0,0.083333,7.8949e-16,0,0.66667
0.32696,0.7978,3.9235,0.4467,76.429,821.32,-4.6736,1.5579,-1.2945,-6.2315,1.8612e-12,-0.64727,0,0,0.083333,-7.8194e-16,0,0.66667
0.43313,0.90443,5.1975,0.60665,94.503,610.97,-8.4082,2.8027,-0.69061,-11.211,-8.7832e-12,-0.3453,0,0,0.083333,9.8686e-16,0,0.66667
0.73441,0.54863,8.8129,0.072945,6.4093,152.67,-1.7143,0.57143,-1.9882,-2.2857,-6.6447e-13,-0.99412,0,0,0.083333,7.8949e-16,0,0.66667
0.13115,0.57227,1.5738,0.10841,20.395,1250.3,-0.45499,0.15166,-1.9545,-0.60665,-3.4092e-09,-0.97725,0,0,0.083333,-3.9475e-16,0,0.66667
0.14369,0.47577,1.7242,-0.036347,-6.8135,1221.8,0.16712,-0.055708,-1.9957,0.22283,2.7341e-11,-0.99784,0,0,0.083333,-0,-0,0.66667
0.37541,0.69567,4.5049,0.2935,48.266,722.49,-3.5259,1.1753,-1.7002,-4.7011,-1.9997e-12,-0.85008,0,0,0.083333,-0,-0,0.66667
0.22841,0.19772,2.7409,-0.45343,-82.348,1032.3,3.3141,-1.1047,-1.2654,4.4188,-8.1815e-11,-0.63269,0,0,0.083333,-0,-0,0.66667
0.30699,0.88371,3.6838,0.57556,99.955,863.24,-5.654,1.8847,-0.81903,-7.5387,-5.8189e-12,-0.40952,0,0,0.083333,-0,-0,0.66667
0.15007,0.072026,1.8008,-0.64196,-120.38,1207.6,3.0828,-1.0276,-0.531,4.1104,6.1984e-08,-0.2655,0,0,0.083333,-0,-0,0.66667
0.096636,0.18496,1.1596,-0.47256,-89.718,1329.5,1.4613,-0.48711,-1.2074,1.9484,5.5956e-08,-0.60369,0,0,0.083333,-2.2204e-16,0,0.66667
0.91598,0.64756,10.992,0.22134,6.7229,17.475,-6.4877,2.1626,-1.8224,-8.6502,6.8593e-08,-0.91119,0,0,0.083333,-0,-0,0.66667
0.34589,0.11261,4.1507,-0.58109,-98.085,782.59,6.4319,-2.144,-0.80118,8.5758,-7.3452e-13,-0.40059,0,0,0.083333,-3.9475e-16,0,0.66667
0.56597,0.13305,6.7916,-0.55042,-71.681,379.54,9.9686,-3.3229,-0.92235,13.292,-1.3269e-12,-0.46118,0,0,0.083333,-0,-0,0.66667
0.5472,0.55488,6.5664,0.082323,11.026,408.8,-1.4415,0.4805,-1.9826,-1.922,2.483e-12,-0.99132,0,0,0.083333,-3.9475e-16,0,0.66667
0.45036,0.74018,5.4043,0.36028,54.982,578.18,-5.1921,1.7307,-1.5391,-6.9228,-3.6979e-12,-0.76957,0,0,0.083333,-0,-0,0.66667
0.74782,0.86528,8.9738,0.54792,46.219,139.69,-13.112,4.3706,-0.93444,-17.482,2.3492e-12,-0.46722,0,0,0.083333,7.8949e-16,0,0.66667
0.33158,0.45399,3.9789,-0.069014,-11.754,811.42,0.73227,-0.24409,-1.9822,0.97636,1.0995e-11,-0.99112,0,0,0.083333,-3.9475e-16,0,0.66667
0.89248,0.95819,10.71,0.68728,26.787,29.758,-19.628,6.5428,-0.32302,-26.171,7.4219e-07,-0.16151,0,0,0.083333,7.8949e-16,0,0.66667
0.068033,0.51241,0.8164,0.018622,3.5481,1395.3,-0.040542,0.013514,-1.9954,-0.054056,-8.311e-08,-0.99768,0,0,0.083333,1.9737e-16,0,0.66667
0.57489,0.96135,6.8987,0.69202,88.895,366.07,-12.731,4.2436,-0.29729,-16.974,1.1502e-12,-0.14864,0,0,0.083333,-7.8949e-16,-7.1357e-17,0.66667
0.33905,0.43135,4.0686,-0.10297,-17.439,796.01,1.1172,-0.37241,-1.9603,1.4896,1.8163e-11,-0.98016,0,0,0.083333,-1.9737e-16,0,0.66667
0.3639,0.66764,4.3668,0.25147,41.758,745.52,-2.9283,0.97609,-1.7729,-3.9044,3.6349e-12,-0.88644,0,0,0.083333,-0,-0,0.66667
0.3051,0.37781,3.6612,-0.18329,-31.815,866.73,1.7895,-0.59649,-1.8773,2.3859,-5.4834e-12,-0.93863,0,0,0.083333,-0,-0,0.66667
0.60359,0.94863,7.243,0.67295,82.058,322.41,-12.998,4.3326,-0.38627,-17.331,-3.3102e-12,-0.19314,0,0,0.083333,-0,-0,0.66667
0.23441,0.46749,2.8129,-0.048765,-8.8201,1018.8,0.36579,-0.12193,-2.0001,0.48772,-9.8109e-12,-1.0001,0,0,0.083333,5.181e-16,0,0.66667
0.29431,0.43836,3.5317,-0.092459,-16.161,889.51,0.87076,-0.29025,-1.9719,1.161,1.0435e-11,-0.98597,0,0,0.083333,-0,-0,0.66667
0.28549,0.42049,3.4259,-0.11926,-20.964,908.26,1.0895,-0.36318,-1.9474,1.4527,4.0681e-12,-0.97371,0,0,0.083333,-0,-0,0.66667
0.0067954,0.58364,0.081545,0.12547,24.017,1537.2,-0.027283,0.009094,-1.94,-0.036378,-5.0648e-07,-0.96998,0,0,0.083333,-0,-0,0.66667
0.37162,0.0048918,4.4594,-0.74266,-122.89,730.98,8.8316,-2.9439,-0.039043,11.775,1.0559e-11,-0.019521,0,0,0.083333,-0,-5.2119e-17,0.66667
0.048897,0.076676,0.58677,-0.63499,-121.52,1439.7,0.99357,-0.33119,-0.56833,1.3248,4.0348e-06,-0.28417,0,0,0.083333,9.8686e-17,0,0.66667
0.87438,0.14969,10.493,-0.52546,-23.6,38.261,14.703,-4.9008,-1.0243,19.603,-4.2238e-09,-0.51214,0,0,0.083333,7.8949e-16,0,0.66667
0.72182,0.92676,8.6619,0.64014,58.767,168.06,-14.786,4.9287,-0.54302,-19.715,-2.8626e-12,-0.27151,0,0,0.083333,-7.8949e-16,0,0.66667
0.59531,0.62135,7.1437,0.18202,22.463,333.42,-3.4675,1.1558,-1.8862,-4.6234,-2.8428e-12,-0.94312,0,0,0.083333,1.1842e-15,0,0.66667
0.74388,0.72732,8.9265,0.34099,29.084,143.05,-8.1168,2.7056,-1.583,-10.822,-1.8687e-12,-0.79151,0,0,0.083333,-0,-0,0.66667
0.90109,0.89498,10.813,0.59247,21.259,25.164,-17.084,5.6946,-0.74895,-22.778,-2.1417e-08,-0.37447,0,0,0.083333,-0,-0,0.66667
0.69409,0.53893,8.3291,0.058402,5.7772,198.84,-1.2972,0.43239,-1.9841,-1.7296,5.1381e-13,-0.99206,0,0,0.083333,-1.579e-15,0,0.66667
0.59076,0.78029,7.0891,0.42044,52.384,340.75,-7.9481,2.6494,-1.373,-10.597,2.7502e-12,-0.68649,0,0,0.083333,2.9606e-16,0,0.66667
0.12426,0.25482,1.4911,-0.36778,-69.36,1266.2,1.4624,-0.48746,-1.525,1.9499,2.3122e-09,-0.76251,0,0,0.083333,-0,-0,0.66667
0.40458,0.13421,4.855,-0.54868,-87.954,665.47,7.1036,-2.3679,-0.93266,9.4714,-4.2353e-12,-0.46633,0,0,0.083333,-0,-0,0.66667
0.57895,0.47578,6.9474,-0.036332,-4.6164,358.29,0.6731,-0.22437,-2.0007,0.89746,4.6713e-13,-1.0004,0,0,0.083333,-0,-0,0.66667
0.60284,0.39327,7.2341,-0.16009,-19.478,322.14,3.0883,-1.0294,-1.9048,4.1178,2.8455e-12,-0.95238,0,0,0.083333,7.5581e-17,0,0.66667
0.96078,0.57742,11.529,0.11613,1.6486,4.2339,-3.5704,1.1901,-1.9476,-4.7606,-5.8348e-08,-0.97379,0,0,0.083333,-0,-0,0.66667
0.2055,0.25097,2.466,-0.37355,-68.528,1082.9,2.4564,-0.81881,-1.5066,3.2753,-8.1912e-11,-0.75329,0,0,0.083333,-0,-0,0.66667
0.66315,0.28458,7.9578,-0.32312,-34.603,238.17,6.857,-2.2857,-1.6255,9.1426,-5.7816e-12,-0.81275,0,0,0.083333,1.579e-15,0,0.66667
0.25643,0.71292,3.0771,0.31938,57.137,970.92,-2.6208,0.87359,-1.6339,-3.4944,4.7562e-13,-0.81694,0,0,0.083333,-1.9737e-16,0,0.66667
0.41776,0.90282,5.0131,0.60424,95.642,640.18,-8.0776,2.6925,-0.70106,-10.77,2.597e-12,-0.35053,0,0,0.083333,-7.3691e-17,0,0.66667
0.97195,0.79455,11.663,0.44182,4.5238,3.2843,-13.742,4.5806,-1.3056,-18.322,-5.1667e-06,-0.65279,0,0,0.083333,1.579e-15,0,0.66667
0.33108,0.21938,3.9729,-0.42092,-71.791,812.75,4.4595,-1.4865,-1.3717,5.946,-5.8891e-12,-0.68583,0,0,0.083333,-7.8949e-16,0,0.66667
0.36202,0.80588,4.3443,0.45882,76.381,749.59,-5.3154,1.7718,-1.2527,-7.0871,1.1864e-11,-0.62635,0,0,0.083333,-5.9212e-16,0,0.66667
0.43957,0.88818,5.2748,0.58227,90.06,598.78,-8.1903,2.7301,-0.79643,-10.92,-7.8559e-12,-0.39822,0,0,0.083333,7.8949e-16,0,0.66667
0.040668,0.2298,0.48801,-0.4053,-77.522,1458.7,0.52745,-0.17582,-1.4121,0.70327,1.3925e-06,-0.70605,0,0,0.083333,-0,-0,0.66667
0.39857,0.98348,4.7828,0.72522,117.1,677.66,-9.2497,3.0832,-0.1255,-12.333,-2.7107e-12,-0.062752,0,0,0.083333,1.7335e-15,0,0.66667
0.61899,0.75301,7.4278,0.37952,44.784,298.95,-7.5174,2.5058,-1.4851,-10.023,-6.3816e-13,-0.74256,0,0,0.083333,-0,-0,0.66667
0.57808,0.34732,6.937,-0.22902,-29.156,359.8,4.2366,-1.4122,-1.8216,5.6488,-6.1773e-12,-0.91082,0,0,0.083333,1.579e-15,0,0.66667
0.87341,0.69227,10.481,0.2884,12.988,37.902,-8.0605,2.6868,-1.7081,-10.747,5.789e-09,-0.85403,0,0,0.083333,-0,-0,0.66667
0.64119,0.48266,7.6942,-0.02601,-2.9256,267.26,0.53366,-0.17789,-2.0032,0.71155,6.713e-13,-1.0016,0,0,0.083333,-0,-0,0.66667
0.55696,0.28943,6.6835,-0.31585,-41.68,393.29,5.6292,-1.8764,-1.6422,7.5057,4.1327e-12,-0.8211,0,0,0.083333,-1.579e-15,0,0.66667
0.64065,0.67751,7.6878,0.26626,30.005,268.24,-5.4586,1.8195,-1.7553,-7.2781,-1.5365e-13,-0.87766,0,0,0.083333,-7.8949e-16,0,0.66667
0.047617,0.81433,0.5714,0.47149,90.155,1442.6,-0.71843,0.23947,-1.216,-0.9579,-1.2238e-06,-0.60802,0,0,0.083333,-0,-0,0.66667
0.99612,0.68887,11.953,0.28331,0.27942,0.52709,-9.0306,3.0102,-1.7145,-12.041,2.0859e-06,-0.85727,0,0,0.083333,-0,-0,0.66667
0.15171,0.22945,1.8205,-0.40583,-75.959,1203.7,1.9701,-0.65671,-1.4122,2.6268,-7.7824e-10,-0.70608,0,0,0.083333,-0,-0,0.66667
0.41845,0.81781,5.0214,0.47671,75.337,638.56,-6.3833,2.1278,-1.1919,-8.5111,-2.1925e-12,-0.59597,0,0,0.083333,-0,-0,0.66667
0.29525,0.80281,3.543,0.45422,79.44,887.81,-4.2915,1.4305,-1.2696,-5.722,-7.395e-12,-0.63478,0,0,0.083333,3.9475e-16,0,0.66667
0.57722,0.81039,6.9266,0.46559,59.442,361.65,-8.5999,2.8666,-1.2352,-11.467,3.2152e-13,-0.6176,0,0,0.083333,-9.8686e-17,0,0.66667
0.55956,0.38471,6.7147,-0.17294,-22.712,388.9,3.0966,-1.0322,-1.894,4.1288,-2.7498e-12,-0.947,0,0,0.083333,1.579e-15,0,0.66667
0.35211,0.38676,4.2254,-0.16986,-28.476,769.32,1.914,-0.63799,-1.8931,2.552,-3.1064e-13,-0.94655,0,0,0.083333,-7.8949e-16,0,0.66667
0.97363,0.5925,11.684,0.13875,1.3083,2.1362,-4.3228,1.4409,-1.9302,-5.7638,-6.0888e-07,-0.96509,0,0,0.083333,1.6777e-15,0,0.66667
0.75127,0.074357,9.0153,-0.63846,-53.294,136.58,15.349,-5.1164,-0.55446,20.466,-4.4791e-12,-0.27723,0,0,0.083333,-0,-0,0.66667
0.88984,0.47627,10.678,-0.035598,-1.4022,28.811,1.0136,-0.33788,-2.001,1.3515,-1.0696e-09,-1.0005,0,0,0.083333,-0,-0,0.66667
0.45541,0.35388,5.4649,-0.21918,-33.238,568.65,3.1942,-1.0647,-1.8308,4.2589,2.6315e-12,-0.9154,0,0,0.083333,-7.8949e-16,0,0.66667
0.59941,0.38751,7.1929,-0.16873,-20.663,327.26,3.2364,-1.0788,-1.8953,4.3152,1.9347e-12,-0.94763,0,0,0.083333,-0,-0,0.66667
0.41345,0.26606,4.9614,-0.3509,-55.697,647.93,4.6426,-1.5475,-1.5578,6.1902,-4.8774e-12,-0.77889,0,0,0.083333,7.8949e-16,0,0.66667
0.30426,0.81819,3.6511,0.47729,82.991,868.82,-4.647,1.549,-1.1863,-6.1959,-1.1759e-11,-0.59314,0,0,0.083333,-0,-0,0.66667
0.52547,0.88331,6.3056,0.57497,79.773,445.74,-9.6681,3.2227,-0.82128,-12.891,-1.7089e-12,-0.41064,0,0,0.083333,-0,-0,0.66667
0.19097,0.46084,2.2916,-0.058738,-10.832,1115.1,0.35895,-0.11965,-1.9873,0.4786,-2.3754e-11,-0.99365,0,0,0.083333,-0,-0,0.66667
0.2141,0.36253,2.5692,-0.2062,-37.664,1063.7,1.4127,-0.47091,-1.8463,1.8836,-4.5658e-11,-0.92317,0,0,0.083333,-0,-0,0.66667
0.51079,0.3033,6.1294,-0.29505,-41.723,470.05,4.8226,-1.6075,-1.688,6.4301,7.4425e-12,-0.844,0,0,0.083333,-3.9475e-16,0,0.66667
0.013852,0.4555,0.16622,-0.066746,-12.774,1520.9,0.029587,-0.009863,-1.9867,0.039448,-1.2131e-06,-0.99336,0,0,0.083333,-0,-0,0.66667
0.44549,0.60343,5.3458,0.15514,23.789,586.98,-2.2116,0.73721,-1.9102,-2.9488,-1.0364e-11,-0.9551,0,0,0.083333,-0,-0,0.66667
0.9967,0.13602,11.96,-0.54597,-0.5408,1.6658,17.413,-5.8045,-0.93976,23.218,5.3146e-06,-0.46988,0,0,0.083333,-0,-9.0112e-17,0.66667
0.82268,0.39534,9.8722,-0.157,-9.6545,71.282,4.133,-1.3777,-1.9091,5.5107,2.656e-11,-0.95456,0,0,0.083333,-7.8949e-16,0,0.66667
0.083461,0.43763,1.0015,-0.093562,-17.785,1359.7,0.24988,-0.083293,-1.9673,0.33317,2.8575e-08,-0.98363,0,0,0.083333,-0,-0,0.66667
0.65589,0.91258,7.8707,0.61887,67.591,248.72,-12.989,4.3297,-0.64502,-17.319,-6.0485e-12,-0.32251,0,0,0.083333,1.579e-15,6.3758e-17,0.66667
0.22539,0.92737,2.7047,0.64106,116.73,1039.1,-4.6237,1.5412,-0.53483,-6.1649,2.7175e-10,-0.26741,0,0,0.083333,-1.9737e-16,0,0.66667
0.11796,0.88753,1.4155,0.5813,109.92,1280.7,-2.1942,0.73139,-0.79424,-2.9256,-5.8726e-08,-0.39712,0,0,0.083333,-0,-0,0.66667
0.34868,0.49436,4.1841,-0.0084663,-1.423,776.28,0.094464,-0.031488,-1.9976,0.12595,-1.3118e-11,-0.99878,0,0,0.083333,1.9737e-16,0,0.66667
0.67717,0.62839,8.126,0.19259,19.916,219.91,-4.1732,1.3911,-1.8659,-5.5643,4.1847e-12,-0.93296,0,0,0.083333,-1.579e-15,0,0.66667
0.55076,0.47968,6.6092,-0.030475,-4.0586,402.99,0.53711,-0.17904,-1.9953,0.71615,-1.6122e-12,-0.99767,0,0,0.083333,-0,-0,0.66667
0.043963,0.78433,0.52755,0.42649,81.56,1451.1,-0.59999,0.2,-1.3545,-0.79999,-1.6718e-06,-0.67725,0,0,0.083333,-0,-0,0.66667
0.85675,0.0087876,10.281,-0.73682,-37.612,49.935,20.201,-6.7336,-0.070709,26.934,-1.2743e-08,-0.035355,0,0,0.083333,-0,-7.9789e-17,0.66667
0.4776,0.76365,5.7311,0.39548,58.445,528.56,-6.0441,2.0147,-1.4397,-8.0588,-2.2289e-12,-0.71983,0,0,0.083333,7.8949e-16,0,0.66667
0.85678,0.40213,10.281,-0.1468,-7.4134,47.539,4.0249,-1.3416,-1.925,5.3666,-9.3987e-10,-0.96252,0,0,0.083333,-1.579e-15,0,0.66667
0.18765,0.18459,2.2518,-0.47311,-87.472,1122.8,2.841,-0.947,-1.2121,3.788,3.2139e-11,-0.60603,0,0,0.083333,1.9737e-16,0,0.66667
0.083733,0.59121,1.0048,0.13681,26.007,1359.1,-0.36659,0.1222,-1.9311,-0.48878,-5.4889e-08,-0.96555,0,0,0.083333,-2.4672e-17,0,0.66667
0.51597,0.75327,6.1916,0.37991,53.358,461.33,-6.2726,2.0909,-1.4941,-8.3635,-9.9432e-13,-0.74707,0,0,0.083333,-0,-0,0.66667
0.45454,0.079215,5.4545,-0.63118,-96.04,571.09,9.1808,-3.0603,-0.5869,12.241,4.4427e-12,-0.29345,0,0,0.083333,-0,-0,0.66667
0.013894,0.80385,0.16673,0.45578,87.325,1520.8,-0.20265,0.067547,-1.2643,-0.2702,-2.6689e-06,-0.63217,0,0,0.083333,-0,-0,0.66667
0.039355,0.13732,0.47226,-0.54401,-104.14,1461.8,0.6851,-0.22836,-0.94335,0.91347,6.6613e-06,-0.47168,0,0,0.083333,-0,-0,0.66667
0.093633,0.42198,1.1236,-0.11702,-22.205,1336.3,0.35064,-0.11688,-1.9582,0.46751,2.6806e-08,-0.9791,0,0,0.083333,-1.9737e-16,0,0.66667
0.040677,0.40013,0.48813,-0.14981,-28.632,1458.6,0.19501,-0.065002,-1.9169,0.26001,-1.2912e-07,-0.95843,0,0,0.083333,-0,-0,0.66667
0.17574,0.76862,2.1089,0.40294,74.807,1149.4,-2.266,0.75532,-1.4213,-3.0213,8.4844e-11,-0.71066,0,0,0.083333,-0,-0,0.66667
0.57554,0.29493,6.9064,-0.3076,-39.347,363.88,5.6651,-1.8884,-1.6644,7.5535,1.3283e-12,-0.83219,0,0,0.083333,-7.8949e-16,0,0.66667
0.47675,0.54357,5.721,0.065361,9.659,529.69,-0.99715,0.33238,-1.9804,-1.3295,-3.7514e-12,-0.99021,0,0,0.083333,-0,-0,0.66667
0.97977,0.095186,11.757,-0.60722,-4.5473,3.2073,19.038,-6.346,-0.68788,25.384,2.1032e-05,-0.34394,0,0,0.083333,3.158e-15,0,0.66667
0.070737,0.36442,0.84885,-0.20337,-38.741,1389.1,0.46034,-0.15345,-1.8487,0.61378,1.6451e-07,-0.92434,0,0,0.083333,9.8686e-17,0,0.66667
0.86742,0.45709,10.409,-0.06437,-3.0227,40.984,1.7867,-0.59558,-1.9809,2.3823,8.9939e-11,-0.99046,0,0,0.083333,7.8949e-16,0,0.66667
0.57852,0.75118,6.9422,0.37678,47.965,359.39,-6.9751,2.325,-1.5028,-9.3001,1.4002e-12,-0.7514,0,0,0.083333,1.579e-15,0,0.66667
0.87648,0.76618,10.518,0.39927,17.602,36.552,-11.198,3.7328,-1.4364,-14.931,-1.6518e-09,-0.71821,0,0,0.083333,-0,-0,0.66667
0.055714,0.13538,0.66856,-0.54694,-104.54,1423.9,0.9751,-0.32503,-0.9323,1.3001,-1.1901e-06,-0.46615,0,0,0.083333,-9.8686e-17,0,0.66667
0.099154,0.065607,1.1898,-0.65159,-123.78,1323.8,2.0674,-0.68915,-0.48816,2.7566,-2.07e-07,-0.24408,0,0,0.083333,-0,-0,0.66667
0.86309,0.33672,10.357,-0.24493,-11.867,43.817,6.7646,-2.2549,-1.786,9.0195,-2.5288e-09,-0.89298,0,0,0.083333,7.8949e-16,0,0.66667
0.57038,0.17495,6.8446,-0.48757,-62.993,372.38,8.8993,-2.9664,-1.1503,11.866,-1.5099e-14,-0.57517,0,0,0.083333,-0,-0,0.66667
0.55849,0.65161,6.7019,0.22742,29.925,390.68,-4.0644,1.3548,-1.8153,-5.4193,-2.1005e-13,-0.90763,0,0,0.083333,1.1842e-15,0,0.66667
0.013013,0.89615,0.15615,0.59422,113.94,1522.8,-0.24743,0.08245,-0.74543,-0.32991,-3.7123e-05,-0.37272,0,0,0.083333,-0,-0,0.66667
0.64225,0.11172,7.707,-0.58241,-65.563,266.95,11.97,-3.9899,-0.79685,15.96,-7.3008e-13,-0.39842,0,0,0.083333,-0,-0,0.66667
0.84766,0.59015,10.172,0.13523,7.2317,53.424,-3.6682,1.2227,-1.9344,-4.8909,7.1753e-10,-0.96722,0,0,0.083333,-7.8949e-16,0,0.66667
0.99613,0.38683,11.954,-0.16975,-0.15806,0.2536,5.4109,-1.8036,-1.8962,7.2145,-1.1567e-06,-0.94808,0,0,0.083333,-0,-0,0.66667
0.43295,0.31054,5.1955,-0.28419,-44.194,610.63,3.9373,-1.3124,-1.7117,5.2498,6.1768e-12,-0.85586,0,0,0.083333,-7.8949e-16,0,0.66667
0.31141,0.19017,3.7369,-0.46475,-80.412,853.77,4.6313,-1.5438,-1.2374,6.175,2.5406e-12,-0.6187,0,0,0.083333,7.8949e-16,0,0.66667
0.40477,0.16796,4.8572,-0.49806,-79.797,664.99,6.4512,-2.1504,-1.1213,8.6016,-7.4221e-12,-0.56066,0,0,0.083333,-0,-0,0.66667
0.22803,0.4193,2.7363,-0.12104,-21.963,1032.9,0.88323,-0.29441,-1.9439,1.1776,7.7383e-13,-0.97194,0,0,0.083333,-0,-0,0.66667
0.2261,0.81613,2.7132,0.4742,86.225,1037.4,-3.4309,1.1436,-1.1971,-4.5745,6.9128e-11,-0.59853,0,0,0.083333,-0,-0,0.66667
0.43364,0.22349,5.2037,-0.41477,-64.493,609.54,5.7556,-1.9185,-1.3877,7.6741,-4.5688e-12,-0.69384,0,0,0.083333,-0,-0,0.66667
0.68454,0.32333,8.2145,-0.265,-26.903,210.79,5.8049,-1.935,-1.7505,7.7399,-2.089e-12,-0.87526,0,0,0.083333,-0,-0,0.66667
0.66074,0.85717,7.9288,0.53576,57.804,241.98,-11.328,3.776,-0.9771,-15.104,-2.0286e-12,-0.48855,0,0,0.083333,-0,-0,0.66667
0.77249,0.27764,9.2699,-0.33354,-25.669,114.54,8.2451,-2.7484,-1.6011,10.993,1.4261e-11,-0.80057,0,0,0.083333,-1.9737e-15,0,0.66667
0.21681,0.25066,2.6018,-0.37401,-68.27,1057.8,2.5949,-0.86497,-1.5064,3.4599,1.541e-13,-0.75318,0,0,0.083333,-0,-0,0.66667
0.72871,0.40707,8.7445,-0.1394,-12.473,158.93,3.2505,-1.0835,-1.9289,4.334,6.3498e-12,-0.96443,0,0,0.083333,-3.158e-15,0,0.66667
0.79525,0.59001,9.543,0.13502,9.4526,93.552,-3.436,1.1453,-1.9391,-4.5813,-5.2303e-11,-0.96953,0,0,0.083333,1.9737e-15,0,0.66667
0.56181,0.50053,6.7418,0.00080059,0.10473,385.22,-0.014393,0.0047977,-2.0069,-0.019191,-2.648e-12,-1.0034,0,0,0.083333,-0,-0,0.66667
0.46567,0.96338,5.588,0.69507,104.46,550.93,-10.358,3.4525,-0.28278,-13.81,7.3594e-12,-0.14139,0,0,0.083333,-9.8686e-16,5.6157e-17,0.66667
0.1582,0.082714,1.8984,-0.62593,-117.06,1189.2,3.1687,-1.0562,-0.60925,4.2249,6.2285e-09,-0.30463,0,0,0.083333,-0,-0,0.66667
0.046453,0.33579,0.55743,-0.24631,-47.061,1445.3,0.36614,-0.12205,-1.7907,0.48818,9.1972e-08,-0.89536,0,0,0.083333,4.9343e-17,0,0.66667
0.46383,0.13498,5.566,-0.54753,-82.36,553.82,8.1268,-2.7089,-0.93144,10.836,2.8013e-12,-0.46572,0,0,0.083333,-0,-0,0.66667
0.6543,0.80689,7.8516,0.46033,50.378,250.23,-9.6382,3.2127,-1.2494,-12.851,-6.8612e-12,-0.6247,0,0,0.083333,7.8217e-16,0,0.66667
0.21255,0.23422,2.5506,-0.39868,-72.921,1067.2,2.7116,-0.90386,-1.4309,3.6154,1.497e-12,-0.71545,0,0,0.083333,-3.9475e-16,0,0.66667
0.39995,0.31306,4.7994,-0.28042,-45.087,674.02,3.5889,-1.1963,-1.718,4.7852,-1.2887e-11,-0.85898,0,0,0.083333,1.579e-15,0,0.66667
0.49764,0.13385,5.9717,-0.54923,-79.188,493.43,8.7461,-2.9154,-0.92902,11.661,-1.0836e-13,-0.46451,0,0,0.083333,-0,-0,0.66667
0.9549,0.56247,11.459,0.093712,1.5324,5.4263,-2.8636,0.95452,-1.973,-3.8181,1.0534e-07,-0.9865,0,0,0.083333,-2.2112e-15,0,0.66667
0.87745,0.93564,10.529,0.65347,28.776,37.273,-18.348,6.1161,-0.4841,-24.464,2.6897e-07,-0.24205,0,0,0.083333,-1.9737e-16,0,0.66667
0.87405,0.9128,10.489,0.61921,27.947,38.943,-17.319,5.773,-0.64188,-23.092,5.6776e-08,-0.32094,0,0,0.083333,-0,-0,0.66667
0.9966,0.1661,11.959,-0.50086,-0.49078,1.4179,15.973,-5.3243,-1.1076,21.297,-2.6953e-07,-0.55379,0,0,0.083333,-0,-8.5189e-17,0.66667
0.77345,0.46386,9.2814,-0.054206,-4.15,113.18,1.3416,-0.44721,-1.9859,1.7888,1.8063e-11,-0.99294,0,0,0.083333,7.8949e-16,0,0.66667
0.20306,0.40338,2.4367,-0.14493,-26.598,1088.2,0.94175,-0.31392,-1.9335,1.2557,-7.6187e-11,-0.96675,0,0,0.083333,4.9343e-17,0,0.66667
0.83989,0.6164,10.079,0.1746,9.7795,58.772,-4.6927,1.5642,-1.8905,-6.257,1.8023e-10,-0.94523,0,0,0.083333,-0,-0,0.66667
0.16625,0.80773,1.995,0.4616,86.01,1170.9,-2.4557,0.81856,-1.2397,-3.2742,-3.5949e-10,-0.61984,0,0,0.083333,9.8686e-17,0,0.66667
0.88909,0.90186,10.669,0.6028,24.125,30.904,-17.15,5.7167,-0.71201,-22.867,-7.0492e-08,-0.356,0,0,0.083333,3.9475e-16,0,0.66667
0.33858,0.2391,4.063,-0.39135,-66.359,797.24,4.2401,-1.4134,-1.4525,5.6535,-3.9631e-12,-0.72623,0,0,0.083333,-3.9475e-16,0,0.66667
0.28794,0.9023,3.4553,0.60344,106.13,903.57,-5.5603,1.8534,-0.70198,-7.4137,-2.4568e-11,-0.35099,0,0,0.083333,-0,-0,0.66667
0.60622,0.68511,7.2747,0.27767,33.58,317.31,-5.3866,1.7955,-1.7268,-7.1821,-1.8119e-12,-0.86339,0,0,0.083333,7.8949e-16,0,0.66667
0.060612,0.36258,0.72734,-0.20613,-39.32,1412.5,0.3998,-0.13327,-1.8513,0.53306,1.3473e-07,-0.92563,0,0,0.083333,-0,-0,0.66667
0.90709,0.46791,10.885,-0.048132,-1.6095,20.864,1.3971,-0.4657,-1.9982,1.8628,-4.6487e-08,-0.99908,0,0,0.083333,-1.9737e-15,0,0.66667
0.38107,0.19756,4.5728,-0.45366,-74.287,711.45,5.5321,-1.844,-1.2646,7.3761,8.5247e-12,-0.63228,0,0,0.083333,-7.8949e-16,0,0.66667
0.78998,0.8593,9.4798,0.53894,38.748,99.302,-13.624,4.5414,-0.96294,-18.166,-3.9066e-11,-0.48147,0,0,0.083333,-1.579e-15,0,0.66667
0.71055,0.77097,8.5266,0.40645,38.471,179.96,-9.2417,3.0806,-1.4084,-12.322,3.1761e-12,-0.70418,0,0,0.083333,-7.8949e-16,0,0.66667
0.70415,0.27606,8.4498,-0.3359,-32.359,187.23,7.5688,-2.5229,-1.604,10.092,-1.9065e-12,-0.80198,0,0,0.083333,-0,-0,0.66667
0.53263,0.1956,6.3915,-0.45659,-62.628,433.41,7.7822,-2.5941,-1.2626,10.376,4.7251e-12,-0.63131,0,0,0.083333,-1.579e-15,0,0.66667
0.46668,0.88395,5.6001,0.57593,86.358,548.73,-8.6007,2.8669,-0.82281,-11.468,-6.1906e-13,-0.4114,0,0,0.083333,-7.8949e-16,0,0.66667
0.6454,0.052621,7.7448,-0.67107,-75.098,263.04,13.859,-4.6198,-0.39634,18.479,-1.0356e-12,-0.19817,0,0,0.083333,-0,-0,0.66667
0.69158,0.00065314,8.2989,-0.74902,-75.028,203.95,16.576,-5.5254,-0.0049938,22.102,1.2776e-11,-0.0024969,0,0,0.083333,-6.3159e-15,0,0.66667
0.23582,0.80525,2.8298,0.45787,82.855,1016,-3.4552,1.1517,-1.2584,-4.6069,3.9414e-11,-0.6292,0,0,0.083333,-0,-0,0.66667
0.75381,0.46888,9.0457,-0.046674,-3.8422,132.38,1.1259,-0.37529,-1.9925,1.5012,-8.902e-12,-0.99627,0,0,0.083333,-0,-0,0.66667
0.93662,0.86543,11.239,0.54814,12.769,11.639,-16.429,5.4763,-0.93669,-21.905,-1.0217e-07,-0.46835,0,0,0.083333,7.8949e-16,-9.3128e-17,0.66667
0.8151,0.45436,9.7812,-0.068458,-4.3717,77.08,1.7856,-0.5952,-1.9841,2.3808,-1.2611e-11,-0.99205,0,0,0.083333,-0,-0,0.66667
0.73061,0.045553,8.7673,-0.68167,-60.949,158.58,15.937,-5.3124,-0.34651,21.249,2.4514e-12,-0.17325,0,0,0.083333,-1.579e-15,0,0.66667
0.82171,0.12038,9.8605,-0.56942,-35.368,73.336,14.973,-4.9909,-0.84389,19.964,7.145e-10,-0.42194,0,0,0.083333,-7.8949e-16,0,0.66667
0.0069549,0.31145,0.083459,-0.28282,-54.158,1536.9,0.062944,-0.020981,-1.7127,0.083926,1.4194e-06,-0.85637,0,0,0.083333,1.542e-17,0,0.66667
0.17482,0.55718,2.0979,0.085764,15.914,1151.3,-0.4798,0.15993,-1.9747,-0.63973,-4.5349e-11,-0.98733,0,0,0.083333,-1.9737e-16,0,0.66667
0.34198,0.2631,4.1038,-0.35535,-60.087,790.21,3.8887,-1.2962,-1.5536,5.1849,-1.4344e-12,-0.7768,0,0,0.083333,-0,-0,0.66667
0.73352,0.46297,8.8022,-0.055542,-4.894,153.62,1.3037,-0.43457,-1.9945,1.7383,3.7504e-12,-0.99726,0,0,0.083333,-3.9475e-16,0,0.66667
0.97837,0.14085,11.74,-0.53873,-4.2734,2.952,16.866,-5.6222,-0.96422,22.489,1.3752e-05,-0.48211,0,0,0.083333,-0,-0,0.66667
0.73288,0.21193,8.7945,-0.43211,-38.235,155.03,10.134,-3.378,-1.3398,13.512,1.6511e-12,-0.66992,0,0,0.083333,-7.8949e-16,0,0.66667
0.47899,0.50457,5.7479,0.006852,1.0097,525.66,-0.10503,0.035008,-1.9973,-0.14003,-3.7784e-12,-0.99867,0,0,0.083333,3.158e-15,0,0.66667
0.92105,0.61173,11.053,0.1676,4.7875,15.463,-4.9398,1.6466,-1.9051,-6.5864,8.8954e-08,-0.95253,0,0,0.083333,-0,-0,0.66667
0.3777,0.35179,4.5324,-0.22231,-36.476,717.84,2.6869,-0.89563,-1.8252,3.5825,3.0043e-13,-0.91261,0,0,0.083333,-0,-0,0.66667
0.64169,0.93411,7.7003,0.65117,73.45,268.01,-13.371,4.4571,-0.49768,-17.828,-2.4905e-12,-0.24884,0,0,0.083333,-1.9737e-16,0,0.66667
0.0015045,0.80301,0.018054,0.45452,87.1,1549.5,-0.021879,0.0072934,-1.2689,-0.029171,8.0431e-07,-0.63445,0,0,0.083333,1.542e-18,1.669e-16,0.66667
0.17936,0.05775,2.1523,-0.66338,-123.19,1141.6,3.8074,-1.2691,-0.43169,5.0766,1.0293e-08,-0.21584,0,0,0.083333,-0,-0,0.66667
0.29484,0.44,3.5381,-0.089995,-15.725,888.38,0.84909,-0.28303,-1.9743,1.1321,9.6803e-12,-0.98717,0,0,0.083333,-0,-0,0.66667
0.38699,0.65195,4.6439,0.22793,37.088,699.41,-2.8226,0.94087,-1.8151,-3.7635,-2.4858e-12,-0.90753,0,0,0.083333,9.8686e-16,0,0.66667
0.45982,0.095491,5.5178,-0.60676,-91.744,561.33,8.9281,-2.976,-0.68809,11.904,9.9565e-13,-0.34405,0,0,0.083333,1.579e-15,0,0.66667
0.79672,0.59366,9.5606,0.14049,9.7726,92.297,-3.5817,1.1939,-1.9383,-4.7756,-7.7119e-11,-0.96915,0,0,0.083333,1.9861e-15,0,0.66667
0.27985,0.23424,3.3581,-0.39865,-70.379,920.55,3.5699,-1.19,-1.4384,4.7599,-1.974e-12,-0.71918,0,0,0.083333,3.9475e-16,0,0.66667
0.082662,0.06807,0.99194,-0.6479,-123.45,1361.8,1.7138,-0.57126,-0.50578,2.2851,2.1067e-07,-0.25289,0,0,0.083333,-0,-0,0.66667
0.52137,0.56691,6.2564,0.10036,13.974,451.77,-1.6745,0.55815,-1.9614,-2.2326,1.5943e-13,-0.98071,0,0,0.083333,-0,-0,0.66667
0.98115,0.53115,11.774,0.046732,0.30788,1.1453,-1.4672,0.48908,-1.9935,-1.9563,-5.9426e-07,-0.99675,0,0,0.083333,9.8686e-16,0,0.66667
0.40076,0.89873,4.8091,0.59809,96.264,673.04,-7.6701,2.5567,-0.72514,-10.227,3.6171e-12,-0.36257,0,0,0.083333,-0,-0,0.66667
0.25719,0.32695,3.0863,-0.25957,-46.408,969.22,2.1363,-0.71211,-1.756,2.8484,-1.4426e-12,-0.87802,0,0,0.083333,-0,-0,0.66667
0.77634,0.79751,9.3161,0.44627,33.873,111.29,-11.087,3.6955,-1.289,-14.782,-4.1031e-11,-0.64452,0,0,0.083333,-0,-0,0.66667
0.61558,0.36792,7.387,-0.19812,-23.517,303.51,3.9027,-1.3009,-1.857,5.2036,-3.4626e-12,-0.92848,0,0,0.083333,3.9475e-16,0,0.66667
0.0075483,0.74472,0.09058,0.36707,70.311,1535.5,-0.088665,0.029553,-1.5172,-0.11822,-2.3352e-06,-0.7586,0,0,0.083333,-1.542e-17,0,0.66667
0.98621,0.73741,11.834,0.35612,1.7125,1.3378,-11.239,3.7462,-1.5515,-14.985,-3.4643e-09,-0.77577,0,0,0.083333,-1.579e-15,0,0.66667
0.48892,0.69282,5.867,0.28922,42.113,508.19,-4.525,1.5083,-1.7009,-6.0334,-1.7422e-12,-0.85045,0,0,0.083333,1.579e-15,0,0.66667
0.30402,0.41774,3.6483,-0.12339,-21.43,868.97,1.2004,-0.40013,-1.9416,1.6005,4.3396e-12,-0.9708,0,0,0.083333,-0,-0,0.66667
0.66508,0.70055,7.9809,0.30082,32.062,235.61,-6.4022,2.1341,-1.674,-8.5362,-1.4686e-12,-0.83701,0,0,0.083333,-0,-0,0.66667
0.28556,0.65862,3.4267,0.23793,41.833,908.18,-2.1742,0.72474,-1.7978,-2.899,-1.6619e-11,-0.89891,0,0,0.083333,-0,-0,0.66667
0.46354,0.45538,5.5625,-0.066924,-10.05,553.62,0.99271,-0.3309,-1.9809,1.3236,-2.611e-12,-0.99047,0,0,0.083333,7.8949e-16,0,0.66667
0.65182,0.80568,7.8219,0.45852,50.464,253.54,-9.5639,3.188,-1.2508,-12.752,-7.522e-12,-0.62538,0,0,0.083333,1.1842e-15,0,0.66667
0.12188,0.20821,1.4626,-0.43769,-82.62,1271.6,1.7071,-0.56903,-1.3188,2.2761,-6.9085e-09,-0.65939,0,0,0.083333,-0,-0,0.66667
0.46722,0.709,5.6067,0.3135,46.901,547.15,-4.6872,1.5624,-1.6539,-6.2495,-7.9288e-12,-0.82695,0,0,0.083333,3.9475e-16,0,0.66667
0.73521,0.73287,8.8225,0.3493,30.655,152.27,-8.2178,2.7393,-1.5711,-10.957,-6.8034e-13,-0.78554,0,0,0.083333,-0,-0,0.66667
0.96052,0.8993,11.526,0.59895,8.7748,6.0531,-18.41,6.1366,-0.72057,-24.546,1.3949e-05,-0.36029,0,0,0.083333,1.579e-15,0,0.66667
0.021389,0.63735,0.25667,0.20602,39.427,1503.4,-0.14101,0.047005,-1.8455,-0.18802,1.0821e-06,-0.92275,0,0,0.083333,-0,-0,0.66667
0.83248,0.66735,9.9898,0.25102,14.665,64.174,-6.687,2.229,-1.7739,-8.916,-4.6644e-11,-0.88696,0,0,0.083333,-0,-0,0.66667
0.93915,0.50438,11.27,0.00657,0.14502,9.3937,-0.19745,0.065815,-2.0036,-0.26326,-5.1404e-07,-1.0018,0,0,0.083333,-0,-0,0.66667
0.98582,0.81944,11.83,0.47916,2.4255,1.9093,-15.116,5.0386,-1.1875,-20.154,3.9512e-06,-0.59375,0,0,0.083333,-0,-0,0.66667
0.93783,0.14503,11.254,-0.53245,-12.162,11.195,15.979,-5.3264,-0.99839,21.306,1.9216e-07,-0.49919,0,0,0.083333,-0,-0,0.66667
0.12925,0.31695,1.551,-0.27458,-51.7,1254.7,1.1357,-0.37856,-1.7308,1.5142,5.0992e-09,-0.86538,0,0,0.083333,-0,-0,0.66667
0.88602,0.45458,10.632,-0.068132,-2.7727,30.755,1.9317,-0.64391,-1.981,2.5756,-6.4836e-09,-0.9905,0,0,0.083333,-0,-0,0.66667
0.15286,0.39646,1.8343,-0.15531,-29.036,1201,0.75972,-0.25324,-1.9138,1.013,6.3354e-10,-0.95688,0,0,0.083333,-1.9737e-16,0,0.66667
0.36052,0.3097,4.3262,-0.28545,-47.541,752.38,3.2931,-1.0977,-1.7155,4.3908,4.8463e-12,-0.85775,0,0,0.083333,-0,-0,0.66667
0.36116,0.066237,4.3339,-0.65064,-108.53,751.74,7.5196,-2.5065,-0.49828,10.026,-7.5393e-12,-0.24914,0,0,0.083333,7.8949e-16,0,0.66667
0.27979,0.66117,3.3574,0.24175,42.656,920.52,-2.1644,0.72147,-1.7963,-2.8859,-1.2833e-11,-0.89813,0,0,0.083333,-7.8949e-16,0,0.66667
0.3548,0.85379,4.2577,0.53068,88.91,764.33,-6.0252,2.0084,-0.99643,-8.0336,5.774e-12,-0.49821,0,0,0.083333,-0,-0,0.66667
0.543,0.856,6.516,0.53399,72.143,416.48,-9.2787,3.0929,-0.98472,-12.372,3.3342e-12,-0.49236,0,0,0.083333,-7.8949e-16,0,0.66667
0.078517,0.23343,0.9422,-0.39986,-76.133,1371.2,1.0047,-0.33489,-1.4376,1.3395,1.286e-07,-0.71881,0,0,0.083333,9.8686e-17,0,0.66667
0.37287,0.14908,4.4744,-0.52638,-86.858,727.93,6.2807,-2.0936,-1.0171,8.3742,-1.7151e-12,-0.50854,0,0,0.083333,3.9475e-16,0,0.66667
0.58322,0.82772,6.9986,0.49158,62.116,352.45,-9.1744,3.0581,-1.1377,-12.233,2.7773e-12,-0.56886,0,0,0.083333,-7.8949e-16,0,0.66667
0.13425,0.012047,1.611,-0.73193,-137.98,1243.6,3.1444,-1.0481,-0.091228,4.1925,5.5251e-08,-0.045614,0,0,0.083333,-0,-0,0.66667
0.24299,0.89676,2.9159,0.59514,107.39,1000.5,-4.6276,1.5425,-0.73658,-6.1701,2.6075e-10,-0.36829,0,0,0.083333,-3.9475e-16,0,0.66667
0.31278,0.075172,3.7533,-0.63724,-110.28,851.22,6.3781,-2.126,-0.56265,8.5041,-1.6812e-11,-0.28133,0,0,0.083333,-0,-0,0.66667
0.074534,0.26455,0.89441,-0.35318,-67.273,1380.4,0.84235,-0.28078,-1.5555,1.1231,2.2632e-07,-0.77773,0,0,0.083333,-9.8686e-17,0,0.66667
0.80769,0.34351,9.6923,-0.23473,-15.544,83.253,6.067,-2.0223,-1.803,8.0893,7.0832e-11,-0.9015,0,0,0.083333,-2.2945e-15,0,0.66667
0.2634,0.12764,3.1608,-0.55854,-99.654,956.13,4.7078,-1.5693,-0.89349,6.277,-5.1334e-11,-0.44674,0,0,0.083333,-0,-8.2705e-17,0.66667
0.4106,0.45806,4.9272,-0.062905,-10.005,653.17,0.82653,-0.27551,-1.9839,1.102,-1.1669e-11,-0.99196,0,0,0.083333,3.9475e-16,0,0.66667
0.40541,0.83519,4.865,0.50278,80.507,663.76,-6.5227,2.1742,-1.1064,-8.697,1.3731e-12,-0.5532,0,0,0.083333,3.9475e-16,0,0.66667
0.30474,0.99385,3.6568,0.74077,129.01,868.33,-7.2236,2.4079,-0.045083,-9.6315,-1.1046e-11,-0.022542,0,0,0.083333,-0,-0,0.66667
0.12774,0.27162,1.5329,-0.34257,-64.543,1258.2,1.4003,-0.46677,-1.5834,1.8671,4.9605e-09,-0.79172,0,0,0.083333,-9.8686e-17,0,0.66667
0.89356,0.27205,10.723,-0.34193,-13.074,27.544,9.7772,-3.2591,-1.5847,13.036,-3.9493e-08,-0.79234,0,0,0.083333,-7.8949e-16,0,0.66667
0.68139,0.3169,8.1767,-0.27465,-28.11,214.73,5.9885,-1.9962,-1.7288,7.9847,-1.311e-12,-0.86438,0,0,0.083333,-0,-0,0.66667
0.26689,0.1912,3.2027,-0.46321,-82.433,948.45,3.956,-1.3187,-1.2419,5.2747,-2.1376e-12,-0.62093,0,0,0.083333,-0,-0,0.66667
0.092431,0.84151,1.1092,0.51226,97.355,1339.2,-1.5152,0.50506,-1.0718,-2.0202,-7.2762e-08,-0.53592,0,0,0.083333,-9.5993e-17,0,0.66667
0.1235,0.73021,1.4819,0.34532,65.131,1267.9,-1.3646,0.45488,-1.5793,-1.8195,-3.0142e-09,-0.78965,0,0,0.083333,1.9737e-16,0,0.66667
0.27644,0.3347,3.3172,-0.24795,-43.839,927.7,2.1933,-0.73111,-1.779,2.9244,2.5122e-12,-0.88948,0,0,0.083333,1.9737e-16,0,0.66667
0.049043,0.94023,0.58852,0.66035,126.4,1439.4,-1.0363,0.34545,-0.45233,-1.3818,-4.4431e-06,-0.22617,0,0,0.083333,-0,-0,0.66667
0.14515,0.37122,1.7418,-0.19317,-36.201,1218.5,0.8972,-0.29907,-1.8659,1.1963,8.8555e-10,-0.93296,0,0,0.083333,-4.9343e-17,0,0.66667
0.47503,0.7379,5.7004,0.35685,52.893,533.1,-5.4244,1.8081,-1.5433,-7.2326,-3.312e-12,-0.77165,0,0,0.083333,-0,-0,0.66667
0.93598,0.14027,11.232,-0.5396,-12.689,11.784,16.162,-5.3872,-0.96786,21.549,6.6543e-09,-0.48393,0,0,0.083333,1.579e-15,2.5816e-17,0.66667
0.43407,0.47495,5.2088,-0.037572,-5.8328,608.34,0.52188,-0.17396,-1.9948,0.69585,1.7502e-11,-0.99741,0,0,0.083333,-1.579e-15,0,0.66667
0.70914,0.71212,8.5097,0.31818,30.217,181.35,-7.2202,2.4067,-1.6368,-9.627,-1.9491e-12,-0.81838,0,0,0.083333,1.1842e-15,0,0.66667
0.57031,0.50896,6.8437,0.01344,1.7334,371.78,-0.24529,0.081762,-1.9952,-0.32705,-2.6667e-12,-0.9976,0,0,0.083333,-0,-0,0.66667
0.97624,0.55261,11.715,0.078916,0.66581,1.7262,-2.4653,0.82177,-1.9736,-3.2871,-2.3668e-07,-0.98682,0,0,0.083333,7.8949e-16,0,0.66667
0.17821,0.58353,2.1385,0.1253,23.222,1143.7,-0.71454,0.23818,-1.9403,-0.95272,5.7213e-11,-0.97016,0,0,0.083333,1.9737e-16,0,0.66667
0.73911,0.70115,8.8693,0.30173,26.137,147.98,-7.1362,2.3787,-1.6737,-9.515,-2.0144e-12,-0.83684,0,0,0.083333,-0,-0,0.66667
0.35041,0.64576,4.2049,0.21864,36.708,772.84,-2.4516,0.8172,-1.826,-3.2688,-1.3876e-12,-0.913,0,0,0.083333,-0,-0,0.66667
0.99121,0.38334,11.895,-0.17499,-0.49139,0.48863,5.5506,-1.8502,-1.8872,7.4008,-5.3561e-07,-0.9436,0,0,0.083333,-0,-0,0.66667
0.35281,0.13027,4.2337,-0.55459,-93.08,768.43,6.2613,-2.0871,-0.903,8.3484,-1.3101e-13,-0.4515,0,0,0.083333,-0,-0,0.66667
0.97878,0.15083,11.745,-0.52375,-4.0653,2.8226,16.405,-5.4682,-1.0218,21.873,1.1238e-05,-0.51092,0,0,0.083333,-0,-0,0.66667
0.86037,0.64047,10.324,0.2107,10.395,45.406,-5.8009,1.9336,-1.8466,-7.7346,1.9595e-09,-0.9233,0,0,0.083333,-0,-0,0.66667
0.59774,0.91003,7.1728,0.61505,75.78,330.88,-11.764,3.9215,-0.65429,-15.686,-2.0304e-12,-0.32715,0,0,0.083333,-0,-0,0.66667
0.027448,0.32369,0.32938,-0.26446,-50.603,1489.3,0.23229,-0.07743,-1.7501,0.30971,-1.5948e-06,-0.87504,0,0,0.083333,-0,-0,0.66667
0.18553,0.038911,2.2264,-0.69163,-128.16,1127.8,4.1062,-1.3687,-0.3017,5.475,2.7465e-10,-0.15085,0,0,0.083333,-0,-7.3048e-17,0.66667
0.056512,0.027569,0.67814,-0.70865,-135.58,1422.1,1.2815,-0.42718,-0.21163,1.7087,-1.8735e-05,-0.10582,0,0,0.083333,-0,-0,0.66667
0.79246,0.66157,9.5095,0.24235,17.183,96.149,-6.1457,2.0486,-1.7897,-8.1943,-4.348e-11,-0.89483,0,0,0.083333,-1.579e-15,0,0.66667
0.073951,0.96627,0.88741,0.69941,133.5,1381.9,-1.6551,0.55169,-0.26,-2.2068,-9.4316e-06,-0.13,0,0,0.083333,-1.2336e-16,8.3648e-17,0.66667
0.78646,0.98878,9.4375,0.73317,53.681,103.47,-18.451,6.1505,-0.085732,-24.602,-3.1798e-10,-0.042866,0,0,0.083333,7.8949e-16,0,0.66667
0.027952,0.91755,0.33542,0.62633,120.05,1488.2,-0.56023,0.18677,-0.60479,-0.74696,3.8354e-05,-0.30239,0,0,0.083333,-0,-0,0.66667
0.25521,0.65201,3.0625,0.22802,40.808,973.5,-1.8621,0.62071,-1.8129,-2.4829,8.1946e-13,-0.90644,0,0,0.083333,9.8686e-17,0,0.66667
0.29758,0.77834,3.571,0.41751,72.896,882.82,-3.9759,1.3253,-1.3865,-5.3011,-1.1273e-11,-0.69327,0,0,0.083333,3.9475e-16,0,0.66667
0.56461,0.38915,6.7753,-0.16628,-21.656,380.86,3.0042,-1.0014,-1.9035,4.0057,3.5598e-12,-0.95174,0,0,0.083333,-7.8949e-16,0,0.66667
0.56206,0.93534,6.7447,0.653,85.676,386.1,-11.745,3.915,-0.4911,-15.66,-3.6575e-12,-0.24555,0,0,0.083333,-9.8686e-17,2.5452e-17,0.66667
0.8874,0.7612,10.649,0.3918,15.821,30.756,-11.126,3.7086,-1.4539,-14.835,1.3234e-08,-0.72695,0,0,0.083333,-1.579e-15,0,0.66667
0.63738,0.98187,7.6485,0.7228,82.369,274.28,-14.742,4.9141,-0.14201,-19.656,9.8943e-13,-0.071006,0,0,0.083333,-0,-0,0.66667
0.16146,0.39915,1.9375,-0.15127,-28.202,1181.5,0.78159,-0.26053,-1.916,1.0421,4.8997e-11,-0.95798,0,0,0.083333,3.9166e-16,0,0.66667
0.026995,0.37125,0.32394,-0.19313,-36.949,1490.4,0.16683,-0.055611,-1.8663,0.22244,-1.0517e-06,-0.93316,0,0,0.083333,-6.1679e-17,0,0.66667
0.76198,0.9189,9.1438,0.62835,50.486,125.82,-15.321,5.1071,-0.5951,-20.429,3.2955e-11,-0.29755,0,0,0.083333,-0,1.6175e-17,0.66667
0.53557,0.25423,6.4268,-0.36866,-50.317,428.31,6.3182,-2.1061,-1.5155,8.4242,-4.2011e-12,-0.75777,0,0,0.083333,-0,-0,0.66667
0.57863,0.89551,6.9435,0.59327,75.64,359.87,-10.985,3.6617,-0.7545,-14.647,2.3235e-12,-0.37725,0,0,0.083333,-0,-0,0.66667
0.41411,0.023823,4.9693,-0.71427,-113.58,647.53,9.465,-3.155,-0.18204,12.62,-1.7694e-11,-0.091018,0,0,0.083333,-0,-0,0.66667
0.58982,0.11237,7.0778,-0.58144,-72.665,342.69,10.974,-3.6581,-0.79643,14.632,8.2689e-13,-0.39822,0,0,0.083333,-7.8949e-16,0,0.66667
0.40563,0.5458,4.8676,0.068703,10.981,662.8,-0.89178,0.29726,-1.9887,-1.189,2.9441e-12,-0.99434,0,0,0.083333,-0,-0,0.66667
0.44569,0.43046,5.3483,-0.10431,-15.99,586.57,1.4877,-0.4959,-1.9574,1.9836,5.9897e-13,-0.97869,0,0,0.083333,3.9475e-16,0,0.66667
0.59274,0.62907,7.1129,0.19361,24.007,337.31,-3.6723,1.2241,-1.8721,-4.8964,-4.2126e-12,-0.93603,0,0,0.083333,1.579e-15,0,0.66667
0.49234,0.31065,5.9081,-0.28402,-41.171,502.14,4.4747,-1.4916,-1.71,5.9663,-4.1003e-12,-0.85502,0,0,0.083333,1.0856e-15,0,0.66667
0.059103,0.71322,0.70924,0.31983,61.041,1416,-0.6049,0.20163,-1.6363,-0.80654,-1.7704e-07,-0.81814,0,0,0.083333,4.9343e-17,0,0.66667
0.97679,0.42932,11.721,-0.10602,-0.87334,1.6847,3.3139,-1.1046,-1.956,4.4185,6.7332e-07,-0.97798,0,0,0.083333,-7.8949e-16,0,0.66667
0.85514,0.54424,10.262,0.066367,3.386,48.498,-1.8161,0.60537,-1.9824,-2.4215,6.4242e-10,-0.99118,0,0,0.083333,1.579e-15,0,0.66667
0.37909,0.50191,4.549,0.0028618,0.46883,714.98,-0.034716,0.011572,-1.9995,-0.046288,9.3205e-12,-0.99974,0,0,0.083333,-0,-0,0.66667
0.54652,0.047108,6.5583,-0.67934,-91.403,411.23,11.881,-3.9603,-0.36533,15.841,8.6153e-14,-0.18266,0,0,0.083333,-0,-0,0.66667
0.93287,0.63826,11.194,0.20739,5.0546,11.504,-6.1911,2.0637,-1.8446,-8.2548,1.7046e-07,-0.92229,0,0,0.083333,-0,-0,0.66667
0.39797,0.71966,4.7756,0.32949,53.087,677.96,-4.196,1.3987,-1.6111,-5.5946,5.584e-12,-0.80554,0,0,0.083333,-1.579e-15,0,0.66667
0.94477,0.71087,11.337,0.3163,6.3709,8.3408,-9.5626,3.1875,-1.6403,-12.75,1.4953e-07,-0.82014,0,0,0.083333,7.8949e-16,0,0.66667
0.030486,0.42722,0.36584,-0.10918,-20.88,1482.3,0.10651,-0.035503,-1.9629,0.14201,-5.4021e-07,-0.98144,0,0,0.083333,-0,-0,0.66667
0.7458,0.91331,8.9496,0.61997,52.711,142.11,-14.796,4.932,-0.63192,-19.728,2.8528e-12,-0.31596,0,0,0.083333,-1.579e-15,0,0.66667
0.79701,0.45601,9.5641,-0.06599,-4.5836,91.984,1.683,-0.56101,-1.9914,2.244,3.1163e-11,-0.99571,0,0,0.083333,-0,-0,0.66667
0.19384,0.65975,2.326,0.23962,44.153,1108.8,-1.4863,0.49544,-1.7928,-1.9817,5.981e-11,-0.89641,0,0,0.083333,-0,-0,0.66667
0.16287,0.049645,1.9544,-0.67553,-126.19,1178.7,3.5207,-1.1736,-0.3733,4.6943,-8.1626e-09,-0.18665,0,0,0.083333,-0,-0,0.66667
0.59108,0.052066,7.0929,-0.6719,-83.857,341.13,12.709,-4.2362,-0.39563,16.945,-4.17e-12,-0.19782,0,0,0.083333,-0,-8.7793e-17,0.66667
0.47969,0.053234,5.7563,-0.67015,-98.982,525.56,10.287,-3.429,-0.40089,13.716,-5.099e-12,-0.20045,0,0,0.083333,3.9475e-16,8.6759e-18,0.66667
0.58654,0.50702,7.0385,0.010534,1.3206,346.61,-0.19772,0.065906,-1.9957,-0.26362,-1.7572e-12,-0.99786,0,0,0.083333,-0,-0,0.66667
0.13227,0.082697,1.5873,-0.62595,-117.97,1248.1,2.6495,-0.88315,-0.6026,3.5326,-6.168e-08,-0.3013,0,0,0.083333,-1.9737e-16,0,0.66667
0.27774,0.69664,3.3328,0.29496,52.118,924.95,-2.6215,0.87382,-1.69,-3.4953,-2.0567e-11,-0.84502,0,0,0.083333,-0,-0,0.66667
0.069672,0.33608,0.83607,-0.24588,-46.851,1391.6,0.54818,-0.18273,-1.7811,0.73091,1.9897e-07,-0.89055,0,0,0.083333,-0,-0,0.66667
0.108,0.11412,1.296,-0.57882,-109.7,1303.5,2.0003,-0.66678,-0.8124,2.6671,-1.1727e-07,-0.4062,0,0,0.083333,-0,-0,0.66667
0.71638,0.17926,8.5965,-0.48111,-44.803,173.52,11.029,-3.6764,-1.1786,14.705,-3.1086e-12,-0.58929,0,0,0.083333,-0,-0,0.66667
0.026402,0.13146,0.31682,-0.5528,-105.92,1491.8,0.46705,-0.15569,-0.91124,0.62272,-1.8269e-05,-0.45562,0,0,0.083333,-0,-0,0.66667
0.53965,0.9154,6.4758,0.6231,84.683,422.29,-10.76,3.5868,-0.61541,-14.347,5.6755e-13,-0.3077,0,0,0.083333,-0,-0,0.66667
0.29866,0.76246,3.584,0.39369,68.679,880.51,-3.7625,1.2542,-1.4515,-5.0167,-4.1755e-12,-0.72575,0,0,0.083333,-0,-0,0.66667
0.8685,0.39235,10.422,-0.16147,-7.5277,40.453,4.4875,-1.4958,-1.9032,5.9833,-2.969e-09,-0.95159,0,0,0.083333,-0,-0,0.66667
0.54504,0.88012,6.5405,0.57018,76.813,413.26,-9.9447,3.3149,-0.84721,-13.26,2.9621e-12,-0.42361,0,0,0.083333,-1.579e-15,1.2308e-16,0.66667
0.99755,0.020554,11.971,-0.71917,-0.64254,2.8073,22.957,-7.6521,-0.16196,30.609,0.00011116,-0.080979,0,0,0.083333,3.158e-15,-2.6659e-16,0.66667
0.56108,0.72499,6.7329,0.33748,44.241,386.74,-6.0593,2.0198,-1.599,-8.0791,-8.3933e-13,-0.79951,0,0,0.083333,1.579e-15,0,0.66667
0.5621,0.31103,6.7452,-0.28346,-37.086,385.01,5.0986,-1.6995,-1.7218,6.7981,2.6126e-12,-0.86089,0,0,0.083333,-1.1842e-15,0,0.66667
0.33511,0.77139,4.0213,0.40708,69.216,804.41,-4.3653,1.4551,-1.4067,-5.8204,4.0346e-12,-0.70334,0,0,0.083333,-3.9475e-16,0,0.66667
0.25232,0.21904,3.0279,-0.42145,-75.598,979.93,3.4029,-1.1343,-1.3714,4.5372,-2.3046e-12,-0.68571,0,0,0.083333,-0,-0,0.66667
0.42737,0.8209,5.1284,0.48135,75.375,621.55,-6.5829,2.1943,-1.1731,-8.7772,-3.9719e-12,-0.58655,0,0,0.083333,-0,-0,0.66667
0.22718,0.12757,2.7261,-0.55865,-101.58,1035.1,4.0612,-1.3537,-0.88713,5.4149,-1.0745e-10,-0.44356,0,0,0.083333,-0,-0,0.66667
0.070876,0.2131,0.85051,-0.43035,-82.045,1388.8,0.97606,-0.32535,-1.3378,1.3014,2.9661e-07,-0.66889,0,0,0.083333,-0,-0,0.66667
0.42505,0.76592,5.1006,0.39888,62.582,625.79,-5.4254,1.8085,-1.4339,-7.2339,-5.9903e-12,-0.71697,0,0,0.083333,-0,-0,0.66667
0.10642,0.55692,1.277,0.085385,16.159,1306.9,-0.29077,0.096922,-1.9748,-0.38769,-1.6548e-08,-0.98742,0,0,0.083333,-9.8686e-17,0,0.66667
0.72312,0.39708,8.6774,-0.15438,-14.055,165.13,3.5723,-1.1908,-1.9133,4.7631,7.0566e-13,-0.95667,0,0,0.083333,-0,-0,0.66667
0.29839,0.56864,3.5807,0.10296,17.949,880.85,-0.98309,0.3277,-1.9661,-1.3108,-1.3524e-11,-0.98304,0,0,0.083333,-0,-0,0.66667
0.49036,0.24559,5.8843,-0.38162,-55.488,505.81,5.9882,-1.9961,-1.4792,7.9843,2.0335e-12,-0.73962,0,0,0.083333,-1.0439e-16,0,0.66667
0.19558,0.42938,2.347,-0.10593,-19.499,1104.8,0.66296,-0.22099,-1.956,0.88395,3.1578e-11,-0.97802,0,0,0.083333,-0,-0,0.66667
0.68083,0.02707,8.1699,-0.7094,-73.026,216.99,15.455,-5.1517,-0.20739,20.607,-2.8972e-12,-0.10369,0,0,0.083333,7.8949e-16,0,0.66667
0.83083,0.60977,9.9699,0.16466,9.7004,65.217,-4.3777,1.4592,-1.9041,-5.8369,-3.742e-11,-0.95207,0,0,0.083333,-0,-0,0.66667
0.22041,0.50139,2.6449,0.0020806,0.37885,1049.7,-0.014674,0.0048914,-2.0042,-0.019566,2.7195e-11,-1.0021,0,0,0.083333,-0,-0,0.66667
0.0078087,0.61138,0.093704,0.16707,31.982,1534.9,-0.041746,0.013915,-1.8963,-0.055662,-6.2306e-07,-0.94815,0,0,0.083333,-0,-0,0.66667
0.2509,0.1504,3.0109,-0.5244,-94.191,983.15,4.2104,-1.4035,-1.0276,5.6139,6.3576e-12,-0.51379,0,0,0.083333,-0,-0,0.66667
0.62764,0.88734,7.5316,0.58102,67.475,287.27,-11.669,3.8898,-0.80046,-15.559,2.2489e-12,-0.40023,0,0,0.083333,-1.579e-15,0,0.66667
0.31082,0.28871,3.7298,-0.31694,-54.822,854.82,3.1523,-1.0508,-1.646,4.2031,3.0798e-13,-0.82302,0,0,0.083333,-0,-0,0.66667
0.83621,0.88998,10.034,0.58498,33.646,62.748,-15.653,5.2177,-0.77884,-20.871,2.0349e-09,-0.38942,0,0,0.083333,-0,-0,0.66667
0.85274,0.33432,10.233,-0.24851,-12.889,50.296,6.7814,-2.2605,-1.7765,9.0418,-8.7655e-10,-0.88824,0,0,0.083333,-7.8949e-16,0,0.66667
0.37174,0.67645,4.4609,0.26467,43.659,729.78,-3.1484,1.0495,-1.7506,-4.1979,1.95e-12,-0.87529,0,0,0.083333,-0,-0,0.66667
0.36533,0.17567,4.384,-0.48649,-80.774,742.97,5.6874,-1.8958,-1.1548,7.5832,1.6609e-13,-0.57739,0,0,0.083333,3.9475e-16,0,0.66667
0.016563,0.1602,0.19875,-0.5097,-97.675,1514.6,0.27014,-0.090045,-1.0818,0.36018,-2.3313e-07,-0.54092,0,0,0.083333,4.9343e-17,0,0.66667
0.54968,0.67011,6.5961,0.25516,34.057,404.94,-4.4883,1.4961,-1.7689,-5.9843,4.4724e-12,-0.88443,0,0,0.083333,-7.8949e-16,0,0.66667
0.15427,0.22486,1.8512,-0.4127,-77.185,1197.9,2.0374,-0.67912,-1.3971,2.7165,-7.5692e-10,-0.69855,0,0,0.083333,-3.9475e-16,0,0.66667
0.11268,0.77965,1.3522,0.41948,79.35,1292.7,-1.5125,0.50418,-1.3751,-2.0167,-1.0889e-08,-0.68757,0,0,0.083333,-2.9606e-16,0,0.66667
0.053338,0.17701,0.64006,-0.48449,-92.593,1429.4,0.82694,-0.27565,-1.1615,1.1026,-2.1741e-08,-0.58073,0,0,0.083333,-4.9343e-17,0,0.66667
0.17928,0.97401,2.1514,0.71102,132.09,1141.8,-4.0792,1.3597,-0.1988,-5.4389,3.7682e-09,-0.099401,0,0,0.083333,-0,-0,0.66667
0.15593,0.26048,1.8712,-0.35928,-67.143,1194.1,1.7927,-0.59758,-1.5475,2.3903,3.7882e-10,-0.77377,0,0,0.083333,3.9475e-16,0,0.66667
0.03549,0.11481,0.42588,-0.57778,-110.66,1470.7,0.65619,-0.21873,-0.81124,0.87492,4.3019e-06,-0.40562,0,0,0.083333,-0,-0,0.66667
0.98243,0.08499,11.789,-0.62252,-4.0495,3.0361,19.571,-6.5235,-0.62454,26.094,-3.3461e-07,-0.31227,0,0,0.083333,7.8949e-16,-7.9637e-17,0.66667
0.6583,0.74969,7.8997,0.37453,40.583,244.67,-7.8898,2.6299,-1.5048,-10.52,1.6502e-12,-0.75239,0,0,0.083333,-1.0856e-15,0,0.66667
0.38699,0.55282,4.6439,0.07923,12.888,699.31,-0.98117,0.32706,-1.9768,-1.3082,4.6714e-12,-0.9884,0,0,0.083333,-0,-0,0.66667
0.062485,0.063575,0.74983,-0.65464,-125.11,1408.3,1.309,-0.43633,-0.48495,1.7453,-4.1492e-06,-0.24248,0,0,0.083333,-0,1.3109e-17,0.66667
0.047245,0.75793,0.56694,0.38689,73.952,1443.5,-0.58493,0.19497,-1.4744,-0.7799,-6.1369e-07,-0.73718,0,0,0.083333,-0,-0,0.66667
0.80495,0.90286,9.6594,0.60428,40.722,86.837,-15.565,5.1885,-0.69824,-20.754,2.278e-09,-0.34912,0,0,0.083333,7.8949e-16,0,0.66667
0.42278,0.45365,5.0734,-0.069521,-10.922,629.77,0.94055,-0.31352,-1.9875,1.2541,1.9557e-12,-0.99375,0,0,0.083333,-0,-0,0.66667
0.10826,0.93002,1.2991,0.64504,122.3,1302.9,-2.2346,0.74487,-0.52524,-2.9795,2.5427e-07,-0.26262,0,0,0.083333,-9.8686e-17,-7.1848e-17,0.66667
0.16703,0.48184,2.0044,-0.027247,-5.0695,1168.9,0.14564,-0.048545,-1.9946,0.19418,1.7233e-10,-0.99731,0,0,0.083333,-0,-0,0.66667
0.68019,0.93436,8.1623,0.65155,67.126,217.5,-14.182,4.7272,-0.48729,-18.909,-9.6989e-13,-0.24365,0,0,0.083333,1.9737e-16,0,0.66667
0.42723,0.51986,5.1268,0.029795,4.6591,621.28,-0.40734,0.13578,-1.9936,-0.54312,-1.0916e-11,-0.99682,0,0,0.083333,-0,-0,0.66667
0.096808,0.74691,1.1617,0.37036,70.279,1329.1,-1.1473,0.38244,-1.5133,-1.5298,-5.0351e-08,-0.75663,0,0,0.083333,-9.8686e-17,0,0.66667
0.39201,0.345,4.7041,-0.2325,-37.657,689.52,2.9165,-0.97217,-1.8127,3.8887,6.6707e-12,-0.90635,0,0,0.083333,-1.579e-15,0,0.66667
0.044756,0.050428,0.53707,-0.67436,-129.14,1449.3,0.9658,-0.32192,-0.3849,1.2877,2.7497e-05,-0.19245,0,0,0.083333,-0,-0,0.66667
0.27103,0.50175,3.2523,0.00262,0.46456,939.24,-0.022723,0.0075743,-1.998,-0.030297,-2.8019e-11,-0.99898,0,0,0.083333,-0,-0,0.66667
0.50308,0.93003,6.037,0.64504,92.405,484.25,-10.384,3.4614,-0.52091,-13.846,1.5854e-12,-0.26046,0,0,0.083333,3.9475e-16,0,0.66667
0.45748,0.73319,5.4898,0.34979,52.945,565.02,-5.1207,1.7069,-1.5628,-6.8276,-1.0801e-11,-0.7814,0,0,0.083333,-0,-0,0.66667
0.76863,0.51012,9.2236,0.015173,1.1833,117.76,-0.37321,0.1244,-1.9993,-0.49761,1.4947e-11,-0.99967,0,0,0.083333,-0,-0,0.66667
0.16023,0.065735,1.9228,-0.6514,-121.76,1184.6,3.34,-1.1133,-0.49073,4.4533,-2.856e-09,-0.24536,0,0,0.083333,-0,-0,0.66667
0.51004,0.47306,6.1205,-0.040405,-5.716,471.09,0.65946,-0.21982,-1.9916,0.87928,4.8027e-12,-0.99579,0,0,0.083333,-0,-0,0.66667
0.14153,0.57578,1.6983,0.11367,21.322,1226.7,-0.51478,0.17159,-1.9588,-0.68637,-1.2551e-09,-0.9794,0,0,0.083333,-1.9737e-16,0,0.66667
0.18937,0.87093,2.2724,0.55639,102.85,1119,-3.3716,1.1239,-0.90255,-4.4955,3.9537e-10,-0.45127,0,0,0.083333,9.8686e-17,0,0.66667
0.4099,0.99863,4.9188,0.74795,119.48,655.74,-9.8106,3.2702,-0.011212,-13.081,-4.2908e-12,-0.0056062,0,0,0.083333,-3.454e-16,0,0.66667
0.14586,0.053295,1.7504,-0.67006,-125.83,1217.2,3.1276,-1.0425,-0.40073,4.1701,1.2341e-08,-0.20036,0,0,0.083333,-1.9737e-16,0,0.66667
0.56233,0.039981,6.7479,-0.69003,-90.53,385.83,12.417,-4.1389,-0.31412,16.556,1.5188e-13,-0.15706,0,0,0.083333,-0,-0,0.66667
0.45523,0.75448,5.4628,0.38172,57.936,569.21,-5.5606,1.8535,-1.4846,-7.4141,-6.9105e-12,-0.74229,0,0,0.083333,1.579e-15,0,0.66667
0.9421,0.96945,11.305,0.70417,15.155,11.051,-21.229,7.0762,-0.23605,-28.305,-2.2272e-05,-0.11803,0,0,0.083333,-0,-0,0.66667
0.66999,0.20952,8.0399,-0.43573,-45.937,229.6,9.3419,-3.114,-1.3275,12.456,-8.2689e-13,-0.66376,0,0,0.083333,-0,-0,0.66667
0.10314,0.39609,1.2377,-0.15587,-29.521,1314.5,0.51445,-0.17148,-1.9098,0.68593,2.1706e-08,-0.95492,0,0,0.083333,-0,-0,0.66667
0.60711,0.34802,7.2853,-0.22797,-27.516,315.93,4.4288,-1.4763,-1.8175,5.9051,-1.4757e-12,-0.90877,0,0,0.083333,1.579e-15,0,0.66667
0.42033,0.68516,5.044,0.27774,43.765,634.62,-3.7358,1.2453,-1.73,-4.981,-6.5881e-13,-0.86501,0,0,0.083333,-1.0856e-15,0,0.66667
0.50063,0.38817,6.0076,-0.16774,-24.041,487.47,2.6872,-0.89573,-1.9054,3.5829,-6.8923e-13,-0.95271,0,0,0.083333,7.8949e-16,0,0.66667
0.65581,0.97596,7.8697,0.71395,78.084,249.27,-14.983,4.9942,-0.1941,-19.977,-2.3634e-12,-0.097051,0,0,0.083333,-0,-0,0.66667
0.18572,0.4786,2.2286,-0.032101,-5.9322,1126.9,0.19078,-0.063593,-1.9991,0.25437,3.2633e-11,-0.99954,0,0,0.083333,-0,-0,0.66667
0.35953,0.58538,4.3144,0.12807,21.338,754.24,-1.4734,0.49115,-1.9488,-1.9646,1.1091e-13,-0.97441,0,0,0.083333,-0,-0,0.66667
0.48038,0.92355,5.7646,0.63532,93.728,524.21,-9.7662,3.2554,-0.56321,-13.022,9.3596e-12,-0.2816,0,0,0.083333,-5.6888e-16,0,0.66667
0.61478,0.10255,7.3774,-0.59617,-71.073,305.71,11.728,-3.9095,-0.73326,15.638,2.3128e-12,-0.36663,0,0,0.083333,-0,-0,0.66667
0.28556,0.84647,3.4267,0.51971,91.49,908.52,-4.749,1.583,-1.0387,-6.332,-1.5477e-11,-0.51935,0,0,0.083333,-0,-0,0.66667
0.50277,0.28156,6.0333,-0.32766,-46.853,483.96,5.2716,-1.7572,-1.6203,7.0288,2.6112e-12,-0.81016,0,0,0.083333,-0,-0,0.66667
0.27855,0.93816,3.3426,0.65723,116.31,923.73,-5.8582,1.9527,-0.46626,-7.811,-3.1108e-11,-0.23313,0,0,0.083333,-7.8949e-16,0,0.66667
0.57239,0.9367,6.8687,0.65505,84.472,369.82,-11.998,3.9994,-0.47225,-15.998,3.5429e-12,-0.23613,0,0,0.083333,-1.1842e-15,0,0.66667
0.34229,0.29746,4.1075,-0.30381,-51.349,789.51,3.3277,-1.1092,-1.6751,4.4369,3.4159e-12,-0.83755,0,0,0.083333,-0,-0,0.66667
0.83916,0.90905,10.07,0.61358,34.73,60.826,-16.476,5.4922,-0.66008,-21.969,1.3454e-09,-0.33004,0,0,0.083333,-0,-0,0.66667
0.68591,0.55116,8.231,0.076742,7.7579,208.86,-1.6844,0.56148,-1.9822,-2.2459,1.6545e-12,-0.99108,0,0,0.083333,-0,-0,0.66667
0.81613,0.50449,9.7935,0.0067357,0.42793,76.247,-0.17591,0.058637,-1.9996,-0.23455,-4.596e-10,-0.9998,0,0,0.083333,-0,-0,0.66667
0.15425,0.59451,1.851,0.14176,26.491,1197.8,-0.69971,0.23324,-1.9321,-0.93295,-8.0038e-10,-0.96605,0,0,0.083333,-0,-0,0.66667
0.18519,0.774,2.2223,0.41099,76.036,1128.2,-2.4356,0.81188,-1.4012,-3.2475,-2.6695e-11,-0.70062,0,0,0.083333,-0,-0,0.66667
0.54259,0.58437,6.5111,0.12656,17.074,416.37,-2.1975,0.73249,-1.9412,-2.93,2.4585e-12,-0.97062,0,0,0.083333,-0,-0,0.66667
0.061398,0.40484,0.73678,-0.14274,-27.223,1410.7,0.28045,-0.093483,-1.9331,0.37393,1.1626e-07,-0.96657,0,0,0.083333,9.0888e-18,0,0.66667
0.53806,0.35769,6.4567,-0.21347,-29.005,423.93,3.6754,-1.2251,-1.8337,4.9006,-3.1308e-12,-0.91686,0,0,0.083333,-0,-0,0.66667
0.336,0.87976,4.032,0.56965,96.884,802.86,-6.1248,2.0416,-0.84259,-8.1664,6.6751e-12,-0.42129,0,0,0.083333,-7.8949e-16,0,0.66667
0.32445,0.50967,3.8935,0.014503,2.483,826.17,-0.15058,0.050193,-1.9983,-0.20077,1.7304e-12,-0.99916,0,0,0.083333,-1.579e-15,0,0.66667
0.22985,0.82909,2.7582,0.49364,89.608,1029.1,-3.6309,1.2103,-1.1312,-4.8411,3.075e-11,-0.5656,0,0,0.083333,-3.9475e-16,0,0.66667
0.0046867,0.61641,0.056241,0.17461,33.428,1542.1,-0.026187,0.0087282,-1.8893,-0.034916,-1.0435e-06,-0.94467,0,0,0.083333,-3.084e-18,0,0.66667
0.68707,0.89772,8.2449,0.59658,60.343,208.7,-13.117,4.3722,-0.74091,-17.489,1.7231e-13,-0.37046,0,0,0.083333,-7.8949e-16,7.8351e-17,0.66667
0.75278,0.68346,9.0334,0.2752,22.757,133.72,-6.6292,2.2097,-1.7321,-8.8389,-7.7076e-12,-0.86603,0,0,0.083333,-0,-0,0.66667
0.33828,0.13222,4.0594,-0.55167,-93.652,798.12,5.9719,-1.9906,-0.91497,7.9625,5.1417e-12,-0.45748,0,0,0.083333,-0,-0,0.66667
0.4698,0.51337,5.6376,0.02006,2.9897,542.22,-0.30157,0.10052,-2.0029,-0.4021,-5.3612e-12,-1.0014,0,0,0.083333,1.579e-15,0,0.66667
0.79738,0.22182,9.5686,-0.41728,-29.009,92.385,10.647,-3.5491,-1.3878,14.196,1.3272e-10,-0.69389,0,0,0.083333,-0,-0,0.66667
0.64747,0.62309,7.7696,0.18463,20.487,258.8,-3.8254,1.2751,-1.8758,-5.1005,-1.144e-12,-0.93791,0,0,0.083333,2.9606e-16,0,0.66667
0.022978,0.49389,0.27574,-0.0091693,-1.7542,1499.7,0.0067422,-0.0022489,-1.9959,0.0089889,-2.2201e-06,-0.99795,0,0,0.083333,2.4672e-17,0,0.66667
0.28397,0.53922,3.4077,0.05883,10.35,911.49,-0.53459,0.1782,-1.9886,-0.71279,-1.8625e-11,-0.9943,0,0,0.083333,-0,-0,0.66667
0.95439,0.38983,11.453,-0.16526,-2.7363,5.6332,5.0471,-1.6824,-1.9066,6.7294,2.3989e-08,-0.95332,0,0,0.083333,-1.579e-15,0,0.66667
0.88315,0.60933,10.598,0.16399,6.8371,32.344,-4.6345,1.5448,-1.8999,-6.1794,9.2123e-09,-0.94996,0,0,0.083333,-0,-0,0.66667
0.32522,0.93694,3.9026,0.65541,112.44,825.33,-6.8208,2.2736,-0.47441,-9.0944,-2.9763e-12,-0.23721,0,0,0.083333,7.4015e-17,0,0.66667
0.91063,0.54656,10.928,0.069836,2.249,19.395,-2.035,0.67834,-1.9804,-2.7134,3.3826e-08,-0.99022,0,0,0.083333,1.579e-15,0,0.66667
0.47918,0.33199,5.7501,-0.25202,-37.147,525.49,3.8643,-1.2881,-1.7711,5.1524,3.4841e-12,-0.88556,0,0,0.083333,-7.8949e-16,0,0.66667
0.20207,0.0064462,2.4248,-0.74033,-136.33,1090.9,4.7871,-1.5957,-0.056115,6.3828,6.0066e-10,-0.028058,0,0,0.083333,-0,-6.4631e-17,0.66667
0.27145,0.14925,3.2574,-0.52613,-93.417,938.73,4.5702,-1.5234,-1.0126,6.0935,-2.9932e-12,-0.50629,0,0,0.083333,-0,-0,0.66667
0.24098,0.060174,2.8918,-0.65974,-119.23,1005,5.0875,-1.6958,-0.44947,6.7834,1.9103e-10,-0.22473,0,0,0.083333,4.4409e-16,0,0.66667
0.055575,0.050093,0.66691,-0.67486,-129.1,1424.3,1.2002,-0.40007,-0.37642,1.6002,-1.3666e-05,-0.18821,0,0,0.083333,-9.8686e-17,0,0.66667
0.43714,0.88836,5.2456,0.58254,90.34,603.35,-8.1488,2.7163,-0.79963,-10.865,-4.9161e-12,-0.39982,0,0,0.083333,7.8949e-16,-9.661e-17,0.66667
0.90458,0.38064,10.855,-0.17904,-6.1485,22.086,5.1825,-1.7275,-1.8895,6.91,-3.7775e-08,-0.94475,0,0,0.083333,-3.158e-15,0,0.66667
0.52576,0.082671,6.3091,-0.62599,-86.857,445.43,10.532,-3.5106,-0.6034,14.042,-7.18e-12,-0.3017,0,0,0.083333,-0,-0,0.66667
0.54546,0.030784,6.5455,-0.70382,-94.88,413.07,12.285,-4.095,-0.24367,16.38,-1.0232e-12,-0.12183,0,0,0.083333,2.4672e-16,-5.8042e-18,0.66667
0.227,0.55039,2.724,0.07558,13.72,1035.1,-0.54901,0.183,-1.9753,-0.73202,-2.3787e-12,-0.98767,0,0,0.083333,-0,-0,0.66667
0.046401,0.57717,0.55681,0.11575,22.111,1445.4,-0.17187,0.057292,-1.9582,-0.22917,1.1257e-09,-0.97911,0,0,0.083333,9.8686e-17,0,0.66667
0.12581,0.61854,1.5097,0.17781,33.5,1262.5,-0.71582,0.23861,-1.8931,-0.95442,-5.1842e-09,-0.94656,0,0,0.083333,1.9737e-16,0,0.66667
0.21513,0.41516,2.5815,-0.12727,-23.232,1061.4,0.87611,-0.29204,-1.9416,1.1681,-6.4932e-12,-0.97081,0,0,0.083333,-0,-0,0.66667
0.87339,0.74188,10.481,0.36282,16.36,38.138,-10.14,3.3801,-1.5353,-13.52,4.2531e-09,-0.76764,0,0,0.083333,-7.8949e-16,0,0.66667
0.98833,0.9501,11.86,0.67514,2.9334,2.9136,-21.352,7.1175,-0.37776,-28.47,0.00010183,-0.18888,0,0,0.083333,-0,-0,0.66667
0.017766,0.46314,0.21319,-0.055283,-10.579,1511.8,0.03143,-0.010477,-1.9915,0.041906,-8.2346e-07,-0.99577,0,0,0.083333,1.2336e-17,0,0.66667
0.44331,0.1646,5.3197,-0.5031,-77.45,591.58,7.1369,-2.379,-1.0967,9.5159,-1.9158e-12,-0.54836,0,0,0.083333,-7.8949e-16,0,0.66667
0.3692,0.049496,4.4304,-0.67576,-111.99,735.64,7.9836,-2.6612,-0.37272,10.645,-1.2279e-11,-0.18636,0,0,0.083333,-3.9475e-16,0,0.66667
0.53646,0.41015,6.4376,-0.13478,-18.354,426.49,2.3137,-0.77122,-1.9332,3.0849,-2.6528e-12,-0.9666,0,0,0.083333,-0,-0,0.66667
0.61652,0.96458,7.3983,0.69687,82.886,303.62,-13.748,4.5828,-0.26987,-18.331,6.5636e-13,-0.13494,0,0,0.083333,-1.9737e-16,0,0.66667
0.396,0.60956,4.752,0.16433,26.513,681.63,-2.0824,0.69415,-1.9006,-2.7766,-5.278e-12,-0.95032,0,0,0.083333,-0,-0,0.66667
0.18386,0.15177,2.2064,-0.52235,-96.743,1131.3,3.0733,-1.0244,-1.0296,4.0977,-1.5881e-09,-0.51481,0,0,0.083333,-2.9606e-16,0,0.66667
0.58527,0.1641,7.0233,-0.50386,-63.441,349.34,9.4366,-3.1455,-1.0934,12.582,-1.7746e-12,-0.54669,0,0,0.083333,-0,-0,0.66667
0.033297,0.65908,0.39956,0.23861,45.638,1475.8,-0.25424,0.084748,-1.8006,-0.33899,5.9419e-07,-0.90031,0,0,0.083333,-0,-0,0.66667
0.89398,0.57297,10.728,0.10945,4.1573,26.843,-3.1311,1.0437,-1.9569,-4.1748,1.9971e-08,-0.97847,0,0,0.083333,-0,-0,0.66667
0.64441,0.81161,7.7329,0.46741,52.309,263.59,-9.6386,3.2129,-1.2234,-12.851,-5.4028e-12,-0.61168,0,0,0.083333,8.3884e-16,0,0.66667
0.094544,0.090236,1.1345,-0.61465,-116.84,1334.4,1.8596,-0.61985,-0.66276,2.4794,1.1443e-07,-0.33138,0,0,0.083333,4.9343e-17,0,0.66667
0.55137,0.38788,6.6165,-0.16818,-22.38,402.08,2.9673,-0.9891,-1.8971,3.9564,-1.64e-12,-0.94856,0,0,0.083333,7.8949e-16,0,0.66667
0.12897,0.86454,1.5477,0.54682,103.09,1255.5,-2.2568,0.75227,-0.9354,-3.0091,-4.8149e-09,-0.4677,0,0,0.083333,-1.9737e-16,0,0.66667
0.11882,0.62957,1.4259,0.19435,36.682,1278.5,-0.73897,0.24632,-1.8626,-0.98529,-7.1132e-09,-0.9313,0,0,0.083333,3.9475e-16,0,0.66667
0.26555,0.068562,3.1866,-0.64716,-115.4,951.63,5.4993,-1.8331,-0.51854,7.3323,-2.6556e-11,-0.25927,0,0,0.083333,-0,-6.1719e-17,0.66667
0.76291,0.97716,9.1549,0.71575,57.402,125.39,-17.474,5.8245,-0.17939,-23.298,-6.7999e-12,-0.089695,0,0,0.083333,-0,-0,0.66667
0.69822,0.50659,8.3787,0.0098848,0.96687,193.85,-0.22086,0.073619,-1.9974,-0.29448,3.8605e-12,-0.99869,0,0,0.083333,-0,-0,0.66667
0.55885,0.20512,6.7062,-0.44233,-58.234,390.53,7.9102,-2.6367,-1.3032,10.547,-4.9933e-12,-0.65161,0,0,0.083333,7.8949e-16,0,0.66667
0.25523,0.70714,3.0627,0.31071,55.621,973.52,-2.5377,0.84589,-1.6537,-3.3836,1.9289e-12,-0.82683,0,0,0.083333,-0,-0,0.66667
0.51787,0.62492,6.2144,0.18738,26.226,457.79,-3.1053,1.0351,-1.8783,-4.1404,-5.7754e-12,-0.93916,0,0,0.083333,1.0732e-15,0,0.66667
0.92975,0.75604,11.157,0.38405,9.8308,13.029,-11.426,3.8088,-1.4717,-15.235,2.9551e-07,-0.73587,0,0,0.083333,-0,-0,0.66667
0.18532,0.29997,2.2238,-0.30005,-55.483,1127.9,1.7793,-0.59311,-1.6816,2.3724,-6.3651e-11,-0.84079,0,0,0.083333,1.9737e-16,0,0.66667
0.73421,0.71474,8.8105,0.32211,28.353,153.27,-7.5678,2.5226,-1.6388,-10.09,-7.927e-13,-0.8194,0,0,0.083333,-0,-0,0.66667
0.87218,0.66614,10.466,0.24921,11.321,38.499,-6.9554,2.3185,-1.7797,-9.2739,5.448e-09,-0.88986,0,0,0.083333,-0,-0,0.66667
0.66946,0.85609,8.0335,0.53414,56.439,230.63,-11.443,3.8142,-0.98676,-15.257,-1.3589e-12,-0.49338,0,0,0.083333,-0,-0,0.66667
0.2037,0.15554,2.4443,-0.51669,-94.93,1087,3.3679,-1.1226,-1.0579,4.4905,2.3964e-10,-0.52897,0,0,0.083333,2.4672e-17,0,0.66667
0.12917,0.18059,1.55,-0.47912,-90.291,1255,1.9804,-0.66012,-1.1824,2.6405,6.2065e-09,-0.59121,0,0,0.083333,-0,-0,0.66667
0.51503,0.26628,6.1804,-0.35058,-49.296,462.87,5.7779,-1.926,-1.5685,7.7039,-1.7071e-12,-0.78427,0,0,0.083333,7.8949e-16,0,0.66667
0.13031,0.5904,1.5637,0.13561,25.518,1252.3,-0.56546,0.18849,-1.9324,-0.75395,-2.9306e-09,-0.9662,0,0,0.083333,2.4672e-16,0,0.66667
0.8257,0.050328,9.9084,-0.67451,-41.136,70.896,17.822,-5.9407,-0.38354,23.763,4.8893e-09,-0.19177,0,0,0.083333,7.8949e-16,0,0.66667
0.52364,0.82894,6.2837,0.49341,68.595,448.57,-8.2679,2.756,-1.1299,-11.024,3.3022e-12,-0.56496,0,0,0.083333,-1.4096e-15,0,0.66667
0.29142,0.8793,3.4971,0.56895,99.82,896.12,-5.3058,1.7686,-0.84655,-7.0744,2.8382e-12,-0.42327,0,0,0.083333,-7.8949e-16,0,0.66667
0.56813,0.71415,6.8175,0.32122,41.615,375.52,-5.8399,1.9466,-1.6304,-7.7865,4.5031e-13,-0.81521,0,0,0.083333,-0,-0,0.66667
0.26064,0.35571,3.1276,-0.21643,-38.616,961.72,1.8051,-0.6017,-1.8306,2.4068,1.0595e-12,-0.9153,0,0,0.083333,-3.9475e-16,0,0.66667
0.58447,0.10427,7.0136,-0.5936,-74.908,350.88,11.102,-3.7007,-0.7433,14.803,-2.5029e-12,-0.37165,0,0,0.083333,-0,-0,0.66667
0.23212,0.012567,2.7855,-0.73115,-132.8,1024.5,5.4309,-1.8103,-0.10079,7.2412,4.4433e-11,-0.050397,0,0,0.083333,-7.8949e-16,9.4905e-17,0.66667
0.21905,0.75306,2.6286,0.37959,69.219,1052.8,-2.6608,0.88693,-1.4951,-3.5477,4.1043e-12,-0.74757,0,0,0.083333,-0,-0,0.66667
0.51851,0.65488,6.2221,0.23231,32.49,456.75,-3.8546,1.2849,-1.8097,-5.1394,-6.5494e-12,-0.90486,0,0,0.083333,1.9737e-16,0,0.66667
0.83542,0.9508,10.025,0.67621,39.146,63.822,-18.077,6.0258,-0.36981,-24.103,-1.1616e-08,-0.18491,0,0,0.083333,-1.579e-15,0,0.66667
0.64477,0.94235,7.7372,0.66352,74.349,263.86,-13.69,4.5634,-0.43356,-18.254,-5.1319e-12,-0.21678,0,0,0.083333,-0,-0,0.66667
0.094191,0.083239,1.1303,-0.62514,-118.85,1335.2,1.8842,-0.62808,-0.61662,2.5123,1.0638e-07,-0.30831,0,0,0.083333,-0,-0,0.66667
0.13407,0.96471,1.6088,0.69706,131.37,1244,-2.9905,0.99684,-0.26916,-3.9873,-1.4624e-07,-0.13458,0,0,0.083333,-2.4672e-16,0,0.66667
0.3903,0.50048,4.6836,0.00071809,0.11645,692.77,-0.0089687,0.0029896,-2.0079,-0.011958,1.0156e-11,-1.0039,0,0,0.083333,-0,-0,0.66667
0.31956,0.072127,3.8348,-0.64181,-110.54,837.05,6.5632,-2.1877,-0.53128,8.7509,-1.0526e-11,-0.26564,0,0,0.083333,-0,-0,0.66667
0.89122,0.96181,10.695,0.69271,27.302,30.404,-19.755,6.5851,-0.29993,-26.341,7.2322e-07,-0.14997,0,0,0.083333,-0,-0,0.66667
0.89129,0.34245,10.695,-0.23633,-9.2049,28.354,6.7404,-2.2468,-1.8082,8.9873,-2.3098e-08,-0.90409,0,0,0.083333,-3.9475e-16,0,0.66667
0.029824,0.14414,0.35789,-0.53379,-102.24,1483.8,0.50944,-0.16982,-0.99034,0.67925,-9.6076e-06,-0.49517,0,0,0.083333,-4.9343e-17,0,0.66667
0.21052,0.79144,2.5263,0.43716,80.046,1071.8,-2.945,0.98166,-1.3163,-3.9267,-3.7025e-11,-0.65814,0,0,0.083333,-0,-0,0.66667
0.38835,0.20918,4.6602,-0.43623,-70.955,697.01,5.4211,-1.807,-1.3251,7.2281,-2.8693e-12,-0.66254,0,0,0.083333,-0,-0,0.66667
0.17637,0.45022,2.1165,-0.074676,-13.849,1147.9,0.42147,-0.14049,-1.9779,0.56196,-2.5863e-13,-0.98893,0,0,0.083333,-0,-0,0.66667
0.91869,0.54374,11.024,0.06561,1.9274,16.224,-1.9288,0.64294,-1.9844,-2.5717,3.1414e-08,-0.9922,0,0,0.083333,-0,-0,0.66667
0.1896,0.32043,2.2752,-0.26936,-49.721,1118.2,1.6342,-0.54475,-1.7442,2.179,-7.1937e-11,-0.87212,0,0,0.083333,3.9475e-16,0,0.66667
0.73399,0.41842,8.8078,-0.12237,-10.768,153.16,2.8741,-0.95804,-1.9529,3.8322,1.6029e-12,-0.97647,0,0,0.083333,-0,-0,0.66667
0.95692,0.78192,11.483,0.42288,6.6773,5.8603,-12.949,4.3164,-1.3644,-17.266,1.6861e-06,-0.68218,0,0,0.083333,-0,-0,0.66667
0.47772,0.45006,5.7326,-0.074904,-11.056,527.96,1.1451,-0.38168,-1.9759,1.5267,6.8279e-14,-0.98795,0,0,0.083333,-7.8949e-16,0,0.66667
0.81422,0.39825,9.7706,-0.15262,-9.7912,77.856,3.9765,-1.3255,-1.9202,5.302,2.9221e-12,-0.96012,0,0,0.083333,7.8949e-16,0,0.66667
0.42822,0.80021,5.1386,0.45031,70.438,619.87,-6.1706,2.0569,-1.275,-8.2275,-6.092e-12,-0.63751,0,0,0.083333,-0,-0,0.66667
0.81345,0.93087,9.7614,0.6463,41.882,80.179,-16.823,5.6078,-0.51998,-22.431,8.8166e-09,-0.25999,0,0,0.083333,-0,-0,0.66667
0.7617,0.55632,9.1404,0.084486,6.7613,124.53,-2.0593,0.68643,-1.9737,-2.7457,-6.5021e-12,-0.98683,0,0,0.083333,7.8949e-16,0,0.66667
0.9596,0.20572,11.515,-0.44142,-6.5407,5.393,13.555,-4.5182,-1.3031,18.073,-2.1138e-06,-0.65156,0,0,0.083333,-0,-0,0.66667
0.3366,0.22655,4.0392,-0.41017,-69.662,801.34,4.418,-1.4727,-1.3978,5.8907,-5.5955e-12,-0.69892,0,0,0.083333,-0,-0,0.66667
0.76659,0.68871,9.1991,0.28306,22.268,120.05,-6.9438,2.3146,-1.7211,-9.2583,-1.4268e-11,-0.86054,0,0,0.083333,3.158e-15,0,0.66667
0.92162,0.40088,11.059,-0.14868,-4.2163,15.226,4.3847,-1.4616,-1.9286,5.8463,-7.8231e-08,-0.96431,0,0,0.083333,-3.9475e-16,0,0.66667
0.81077,0.81939,9.7293,0.47909,31.353,81.506,-12.43,4.1433,-1.1871,-16.573,-8.5158e-11,-0.59353,0,0,0.083333,-0,-0,0.66667
0.81434,0.89498,9.772,0.59247,38.189,79.186,-15.439,5.1464,-0.75443,-20.585,-2.604e-09,-0.37722,0,0,0.083333,-0,-0,0.66667
0.9483,0.37711,11.38,-0.18434,-3.4641,7.1035,5.5938,-1.8646,-1.8777,7.4584,-4.154e-08,-0.93885,0,0,0.083333,-0,-0,0.66667
0.29068,0.29189,3.4882,-0.31216,-54.72,897.34,2.9037,-0.9679,-1.6497,3.8716,1.3589e-13,-0.82486,0,0,0.083333,-0,-0,0.66667
0.44015,0.95285,5.2818,0.67928,105.08,597.99,-9.5675,3.1892,-0.36004,-12.757,-1.8225e-12,-0.18002,0,0,0.083333,-0,-0,0.66667
0.10606,0.80128,1.2727,0.45191,85.624,1307.9,-1.5337,0.51124,-1.2734,-2.045,-4.0522e-08,-0.6367,0,0,0.083333,-9.8686e-17,0,0.66667
0.87728,0.15756,10.527,-0.51366,-22.561,36.599,14.42,-4.8067,-1.0647,19.227,6.9031e-09,-0.53235,0,0,0.083333,-0,-0,0.66667
0.3437,0.89534,4.1244,0.59302,100.28,787.1,-6.5222,2.1741,-0.75687,-8.6963,7.3048e-12,-0.37843,0,0,0.083333,-3.9475e-16,0,0.66667
0.90524,0.92055,10.863,0.63083,21.758,23.565,-18.274,6.0912,-0.58952,-24.365,6.5362e-08,-0.29476,0,0,0.083333,-0,-0,0.66667
0.20386,0.19547,2.4463,-0.45679,-83.892,1086.6,2.9799,-0.99329,-1.2637,3.9732,-1.602e-10,-0.63183,0,0,0.083333,-0,-0,0.66667
0.34961,0.80318,4.1953,0.45478,76.477,774.77,-5.0878,1.6959,-1.2612,-6.7837,-2.0037e-12,-0.63059,0,0,0.083333,3.9475e-16,0,0.66667
0.69048,0.77674,8.2858,0.41511,41.535,203.85,-9.172,3.0573,-1.3882,-12.229,2.5748e-12,-0.6941,0,0,0.083333,-1.1842e-15,0,0.66667
0.92271,0.56264,11.072,0.093958,2.627,14.767,-2.7743,0.92475,-1.9752,-3.699,9.0128e-08,-0.98759,0,0,0.083333,-0,-0,0.66667
0.68795,0.53771,8.2554,0.056569,5.6882,206.34,-1.2453,0.41511,-1.9952,-1.6604,-1.0495e-12,-0.99758,0,0,0.083333,1.579e-15,0,0.66667
0.34009,0.3772,4.0811,-0.1842,-31.176,793.91,2.0047,-0.66823,-1.8795,2.6729,9.4942e-12,-0.93973,0,0,0.083333,-0,-0,0.66667
0.040043,0.92407,0.48052,0.63611,121.83,1460.2,-0.8151,0.27169,-0.55707,-1.0868,-2.1427e-05,-0.27853,0,0,0.083333,-4.9343e-17,0,0.66667
0.33175,0.17309,3.981,-0.49037,-83.624,811.47,5.2057,-1.7352,-1.1439,6.941,2.3226e-13,-0.57197,0,0,0.083333,3.9475e-16,0,0.66667
0.47616,0.25174,5.7139,-0.37238,-55.123,531.09,5.6741,-1.8914,-1.5039,7.5654,-2.3004e-13,-0.75193,0,0,0.083333,-0,-0,0.66667
0.7304,0.22495,8.7648,-0.41258,-36.787,157.66,9.6432,-3.2144,-1.3937,12.858,1.8785e-12,-0.69687,0,0,0.083333,-0,-0,0.66667
0.89363,0.85203,10.724,0.52805,20.267,28.282,-15.1,5.0334,-1.0089,-20.134,-2.2513e-08,-0.50446,0,0,0.083333,-1.579e-15,0,0.66667
0.006309,0.32109,0.075708,-0.26836,-51.387,1538.4,0.054179,-0.018059,-1.7402,0.07224,1.4544e-06,-0.87012,0,0,0.083333,-1.2336e-17,0,0.66667
0.076734,0.73156,0.92081,0.34734,66.137,1375.3,-0.85289,0.2843,-1.5745,-1.1372,-1.8241e-07,-0.78727,0,0,0.083333,-0,-0,0.66667
0.28179,0.26187,3.3815,-0.3572,-62.976,916.34,3.221,-1.0737,-1.5521,4.2947,-2.0695e-13,-0.77606,0,0,0.083333,-0,-0,0.66667
0.53562,0.1882,6.4274,-0.46771,-63.871,428.47,8.0164,-2.6721,-1.2216,10.689,1.8119e-12,-0.61079,0,0,0.083333,-0,-0,0.66667
0.53579,0.95077,6.4294,0.67616,92.481,428.87,-11.593,3.8643,-0.37205,-15.457,6.2226e-12,-0.18603,0,0,0.083333,-7.8949e-16,0,0.66667
0.42526,0.96481,5.1032,0.69721,109.6,626.13,-9.4879,3.1626,-0.27188,-12.651,4.7251e-12,-0.13594,0,0,0.083333,5.9212e-16,0,0.66667
0.88364,0.033297,10.604,-0.70005,-29.408,34.274,19.795,-6.5983,-0.25445,26.393,3.5677e-07,-0.12723,0,0,0.083333,-0,-0,0.66667
0.72735,0.61572,8.7282,0.17358,15.6,160.46,-4.0402,1.3467,-1.8888,-5.387,-7.5673e-13,-0.9444,0,0,0.083333,-0,-0,0.66667
0.13596,0.8092,1.6315,0.4638,87.237,1239.5,-2.0179,0.67263,-1.2336,-2.6905,-8.533e-09,-0.61682,0,0,0.083333,-4.9343e-17,0,0.66667
0.23514,0.12705,2.8216,-0.55942,-101.33,1017.6,4.2093,-1.4031,-0.89365,5.6124,-4.4549e-11,-0.44682,0,0,0.083333,-0,-0,0.66667
0.50531,0.11181,6.0637,-0.58228,-83.117,480.19,9.4153,-3.1384,-0.79126,12.554,-4.5013e-12,-0.39563,0,0,0.083333,7.8949e-16,0,0.66667
0.36252,0.11994,4.3502,-0.5701,-94.933,748.81,6.6135,-2.2045,-0.8449,8.8179,3.1557e-12,-0.42245,0,0,0.083333,1.9737e-16,0,0.66667
0.80862,0.54022,9.7034,0.060326,3.9741,82.273,-1.561,0.52032,-1.9859,-2.0813,-3.5424e-11,-0.99293,0,0,0.083333,-0,-0,0.66667
0.41934,0.064992,5.032,-0.65251,-103.16,637.3,8.7559,-2.9186,-0.48821,11.675,-1.5392e-12,-0.24411,0,0,0.083333,-1.579e-15,0,0.66667
0.94116,0.03024,11.294,-0.70464,-15.404,11.312,21.222,-7.0739,-0.23495,28.296,2.1286e-05,-0.11747,0,0,0.083333,-5.9212e-16,0,0.66667
0.18246,0.41005,2.1895,-0.13493,-24.968,1134.2,0.78781,-0.2626,-1.9332,1.0504,3.3104e-11,-0.96662,0,0,0.083333,-0,-0,0.66667
0.48279,0.038145,5.7934,-0.69278,-101.95,520.11,10.703,-3.5676,-0.29702,14.271,-4.9818e-12,-0.14851,0,0,0.083333,-0,6.7882e-17,0.66667
0.89425,0.90652,10.731,0.60977,23.332,28.43,-17.449,5.8164,-0.67851,-23.266,-1.3358e-07,-0.33925,0,0,0.083333,3.158e-15,0,0.66667
0.065736,0.63568,0.78883,0.20352,38.797,1400.7,-0.42811,0.1427,-1.8524,-0.57082,-1.6413e-07,-0.92622,0,0,0.083333,-0,-0,0.66667
0.27923,0.6332,3.3508,0.1998,35.263,921.68,-1.7853,0.59511,-1.8604,-2.3804,-1.579e-11,-0.93021,0,0,0.083333,-0,-0,0.66667
0.20277,0.21508,2.4333,-0.42737,-78.513,1089,2.7731,-0.92437,-1.3578,3.6975,-1.4343e-10,-0.6789,0,0,0.083333,-9.8686e-17,0,0.66667
0.98481,0.92867,11.818,0.64301,3.622,2.9585,-20.264,6.7546,-0.53614,-27.018,3.8134e-05,-0.26807,0,0,0.083333,-0,1.6003e-16,0.66667
0.46845,0.39867,5.6214,-0.15199,-22.693,544.73,2.2784,-0.75947,-1.9247,3.0379,-3.9992e-12,-0.96234,0,0,0.083333,7.8949e-16,0,0.66667
0.88817,0.87912,10.658,0.56868,22.914,31.172,-16.163,5.3875,-0.85212,-21.55,-3.3121e-08,-0.42606,0,0,0.083333,-0,-1.7133e-18,0.66667
0.85393,0.94951,10.247,0.67427,34.983,51.322,-18.425,6.1416,-0.38021,-24.566,7.9942e-09,-0.1901,0,0,0.083333,-0,-0,0.66667
0.10397,0.078431,1.2476,-0.63235,-119.99,1312.8,2.1038,-0.70128,-0.57487,2.8051,-2.2664e-07,-0.28744,0,0,0.083333,-0,-0,0.66667
0.34994,0.82452,4.1993,0.48679,81.853,774.13,-5.4511,1.817,-1.1536,-7.2682,3.8494e-12,-0.57679,0,0,0.083333,-0,-0,0.66667
0.4967,0.0012393,5.9603,-0.74814,-108.2,495.76,11.891,-3.9637,-0.010777,15.855,-9.1056e-12,-0.0053883,0,0,0.083333,3.158e-15,0,0.66667
0.8789,0.34239,10.547,-0.23642,-10.205,34.748,6.6492,-2.2164,-1.8012,8.8656,-7.3589e-09,-0.90058,0,0,0.083333,-5.9212e-16,0,0.66667
0.98185,0.26024,11.782,-0.35964,-2.3217,1.7399,11.3,-3.7665,-1.5412,15.066,2.1404e-06,-0.77061,0,0,0.083333,-0,-0,0.66667
0.33695,0.53122,4.0434,0.046824,7.9422,800.32,-0.50487,0.16829,-1.9896,-0.67316,-2.0893e-11,-0.99481,0,0,0.083333,-9.4986e-16,0,0.66667
0.78195,0.077452,9.3834,-0.63382,-47.179,106.97,15.86,-5.2866,-0.57687,21.146,-1.5371e-10,-0.28843,0,0,0.083333,-0,-0,0.66667
0.85872,0.044453,10.305,-0.68332,-34.385,48.364,18.777,-6.259,-0.34521,25.036,-6.141e-10,-0.1726,0,0,0.083333,-1.579e-15,0,0.66667
0.28125,0.89533,3.375,0.593,104.72,917.83,-5.3369,1.779,-0.75711,-7.1159,8.6464e-12,-0.37855,0,0,0.083333,-0,8.9738e-17,0.66667
0.19893,0.76491,2.3871,0.39737,73.109,1097.5,-2.5295,0.84318,-1.4366,-3.3727,1.6678e-10,-0.7183,0,0,0.083333,3.9475e-16,0,0.66667
0.64661,0.71678,7.7594,0.32517,36.174,260.21,-6.7282,2.2427,-1.6215,-8.9709,-7.8115e-13,-0.81076,0,0,0.083333,2.9606e-16,0,0.66667
0.56414,0.77004,6.7697,0.40507,52.854,382.01,-7.3124,2.4375,-1.4196,-9.7499,2.2071e-13,-0.70979,0,0,0.083333,-0,-0,0.66667
0.15458,0.13706,1.8549,-0.54441,-101.88,1197.3,2.6929,-0.89762,-0.94906,3.5905,-1.2665e-09,-0.47453,0,0,0.083333,-0,-3.7206e-17,0.66667
0.74217,0.62283,8.9061,0.18425,15.789,144.51,-4.3757,1.4586,-1.8761,-5.8343,1.2621e-12,-0.93805,0,0,0.083333,-9.8686e-16,0,0.66667
0.36009,0.84422,4.3211,0.51633,86.122,753.6,-5.9496,1.9832,-1.0589,-7.9329,8.094e-12,-0.52945,0,0,0.083333,-1.579e-15,0,0.66667
0.60467,0.055232,7.2561,-0.66715,-81.177,320.78,12.909,-4.303,-0.41532,17.212,9.8392e-12,-0.20766,0,0,0.083333,-3.9475e-16,-5.3383e-18,0.66667
0.006493,0.7986,0.077916,0.44789,85.824,1537.9,-0.093058,0.031016,-1.2826,-0.12408,-4.9768e-06,-0.6413,0,0,0.083333,-1.2336e-17,0,0.66667
0.59052,0.79943,7.0862,0.44914,55.996,341.19,-8.4872,2.8291,-1.2823,-11.316,2.5571e-12,-0.64117,0,0,0.083333,-7.8949e-16,0,0.66667
0.73343,0.88798,8.8011,0.58197,51.498,155.03,-13.659,4.5529,-0.80039,-18.211,6.2208e-12,-0.4002,0,0,0.083333,-0,9.5858e-17,0.66667
0.34567,0.39184,4.1481,-0.16224,-27.337,782.46,1.7946,-0.59819,-1.9086,2.3928,2.3828e-12,-0.9543,0,0,0.083333,3.9475e-16,0,0.66667
0.75933,0.75572,9.112,0.38358,31.018,127.43,-9.3204,3.1068,-1.4735,-12.427,-1.2076e-11,-0.73676,0,0,0.083333,1.579e-15,0,0.66667
0.42697,0.74292,5.1236,0.36438,57.044,622.08,-4.9785,1.6595,-1.5254,-6.6381,-8.9195e-12,-0.76269,0,0,0.083333,-1.4193e-16,0,0.66667
0.4232,0.39173,5.0784,-0.16241,-25.507,629.02,2.1994,-0.73312,-1.9098,2.9325,-4.1505e-12,-0.95492,0,0,0.083333,7.8949e-16,0,0.66667
0.29935,0.95199,3.5922,0.67798,118.44,879.54,-6.4946,2.1649,-0.36666,-8.6594,3.3715e-12,-0.18333,0,0,0.083333,3.9475e-16,0,0.66667
0.74106,0.040197,8.8927,-0.6897,-59.638,147.43,16.356,-5.4519,-0.30473,21.807,3.96e-11,-0.15237,0,0,0.083333,-0,-0,0.66667
0.91708,0.19076,11.005,-0.46386,-13.99,17.864,13.613,-4.5376,-1.2333,18.15,-3.0739e-08,-0.61665,0,0,0.083333,-3.158e-15,0,0.66667
0.4431,0.36569,5.3172,-0.20147,-30.978,591.47,2.8567,-0.95223,-1.8524,3.8089,-2.3093e-14,-0.92621,0,0,0.083333,-0,-0,0.66667
0.98698,0.79473,11.844,0.4421,2.0268,1.6385,-13.963,4.6543,-1.3058,-18.617,2.9197e-06,-0.65291,0,0,0.083333,-1.579e-15,0,0.66667
0.79949,0.64503,9.5939,0.21755,14.955,90.051,-5.5657,1.8552,-1.8326,-7.4209,-4.2416e-11,-0.91629,0,0,0.083333,-0,-0,0.66667
0.31124,0.50736,3.7348,0.011042,1.9083,853.78,-0.10998,0.036659,-2.0038,-0.14664,1.7432e-12,-1.0019,0,0,0.083333,-0,-0,0.66667
0.23311,0.98419,2.7973,0.72628,131.84,1022.3,-5.4176,1.8059,-0.12826,-7.2234,-9.3605e-12,-0.06413,0,0,0.083333,-0,9.8672e-17,0.66667
0.35894,0.13272,4.3072,-0.55092,-92.001,756,6.3279,-2.1093,-0.92723,8.4372,-1.6422e-12,-0.46362,0,0,0.083333,-0,7.9434e-17,0.66667
0.40467,0.41456,4.856,-0.12817,-20.506,664.69,1.6597,-0.55323,-1.9449,2.2129,-1.6454e-13,-0.97247,0,0,0.083333,-0,-0,0.66667
0.4959,0.6795,5.9508,0.26925,38.846,495.87,-4.2727,1.4242,-1.7408,-5.6969,-3.2729e-12,-0.87041,0,0,0.083333,-0,-0,0.66667
0.70153,0.37924,8.4184,-0.18114,-17.563,190.02,4.0665,-1.3555,-1.8872,5.422,-6.7635e-13,-0.9436,0,0,0.083333,-0,-0,0.66667
0.841,0.2069,10.092,-0.43965,-24.541,58.731,11.832,-3.944,-1.3133,15.776,2.3999e-10,-0.65664,0,0,0.083333,7.8949e-16,0,0.66667
0.059074,0.43867,0.70889,-0.091996,-17.549,1416,0.17391,-0.057969,-1.9706,0.23188,-2.2242e-08,-0.9853,0,0,0.083333,1.9737e-16,0,0.66667
0.45307,0.78614,5.4369,0.42921,65.324,573.29,-6.2229,2.0743,-1.3529,-8.2971,-1.1231e-11,-0.67644,0,0,0.083333,-0,-0,0.66667
0.42756,0.30497,5.1307,-0.29255,-45.756,620.86,4.0026,-1.3342,-1.6926,5.3367,-2.1969e-12,-0.84628,0,0,0.083333,-0,-0,0.66667
0.42403,0.4577,5.0884,-0.063455,-9.956,627.38,0.86102,-0.28701,-1.9875,1.148,4.9056e-12,-0.99375,0,0,0.083333,-0,-0,0.66667
0.56368,0.41811,6.7641,-0.12283,-16.021,382.3,2.2156,-0.73854,-1.9504,2.9542,-5.0671e-13,-0.97522,0,0,0.083333,-0,-0,0.66667
0.9398,0.21483,11.278,-0.42776,-9.422,10.122,12.864,-4.2881,-1.3517,17.152,-1.0542e-07,-0.67587,0,0,0.083333,-3.9475e-16,0,0.66667
0.33032,0.68057,3.9639,0.27085,46.192,814.13,-2.863,0.95432,-1.7413,-3.8173,-3.872e-12,-0.87064,0,0,0.083333,3.9475e-16,0,0.66667
0.94897,0.44349,11.388,-0.084761,-1.5698,6.8021,2.5739,-0.85798,-1.9732,3.4319,-5.0474e-09,-0.9866,0,0,0.083333,-0,-0,0.66667
0.24588,0.58462,2.9506,0.12693,22.825,993.74,-0.99871,0.3329,-1.9412,-1.3316,1.772e-12,-0.97058,0,0,0.083333,-0,-0,0.66667
0.54841,0.11128,6.5809,-0.58308,-78.148,407.81,10.232,-3.4108,-0.79429,13.643,-2.3883e-12,-0.39715,0,0,0.083333,7.8949e-16,0,0.66667
0.7134,0.87394,8.5608,0.5609,52.74,177.24,-12.805,4.2683,-0.87955,-17.073,-4.9241e-12,-0.43977,0,0,0.083333,-1.9737e-16,0,0.66667
0.88062,0.85869,10.567,0.53803,23.04,34.917,-15.162,5.0539,-0.96719,-20.216,2.3655e-08,-0.4836,0,0,0.083333,-0,-0,0.66667
0.7817,0.32071,9.3804,-0.26893,-19.946,105.82,6.7271,-2.2424,-1.7492,8.9694,3.417e-11,-0.87459,0,0,0.083333,-0,-0,0.66667
0.96576,0.29485,11.589,-0.30772,-3.8273,3.74,9.51,-3.17,-1.6633,12.68,4.976e-07,-0.83167,0,0,0.083333,-0,-0,0.66667
0.55114,0.15396,6.6137,-0.51907,-69.23,403.16,9.1545,-3.0515,-1.0412,12.206,-2.3297e-12,-0.52061,0,0,0.083333,-1.1842e-15,0,0.66667
0.90543,0.76401,10.865,0.39601,13.535,22.323,-11.474,3.8246,-1.4473,-15.298,4.2864e-08,-0.72367,0,0,0.083333,-0,-0,0.66667
0.65468,0.78061,7.8562,0.42091,46.008,249.6,-8.818,2.9393,-1.3747,-11.757,-4.2499e-12,-0.68733,0,0,0.083333,-9.8686e-17,0,0.66667
0.16901,0.38375,2.0281,-0.17437,-32.427,1164.5,0.94307,-0.31436,-1.8924,1.2574,4.7524e-11,-0.94622,0,0,0.083333,-0,-0,0.66667
0.030661,0.79387,0.36793,0.4408,84.386,1481.9,-0.43249,0.14417,-1.3147,-0.57666,3.0156e-06,-0.65737,0,0,0.083333,-4.9343e-17,0,0.66667
0.76078,0.52148,9.1294,0.03222,2.587,125.41,-0.7844,0.26147,-1.9938,-1.0459,-3.2807e-12,-0.99688,0,0,0.083333,-0,-0,0.66667
0.67762,0.93804,8.1314,0.65706,68.139,220.76,-14.248,4.7492,-0.46291,-18.997,4.9774e-12,-0.23146,0,0,0.083333,-1.579e-15,0,0.66667
0.28831,0.61978,3.4598,0.17967,31.53,902.28,-1.6576,0.55255,-1.8816,-2.2102,-2.26e-11,-0.94081,0,0,0.083333,1.9737e-16,0,0.66667
0.10602,0.11989,1.2722,-0.57016,-108.1,1308,1.9343,-0.64476,-0.84425,2.5791,-1.2545e-07,-0.42212,0,0,0.083333,9.8686e-17,0,0.66667
0.68946,0.0081631,8.2735,-0.73776,-74.301,206.47,16.277,-5.4256,-0.067261,21.703,4.6185e-13,-0.033631,0,0,0.083333,-0,-0,0.66667
0.74945,0.37868,8.9934,-0.18197,-15.214,136.94,4.3642,-1.4547,-1.8889,5.8189,4.8117e-12,-0.94446,0,0,0.083333,-0,-0,0.66667
0.55828,0.81749,6.6994,0.47623,62.771,391.54,-8.5078,2.8359,-1.1924,-11.344,-2.3306e-12,-0.59621,0,0,0.083333,-0,-0,0.66667
0.66524,0.27045,7.9828,-0.34432,-36.695,235.5,7.3297,-2.4432,-1.5744,9.773,-9.3969e-13,-0.78721,0,0,0.083333,-0,-0,0.66667
0.40406,0.16452,4.8487,-0.50321,-80.681,666.38,6.5065,-2.1688,-1.1016,8.6754,-3.1499e-12,-0.55081,0,0,0.083333,-0,-0,0.66667
0.86609,0.64831,10.393,0.22247,10.556,41.977,-6.1657,2.0552,-1.8202,-8.221,3.3278e-09,-0.9101,0,0,0.083333,-0,-0,0.66667
0.5324,0.2351,6.3888,-0.39735,-54.499,433.64,6.7696,-2.2565,-1.4427,9.0261,-4.9374e-12,-0.72134,0,0,0.083333,7.8949e-16,0,0.66667
0.89484,0.3014,10.738,-0.29791,-11.251,26.797,8.5305,-2.8435,-1.6826,11.374,-3.8289e-08,-0.8413,0,0,0.083333,-0,-0,0.66667
0.73971,0.030675,8.8765,-0.70399,-61.158,148.93,16.664,-5.5546,-0.23616,22.218,2.245e-11,-0.11808,0,0,0.083333,-1.3816e-15,0,0.66667
0.5229,0.73523,6.2748,0.35284,49.062,449.5,-5.904,1.968,-1.5529,-7.872,5.9064e-13,-0.77646,0,0,0.083333,-0,-0,0.66667
0.71966,0.35729,8.6359,-0.21406,-19.7,169.1,4.9297,-1.6432,-1.8418,6.5729,-7.1498e-13,-0.92089,0,0,0.083333,-0,-0,0.66667
0.88675,0.58768,10.641,0.13152,5.3217,30.444,-3.7321,1.244,-1.9376,-4.9762,9.8853e-09,-0.96881,0,0,0.083333,7.8949e-16,0,0.66667
0.19451,0.80572,2.3341,0.45858,84.549,1107.4,-2.8544,0.95146,-1.2485,-3.8058,2.5206e-10,-0.62424,0,0,0.083333,-1.9737e-16,0,0.66667
0.42981,0.76106,5.1577,0.39159,61.13,616.75,-5.3859,1.7953,-1.4504,-7.1812,-1.3456e-11,-0.72522,0,0,0.083333,7.8949e-16,0,0.66667
0.85935,0.051229,10.312,-0.67316,-33.723,47.909,18.511,-6.1704,-0.39614,24.682,4.619e-08,-0.19807,0,0,0.083333,-0,9.1023e-17,0.66667
0.030496,0.3059,0.36596,-0.29115,-55.704,1482.3,0.28413,-0.09471,-1.7043,0.37883,-1.3168e-06,-0.85214,0,0,0.083333,2.4672e-17,0,0.66667
0.13308,0.81319,1.597,0.46978,88.434,1246.1,-2.0006,0.66687,-1.2124,-2.6675,-8.6212e-09,-0.60621,0,0,0.083333,3.9475e-16,0,0.66667
0.40535,0.062281,4.8642,-0.65658,-105.26,664.27,8.5165,-2.8388,-0.47357,11.355,-1.1322e-11,-0.23679,0,0,0.083333,2.7139e-16,2.7409e-18,0.66667
0.11236,0.96136,1.3483,0.69205,131.14,1293.6,-2.4882,0.82941,-0.29762,-3.3177,-1.1171e-07,-0.14881,0,0,0.083333,-0,-0,0.66667
0.72615,0.042525,8.7138,-0.68621,-62.215,163.49,15.945,-5.3151,-0.32142,21.261,-1.6771e-11,-0.16071,0,0,0.083333,-0,-0,0.66667
0.97481,0.36479,11.698,-0.20282,-1.8274,2.0917,6.3266,-2.1089,-1.8501,8.4355,1.1681e-06,-0.92503,0,0,0.083333,-0,-0,0.66667
0.48907,0.64006,5.8688,0.21009,30.577,507.83,-3.288,1.096,-1.8405,-4.384,1.7601e-12,-0.92023,0,0,0.083333,-7.8949e-16,0,0.66667
0.96027,0.59781,11.523,0.14672,2.1117,4.3747,-4.5084,1.5028,-1.92,-6.0112,-1.5705e-07,-0.96001,0,0,0.083333,-0,-0,0.66667
0.13577,0.63742,1.6292,0.20613,38.737,1239.8,-0.89557,0.29852,-1.8462,-1.1941,-2.9749e-09,-0.9231,0,0,0.083333,1.9737e-16,0,0.66667
0.70044,0.16041,8.4053,-0.50939,-49.659,192.16,11.418,-3.8059,-1.0789,15.223,-2.9701e-12,-0.53945,0,0,0.083333,1.579e-15,0,0.66667
0.58286,0.50707,6.9943,0.010607,1.3385,352.26,-0.19783,0.065944,-1.9975,-0.26378,-6.4189e-12,-0.99873,0,0,0.083333,-0,-0,0.66667
0.79173,0.15422,9.5008,-0.51867,-37.003,97.674,13.141,-4.3802,-1.0417,17.521,8.0575e-11,-0.52084,0,0,0.083333,2.344e-16,0,0.66667
0.5377,0.032374,6.4524,-0.70144,-95.687,425.8,12.069,-4.0231,-0.24796,16.092,4.5199e-12,-0.12398,0,0,0.083333,-0,-0,0.66667
0.97989,0.7481,11.759,0.37215,2.6808,1.991,-11.669,3.8897,-1.5066,-15.559,-3.0221e-06,-0.75328,0,0,0.083333,3.9475e-16,0,0.66667
0.43965,0.39214,5.2758,-0.16179,-24.969,597.89,2.2762,-0.75872,-1.9086,3.0349,1.6203e-12,-0.95431,0,0,0.083333,-0,-0,0.66667
0.95027,0.5597,11.403,0.089546,1.6159,6.4891,-2.723,0.90766,-1.9729,-3.6306,6.643e-09,-0.98644,0,0,0.083333,-0,-0,0.66667
0.91828,0.069413,11.019,-0.64588,-19.343,18.4,18.979,-6.3264,-0.51623,25.306,-2.9423e-07,-0.25811,0,0,0.083333,-0,-0,0.66667
0.42387,0.83958,5.0864,0.50936,80.067,628.27,-6.9089,2.303,-1.0805,-9.2119,-3.7179e-12,-0.54023,0,0,0.083333,-1.9737e-16,0,0.66667
0.41052,0.40633,4.9263,-0.1405,-22.35,653.35,1.8457,-0.61522,-1.9294,2.4609,-9.8297e-12,-0.96472,0,0,0.083333,-0,-0,0.66667
0.019947,0.15337,0.23936,-0.51994,-99.632,1506.7,0.33188,-0.11063,-1.0378,0.4425,-8.6551e-06,-0.51889,0,0,0.083333,3.084e-17,0,0.66667
0.44849,0.183,5.3819,-0.47549,-72.765,581.87,6.8242,-2.2747,-1.1944,9.0989,-3.3231e-12,-0.59722,0,0,0.083333,-1.9737e-16,0,0.66667
0.19941,0.66022,2.3929,0.24034,44.184,1096.3,-1.5336,0.51121,-1.7943,-2.0448,5.3293e-11,-0.89716,0,0,0.083333,-0,-0,0.66667
0.33593,0.65222,4.0311,0.22833,38.771,802.52,-2.4545,0.81815,-1.8111,-3.2726,-9.7342e-12,-0.90555,0,0,0.083333,1.9891e-16,0,0.66667
0.28252,0.058519,3.3902,-0.66222,-116.91,915.26,5.9868,-1.9956,-0.44546,7.9824,1.3264e-11,-0.22273,0,0,0.083333,1.9737e-16,0,0.66667
0.6702,0.42633,8.0424,-0.11051,-11.624,228.7,2.37,-0.78998,-1.9595,3.1599,-2.7562e-12,-0.97974,0,0,0.083333,7.8949e-16,0,0.66667
0.44017,0.44975,5.2821,-0.075378,-11.625,596.87,1.0617,-0.35392,-1.9805,1.4157,1.0352e-12,-0.99024,0,0,0.083333,7.8949e-16,0,0.66667
0.60025,0.34235,7.203,-0.23648,-28.921,326.1,4.5423,-1.5141,-1.7984,6.0564,-1.0409e-12,-0.89922,0,0,0.083333,1.0856e-15,0,0.66667
0.84352,0.70547,10.122,0.3082,16.921,56.561,-8.3192,2.7731,-1.6689,-11.092,4.2754e-10,-0.83443,0,0,0.083333,-0,-0,0.66667
0.83277,0.6182,9.9933,0.1773,10.336,63.822,-4.7247,1.5749,-1.8862,-6.2997,1.038e-10,-0.94311,0,0,0.083333,-0,-0,0.66667
0.58556,0.98599,7.0267,0.72899,91.951,349.78,-13.66,4.5532,-0.10605,-18.213,-6.8692e-12,-0.053023,0,0,0.083333,7.8949e-16,0,0.66667
0.44054,0.038786,5.2864,-0.69182,-106.99,597.3,9.7527,-3.2509,-0.29861,13.004,-1.9433e-12,-0.14931,0,0,0.083333,-0,-0,0.66667
0.40041,0.82476,4.8049,0.48715,78.372,673.46,-6.2419,2.0806,-1.1526,-8.3225,4.0514e-12,-0.57629,0,0,0.083333,-0,-0,0.66667
0.071127,0.73671,0.85353,0.35507,67.668,1388.2,-0.80816,0.26939,-1.5474,-1.0776,-2.7255e-07,-0.77371,0,0,0.083333,-8.4231e-17,0,0.66667
0.46738,0.98111,5.6086,0.72167,108.26,547.92,-10.793,3.5978,-0.15181,-14.391,3.1939e-12,-0.075907,0,0,0.083333,-7.8949e-16,0,0.66667
0.40304,0.4091,4.8365,-0.13636,-21.851,667.86,1.7586,-0.58621,-1.9346,2.3448,-5.417e-12,-0.96732,0,0,0.083333,-0,-0,0.66667
0.20153,0.61706,2.4184,0.17558,32.246,1091.6,-1.1323,0.37745,-1.8937,-1.5098,2.0822e-11,-0.94687,0,0,0.083333,-1.9737e-16,0,0.66667
0.80272,0.92677,9.6327,0.64015,43.609,88.877,-16.444,5.4812,-0.53939,-21.925,-3.5524e-09,-0.2697,0,0,0.083333,-0,-0,0.66667
0.69815,0.77512,8.3778,0.41268,40.447,194.57,-9.2195,3.0732,-1.3922,-12.293,2.9754e-13,-0.69609,0,0,0.083333,-0,-0,0.66667
0.97541,0.64526,11.705,0.21789,1.9159,2.0469,-6.8009,2.267,-1.8271,-9.0678,-1.2866e-06,-0.91357,0,0,0.083333,-1.579e-15,0,0.66667
0.38552,0.12996,4.6262,-0.55506,-90.586,702.85,6.8475,-2.2825,-0.9023,9.13,1.9664e-12,-0.45115,0,0,0.083333,-0,-0,0.66667
0.41693,0.73451,5.0031,0.35176,55.638,641.25,-4.6931,1.5644,-1.5571,-6.2575,-1.4722e-12,-0.77857,0,0,0.083333,-0,-0,0.66667
0.51973,0.99757,6.2368,0.74636,104.59,456.06,-12.413,4.1377,-0.018742,-16.551,-4.6363e-13,-0.009371,0,0,0.083333,-2.9606e-16,0,0.66667
0.35329,0.024974,4.2395,-0.71254,-119.69,767.84,8.0554,-2.6851,-0.19151,10.741,-1.9602e-12,-0.095754,0,0,0.083333,-3.9475e-16,0,0.66667
0.54525,0.83111,6.543,0.49666,66.847,412.69,-8.6658,2.8886,-1.1259,-11.554,-1.8963e-12,-0.56293,0,0,0.083333,-0,-0,0.66667
0.88975,0.49816,10.677,-0.0027625,-0.10889,28.849,0.078655,-0.026218,-2.0061,0.10487,-2.1995e-08,-1.003,0,0,0.083333,-2.7632e-15,0,0.66667
0.73052,0.93548,8.7662,0.65321,58.395,158.53,-15.27,5.09,-0.48272,-20.36,-7.2209e-13,-0.24136,0,0,0.083333,3.9475e-16,-8.6312e-17,0.66667
0.20651,0.14358,2.4781,-0.53462,-98.117,1080.8,3.533,-1.1777,-0.98309,4.7107,6.257e-11,-0.49154,0,0,0.083333,-0,-0,0.66667
0.80015,0.65123,9.6018,0.22685,15.549,89.506,-5.8083,1.9361,-1.8173,-7.7445,-5.5161e-11,-0.90865,0,0,0.083333,1.579e-15,0,0.66667
0.79531,0.20932,9.5437,-0.43601,-30.595,94.234,11.097,-3.6988,-1.3273,14.795,9.2808e-11,-0.66367,0,0,0.083333,7.8949e-16,0,0.66667
0.79909,0.59601,9.5891,0.14402,9.9141,90.275,-3.6828,1.2276,-1.929,-4.9104,-9.4638e-11,-0.96452,0,0,0.083333,3.158e-15,0,0.66667
0.3168,0.49343,3.8016,-0.0098512,-1.6958,842.12,0.099868,-0.033289,-1.9981,0.13316,-1.2988e-11,-0.99906,0,0,0.083333,5.9212e-16,0,0.66667
0.61295,0.86959,7.3554,0.55439,66.304,308.21,-10.874,3.6247,-0.90692,-14.499,-3.5367e-12,-0.45346,0,0,0.083333,7.8949e-16,0,0.66667
0.65229,0.99038,7.8275,0.73556,81.121,254.06,-15.354,5.1179,-0.074885,-20.472,9.4857e-13,-0.037442,0,0,0.083333,-7.8949e-16,0,0.66667
0.12023,0.84892,1.4427,0.52339,98.881,1275.5,-2.0136,0.67119,-1.0241,-2.6848,-2.2201e-09,-0.51204,0,0,0.083333,-0,-0,0.66667
0.91868,0.46765,11.024,-0.04853,-1.4257,16.219,1.4267,-0.47555,-1.9927,1.9022,-1.6049e-08,-0.99636,0,0,0.083333,-1.7764e-15,0,0.66667
0.36814,0.84175,4.4176,0.51262,84.925,737.39,-6.0389,2.013,-1.0627,-8.0518,6.0485e-13,-0.53133,0,0,0.083333,9.8686e-16,0,0.66667
0.68838,0.16083,8.2605,-0.50876,-51.234,206.75,11.207,-3.7357,-1.0853,14.943,-2.1352e-12,-0.54265,0,0,0.083333,1.579e-15,0,0.66667
0.92834,0.017931,11.14,-0.7231,-19.156,15.356,21.481,-7.1604,-0.13679,28.641,-3.6852e-06,-0.068395,0,0,0.083333,-0,-0,0.66667
0.67487,0.62506,8.0985,0.18759,19.51,222.81,-4.0512,1.3504,-1.8766,-5.4015,1.7844e-12,-0.93828,0,0,0.083333,-0,-0,0.66667
0.93848,0.4245,11.262,-0.11325,-2.5286,9.6518,3.401,-1.1337,-1.9589,4.5346,-5.1436e-08,-0.97947,0,0,0.083333,-1.579e-15,0,0.66667
0.69911,0.84806,8.3893,0.52209,51.092,193.81,-11.68,3.8933,-1.03,-15.573,6.5992e-13,-0.515,0,0,0.083333,-0,-0,0.66667
0.17086,0.74637,2.0503,0.36955,68.719,1160.4,-2.0205,0.6735,-1.5198,-2.694,3.1127e-10,-0.75991,0,0,0.083333,-4.9343e-17,0,0.66667
0.72891,0.18436,8.7469,-0.47346,-42.44,159.5,11.043,-3.6811,-1.2007,14.724,-4.1798e-12,-0.60033,0,0,0.083333,2.158e-16,0,0.66667
0.40572,0.53414,4.8686,0.05121,8.1842,662.62,-0.66487,0.22162,-1.9975,-0.88649,-2.7174e-12,-0.99876,0,0,0.083333,-0,-0,0.66667
0.31857,0.61105,3.8229,0.16657,28.643,838.47,-1.6981,0.56603,-1.8975,-2.2641,-1.9205e-12,-0.94874,0,0,0.083333,3.9475e-16,0,0.66667
0.78065,0.35957,9.3678,-0.21064,-15.684,106.67,5.262,-1.754,-1.8477,7.016,2.4574e-11,-0.92387,0,0,0.083333,1.579e-15,0,0.66667
0.79049,0.36944,9.4859,-0.19584,-13.999,97.794,4.9539,-1.6513,-1.8603,6.6052,4.8282e-11,-0.93013,0,0,0.083333,-0,-0,0.66667
0.94901,0.35226,11.388,-0.22161,-4.1103,7.0036,6.7298,-2.2433,-1.8239,8.9731,-6.7178e-08,-0.91195,0,0,0.083333,-0,-0,0.66667
0.20319,0.74756,2.4382,0.37134,68.19,1088,-2.4144,0.80481,-1.518,-3.2192,1.1915e-10,-0.759,0,0,0.083333,-9.8686e-17,0,0.66667
0.53266,0.3068,6.392,-0.2898,-39.71,432.99,4.9397,-1.6466,-1.7055,6.5862,-6.6991e-12,-0.85274,0,0,0.083333,1.1842e-15,0,0.66667
0.77212,0.48237,9.2655,-0.026439,-2.0346,114.43,0.65326,-0.21775,-1.9934,0.87102,-2.9285e-12,-0.9967,0,0,0.083333,1.579e-15,0,0.66667
0.51635,0.57954,6.1962,0.11931,16.732,460.32,-1.9713,0.6571,-1.9546,-2.6284,7.1709e-13,-0.97729,0,0,0.083333,-7.8949e-16,0,0.66667
0.22879,0.53442,2.7454,0.051636,9.3652,1031.2,-0.37804,0.12601,-1.9881,-0.50405,7.3376e-12,-0.99404,0,0,0.083333,-0,-0,0.66667
0.99529,0.92434,11.943,0.63651,1.0445,2.2818,-20.272,6.7575,-0.55694,-27.03,3.7623e-06,-0.27847,0,0,0.083333,-0,-0,0.66667
0.88932,0.73493,10.672,0.35239,13.988,29.653,-10.028,3.3428,-1.5621,-13.371,2.2237e-08,-0.78107,0,0,0.083333,-0,-0,0.66667
0.57714,0.2361,6.9257,-0.39585,-50.521,361.57,7.3109,-2.437,-1.4473,9.7478,-1.8963e-12,-0.72367,0,0,0.083333,7.8949e-16,0,0.66667
0.53805,0.24345,6.4566,-0.38483,-52.332,424.24,6.6258,-2.2086,-1.4697,8.8344,-4.0652e-12,-0.73487,0,0,0.083333,7.8949e-16,0,0.66667
0.83998,0.28499,10.08,-0.32251,-18.079,59.039,8.6688,-2.8896,-1.6298,11.558,-1.7938e-10,-0.81491,0,0,0.083333,-0,-0,0.66667
0.91463,0.66044,10.976,0.24067,7.4264,18.046,-7.0439,2.348,-1.7906,-9.3918,6.3028e-08,-0.89528,0,0,0.083333,-0,-0,0.66667
0.81959,0.85147,9.835,0.5272,33.074,74.766,-13.827,4.6089,-1.0078,-18.436,-1.2932e-09,-0.50392,0,0,0.083333,-0,-0,0.66667
0.43281,0.67654,5.1937,0.2648,41.183,610.88,-3.6675,1.2225,-1.7482,-4.89,-6.4466e-12,-0.87411,0,0,0.083333,-0,-0,0.66667
0.85562,0.96994,10.267,0.70491,36.211,50.437,-19.3,6.4334,-0.23341,-25.734,1.0746e-08,-0.11671,0,0,0.083333,-0,1.4441e-17,0.66667
0.22561,0.09507,2.7073,-0.60739,-110.56,1038.6,4.385,-1.4617,-0.68539,5.8467,5.8682e-10,-0.34269,0,0,0.083333,-7.8949e-16,0,0.66667
0.54052,0.4383,6.4862,-0.092554,-12.525,419.77,1.6009,-0.53362,-1.967,2.1345,-5.8175e-12,-0.98351,0,0,0.083333,1.579e-15,0,0.66667
0.31515,0.66325,3.7818,0.24488,42.219,845.67,-2.4695,0.82318,-1.788,-3.2927,2.0579e-12,-0.89398,0,0,0.083333,-0,-0,0.66667
0.11963,0.32401,1.4356,-0.26399,-49.826,1276.7,1.0106,-0.33688,-1.749,1.3475,7.2892e-09,-0.8745,0,0,0.083333,1.9737e-16,0,0.66667
0.14551,0.41987,1.7461,-0.12019,-22.52,1217.6,0.55965,-0.18655,-1.9458,0.7462,5.2032e-10,-0.97292,0,0,0.083333,1.9737e-16,0,0.66667
0.9366,0.14387,11.239,-0.5342,-12.439,11.567,16.011,-5.3369,-0.99015,21.347,1.9301e-08,-0.49507,0,0,0.083333,-0,-0,0.66667
0.19499,0.99856,2.3399,0.74783,138.12,1106.7,-4.6663,1.5554,-0.0084869,-6.2217,-6.9414e-10,-0.0042434,0,0,0.083333,6.1679e-16,0,0.66667
0.64991,0.17651,7.7989,-0.48524,-53.649,256.2,10.092,-3.3638,-1.1589,13.455,-9.6367e-13,-0.57946,0,0,0.083333,-7.8949e-16,0,0.66667
0.23912,0.45247,2.8695,-0.071301,-12.866,1008.5,0.54559,-0.18186,-1.9793,0.72745,7.8926e-13,-0.98963,0,0,0.083333,-3.9475e-16,0,0.66667
0.52547,0.34398,6.3056,-0.23402,-32.403,444.97,3.9351,-1.3117,-1.8032,5.2468,-5.8427e-12,-0.90162,0,0,0.083333,1.579e-15,0,0.66667
0.13063,0.85588,1.5676,0.53382,100.59,1251.7,-2.2315,0.74384,-0.98331,-2.9754,-4.0312e-09,-0.49166,0,0,0.083333,-0,-0,0.66667
0.28954,0.51812,3.4745,0.027185,4.766,899.62,-0.25187,0.083958,-1.993,-0.33583,-1.2336e-11,-0.99649,0,0,0.083333,-0,-0,0.66667
0.40052,0.98596,4.8063,0.72894,117.48,673.86,-9.3426,3.1142,-0.10713,-12.457,5.6479e-12,-0.053565,0,0,0.083333,-0,-0,0.66667
0.70668,0.93804,8.4801,0.65705,63.064,185.46,-14.858,4.9528,-0.46559,-19.811,-9.0177e-12,-0.2328,0,0,0.083333,-0,-0,0.66667
0.90107,0.40516,10.813,-0.14226,-5.057,23.585,4.1019,-1.3673,-1.9264,5.4693,-2.5748e-08,-0.96319,0,0,0.083333,6.9081e-16,0,0.66667
0.42858,0.59949,5.1429,0.14924,23.307,618.78,-2.0467,0.68225,-1.9173,-2.729,-1.0218e-11,-0.95863,0,0,0.083333,-1.579e-15,0,0.66667
0.71382,0.00089213,8.5659,-0.74866,-70.498,177.69,17.101,-5.7004,-0.0057716,22.802,5.7963e-12,-0.0028858,0,0,0.083333,-0,-0,0.66667
0.13909,0.17137,1.669,-0.49295,-92.651,1232.4,2.194,-0.73133,-1.1391,2.9253,8.3235e-09,-0.56955,0,0,0.083333,1.9737e-16,0,0.66667
0.10058,0.26769,1.2069,-0.34847,-66.069,1320.4,1.1215,-0.37384,-1.564,1.4953,5.188e-08,-0.782,0,0,0.083333,-1.9737e-16,0,0.66667
0.44811,0.26291,5.3773,-0.35564,-54.41,582.34,5.0996,-1.6999,-1.5474,6.7995,-3.7437e-12,-0.77369,0,0,0.083333,7.8949e-16,0,0.66667
0.76051,0.36574,9.1261,-0.20139,-16.194,125.84,4.9011,-1.6337,-1.853,6.5348,8.5696e-12,-0.9265,0,0,0.083333,-7.8949e-16,0,0.66667
0.23162,0.18404,2.7794,-0.47394,-85.949,1025.2,3.5127,-1.1709,-1.2028,4.6836,-9.281e-11,-0.60141,0,0,0.083333,-4.2486e-16,0,0.66667
0.80913,0.60592,9.7096,0.15888,10.445,81.949,-4.1137,1.3712,-1.9097,-5.485,-6.0138e-11,-0.95483,0,0,0.083333,-0,-0,0.66667
0.25241,0.45778,3.0289,-0.06333,-11.348,979.52,0.51152,-0.17051,-1.987,0.68203,-5.7427e-12,-0.99351,0,0,0.083333,3.9475e-16,0,0.66667
0.083801,0.94775,1.0056,0.67162,127.97,1359.1,-1.801,0.60035,-0.3928,-2.4014,6.8975e-07,-0.1964,0,0,0.083333,-0,-0,0.66667
0.513,0.18077,6.156,-0.47885,-67.578,466.64,7.8608,-2.6203,-1.186,10.481,-3.9884e-12,-0.59298,0,0,0.083333,3.0376e-16,0,0.66667
0.00097781,0.69041,0.011734,0.28562,54.697,1550.7,-0.0089361,0.0029769,-1.7156,-0.011916,-2.6982e-06,-0.85778,0,0,0.083333,-0,-2.2903e-16,0.66667
0.70811,0.81301,8.4974,0.46951,44.778,182.99,-10.639,3.5463,-1.2149,-14.185,5.0902e-12,-0.60743,0,0,0.083333,-3.158e-15,0,0.66667
0.73906,0.29006,8.8687,-0.31491,-27.286,148.06,7.4476,-2.4825,-1.6451,9.9301,-3.5603e-12,-0.82257,0,0,0.083333,1.579e-15,0,0.66667
0.97332,0.83098,11.68,0.49647,4.8558,3.3584,-15.463,5.1544,-1.1212,-20.618,-9.9484e-06,-0.56061,0,0,0.083333,-0,-0,0.66667
0.66316,0.7083,7.958,0.31245,33.457,238.13,-6.6306,2.2102,-1.6488,-8.8408,-1.1124e-12,-0.82438,0,0,0.083333,-7.8949e-16,0,0.66667
0.49422,0.29566,5.9306,-0.30651,-44.327,498.88,4.8474,-1.6158,-1.6623,6.4632,-2.6423e-12,-0.83115,0,0,0.083333,-7.8949e-16,0,0.66667
0.073623,0.5094,0.88348,0.014096,2.6836,1382.4,-0.03321,0.01107,-1.9972,-0.04428,-2.0227e-07,-0.9986,0,0,0.083333,-0,-0,0.66667
0.5343,0.45209,6.4115,-0.071862,-9.8172,430.06,1.2287,-0.40955,-1.9815,1.6382,2.9112e-12,-0.99077,0,0,0.083333,-0,-0,0.66667
0.14183,0.40311,1.702,-0.14533,-27.261,1226,0.65961,-0.21987,-1.9299,0.87948,8.7363e-10,-0.96495,0,0,0.083333,-2.4672e-16,0,0.66667
0.80239,0.59772,9.6287,0.14658,9.9415,87.496,-3.7636,1.2545,-1.9211,-5.0181,-9.0788e-11,-0.96055,0,0,0.083333,-3.158e-15,0,0.66667
0.57615,0.058198,6.9138,-0.6627,-84.917,363.99,12.218,-4.0727,-0.44145,16.291,-3.1575e-12,-0.22073,0,0,0.083333,-0,4.6858e-17,0.66667
0.21291,0.32221,2.555,-0.26668,-48.746,1066.3,1.817,-0.60566,-1.7436,2.4226,-4.909e-11,-0.87182,0,0,0.083333,-0,-0,0.66667
0.70706,0.23416,8.4847,-0.39877,-38.12,183.99,9.0224,-3.0075,-1.433,12.03,-4.3947e-12,-0.71652,0,0,0.083333,1.579e-15,0,0.66667
0.33301,0.48022,3.9961,-0.029665,-5.0468,808.45,0.31612,-0.10537,-1.9942,0.4215,7.8461e-12,-0.99708,0,0,0.083333,-0,-0,0.66667
0.6691,0.6906,8.0292,0.2859,30.175,230.37,-6.1215,2.0405,-1.7109,-8.162,-1.7168e-12,-0.85543,0,0,0.083333,-0,-0,0.66667
0.77955,0.074944,9.3546,-0.63758,-47.921,109.18,15.905,-5.3016,-0.55739,21.207,-9.6498e-11,-0.27869,0,0,0.083333,-0,-9.4596e-17,0.66667
0.086576,0.25356,1.0389,-0.36966,-70.279,1352.6,1.0241,-0.34137,-1.5108,1.3655,2.9768e-08,-0.75538,0,0,0.083333,1.9737e-16,0,0.66667
0.51066,0.065925,6.1279,-0.65111,-92.32,471.19,10.64,-3.5466,-0.49075,14.186,-1.7844e-12,-0.24537,0,0,0.083333,1.579e-15,0,0.66667
0.10367,0.17119,1.2441,-0.49321,-93.515,1313.4,1.6363,-0.54542,-1.1315,2.1817,3.2599e-08,-0.56574,0,0,0.083333,-1.9737e-16,0,0.66667
0.64946,0.12302,7.7935,-0.56547,-62.632,257.1,11.752,-3.9173,-0.86014,15.669,2.1148e-12,-0.43007,0,0,0.083333,-8.8818e-16,0,0.66667
0.3155,0.033824,3.786,-0.69926,-120.84,845.67,7.0597,-2.3532,-0.2626,9.413,-2.0091e-11,-0.1313,0,0,0.083333,-0,-0,0.66667
0.6435,0.067169,7.722,-0.64925,-72.941,265.53,13.369,-4.4564,-0.5023,17.826,-1.2514e-12,-0.25115,0,0,0.083333,-0,-0,0.66667
0.048554,0.67673,0.58265,0.2651,50.644,1440.4,-0.41189,0.1373,-1.753,-0.54919,-1.1714e-07,-0.87652,0,0,0.083333,-0,-0,0.66667
0.867,0.23599,10.404,-0.39602,-18.714,41.937,10.987,-3.6624,-1.4379,14.649,-6.4119e-09,-0.71897,0,0,0.083333,-0,-0,0.66667
0.47816,0.47888,5.7379,-0.031673,-4.6724,527.16,0.48464,-0.16155,-1.9927,0.64618,-2.1208e-12,-0.99633,0,0,0.083333,-0,-0,0.66667
0.79355,0.50768,9.5226,0.011514,0.81181,94.95,-0.29237,0.097458,-1.9994,-0.38983,1.3081e-11,-0.99968,0,0,0.083333,-3.158e-15,0,0.66667
0.22664,0.019746,2.7196,-0.72038,-131.18,1036.5,5.2245,-1.7415,-0.15049,6.966,3.5962e-11,-0.075246,0,0,0.083333,7.8949e-16,0,0.66667
0.33497,0.25484,4.0197,-0.36774,-62.521,804.63,3.9419,-1.314,-1.5157,5.2559,-1.5792e-12,-0.75784,0,0,0.083333,-0,-0,0.66667
0.76377,0.9978,9.1653,0.7467,59.73,124.73,-18.25,6.0833,-0.021154,-24.333,2.3615e-11,-0.010577,0,0,0.083333,-2.9606e-15,0,0.66667
0.85342,0.91213,10.241,0.61819,32.129,51.314,-16.882,5.6275,-0.63808,-22.51,9.7686e-09,-0.31904,0,0,0.083333,-0,-0,0.66667
0.43712,0.35022,5.2455,-0.22467,-34.775,602.7,3.1427,-1.0476,-1.8273,4.1902,8.0176e-12,-0.91363,0,0,0.083333,-1.579e-15,0,0.66667
0.93033,0.55636,11.164,0.084533,2.134,12.143,-2.5166,0.83886,-1.9708,-3.3554,7.4178e-08,-0.98541,0,0,0.083333,-1.579e-15,0,0.66667
0.57961,0.018522,6.9554,-0.72222,-92.05,358.87,13.395,-4.4651,-0.14869,17.861,4.6185e-13,-0.074347,0,0,0.083333,-0,-0,0.66667
0.049097,0.99358,0.58917,0.74037,141.8,1439.3,-1.1632,0.38774,-0.053119,-1.5509,7.0298e-06,-0.026559,0,0,0.083333,-7.4015e-17,0,0.66667
0.45286,0.070823,5.4343,-0.64377,-98.155,574.24,9.3292,-3.1097,-0.53329,12.439,6.0396e-14,-0.26665,0,0,0.083333,7.8949e-16,0,0.66667
0.1604,0.3685,1.9248,-0.19726,-36.792,1183.9,1.0125,-0.33749,-1.8603,1.35,2.431e-10,-0.93017,0,0,0.083333,-0,-0,0.66667
0.73282,0.089993,8.7939,-0.61501,-54.551,155.84,14.422,-4.8074,-0.65919,19.23,-5.6085e-11,-0.3296,0,0,0.083333,1.4012e-15,4.1754e-17,0.66667
0.34735,0.95256,4.1682,0.67885,114.54,779.83,-7.5456,2.5152,-0.36042,-10.061,3.9879e-12,-0.18021,0,0,0.083333,7.8949e-16,0,0.66667
0.20118,0.56136,2.4141,0.092041,16.904,1092.3,-0.59253,0.19751,-1.9735,-0.79004,-6.2252e-11,-0.98674,0,0,0.083333,5.6745e-16,0,0.66667
0.84279,0.57898,10.113,0.11847,6.5225,56.696,-3.1951,1.065,-1.9546,-4.2602,1.8045e-10,-0.97732,0,0,0.083333,1.579e-15,0,0.66667
0.8178,0.15611,9.8136,-0.51584,-32.645,76.101,13.499,-4.4998,-1.0523,17.999,1.7973e-09,-0.52616,0,0,0.083333,2.3191e-15,0,0.66667
0.34365,0.11076,4.1238,-0.58386,-98.729,787.19,6.4205,-2.1402,-0.79488,8.5607,4.5013e-12,-0.39744,0,0,0.083333,-0,9.7911e-17,0.66667
0.40362,0.40093,4.8435,-0.14861,-23.801,666.74,1.9194,-0.6398,-1.9229,2.5592,-2.7488e-12,-0.96145,0,0,0.083333,-5.9212e-16,0,0.66667
0.0606,0.29818,0.7272,-0.30274,-57.764,1412.5,0.58707,-0.19569,-1.6764,0.78275,1.9553e-07,-0.83819,0,0,0.083333,-0,-0,0.66667
0.17888,0.86191,2.1466,0.54286,100.74,1142.5,-3.1075,1.0358,-0.94788,-4.1433,6.2994e-10,-0.47394,0,0,0.083333,1.9737e-16,0,0.66667
0.73592,0.10824,8.831,-0.58764,-51.59,152.38,13.839,-4.6128,-0.77528,18.451,-4.8529e-11,-0.38764,0,0,0.083333,-0,-0,0.66667
0.56613,0.01939,6.7936,-0.72092,-94.021,379.93,13.06,-4.3534,-0.15109,17.414,1.9735e-12,-0.075547,0,0,0.083333,-0,-0,0.66667
0.82324,0.18884,9.8788,-0.46673,-28.714,71.709,12.295,-4.0985,-1.224,16.394,-9.1989e-11,-0.61202,0,0,0.083333,-0,-0,0.66667
0.50115,0.43709,6.0138,-0.094362,-13.513,486.52,1.5133,-0.50442,-1.974,2.0177,1.1012e-12,-0.987,0,0,0.083333,3.454e-16,0,0.66667
0.76786,0.59669,9.2143,0.14503,11.346,118.58,-3.5637,1.1879,-1.9278,-4.7516,-2.1493e-11,-0.96391,0,0,0.083333,-0,-0,0.66667
0.50992,0.59353,6.119,0.1403,19.854,471.36,-2.2893,0.7631,-1.9281,-3.0524,-3.0331e-13,-0.96403,0,0,0.083333,-1.0115e-15,0,0.66667
0.56807,0.60153,6.8168,0.1523,19.72,375.37,-2.7685,0.92285,-1.9144,-3.6914,2.7847e-12,-0.95722,0,0,0.083333,-0,-0,0.66667
0.18462,0.82906,2.2154,0.49358,91.375,1129.6,-2.916,0.972,-1.134,-3.888,8.0066e-10,-0.56699,0,0,0.083333,3.9475e-16,0,0.66667
0.5444,0.11315,6.5328,-0.58028,-78.258,414.34,10.109,-3.3697,-0.80385,13.479,-2.5677e-12,-0.40192,0,0,0.083333,7.8949e-16,1.4201e-17,0.66667
0.20103,0.12017,2.4124,-0.56975,-104.83,1093,3.6652,-1.2217,-0.84843,4.887,4.5859e-10,-0.42422,0,0,0.083333,-9.8686e-17,-1.2213e-16,0.66667
0.55622,0.11992,6.6746,-0.57011,-75.456,395.14,10.147,-3.3825,-0.8411,13.53,1.4868e-12,-0.42055,0,0,0.083333,-7.8949e-16,0,0.66667
0.14144,0.22933,1.6973,-0.406,-76.225,1227,1.8376,-0.61253,-1.419,2.4501,2.5898e-09,-0.70951,0,0,0.083333,-0,-0,0.66667
0.18601,0.67068,2.2321,0.25602,47.323,1126.3,-1.5239,0.50797,-1.7702,-2.0319,8.161e-11,-0.88508,0,0,0.083333,-3.9475e-16,0,0.66667
0.76478,0.26109,9.1774,-0.35837,-28.4,122,8.7703,-2.9234,-1.5484,11.694,1.2197e-11,-0.77419,0,0,0.083333,-0,-0,0.66667
0.070886,0.28377,0.85064,-0.32434,-61.806,1388.8,0.73572,-0.24524,-1.6228,0.98096,2.5825e-07,-0.81138,0,0,0.083333,-1.9737e-16,0,0.66667
0.36931,0.27069,4.4318,-0.34396,-56.875,734.74,4.065,-1.355,-1.5759,5.4199,6.9611e-12,-0.78796,0,0,0.083333,-3.9475e-16,0,0.66667
0.87788,0.1537,10.535,-0.51945,-22.714,36.302,14.592,-4.8642,-1.042,19.457,2.6795e-09,-0.521,0,0,0.083333,1.9737e-15,0,0.66667
0.10434,0.81473,1.252,0.4721,89.49,1311.8,-1.5763,0.52542,-1.2058,-2.1017,-4.0818e-08,-0.6029,0,0,0.083333,-0,-0,0.66667
0.35915,0.43564,4.3098,-0.096545,-16.09,755,1.1096,-0.36986,-1.9748,1.4794,5.4595e-12,-0.98739,0,0,0.083333,-8.8818e-16,0,0.66667
0.11396,0.97971,1.3675,0.71957,136.33,1289.9,-2.6241,0.87469,-0.1567,-3.4988,8.8837e-09,-0.078348,0,0,0.083333,-0,-0,0.66667
0.87654,0.071392,10.518,-0.64291,-28.498,37.704,18.033,-6.0111,-0.53376,24.044,-1.978e-07,-0.26688,0,0,0.083333,-0,-0,0.66667
0.12624,0.20061,1.5148,-0.44909,-84.683,1261.7,1.8141,-0.60471,-1.2868,2.4188,7.8321e-10,-0.64339,0,0,0.083333,-0,-0,0.66667
0.25456,0.13766,3.0547,-0.54352,-97.442,975.24,4.4274,-1.4758,-0.94728,5.9031,-1.7124e-11,-0.47364,0,0,0.083333,3.9475e-16,0,0.66667
0.42191,0.18885,5.0629,-0.46673,-73.494,631.92,6.3013,-2.1004,-1.234,8.4018,-2.085e-12,-0.61702,0,0,0.083333,-0,-0,0.66667
0.66526,0.27306,7.9831,-0.34041,-36.275,235.47,7.2467,-2.4156,-1.5842,9.6622,-6.8523e-13,-0.79209,0,0,0.083333,-0,-0,0.66667
0.34471,0.26224,4.1365,-0.35664,-60.178,784.63,3.934,-1.3113,-1.5524,5.2453,-2.4758e-13,-0.77619,0,0,0.083333,-0,-0,0.66667
0.2135,0.84467,2.562,0.517,94.581,1065.2,-3.5322,1.1774,-1.0479,-4.7096,2.2019e-10,-0.52397,0,0,0.083333,7.8949e-16,0,0.66667
0.37339,0.58753,4.4806,0.1313,21.621,726.39,-1.5688,0.52294,-1.9422,-2.0917,-1.272e-12,-0.97111,0,0,0.083333,-0,-0,0.66667
0.57102,0.974,6.8523,0.71101,91.958,372.19,-12.992,4.3307,-0.19894,-17.323,-1.8883e-12,-0.099468,0,0,0.083333,1.579e-15,0,0.66667
0.99075,0.12581,11.889,-0.56129,-1.8401,2.0183,17.795,-5.9317,-0.87731,23.727,-2.5297e-05,-0.43866,0,0,0.083333,-0,-0,0.66667
0.32717,0.63899,3.926,0.20849,35.633,820.62,-2.1828,0.72759,-1.85,-2.9103,-3.8811e-12,-0.925,0,0,0.083333,-0,-0,0.66667
0.3622,0.55245,4.3464,0.078675,13.079,748.83,-0.91188,0.30396,-1.9785,-1.2158,7.7238e-13,-0.98925,0,0,0.083333,-0,-0,0.66667
0.70624,0.099204,8.4748,-0.60119,-57.731,185.72,13.587,-4.5289,-0.71539,18.116,-2.0636e-11,-0.3577,0,0,0.083333,-0,-0,0.66667
0.29894,0.44449,3.5872,-0.083263,-14.51,879.7,0.79649,-0.2655,-1.9777,1.062,5.6368e-12,-0.98887,0,0,0.083333,-0,-0,0.66667
0.3497,0.51382,4.1964,0.020736,3.4824,774.19,-0.23205,0.077349,-1.9947,-0.30939,7.2889e-12,-0.99734,0,0,0.083333,-0,-0,0.66667
0.99471,0.016505,11.936,-0.72524,-1.4424,2.9448,23.085,-7.6949,-0.12666,30.78,-1.5727e-05,-0.063329,0,0,0.083333,3.158e-15,0,0.66667
0.60427,0.94035,7.2512,0.66053,80.427,321.35,-12.772,4.2574,-0.4468,-17.03,-6.1053e-12,-0.2234,0,0,0.083333,1.579e-15,0,0.66667
0.82881,0.22529,9.9457,-0.41207,-24.602,67.328,10.929,-3.643,-1.4021,14.572,1.2672e-10,-0.70106,0,0,0.083333,1.579e-15,0,0.66667
0.031666,0.037053,0.37999,-0.69442,-133.14,1479.6,0.70367,-0.23457,-0.29221,0.93821,-2.6691e-05,-0.1461,0,0,0.083333,-0,-0,0.66667
0.14549,0.46343,1.7459,-0.054849,-10.276,1217.7,0.25536,-0.08512,-1.9872,0.34048,7.7449e-10,-0.99362,0,0,0.083333,-9.8686e-17,0,0.66667
0.72773,0.63177,8.7327,0.19765,17.744,160.08,-4.6027,1.5342,-1.8574,-6.1369,-9.3259e-13,-0.92872,0,0,0.083333,-0,-0,0.66667
0.53974,0.8246,6.4769,0.4869,66.086,421.7,-8.4096,2.8032,-1.1528,-11.213,-8.5265e-14,-0.5764,0,0,0.083333,-0,-0,0.66667
0.99526,0.69767,11.943,0.29651,0.39194,0.59889,-9.4435,3.1478,-1.6849,-12.591,2.0482e-06,-0.84247,0,0,0.083333,-0,-0,0.66667
0.49563,0.63463,5.9476,0.20194,29.139,496.26,-3.2028,1.0676,-1.8531,-4.2704,-3.6615e-12,-0.92653,0,0,0.083333,-0,-0,0.66667
0.3841,0.69951,4.6092,0.29927,48.836,705.2,-3.6784,1.2261,-1.6775,-4.9046,9.9432e-13,-0.83874,0,0,0.083333,-0,-0,0.66667
0.19437,0.49297,2.3325,-0.010542,-1.9414,1107.5,0.065568,-0.021856,-1.9958,0.087424,9.8259e-11,-0.99791,0,0,0.083333,-1.9737e-16,0,0.66667
0.59017,0.13924,7.082,-0.54114,-67.56,342.01,10.22,-3.4065,-0.9578,13.626,-1.1493e-12,-0.4789,0,0,0.083333,-0,-0,0.66667
0.76663,0.18293,9.1995,-0.47561,-37.483,120.61,11.668,-3.8892,-1.201,15.557,7.7963e-11,-0.60051,0,0,0.083333,-0,-0,0.66667
0.92444,0.35378,11.093,-0.21933,-6.0065,14.345,6.4883,-2.1628,-1.83,8.651,-1.4593e-07,-0.91499,0,0,0.083333,1.579e-15,0,0.66667
0.13763,0.68109,1.6515,0.27163,51.028,1235.6,-1.1963,0.39876,-1.7382,-1.595,-2.647e-09,-0.86911,0,0,0.083333,-9.8686e-17,0,0.66667
0.0080899,0.92709,0.097079,0.64064,122.89,1534.2,-0.16584,0.055241,-0.53649,-0.22114,-5.9078e-05,-0.26824,0,0,0.083333,-0,-0,0.66667
0.47796,0.63293,5.7355,0.1994,29.431,527.61,-3.0498,1.0166,-1.8549,-4.0663,-7.0188e-12,-0.92747,0,0,0.083333,1.579e-15,0,0.66667
0.18295,0.61762,2.1954,0.17643,32.644,1133.1,-1.0329,0.3443,-1.8874,-1.3772,1.1836e-10,-0.94368,0,0,0.083333,1.9737e-16,0,0.66667
0.61034,0.9303,7.3241,0.64544,77.664,312.37,-12.606,4.202,-0.52379,-16.808,-9.3525e-13,-0.26189,0,0,0.083333,-3.9475e-16,0,0.66667
0.62027,0.93104,7.4432,0.64656,76.282,298.01,-12.833,4.2778,-0.51157,-17.111,-1.0214e-13,-0.25578,0,0,0.083333,3.9475e-16,0,0.66667
0.40963,0.15897,4.9156,-0.51155,-81.578,655.61,6.7055,-2.2352,-1.07,8.9407,-1.5143e-11,-0.53501,0,0,0.083333,1.579e-15,0,0.66667
0.67721,0.13441,8.1265,-0.54838,-56.854,220.81,11.884,-3.9612,-0.92775,15.845,5.0271e-13,-0.46388,0,0,0.083333,-0,-0,0.66667
0.19967,0.42881,2.396,-0.10679,-19.625,1095.7,0.68233,-0.22744,-1.959,0.90978,3.5711e-11,-0.97948,0,0,0.083333,-0,-0,0.66667
0.80858,0.53504,9.703,0.052556,3.4628,82.3,-1.3599,0.45329,-1.9896,-1.8131,-2.8616e-11,-0.9948,0,0,0.083333,-0,-0,0.66667
0.05034,0.87518,0.60408,0.56276,107.63,1436.3,-0.90654,0.30218,-0.87476,-1.2087,-7.58e-07,-0.43738,0,0,0.083333,-0,-0,0.66667
0.17186,0.51451,2.0623,0.021767,4.0431,1158,-0.11971,0.039903,-2.0055,-0.15961,-1.9726e-10,-1.0028,0,0,0.083333,-0,-0,0.66667
0.9806,0.35881,11.767,-0.21179,-1.4485,1.4258,6.6457,-2.2152,-1.8392,8.8609,9.4435e-07,-0.91959,0,0,0.083333,-0,-0,0.66667
0.90038,0.13807,10.805,-0.5429,-19.583,25.216,15.642,-5.214,-0.94833,20.856,9.2796e-09,-0.47417,0,0,0.083333,-1.579e-15,0,0.66667
0.93973,0.94373,11.277,0.66559,14.858,11.446,-20.015,6.6718,-0.42696,-26.687,-9.6821e-06,-0.21348,0,0,0.083333,-0,-0,0.66667
0.90844,0.39415,10.901,-0.15877,-5.2379,20.402,4.6155,-1.5385,-1.912,6.154,-4.071e-08,-0.95602,0,0,0.083333,1.579e-15,0,0.66667
0.44142,0.70962,5.297,0.31443,48.456,594.76,-4.4414,1.4805,-1.6472,-5.9219,-9.5306e-12,-0.8236,0,0,0.083333,3.9475e-16,0,0.66667
0.9388,0.3666,11.266,-0.2001,-4.4499,9.693,6.0113,-2.0038,-1.8617,8.0151,-1.3408e-07,-0.93083,0,0,0.083333,7.8949e-16,0,0.66667
0.23741,0.2357,2.849,-0.39645,-71.662,1012.4,3.012,-1.004,-1.4411,4.0159,-1.3942e-11,-0.72053,0,0,0.083333,3.9475e-16,0,0.66667
0.049514,0.71385,0.59417,0.32078,61.286,1438.2,-0.50826,0.16942,-1.6356,-0.67768,-2.2043e-07,-0.8178,0,0,0.083333,7.4015e-17,0,0.66667
0.55726,0.69712,6.6872,0.29569,38.996,392.76,-5.2728,1.7576,-1.6862,-7.0304,2.2458e-12,-0.84309,0,0,0.083333,-0,-0,0.66667
0.31332,0.828,3.7598,0.49199,85.026,849.81,-4.9328,1.6443,-1.1443,-6.5771,-9.0665e-12,-0.57213,0,0,0.083333,3.9475e-16,0,0.66667
0.53208,0.21201,6.3849,-0.43198,-59.291,434.26,7.3551,-2.4517,-1.342,9.8068,-9.6945e-13,-0.67098,0,0,0.083333,-7.8949e-16,0,0.66667
0.47161,0.23088,5.6593,-0.40368,-60.101,539.36,6.0921,-2.0307,-1.4209,8.1229,1.4149e-12,-0.71046,0,0,0.083333,-0,-0,0.66667
0.48313,0.64043,5.7976,0.21064,30.89,518.37,-3.2565,1.0855,-1.8461,-4.3421,-3.7537e-12,-0.92303,0,0,0.083333,-0,-0,0.66667
0.57008,0.15658,6.8409,-0.51513,-66.604,372.94,9.3973,-3.1324,-1.0537,12.53,3.7543e-12,-0.52683,0,0,0.083333,-0,-0,0.66667
0.92344,0.43216,11.081,-0.10176,-2.8189,14.512,3.0072,-1.0024,-1.9669,4.0095,-9.2176e-08,-0.98347,0,0,0.083333,1.579e-15,0,0.66667
0.23619,0.67009,2.8343,0.25513,46.121,1015,-1.9283,0.64278,-1.771,-2.5711,4.1367e-12,-0.8855,0,0,0.083333,-0,-0,0.66667
0.87608,0.80874,10.513,0.46311,20.505,37.028,-12.983,4.3277,-1.2426,-17.311,-4.5213e-09,-0.62132,0,0,0.083333,-0,-0,0.66667
0.73384,0.74863,8.806,0.37294,32.88,153.81,-8.7576,2.9192,-1.5126,-11.677,-4.5208e-13,-0.75629,0,0,0.083333,-9.8686e-17,0,0.66667
0.079211,0.028411,0.95053,-0.70738,-134.92,1369.7,1.793,-0.59768,-0.22618,2.3907,3.5053e-06,-0.11309,0,0,0.083333,-0,-0,0.66667
0.83539,0.86492,10.025,0.54738,31.603,63.14,-14.633,4.8776,-0.93047,-19.51,1.0124e-09,-0.46523,0,0,0.083333,-7.8949e-16,0,0.66667
0.39764,0.23577,4.7717,-0.39635,-63.9,678.69,5.0434,-1.6811,-1.4371,6.7245,-1.6644e-12,-0.71855,0,0,0.083333,-0,-0,0.66667
0.33574,0.080976,4.0289,-0.62854,-106.97,803.52,6.7527,-2.2509,-0.59094,9.0037,5.1354e-12,-0.29547,0,0,0.083333,-0,-0,0.66667
0.000393,0.25022,0.004716,-0.37467,-71.773,1552.1,0.0047101,-0.0015682,-1.5086,0.0062811,2.7839e-06,-0.75431,0,0,0.083333,-1.542e-18,-5.4571e-18,0.66667
0.24581,0.10531,2.9497,-0.59204,-106.67,994.35,4.6568,-1.5523,-0.7519,6.2091,-2.2121e-10,-0.37595,0,0,0.083333,-3.9475e-16,0,0.66667
0.68795,0.24636,8.2554,-0.38046,-38.312,206.86,8.3755,-2.7918,-1.4923,11.167,-1.128e-12,-0.74614,0,0,0.083333,-3.9475e-16,0,0.66667
0.85117,0.098149,10.214,-0.60278,-31.76,52.68,16.418,-5.4727,-0.70456,21.891,-1.3808e-09,-0.35228,0,0,0.083333,-0,-0,0.66667
0.24105,0.64252,2.8926,0.21378,38.546,1004.3,-1.649,0.54967,-1.8333,-2.1987,2.1554e-12,-0.91665,0,0,0.083333,3.9475e-16,0,0.66667
0.37094,0.38261,4.4513,-0.17608,-29.058,731.31,2.0901,-0.69669,-1.8884,2.7868,-5.9508e-13,-0.94422,0,0,0.083333,-0,-0,0.66667
0.15042,0.20899,1.8051,-0.43651,-81.746,1206.6,2.1012,-0.70039,-1.319,2.8016,-1.5566e-09,-0.65951,0,0,0.083333,-0,-0,0.66667
0.8035,0.51627,9.642,0.024406,1.6464,86.478,-0.62754,0.20918,-1.9937,-0.83672,2.9633e-11,-0.99684,0,0,0.083333,3.158e-15,0,0.66667
0.71702,0.198,8.6043,-0.453,-42.092,172.69,10.394,-3.4647,-1.2732,13.859,-1.5108e-12,-0.63659,0,0,0.083333,-0,-0,0.66667
0.70048,0.76957,8.4057,0.40436,39.375,191.76,-9.0638,3.0213,-1.4194,-12.085,2.0499e-12,-0.7097,0,0,0.083333,-7.8949e-16,0,0.66667
0.67885,0.33448,8.1463,-0.24828,-25.573,217.87,5.3935,-1.7978,-1.7768,7.1913,-2.3443e-12,-0.88838,0,0,0.083333,-0,-0,0.66667
0.89205,0.13771,10.705,-0.54343,-21.161,29.125,15.512,-5.1708,-0.95341,20.683,5.9691e-08,-0.47671,0,0,0.083333,-1.579e-15,0,0.66667
0.88303,0.78875,10.596,0.43313,18.148,33.166,-12.239,4.0797,-1.329,-16.319,-4.2299e-09,-0.66448,0,0,0.083333,-3.158e-15,0,0.66667
0.62537,0.21736,7.5044,-0.42396,-49.397,289.95,8.4841,-2.828,-1.3685,11.312,2.542e-12,-0.68426,0,0,0.083333,-9.8686e-16,0,0.66667
0.28878,0.70249,3.4653,0.30374,53.306,901.38,-2.8068,0.93561,-1.6675,-3.7424,-1.168e-11,-0.83376,0,0,0.083333,-0,-0,0.66667
0.4031,0.8038,4.8372,0.45569,73.109,668.15,-5.8781,1.9594,-1.2617,-7.8375,6.8745e-13,-0.63085,0,0,0.083333,-0,-0,0.66667
0.028957,0.47567,0.34749,-0.036499,-6.9807,1485.8,0.033821,-0.011274,-1.9972,0.045095,-1.3229e-07,-0.99858,0,0,0.083333,-0,-0,0.66667
0.91648,0.81417,10.998,0.47126,14.316,18.128,-13.821,4.6069,-1.2084,-18.428,2.6068e-08,-0.60419,0,0,0.083333,-0,-0,0.66667
0.68745,0.47236,8.2494,-0.041454,-4.1737,206.95,0.91192,-0.30397,-2.002,1.2159,7.7699e-13,-1.001,0,0,0.083333,-0,-0,0.66667
0.90817,0.43877,10.898,-0.091846,-3.0372,20.436,2.6692,-0.88973,-1.9736,3.5589,-7.7841e-09,-0.98682,0,0,0.083333,3.158e-15,0,0.66667
0.30209,0.58412,3.625,0.12619,21.945,873.05,-1.2198,0.4066,-1.9405,-1.6264,-1.2211e-11,-0.97023,0,0,0.083333,-0,-0,0.66667
0.94483,0.029775,11.338,-0.70534,-14.484,10.329,21.326,-7.1085,-0.22808,28.434,1.9372e-05,-0.11404,0,0,0.083333,1.579e-15,0,0.66667
0.86403,0.035656,10.368,-0.69652,-33.838,45.211,19.258,-6.4193,-0.2734,25.677,-1.5208e-07,-0.1367,0,0,0.083333,-3.158e-15,0,0.66667
0.88601,0.39178,10.632,-0.16234,-6.6104,30.861,4.6026,-1.5342,-1.9038,6.1368,-1.1468e-08,-0.9519,0,0,0.083333,1.579e-15,0,0.66667
0.00014133,0.88439,0.001696,0.57659,110.57,1552.7,-0.0025999,0.0009051,-0.82511,-0.0034472,5.7723e-05,-0.41255,0,0,0.083333,3.8549e-19,3.319e-16,0.66667
0.37724,0.44442,4.5269,-0.083376,-13.682,718.67,1.0065,-0.33549,-1.9773,1.342,4.553e-13,-0.98865,0,0,0.083333,-7.8949e-16,0,0.66667
0.12233,0.68876,1.4679,0.28315,53.409,1270.5,-1.1083,0.36945,-1.717,-1.4778,-5.7238e-09,-0.85849,0,0,0.083333,-0,-0,0.66667
0.93281,0.82875,11.194,0.49312,12.133,12.521,-14.719,4.9065,-1.1328,-19.626,2.7315e-07,-0.5664,0,0,0.083333,-0,-0,0.66667
0.51371,0.7453,6.1645,0.36795,51.84,465.17,-6.0486,2.0162,-1.5217,-8.0648,-5.7514e-12,-0.76083,0,0,0.083333,1.9737e-16,0,0.66667
0.48934,0.2351,5.872,-0.39735,-57.856,507.65,6.2219,-2.074,-1.4357,8.2959,3.3684e-12,-0.71786,0,0,0.083333,-7.8949e-16,0,0.66667
0.48692,0.82297,5.8431,0.48445,70.797,512.13,-7.5485,2.5162,-1.1666,-10.065,2.3186e-12,-0.58328,0,0,0.083333,-0,-0,0.66667
0.57029,0.091207,6.8435,-0.61319,-79.323,372.94,11.19,-3.7301,-0.65983,14.92,-4.0146e-13,-0.32992,0,0,0.083333,1.1842e-15,0,0.66667
0.54451,0.97621,6.5341,0.71431,96.446,414.67,-12.446,4.1488,-0.18751,-16.595,2.3181e-12,-0.093753,0,0,0.083333,-0,-7.1712e-17,0.66667
0.91711,0.83033,11.005,0.4955,14.955,18.003,-14.542,4.8472,-1.1244,-19.389,2.614e-08,-0.56219,0,0,0.083333,-0,-0,0.66667
0.88438,0.7742,10.613,0.4113,17.037,32.374,-11.64,3.8799,-1.395,-15.52,9.4122e-10,-0.69752,0,0,0.083333,-7.8949e-16,0,0.66667
0.78372,0.65947,9.4046,0.23921,17.593,103.92,-5.9991,1.9997,-1.7986,-7.9988,-3.5008e-11,-0.89932,0,0,0.083333,3.158e-15,0,0.66667
0.32273,0.018392,3.8727,-0.72241,-124.23,830.66,7.4605,-2.4868,-0.14113,9.9474,-1.867e-11,-0.070565,0,0,0.083333,-0,-0,0.66667
0.78444,0.93563,9.4132,0.65345,48.168,104.82,-16.403,5.4676,-0.48277,-21.87,2.2703e-09,-0.24138,0,0,0.083333,1.7764e-15,0,0.66667
0.14519,0.66161,1.7422,0.24242,45.437,1218.4,-1.1263,0.37542,-1.7893,-1.5017,-1.1002e-09,-0.89467,0,0,0.083333,-0,-0,0.66667
0.86023,0.71005,10.323,0.31507,15.578,45.747,-8.6731,2.891,-1.6522,-11.564,2.1868e-09,-0.8261,0,0,0.083333,7.8949e-16,0,0.66667
0.773,0.017775,9.276,-0.72334,-55.866,115.76,17.892,-5.9642,-0.13526,23.857,-6.0874e-11,-0.067632,0,0,0.083333,-0,-0,0.66667
0.77597,0.17559,9.3116,-0.48661,-37.009,111.79,12.083,-4.0276,-1.1549,16.111,2.5346e-11,-0.57747,0,0,0.083333,-0,-0,0.66667
0.5287,0.12477,6.3444,-0.56285,-77.717,440.28,9.5225,-3.1742,-0.87609,12.697,-7.8586e-12,-0.43804,0,0,0.083333,8.7584e-16,5.5775e-21,0.66667
0.45019,0.82772,5.4022,0.49158,75.092,578.77,-7.0817,2.3606,-1.1409,-9.4423,-3.5452e-12,-0.57044,0,0,0.083333,-0,-0,0.66667
0.22663,0.51597,2.7196,0.023962,4.3505,1035.9,-0.17378,0.057927,-1.9935,-0.23171,-1.2283e-11,-0.99674,0,0,0.083333,-0,-0,0.66667
0.80868,0.1989,9.7041,-0.45165,-29.839,83.089,11.688,-3.8959,-1.2734,15.583,1.3719e-10,-0.63671,0,0,0.083333,-0,-0,0.66667
0.96593,0.60865,11.591,0.16297,2.0053,3.3603,-5.0375,1.6792,-1.9059,-6.7166,-3.7694e-07,-0.95294,0,0,0.083333,-1.579e-15,0,0.66667
0.54353,0.27461,6.5224,-0.33809,-45.579,415.11,5.8804,-1.9601,-1.5935,7.8405,-2.7875e-12,-0.79675,0,0,0.083333,3.9475e-16,0,0.66667
0.90221,0.12983,10.826,-0.55525,-19.685,24.462,16.03,-5.3435,-0.90287,21.374,-2.4531e-08,-0.45144,0,0,0.083333,-0,-0,0.66667
0.28235,0.71523,3.3882,0.32284,56.891,915.11,-2.917,0.97232,-1.6346,-3.8893,-1.4763e-11,-0.81731,0,0,0.083333,-4.9343e-16,0,0.66667
0.51776,0.9005,6.2131,0.60075,84.297,458.88,-9.9533,3.3178,-0.71922,-13.271,-1.5765e-12,-0.35961,0,0,0.083333,-0,-0,0.66667
0.32816,0.69209,3.938,0.28813,49.22,818.62,-3.0257,1.0086,-1.7128,-4.0342,2.9043e-13,-0.8564,0,0,0.083333,-7.8949e-16,0,0.66667
0.9918,0.18077,11.902,-0.47885,-1.3359,1.5067,15.198,-5.0659,-1.1808,20.263,-8.0616e-06,-0.59041,0,0,0.083333,1.579e-15,0,0.66667
0.25032,0.96076,3.0038,0.69114,124.32,984.7,-5.5361,1.8454,-0.30834,-7.3815,-3.1911e-11,-0.15417,0,0,0.083333,-0,-0,0.66667
0.67876,0.94686,8.1451,0.67029,69.325,219.39,-14.559,4.8529,-0.39852,-19.412,-1.311e-12,-0.19926,0,0,0.083333,-0,-0,0.66667
0.7642,0.57436,9.1704,0.11153,8.8447,122.09,-2.7275,0.90917,-1.9592,-3.6367,-5.784e-12,-0.97962,0,0,0.083333,-0,-0,0.66667
0.032227,0.52775,0.38672,0.041622,7.9589,1478.2,-0.042923,0.014308,-1.9994,-0.057231,-1.5856e-07,-0.99968,0,0,0.083333,2.4672e-17,0,0.66667
0.98227,0.045415,11.787,-0.68188,-4.5319,3.4572,21.433,-7.1444,-0.34853,28.578,4.5087e-06,-0.17427,0,0,0.083333,1.579e-15,-9.7824e-17,0.66667
0.091323,0.52092,1.0959,0.031385,5.9574,1341.6,-0.091717,0.030572,-1.9978,-0.12229,-1.888e-10,-0.99889,0,0,0.083333,-0,-0,0.66667
0.61407,0.67922,7.3689,0.26883,32.015,305.81,-5.2826,1.7609,-1.7408,-7.0435,-1.1431e-12,-0.8704,0,0,0.083333,-0,-0,0.66667
0.14935,0.55675,1.7922,0.085122,15.93,1208.9,-0.40682,0.13561,-1.9706,-0.54242,2.4037e-10,-0.9853,0,0,0.083333,-0,-0,0.66667
0.5208,0.53773,6.2496,0.056594,7.886,452.72,-0.94316,0.31439,-1.9861,-1.2575,-2.5894e-12,-0.99303,0,0,0.083333,-0,-0,0.66667
0.093345,0.67424,1.1201,0.26135,49.609,1337,-0.78067,0.26022,-1.7632,-1.0409,-4.6015e-08,-0.88162,0,0,0.083333,-9.8686e-17,0,0.66667
0.7812,0.40491,9.3744,-0.14264,-10.593,106.06,3.5657,-1.1886,-1.9362,4.7542,2.677e-12,-0.96809,0,0,0.083333,-5.9212e-16,0,0.66667
0.77293,0.22062,9.2752,-0.41907,-32.224,114.39,10.365,-3.455,-1.3725,13.82,2.3477e-11,-0.68624,0,0,0.083333,-3.158e-15,0,0.66667
0.59815,0.038863,7.1778,-0.69171,-85.231,330.58,13.24,-4.4133,-0.29703,17.653,3.6016e-12,-0.14852,0,0,0.083333,-0,-0,0.66667
0.014543,0.58802,0.17452,0.13202,25.269,1519.2,-0.061442,0.020481,-1.9429,-0.081923,1.0309e-07,-0.97147,0,0,0.083333,-1.2336e-17,0,0.66667
0.042024,0.38922,0.50429,-0.16617,-31.756,1455.5,0.22346,-0.074487,-1.899,0.29795,-6.3429e-08,-0.94952,0,0,0.083333,-0,-0,0.66667
0.18097,0.21923,2.1716,-0.42116,-78.046,1137.7,2.439,-0.81299,-1.3668,3.252,-1.6176e-11,-0.68339,0,0,0.083333,-0,-0,0.66667
0.97203,0.24904,11.664,-0.37644,-3.8222,2.9955,11.709,-3.903,-1.4971,15.612,3.0638e-06,-0.74857,0,0,0.083333,-2.9606e-16,0,0.66667
0.2546,0.50729,3.0552,0.010938,1.9576,974.75,-0.089115,0.029705,-1.9976,-0.11882,6.3237e-12,-0.99878,0,0,0.083333,-0,-0,0.66667
0.75101,0.64354,9.0121,0.21531,17.909,135.4,-5.1745,1.7248,-1.8396,-6.8993,-5.3735e-12,-0.91982,0,0,0.083333,-0,-0,0.66667
0.28124,0.96917,3.3748,0.70376,124.39,918.08,-6.3335,2.1112,-0.24783,-8.4447,-2.5579e-11,-0.12391,0,0,0.083333,7.8949e-16,-5.2753e-18,0.66667
0.25552,0.67688,3.0662,0.26532,47.479,972.85,-2.1694,0.72313,-1.7464,-2.8925,7.2264e-12,-0.87321,0,0,0.083333,-0,-0,0.66667
0.25786,0.27749,3.0944,-0.33377,-59.666,967.82,2.7541,-0.91804,-1.6004,3.6722,-4.7469e-12,-0.80021,0,0,0.083333,3.9475e-16,0,0.66667
0.29705,0.4832,3.5646,-0.025193,-4.3955,883.67,0.23948,-0.079825,-2.0045,0.3193,5.5282e-12,-1.0022,0,0,0.083333,-0,-0,0.66667
0.0089446,0.51066,0.10734,0.015989,3.0604,1532.2,-0.0045765,0.0015238,-1.995,-0.0061029,-2.6136e-06,-0.99752,0,0,0.083333,-0,-0,0.66667
0.98718,0.13731,11.846,-0.54404,-2.5114,2.1534,17.186,-5.7287,-0.94804,22.915,-1.8163e-05,-0.47402,0,0,0.083333,-0,-0,0.66667
0.56646,0.68432,6.7975,0.27648,35.911,378.07,-5.0116,1.6705,-1.7277,-6.6822,-3.5101e-12,-0.86384,0,0,0.083333,1.1842e-15,0,0.66667
0.60184,0.57562,7.2221,0.11344,13.826,323.59,-2.1847,0.72822,-1.9498,-2.9129,2.2233e-12,-0.97492,0,0,0.083333,-0,-0,0.66667
0.53826,0.63507,6.4591,0.2026,27.519,423.58,-3.4896,1.1632,-1.8499,-4.6528,-9.992e-15,-0.92496,0,0,0.083333,-0,-0,0.66667
0.043838,0.35541,0.52605,-0.21688,-41.446,1451.3,0.30424,-0.10141,-1.8328,0.40566,5.4547e-08,-0.91638,0,0,0.083333,-0,-0,0.66667
0.47152,0.65166,5.6582,0.22749,33.846,539.24,-3.4325,1.1442,-1.8173,-4.5766,-6.096e-12,-0.90863,0,0,0.083333,-5.9212e-16,0,0.66667
0.53968,0.22309,6.4761,-0.41537,-56.355,421.62,7.1732,-2.3911,-1.383,9.5643,2.1996e-12,-0.69152,0,0,0.083333,-1.579e-15,0,0.66667
0.67296,0.38852,8.0755,-0.16722,-17.474,225.23,3.6011,-1.2004,-1.9048,4.8014,-2.6008e-12,-0.95242,0,0,0.083333,-0,-0,0.66667
0.53417,0.35692,6.41,-0.21463,-29.335,430.38,3.6687,-1.2229,-1.8364,4.8916,2.8999e-13,-0.91819,0,0,0.083333,-0,-0,0.66667
0.055072,0.75775,0.66087,0.38662,73.841,1425.3,-0.68135,0.22712,-1.4645,-0.90847,-1.3238e-07,-0.73225,0,0,0.083333,-0,-0,0.66667
0.6201,0.41456,7.4412,-0.12816,-15.072,296.93,2.5431,-0.8477,-1.9391,3.3908,-8.491e-13,-0.96956,0,0,0.083333,-0,-0,0.66667
0.58118,0.29494,6.9741,-0.30758,-38.96,355.14,5.7203,-1.9068,-1.6635,7.6271,7.2031e-13,-0.83176,0,0,0.083333,-7.8949e-16,0,0.66667
0.5456,0.18404,6.5472,-0.47394,-63.743,412.06,8.2745,-2.7582,-1.2061,11.033,-3.868e-12,-0.60306,0,0,0.083333,5.5627e-16,0,0.66667
0.84328,0.86172,10.119,0.54257,29.943,57.62,-14.641,4.8805,-0.95921,-19.522,-1.6114e-09,-0.4796,0,0,0.083333,1.579e-15,0,0.66667
0.44739,0.99378,5.3686,0.74067,113.73,584.7,-10.604,3.5346,-0.046402,-14.138,-7.2262e-12,-0.023201,0,0,0.083333,1.1842e-15,0,0.66667
0.60357,0.14087,7.2428,-0.5387,-65.599,321.92,10.404,-3.4682,-0.96449,13.873,4.1238e-12,-0.48224,0,0,0.083333,-7.1477e-16,0,0.66667
0.12361,0.31378,1.4834,-0.27933,-52.671,1267.6,1.1049,-0.36831,-1.7275,1.4732,5.8655e-09,-0.86373,0,0,0.083333,-0,-0,0.66667
0.25238,0.80233,3.0286,0.45349,81.357,979.85,-3.6625,1.2208,-1.2702,-4.8833,-1.2047e-11,-0.63509,0,0,0.083333,3.9475e-16,0,0.66667
0.85035,0.95624,10.204,0.68436,36.316,53.689,-18.622,6.2074,-0.33065,-24.83,-6.2997e-09,-0.16533,0,0,0.083333,-1.579e-15,0,0.66667
0.016224,0.75945,0.19469,0.38918,74.537,1515.4,-0.20205,0.067352,-1.4673,-0.2694,1.3217e-06,-0.73363,0,0,0.083333,4.9343e-17,0,0.66667
0.15625,0.92654,1.875,0.63981,119.74,1193.6,-3.199,1.0663,-0.55192,-4.2654,-3.1835e-08,-0.27596,0,0,0.083333,-0,-0,0.66667
0.82338,0.089286,9.8806,-0.61607,-37.975,72.306,16.232,-5.4108,-0.64872,21.643,6.2485e-10,-0.32436,0,0,0.083333,-7.8949e-16,0,0.66667
0.22934,0.86686,2.7521,0.55029,99.949,1030.3,-4.0384,1.3461,-0.92072,-5.3846,7.6158e-11,-0.46036,0,0,0.083333,1.9737e-16,0,0.66667
0.25919,0.98398,3.1103,0.72597,129.99,965.51,-6.0213,2.0071,-0.12202,-8.0284,1.2942e-11,-0.061012,0,0,0.083333,-0,-0,0.66667
0.70079,0.54162,8.4095,0.062433,6.064,190.8,-1.4001,0.4667,-1.9876,-1.8668,-8.5609e-13,-0.99381,0,0,0.083333,-0,-0,0.66667
0.96653,0.84862,11.598,0.52293,6.4526,4.5317,-16.174,5.3912,-1.0301,-21.565,-7.9171e-07,-0.51503,0,0,0.083333,-3.158e-15,0,0.66667
0.19828,0.3819,2.3794,-0.17715,-32.578,1098.8,1.124,-0.37467,-1.8862,1.4987,-2.5548e-11,-0.94308,0,0,0.083333,-0,-0,0.66667
0.7475,0.68045,8.97,0.27068,22.794,139.12,-6.4746,2.1582,-1.741,-8.6328,-7.8804e-12,-0.87048,0,0,0.083333,1.2321e-15,0,0.66667
0.14051,0.45118,1.6861,-0.073233,-13.741,1229,0.32927,-0.10976,-1.9878,0.43902,8.3687e-10,-0.99392,0,0,0.083333,1.9737e-16,0,0.66667
0.3825,0.61937,4.59,0.17905,29.249,708.27,-2.1916,0.73052,-1.8823,-2.9221,6.7697e-12,-0.94113,0,0,0.083333,-0,-0,0.66667
0.32329,0.091756,3.8795,-0.61237,-105.17,829.24,6.3351,-2.1117,-0.66522,8.4468,-5.2207e-12,-0.33261,0,0,0.083333,5.4278e-16,0,0.66667
0.88379,0.90346,10.605,0.60519,25.315,33.614,-17.115,5.7051,-0.69463,-22.82,4.4987e-08,-0.34732,0,0,0.083333,3.9475e-16,0,0.66667
0.65538,0.015257,7.8646,-0.72711,-79.616,249.9,15.249,-5.0831,-0.12498,20.332,5.7625e-12,-0.062489,0,0,0.083333,-0,9.8632e-17,0.66667
0.33358,0.55525,4.0029,0.082877,14.094,807.29,-0.88466,0.29489,-1.9727,-1.1795,-1.3649e-11,-0.98633,0,0,0.083333,3.9475e-16,0,0.66667
0.021608,0.10227,0.2593,-0.5966,-114.37,1502.9,0.41252,-0.13752,-0.73097,0.55001,-2.5531e-05,-0.36549,0,0,0.083333,4.9343e-17,0,0.66667
0.36901,0.96566,4.4281,0.69848,115.79,736.08,-8.2479,2.7493,-0.26257,-10.997,7.5584e-13,-0.13129,0,0,0.083333,7.0137e-16,0,0.66667
0.97218,0.49908,11.666,-0.001382,-0.013751,2.2393,0.042995,-0.014329,-2.0007,0.057328,4.1406e-06,-1.0004,0,0,0.083333,-2.7632e-15,0,0.66667
0.5291,0.98487,6.3492,0.7273,100.52,440.21,-12.314,4.1047,-0.12089,-16.419,-7.3008e-13,-0.060446,0,0,0.083333,7.8949e-16,0,0.66667
0.74214,0.58376,8.9057,0.12564,10.765,144.47,-2.9838,0.9946,-1.9396,-3.9784,-5.9108e-13,-0.96981,0,0,0.083333,-7.8949e-16,0,0.66667
0.34539,0.49914,4.1447,-0.0012893,-0.21727,783,0.01425,-0.0047501,-2.0044,0.019001,-2.0321e-12,-1.0022,0,0,0.083333,-1.2829e-15,0,0.66667
0.46059,0.39488,5.5271,-0.15769,-23.765,559.07,2.3241,-0.77471,-1.9073,3.0988,2.2489e-12,-0.95363,0,0,0.083333,-0,-0,0.66667
0.21164,0.86318,2.5396,0.54477,99.762,1069.4,-3.6894,1.2298,-0.9405,-4.9192,3.2281e-11,-0.47025,0,0,0.083333,-0,-0,0.66667
0.83696,0.33704,10.044,-0.24444,-13.929,60.955,6.5468,-2.1823,-1.7838,8.7291,-8.1642e-11,-0.89191,0,0,0.083333,7.8949e-16,0,0.66667
0.35981,0.72877,4.3177,0.34316,57.198,753.88,-3.9511,1.317,-1.5875,-5.2681,2.2076e-12,-0.79376,0,0,0.083333,-0,-0,0.66667
0.037088,0.10915,0.44506,-0.58628,-112.28,1467,0.69581,-0.23193,-0.77418,0.92774,8.5693e-06,-0.38709,0,0,0.083333,4.9343e-17,0,0.66667
0.68899,0.76592,8.2679,0.39888,40.063,205.63,-8.7944,2.9315,-1.4375,-11.726,1.2967e-13,-0.71875,0,0,0.083333,-0,-0,0.66667
0.15579,0.72701,1.8695,0.34052,63.636,1194.4,-1.6976,0.56586,-1.594,-2.2634,-4.2316e-10,-0.797,0,0,0.083333,-0,-0,0.66667
0.79875,0.76671,9.585,0.40006,27.639,91.157,-10.226,3.4085,-1.4332,-13.634,-1.497e-10,-0.71662,0,0,0.083333,1.579e-15,0,0.66667
0.015262,0.94685,0.18315,0.67028,128.59,1517.6,-0.32735,0.10908,-0.40894,-0.43648,-4.6719e-05,-0.20447,0,0,0.083333,-0,-0,0.66667
0.58562,0.11333,7.0275,-0.58001,-73.034,349.07,10.869,-3.6231,-0.79953,14.492,-1.2674e-12,-0.39977,0,0,0.083333,7.8949e-16,0,0.66667
0.49552,0.19856,5.9462,-0.45216,-65.33,496.89,7.1697,-2.3899,-1.2709,9.5595,1.6094e-12,-0.63544,0,0,0.083333,-0,-0,0.66667
0.99746,0.078256,11.97,-0.63262,-0.50928,2.1871,20.192,-6.7307,-0.57799,26.923,4.936e-05,-0.289,0,0,0.083333,1.579e-15,3.4622e-16,0.66667
0.13437,0.36215,1.6124,-0.20677,-38.871,1243,0.88908,-0.29636,-1.844,1.1854,3.331e-09,-0.92202,0,0,0.083333,-0,-0,0.66667
0.67255,0.46955,8.0706,-0.045674,-4.7762,225.65,0.98299,-0.32766,-1.9994,1.3107,-2.4529e-12,-0.99971,0,0,0.083333,-0,-0,0.66667
0.094945,0.52203,1.1393,0.033039,6.267,1333.3,-0.10038,0.03346,-2.0003,-0.13384,-9.4945e-09,-1.0002,0,0,0.083333,-0,-0,0.66667
0.16177,0.3222,1.9412,-0.2667,-49.73,1180.8,1.3806,-0.46019,-1.7439,1.8408,1.3685e-10,-0.87194,0,0,0.083333,-0,-0,0.66667
0.98833,0.90904,11.86,0.61356,2.6148,2.4951,-19.405,6.4683,-0.66099,-25.873,5.3044e-05,-0.33049,0,0,0.083333,3.158e-15,0,0.66667
0.80667,0.64011,9.68,0.21017,13.982,84.046,-5.4251,1.8084,-1.8392,-7.2334,-4.6148e-11,-0.91961,0,0,0.083333,-0,-0,0.66667
0.24464,0.76145,2.9357,0.39217,70.624,996.63,-3.0701,1.0234,-1.45,-4.0935,1.2688e-12,-0.72498,0,0,0.083333,3.9475e-16,0,0.66667
0.8463,0.39634,10.156,-0.1555,-8.3854,54.362,4.2111,-1.4037,-1.9151,5.6148,-5.7306e-10,-0.95755,0,0,0.083333,-0,-0,0.66667
0.0356,0.97938,0.4272,0.71907,137.85,1470.5,-0.81919,0.27305,-0.15958,-1.0923,-1.3091e-05,-0.079788,0,0,0.083333,-0,-0,0.66667
0.53561,0.24299,6.4273,-0.38551,-52.619,428.28,6.6075,-2.2025,-1.4699,8.81,-1.5854e-12,-0.73495,0,0,0.083333,-0,-0,0.66667
0.091475,0.94102,1.0977,0.66153,125.87,1341.5,-1.9364,0.64548,-0.44644,-2.5819,3.8303e-07,-0.22322,0,0,0.083333,-0,3.9466e-17,0.66667
0.97091,0.67899,11.651,0.26848,2.8193,2.7991,-8.3415,2.7805,-1.7457,-11.122,-1.4214e-06,-0.87286,0,0,0.083333,-1.579e-15,0,0.66667
0.5831,0.53256,6.9972,0.048841,6.1607,351.89,-0.91133,0.30378,-1.99,-1.2151,-4.1589e-13,-0.99501,0,0,0.083333,-0,-0,0.66667
0.55574,0.45343,6.6689,-0.069854,-9.2293,394.96,1.2423,-0.41409,-1.9784,1.6563,9.4968e-13,-0.98919,0,0,0.083333,-7.8949e-16,0,0.66667
0.31797,0.3328,3.8157,-0.2508,-43.155,839.78,2.5519,-0.85064,-1.7731,3.4026,1.9438e-12,-0.88654,0,0,0.083333,-0,-0,0.66667
0.8499,0.65138,10.199,0.22708,11.985,52.094,-6.1757,2.0586,-1.8135,-8.2343,6.1028e-10,-0.90676,0,0,0.083333,-1.1842e-15,0,0.66667
0.53015,0.10532,6.3619,-0.59202,-81.589,437.94,10.044,-3.3478,-0.75814,13.391,-3.0731e-12,-0.37907,0,0,0.083333,-0,-0,0.66667
0.017098,0.25339,0.20518,-0.36991,-70.84,1513.3,0.2024,-0.067467,-1.5178,0.26986,-1.7855e-06,-0.75888,0,0,0.083333,-0,-0,0.66667
0.18489,0.92979,2.2187,0.64469,119.45,1129.1,-3.8144,1.2715,-0.52341,-5.0858,-1.0784e-08,-0.2617,0,0,0.083333,-1.9737e-16,0,0.66667
0.43347,0.2063,5.2016,-0.44055,-68.524,609.92,6.1108,-2.0369,-1.3083,8.1478,1.5818e-12,-0.65413,0,0,0.083333,-0,-0,0.66667
0.079976,0.81745,0.95972,0.47618,90.676,1367.9,-1.2187,0.40622,-1.1969,-1.6249,-4.5222e-08,-0.59847,0,0,0.083333,-0,-0,0.66667
0.28066,0.34975,3.3679,-0.22538,-39.744,918.65,2.0241,-0.67471,-1.8256,2.6988,6.8026e-12,-0.91279,0,0,0.083333,-0,-0,0.66667
0.2504,0.73175,3.0047,0.34762,62.4,984.05,-2.7854,0.92846,-1.5765,-3.7138,1.2619e-12,-0.78824,0,0,0.083333,-0,-0,0.66667
0.00060864,0.017586,0.0073037,-0.72362,-138.91,1551.6,0.014553,-0.004991,-0.14293,0.019334,-0.00021007,-0.071466,0,0,0.083333,-0,3.8853e-16,0.66667
0.69289,0.69241,8.3146,0.28862,28.667,200.59,-6.3993,2.1331,-1.7013,-8.5324,2.6743e-12,-0.85064,0,0,0.083333,-1.579e-15,0,0.66667
0.77389,0.37919,9.2867,-0.18121,-13.856,112.9,4.4877,-1.4959,-1.8797,5.9836,9.4285e-12,-0.93986,0,0,0.083333,-0,-0,0.66667
0.82035,0.78334,9.8442,0.425,26.517,73.751,-11.157,3.7189,-1.3546,-14.876,-3.0814e-11,-0.67729,0,0,0.083333,3.158e-15,0,0.66667
0.85163,0.53326,10.22,0.049896,2.6029,50.745,-1.3598,0.45326,-1.988,-1.813,1.5036e-09,-0.99398,0,0,0.083333,-0,-0,0.66667
0.15152,0.91505,1.8183,0.62257,116.68,1204.3,-3.0187,1.0062,-0.61955,-4.025,-2.7347e-08,-0.30978,0,0,0.083333,-0,-0,0.66667
0.89004,0.09805,10.68,-0.60292,-23.935,30.433,17.172,-5.724,-0.71393,22.896,9.9808e-08,-0.35697,0,0,0.083333,-3.158e-15,0,0.66667
0.65821,0.5231,7.8986,0.034645,3.7498,244.3,-0.72972,0.24324,-1.9982,-0.97297,-4.3915e-12,-0.99911,0,0,0.083333,1.579e-15,0,0.66667
0.69613,0.44381,8.3536,-0.084278,-8.2913,196.38,1.8774,-0.6258,-1.971,2.5032,-3.8596e-12,-0.9855,0,0,0.083333,1.579e-15,0,0.66667
0.56407,0.79889,6.7689,0.44834,58.524,382.23,-8.0926,2.6975,-1.2883,-10.79,-5.8886e-13,-0.64417,0,0,0.083333,-0,-0,0.66667
0.93968,0.71298,11.276,0.31947,7.0238,9.7507,-9.6063,3.2021,-1.6394,-12.808,1.9771e-07,-0.81971,0,0,0.083333,-0,-0,0.66667
0.25185,0.58609,3.0222,0.12913,23.148,980.75,-1.0407,0.34689,-1.9435,-1.3876,5.8664e-13,-0.97176,0,0,0.083333,-1.9737e-16,0,0.66667
0.78688,0.73576,9.4426,0.35364,25.697,101.36,-8.9049,2.9683,-1.5518,-11.873,-1.6251e-11,-0.77589,0,0,0.083333,-1.579e-15,0,0.66667
0.49526,0.56889,5.9431,0.10334,14.916,496.83,-1.6378,0.54593,-1.96,-2.1837,-2.6965e-12,-0.97998,0,0,0.083333,-0,-0,0.66667
0.8909,0.55864,10.691,0.087958,3.4333,28.318,-2.5076,0.83586,-1.9799,-3.3434,1.4827e-08,-0.98995,0,0,0.083333,1.9737e-15,0,0.66667
0.2762,0.55276,3.3144,0.079134,13.989,928.13,-0.69941,0.23314,-1.975,-0.93255,-1.7674e-11,-0.98748,0,0,0.083333,3.9475e-16,0,0.66667
0.015247,0.94548,0.18296,0.66822,128.19,1517.6,-0.32601,0.10864,-0.41883,-0.43469,-4.6321e-05,-0.20941,0,0,0.083333,-0,-0,0.66667
0.064891,0.3386,0.77869,-0.24211,-46.162,1402.6,0.50274,-0.16758,-1.7935,0.67032,1.9632e-07,-0.89676,0,0,0.083333,-9.8686e-17,0,0.66667
0.89964,0.49255,10.796,-0.01117,-0.40237,24.139,0.32157,-0.10719,-1.9958,0.42876,-2.5466e-08,-0.99791,0,0,0.083333,-0,-0,0.66667
0.64115,0.15504,7.6938,-0.51744,-58.35,268.22,10.616,-3.5387,-1.0552,14.155,-3.5332e-12,-0.5276,0,0,0.083333,8.8818e-16,0,0.66667
0.73027,0.016781,8.7632,-0.72483,-64.922,159.19,16.938,-5.6461,-0.13017,22.584,8.3489e-12,-0.065085,0,0,0.083333,-3.158e-15,9.8146e-17,0.66667
0.50436,0.53648,6.0523,0.054718,7.8016,480.92,-0.88313,0.29438,-1.9879,-1.1775,9.3858e-13,-0.99396,0,0,0.083333,-0,-0,0.66667
0.55757,0.76151,6.6909,0.39226,51.733,392.45,-6.9988,2.3329,-1.4502,-9.3318,1.7764e-12,-0.72508,0,0,0.083333,-0,-0,0.66667
0.36389,0.93027,4.3667,0.6454,107.41,746.22,-7.5154,2.5051,-0.51707,-10.021,3.2698e-12,-0.25854,0,0,0.083333,-0,-0,0.66667
0.78264,0.24378,9.3916,-0.38433,-28.427,105.28,9.6252,-3.2084,-1.4789,12.834,-2.5615e-12,-0.73945,0,0,0.083333,-7.8949e-16,0,0.66667
0.75687,0.73244,9.0824,0.34866,28.435,129.79,-8.4444,2.8148,-1.5635,-11.259,-9.1447e-12,-0.78175,0,0,0.083333,-0,-0,0.66667
0.70001,0.70832,8.4001,0.31249,30.447,192.08,-6.9997,2.3332,-1.6528,-9.333,8.491e-13,-0.82638,0,0,0.083333,-7.8949e-16,0,0.66667
0.96189,0.49649,11.543,-0.0052605,-0.072439,3.9513,0.16192,-0.053975,-1.9966,0.2159,-1.0374e-06,-0.99831,0,0,0.083333,-2.7632e-15,0,0.66667
0.76884,0.29903,9.2261,-0.30145,-23.518,117.93,7.4165,-2.4722,-1.6765,9.8887,8.0376e-12,-0.83826,0,0,0.083333,-0,-0,0.66667
0.97792,0.91334,11.735,0.62001,5.0836,3.495,-19.402,6.4674,-0.62958,-25.87,-3.3929e-05,-0.31479,0,0,0.083333,-0,-0,0.66667
0.59028,0.93306,7.0833,0.64958,81.17,342.25,-12.27,4.09,-0.49971,-16.36,5.1159e-13,-0.24986,0,0,0.083333,3.9475e-16,7.2616e-17,0.66667
0.61926,0.066769,7.4311,-0.64985,-76.829,299.47,12.878,-4.2925,-0.49574,17.17,-1.2434e-12,-0.24787,0,0,0.083333,1.579e-15,0,0.66667
0.63905,0.57359,7.6686,0.11038,12.475,270.23,-2.2573,0.75243,-1.9598,-3.0097,-6.9935e-12,-0.97991,0,0,0.083333,1.579e-15,0,0.66667
0.32637,0.88039,3.9165,0.57059,97.743,822.76,-5.9592,1.9864,-0.84572,-7.9455,1.4126e-12,-0.42286,0,0,0.083333,-0,-0,0.66667
0.033029,0.97528,0.39635,0.71291,136.69,1476.5,-0.75351,0.25117,-0.19603,-1.0047,5.6169e-06,-0.098017,0,0,0.083333,-0,-0,0.66667
0.78818,0.97779,9.4581,0.71668,52.084,101.84,-18.076,6.0253,-0.16975,-24.101,-2.892e-10,-0.084873,0,0,0.083333,1.579e-15,0,0.66667
0.71019,0.37933,8.5223,-0.18101,-17.126,179.87,4.1136,-1.3712,-1.88,5.4848,-3.3498e-12,-0.94001,0,0,0.083333,1.579e-15,0,0.66667
0.079032,0.91686,0.94838,0.62529,119.2,1370.1,-1.5814,0.52713,-0.61466,-2.1085,-3.897e-07,-0.30733,0,0,0.083333,-0,-0,0.66667
0.14858,0.17761,1.783,-0.48359,-90.634,1210.8,2.2993,-0.76642,-1.1643,3.0657,-3.43e-09,-0.58214,0,0,0.083333,-0,-0,0.66667
0.68634,0.1682,8.2361,-0.4977,-50.382,209.21,10.931,-3.6437,-1.1234,14.575,3.6771e-13,-0.56169,0,0,0.083333,-0,-0,0.66667
0.53504,0.36214,6.4204,-0.2068,-28.227,428.93,3.5406,-1.1802,-1.8466,4.7208,-3.4301e-12,-0.92332,0,0,0.083333,7.8949e-16,0,0.66667
0.19121,0.097002,2.2946,-0.6045,-111.7,1114.9,3.6988,-1.2329,-0.70056,4.9318,3.7935e-10,-0.35028,0,0,0.083333,-0,-0,0.66667
0.055953,0.99093,0.67144,0.7364,140.93,1423.4,-1.3185,0.43951,-0.067996,-1.758,4.2998e-07,-0.033998,0,0,0.083333,6.6262e-17,0,0.66667
0.61141,0.67982,7.3369,0.26973,32.292,309.68,-5.2773,1.7591,-1.7437,-7.0365,-5.0182e-13,-0.87184,0,0,0.083333,-0,-0,0.66667
0.053612,0.54387,0.64334,0.065798,12.559,1428.7,-0.11288,0.037627,-1.9804,-0.15051,-9.4891e-08,-0.99021,0,0,0.083333,-9.8686e-17,0,0.66667
0.21358,0.92977,2.5629,0.64465,118.03,1065.2,-4.4058,1.4686,-0.5197,-5.8744,-1.5799e-09,-0.25985,0,0,0.083333,1.2646e-16,0,0.66667
0.50266,0.99747,6.032,0.74621,107.07,485.35,-12.003,4.001,-0.021972,-16.004,8.634e-12,-0.010986,0,0,0.083333,-1.579e-15,0,0.66667
0.094031,0.81147,1.1284,0.46721,88.744,1335.5,-1.4058,0.46861,-1.2318,-1.8744,-5.3363e-08,-0.6159,0,0,0.083333,2.9606e-16,0,0.66667
0.40891,0.10233,4.9069,-0.5965,-95.251,657.21,7.8052,-2.6017,-0.73586,10.407,-5.8051e-12,-0.36793,0,0,0.083333,-0,-0,0.66667
0.020116,0.081173,0.24139,-0.62824,-120.46,1506.4,0.4044,-0.13481,-0.59433,0.53919,-2.4132e-05,-0.29717,0,0,0.083333,2.4672e-17,0,0.66667
0.11946,0.41425,1.4336,-0.12863,-24.271,1277,0.49172,-0.16391,-1.9381,0.65563,6.2911e-09,-0.96905,0,0,0.083333,-0,-0,0.66667
0.94006,0.55475,11.281,0.082129,1.7863,9.1643,-2.4706,0.82353,-1.9773,-3.2941,3.8752e-08,-0.98863,0,0,0.083333,-7.8949e-16,0,0.66667
0.55886,0.66696,6.7063,0.25044,32.937,390.12,-4.4788,1.4929,-1.776,-5.9717,4.8583e-13,-0.88802,0,0,0.083333,1.579e-15,0,0.66667
0.68646,0.79412,8.2375,0.44118,44.622,208.87,-9.6912,3.2304,-1.3123,-12.922,5.0804e-13,-0.65617,0,0,0.083333,-0,-0,0.66667
0.37777,0.65512,4.5332,0.23268,38.177,717.71,-2.8128,0.93761,-1.8094,-3.7505,-1.622e-12,-0.90469,0,0,0.083333,-9.8686e-17,0,0.66667
0.76312,0.33171,9.1575,-0.25244,-20.112,123.36,6.1645,-2.0548,-1.7744,8.2193,1.0071e-11,-0.88722,0,0,0.083333,-7.8949e-16,0,0.66667
0.89639,0.78723,10.757,0.43084,16.085,26.528,-12.358,4.1195,-1.337,-16.478,5.481e-08,-0.6685,0,0,0.083333,-0,-0,0.66667
0.91019,0.22406,10.922,-0.41391,-13.465,20.385,12.056,-4.0186,-1.39,16.074,-1.0397e-08,-0.695,0,0,0.083333,-3.158e-15,0,0.66667
0.49649,0.25482,5.9578,-0.36778,-53.044,495,5.8431,-1.9477,-1.519,7.7908,4.9818e-12,-0.75948,0,0,0.083333,-1.579e-15,0,0.66667
0.76261,0.35026,9.1513,-0.22461,-17.925,123.81,5.4813,-1.8271,-1.8211,7.3083,1.1484e-11,-0.91057,0,0,0.083333,-1.579e-15,0,0.66667
0.70896,0.44553,8.5075,-0.081707,-7.7555,181.2,1.8537,-0.61789,-1.9729,2.4716,-1.1467e-12,-0.98647,0,0,0.083333,-0,-0,0.66667
0.9513,0.46996,11.416,-0.045058,-0.79595,6.2147,1.3716,-0.45721,-1.9966,1.8288,1.4058e-07,-0.99832,0,0,0.083333,-0,-0,0.66667
0.24155,0.90823,2.8987,0.61234,110.59,1003.7,-4.7333,1.5778,-0.6637,-6.311,2.7966e-10,-0.33185,0,0,0.083333,-0,-0,0.66667
0.56134,0.021485,6.7361,-0.71777,-94.352,387.52,12.893,-4.2978,-0.17245,17.191,-3.0322e-12,-0.086223,0,0,0.083333,-0,-0,0.66667
0.043773,0.8784,0.52528,0.56761,108.63,1451.5,-0.79507,0.26502,-0.85531,-1.0601,-8.4015e-06,-0.42766,0,0,0.083333,-9.8686e-17,0,0.66667
0.92318,0.64989,11.078,0.22484,6.2585,14.804,-6.6421,2.214,-1.8245,-8.8562,1.3638e-07,-0.91226,0,0,0.083333,-0,-0,0.66667
0.94526,0.42456,11.343,-0.11316,-2.2492,7.7738,3.4229,-1.141,-1.95,4.5639,-4.0155e-09,-0.97502,0,0,0.083333,4.5958e-16,0,0.66667
0.50091,0.2533,6.0109,-0.37005,-53.06,487.28,5.9316,-1.9772,-1.5188,7.9088,4.8406e-14,-0.75942,0,0,0.083333,-0,-0,0.66667
0.58612,0.86306,7.0334,0.5446,68.492,348.19,-10.214,3.4048,-0.9411,-13.619,-1.1351e-12,-0.47055,0,0,0.083333,-0,-0,0.66667
0.77194,0.98008,9.2633,0.72013,55.84,116.73,-17.789,5.9295,-0.15224,-23.718,5.2736e-11,-0.076121,0,0,0.083333,-0,-0,0.66667
0.24933,0.27881,2.992,-0.33178,-59.587,986.35,2.6472,-0.88239,-1.6151,3.5296,4.9216e-12,-0.80757,0,0,0.083333,1.9737e-16,0,0.66667
0.37899,0.96089,4.5479,0.69133,113.61,716.13,-8.3843,2.7948,-0.2994,-11.179,6.1027e-12,-0.1497,0,0,0.083333,-3.9475e-16,0,0.66667
0.28861,0.30959,3.4633,-0.28561,-50.128,901.73,2.6377,-0.87925,-1.7067,3.517,1.4921e-13,-0.85333,0,0,0.083333,4.9343e-16,0,0.66667
0.5388,0.6625,6.4656,0.24375,33.086,422.74,-4.2026,1.4009,-1.7849,-5.6035,-5.1883e-12,-0.89245,0,0,0.083333,1.579e-15,0,0.66667
0.94896,0.80237,11.387,0.45355,8.4951,7.8096,-13.773,4.5909,-1.2669,-18.364,4.0336e-07,-0.63344,0,0,0.083333,7.8949e-16,0,0.66667
0.3854,0.40379,4.6248,-0.14431,-23.511,702.49,1.7798,-0.59326,-1.924,2.373,-5.0482e-12,-0.96199,0,0,0.083333,-2.8064e-16,0,0.66667
0.04501,0.98117,0.54012,0.72176,138.27,1448.7,-1.0396,0.34651,-0.15018,-1.3861,-1.6152e-05,-0.07509,0,0,0.083333,-0,9.454e-17,0.66667
0.68252,0.34293,8.1902,-0.2356,-24.039,213.25,5.1456,-1.7152,-1.8012,6.8608,-5.1692e-13,-0.90062,0,0,0.083333,-1.1349e-15,0,0.66667
0.49503,0.10967,5.9404,-0.5855,-84.734,498.1,9.2749,-3.0916,-0.77821,12.366,4.9463e-12,-0.3891,0,0,0.083333,-0,-0,0.66667
0.29651,0.15754,3.5581,-0.51369,-89.799,885.23,4.8741,-1.6247,-1.0694,6.4988,1.0448e-11,-0.53469,0,0,0.083333,-7.8949e-16,0,0.66667
0.41589,0.082411,4.9907,-0.62638,-99.353,643.84,8.3362,-2.7787,-0.60125,11.115,-7.8764e-12,-0.30062,0,0,0.083333,-0,-0,0.66667
0.86251,0.61661,10.35,0.17492,8.5038,44.035,-4.8279,1.6093,-1.8913,-6.4372,2.1997e-09,-0.94565,0,0,0.083333,-7.8949e-16,0,0.66667
0.82102,0.6035,9.8522,0.15525,9.6285,72.552,-4.0787,1.3596,-1.9102,-5.4383,-9.9942e-12,-0.95508,0,0,0.083333,-0,-0,0.66667
0.17085,0.34657,2.0502,-0.23014,-42.776,1160.3,1.2582,-0.4194,-1.8172,1.6776,-6.7685e-11,-0.90859,0,0,0.083333,-0,-0,0.66667
0.68513,0.38797,8.2216,-0.16805,-17.027,209.9,3.6843,-1.2281,-1.9009,4.9125,7.4052e-13,-0.95043,0,0,0.083333,-1.579e-15,0,0.66667
0.99766,0.59578,11.972,0.14367,0.048008,0.16224,-4.5866,1.5289,-1.9292,-6.1155,1.5572e-06,-0.96459,0,0,0.083333,3.158e-15,0,0.66667
0.78436,0.50897,9.4123,0.013454,0.98613,103.1,-0.3377,0.11257,-1.9994,-0.45027,-4.8024e-11,-0.99972,0,0,0.083333,-0,-0,0.66667
0.72505,0.71931,8.7006,0.32896,29.802,163.31,-7.6324,2.5441,-1.6128,-10.176,-6.0241e-12,-0.8064,0,0,0.083333,3.158e-15,0,0.66667
0.31002,0.56698,3.7202,0.10047,17.378,856.34,-0.99671,0.33224,-1.966,-1.3289,-6.1338e-12,-0.98298,0,0,0.083333,-0,-0,0.66667
0.15947,0.76608,1.9136,0.39912,74.515,1186.1,-2.0367,0.67891,-1.4332,-2.7156,-4.9103e-11,-0.7166,0,0,0.083333,-0,-0,0.66667
0.86432,0.86753,10.372,0.55129,26.626,44.202,-15.248,5.0826,-0.91696,-20.33,-9.8039e-09,-0.45848,0,0,0.083333,-7.8949e-16,0,0.66667
0.61035,0.2493,7.3242,-0.37605,-45.141,311.46,7.3447,-2.4482,-1.5033,9.7929,4.4804e-12,-0.75163,0,0,0.083333,-1.9737e-16,0,0.66667
0.39009,0.15794,4.6811,-0.51309,-83.364,693.74,6.4049,-2.135,-1.071,8.5398,-1.8465e-12,-0.5355,0,0,0.083333,1.579e-15,8.8313e-17,0.66667
0.75559,0.31295,9.0671,-0.28057,-22.974,130.89,6.7839,-2.2613,-1.7182,9.0453,8.2059e-12,-0.85909,0,0,0.083333,-0,-0,0.66667
0.71863,0.3892,8.6235,-0.16619,-15.338,170.19,3.8218,-1.2739,-1.9087,5.0958,-1.1999e-12,-0.95434,0,0,0.083333,-0,-0,0.66667
0.64733,0.20474,7.768,-0.44288,-49.233,259.54,9.1742,-3.0581,-1.2984,12.232,-1.0516e-12,-0.64919,0,0,0.083333,-7.8949e-16,0,0.66667
0.20726,0.57026,2.4872,0.10539,19.305,1078.8,-0.69899,0.233,-1.9591,-0.93198,2.8689e-11,-0.97953,0,0,0.083333,-0,-0,0.66667
0.88553,0.62153,10.626,0.18229,7.4545,31.142,-5.1657,1.7219,-1.8798,-6.8875,1.1223e-08,-0.93991,0,0,0.083333,1.579e-15,0,0.66667
0.71901,0.40706,8.6281,-0.1394,-12.85,169.73,3.2074,-1.0691,-1.9389,4.2766,-7.6112e-12,-0.96946,0,0,0.083333,3.158e-15,0,0.66667
0.30263,0.44428,3.6316,-0.08358,-14.53,871.89,0.80941,-0.2698,-1.972,1.0792,5.9134e-12,-0.98602,0,0,0.083333,-7.8949e-16,0,0.66667
0.063598,0.012423,0.76318,-0.73136,-139.83,1405.8,1.4884,-0.49615,-0.10241,1.9846,-8.6827e-07,-0.051204,0,0,0.083333,1.9737e-16,0,0.66667
0.9128,0.36657,10.954,-0.20015,-6.3015,18.689,5.8462,-1.9487,-1.8538,7.7949,-4.8869e-08,-0.92688,0,0,0.083333,-0,-0,0.66667
0.79385,0.23741,9.5262,-0.39389,-27.8,95.348,10.006,-3.3353,-1.4484,13.341,6.7399e-11,-0.72418,0,0,0.083333,-0,-0,0.66667
0.49858,0.0023419,5.983,-0.74649,-107.69,492.46,11.91,-3.97,-0.023305,15.88,-7.0077e-13,-0.011653,0,0,0.083333,-0,2.7366e-17,0.66667
0.41393,0.8369,4.9671,0.50535,80.243,647.31,-6.6937,2.2312,-1.088,-8.925,2.8999e-13,-0.54402,0,0,0.083333,-1.4965e-16,0,0.66667
0.61556,0.5883,7.3867,0.13245,15.719,303.47,-2.609,0.86965,-1.9344,-3.4786,3.1655e-12,-0.96719,0,0,0.083333,-0,-0,0.66667
0.39852,0.85424,4.7822,0.53135,85.663,677.25,-6.7761,2.2587,-0.99185,-9.0348,9.9654e-12,-0.49592,0,0,0.083333,-0,-0,0.66667
0.038918,0.58008,0.46702,0.12013,22.961,1462.7,-0.1496,0.049868,-1.9442,-0.19947,8.5777e-08,-0.97212,0,0,0.083333,-4.6088e-17,0,0.66667
0.30197,0.0025177,3.6236,-0.74622,-130.21,874.17,7.2107,-2.4036,-0.018237,9.6143,1.3582e-11,-0.0091185,0,0,0.083333,-1.579e-15,0,0.66667
0.24628,0.56327,2.9553,0.0949,17.061,992.87,-0.7479,0.2493,-1.9683,-0.9972,1.6006e-11,-0.98413,0,0,0.083333,-7.8949e-16,0,0.66667
0.9723,0.88177,11.668,0.57265,5.8669,3.9224,-17.817,5.9391,-0.8336,-23.756,-2.1248e-05,-0.4168,0,0,0.083333,-0,-0,0.66667
0.7675,0.027742,9.21,-0.70839,-55.848,120.9,17.398,-5.7993,-0.2191,23.197,-8.3702e-12,-0.10955,0,0,0.083333,7.8949e-16,0,0.66667
0.4037,0.24004,4.8444,-0.38994,-62.501,666.87,5.0374,-1.6791,-1.4604,6.7165,-5.9286e-13,-0.73021,0,0,0.083333,-0,-0,0.66667
0.73663,0.078431,8.8395,-0.63235,-55.425,151.83,14.906,-4.9686,-0.5797,19.875,-4.1935e-11,-0.28985,0,0,0.083333,-1.579e-15,0,0.66667
0.30266,0.2965,3.6319,-0.30525,-53.091,871.98,2.9563,-0.98544,-1.665,3.9418,-1.3995e-12,-0.83251,0,0,0.083333,3.9475e-16,0,0.66667
0.5273,0.84864,6.3275,0.52296,72.334,442.51,-8.8241,2.9414,-1.0268,-11.765,-6.99e-12,-0.5134,0,0,0.083333,1.579e-15,0,0.66667
0.20714,0.25413,2.4857,-0.36881,-67.609,1079.2,2.4447,-0.81489,-1.5156,3.2595,-5.0182e-11,-0.7578,0,0,0.083333,-0,-0,0.66667
0.25426,0.56078,3.0511,0.091172,16.321,975.5,-0.74181,0.24727,-1.9697,-0.98908,3.8928e-12,-0.98487,0,0,0.083333,4.9343e-17,0,0.66667
0.43402,0.37209,5.2083,-0.19187,-29.795,608.51,2.6649,-0.88829,-1.8694,3.5531,-2.6303e-12,-0.93468,0,0,0.083333,1.1842e-15,0,0.66667
0.082426,0.85079,0.98911,0.52618,100.18,1362.2,-1.3879,0.46262,-1.014,-1.8505,-3.7185e-08,-0.507,0,0,0.083333,-1.9737e-16,0,0.66667
0.85329,0.51655,10.239,0.024825,1.2815,49.664,-0.67786,0.22595,-1.9939,-0.90381,-3.9835e-10,-0.99696,0,0,0.083333,-0,-0,0.66667
0.91633,0.15595,10.996,-0.51608,-15.729,18.404,15.133,-5.0443,-1.0512,20.177,-1.9417e-08,-0.52558,0,0,0.083333,1.9244e-15,0,0.66667
0.21311,0.096913,2.5573,-0.60463,-110.69,1066.2,4.1232,-1.3744,-0.69769,5.4977,-1.5889e-09,-0.34884,0,0,0.083333,7.8949e-16,0,0.66667
0.47372,0.06042,5.6847,-0.65937,-98.101,536.23,9.9955,-3.3318,-0.45251,13.327,1.2417e-12,-0.22626,0,0,0.083333,-8.8818e-16,0,0.66667
0.84146,0.25392,10.098,-0.36912,-20.527,58.157,9.9393,-3.3131,-1.5179,13.252,-1.8062e-10,-0.75894,0,0,0.083333,-0,-0,0.66667
0.28828,0.099731,3.4593,-0.6004,-105.57,902.86,5.5387,-1.8462,-0.71457,7.3849,1.3478e-11,-0.35728,0,0,0.083333,7.8949e-16,0,0.66667
0.61071,0.38536,7.3285,-0.17196,-20.607,310.57,3.3605,-1.1202,-1.8986,4.4807,-1.8729e-12,-0.94932,0,0,0.083333,-0,-0,0.66667
0.44205,0.65647,5.3046,0.2347,36.134,593.47,-3.32,1.1067,-1.8034,-4.4267,-1.0006e-11,-0.90169,0,0,0.083333,-0,-0,0.66667
0.39749,0.19711,4.7699,-0.45433,-73.282,679.09,5.779,-1.9263,-1.262,7.7053,-4.833e-12,-0.63101,0,0,0.083333,-0,-0,0.66667
0.78937,0.74594,9.4725,0.36891,26.532,99.19,-9.3187,3.1062,-1.5126,-12.425,-1.7961e-11,-0.75629,0,0,0.083333,7.8949e-16,0,0.66667
0.46451,0.95143,5.5742,0.67715,101.89,552.98,-10.065,3.3552,-0.36765,-13.421,1.4584e-12,-0.18383,0,0,0.083333,-0,-0,0.66667
0.4648,0.77752,5.5776,0.41628,62.49,551.74,-6.1916,2.0639,-1.3832,-8.2555,-1.0836e-12,-0.69162,0,0,0.083333,-1.1842e-15,0,0.66667
0.99203,0.85349,11.904,0.53023,1.4618,1.769,-16.832,5.6108,-0.99614,-22.443,1.5547e-05,-0.49807,0,0,0.083333,-0,-0,0.66667
0.96223,0.57661,11.547,0.11491,1.5697,3.9553,-3.5384,1.1795,-1.9489,-4.7178,-9.9597e-08,-0.97445,0,0,0.083333,1.579e-15,0,0.66667
0.23508,0.043853,2.821,-0.68422,-124.04,1017.9,5.1471,-1.7157,-0.34072,6.8628,-1.7923e-10,-0.17036,0,0,0.083333,3.9475e-16,0,0.66667
0.22695,0.52679,2.7234,0.040185,7.2948,1035.2,-0.29185,0.097283,-1.9907,-0.38913,2.3241e-12,-0.99534,0,0,0.083333,-0,-0,0.66667
0.66274,0.60061,7.9529,0.15091,16.164,238.42,-3.2005,1.0668,-1.9154,-4.2674,-2.4747e-12,-0.95771,0,0,0.083333,-0,-0,0.66667
0.41195,0.8053,4.9434,0.45795,72.838,651.02,-6.0369,2.0123,-1.2512,-8.0492,1.0791e-12,-0.6256,0,0,0.083333,-0,-0,0.66667
0.71875,0.53795,8.625,0.056932,5.2509,169.95,-1.3094,0.43648,-1.9963,-1.7459,1.4307e-12,-0.99813,0,0,0.083333,-0,-0,0.66667
0.73345,0.72526,8.8014,0.33788,29.818,154.13,-7.9303,2.6434,-1.5993,-10.574,1.2497e-12,-0.79965,0,0,0.083333,-1.579e-15,0,0.66667
0.78329,0.81524,9.3995,0.47286,34.919,105,-11.853,3.9508,-1.2081,-15.803,1.199e-10,-0.60403,0,0,0.083333,3.158e-15,0,0.66667
0.26331,0.57555,3.1598,0.11333,20.185,955.89,-0.95489,0.3183,-1.9557,-1.2732,-7.0931e-12,-0.97786,0,0,0.083333,-3.9475e-16,0,0.66667
0.99836,0.56466,11.98,0.096997,0.0054521,0.08432,-3.0988,1.0329,-1.9707,-4.1318,-1.7707e-06,-0.98533,0,0,0.083333,-0,-0,0.66667
0.4937,0.89602,5.9244,0.59403,86.126,500.47,-9.3848,3.1283,-0.74149,-12.513,5.9668e-12,-0.37075,0,0,0.083333,-3.9475e-16,0,0.66667
0.083927,0.55091,1.0071,0.076359,14.514,1358.7,-0.20507,0.068358,-1.9757,-0.27343,-3.439e-08,-0.98784,0,0,0.083333,-0,-0,0.66667
0.11202,0.027984,1.3442,-0.70802,-134.19,1294.4,2.5379,-0.84597,-0.21933,3.3839,2.6407e-07,-0.10967,0,0,0.083333,-0,-0,0.66667
0.5615,0.33473,6.738,-0.2479,-32.461,385.9,4.4542,-1.4847,-1.7862,5.939,-2.4794e-12,-0.89312,0,0,0.083333,3.9475e-16,0,0.66667
0.51011,0.7499,6.1213,0.37486,53.08,471.36,-6.119,2.0397,-1.4986,-8.1586,-3.1042e-13,-0.7493,0,0,0.083333,-1.542e-16,0,0.66667
0.93484,0.86543,11.218,0.54814,13.12,12.177,-16.397,5.4658,-0.93257,-21.863,3.7483e-08,-0.46629,0,0,0.083333,7.8949e-16,0,0.66667
0.90083,0.76864,10.81,0.40295,14.417,24.378,-11.616,3.8719,-1.4194,-15.488,5.6998e-08,-0.70968,0,0,0.083333,-1.579e-15,0,0.66667
0.4654,0.73271,5.5848,0.34907,52.345,550.52,-5.1987,1.7329,-1.5661,-6.9316,-9.4875e-12,-0.78306,0,0,0.083333,7.8949e-16,0,0.66667
0.20648,0.32326,2.4777,-0.26511,-48.596,1080.6,1.7517,-0.58389,-1.7496,2.3356,-5.3305e-11,-0.87481,0,0,0.083333,-0,-0,0.66667
0.56442,0.76085,6.773,0.39128,51.027,381.54,-7.067,2.3557,-1.458,-9.4227,9.0505e-13,-0.729,0,0,0.083333,-0,-0,0.66667
0.30873,0.30805,3.7048,-0.28792,-49.869,859.17,2.8445,-0.94817,-1.7048,3.7927,3.4956e-12,-0.85239,0,0,0.083333,-5.9212e-16,0,0.66667
0.65059,0.52348,7.807,0.035213,3.8788,254.48,-0.73309,0.24436,-1.9924,-0.97745,1.7522e-12,-0.99622,0,0,0.083333,-0,-0,0.66667
0.5151,0.81459,6.1812,0.47188,66.396,463.02,-7.7782,2.5927,-1.2153,-10.371,-3.4679e-12,-0.60764,0,0,0.083333,1.579e-15,-4.408e-19,0.66667
0.84318,0.79205,10.118,0.43807,24.143,57.228,-11.82,3.94,-1.3234,-15.76,-5.7235e-10,-0.66171,0,0,0.083333,-0,-0,0.66667
0.13174,0.20217,1.5809,-0.44674,-84.117,1249.1,1.8833,-0.62777,-1.2861,2.5111,7.5757e-09,-0.64307,0,0,0.083333,-0,-0,0.66667
0.25101,0.6546,3.0121,0.2319,41.598,982.63,-1.8627,0.6209,-1.8146,-2.4836,-1.5062e-12,-0.90729,0,0,0.083333,5.4278e-16,0,0.66667
0.59753,0.81349,7.1704,0.47023,57.882,330.68,-8.9913,2.9971,-1.2139,-11.988,5.9082e-12,-0.60697,0,0,0.083333,-1.579e-15,0,0.66667
0.62521,0.40775,7.5026,-0.13838,-16.105,289.63,2.7685,-0.92285,-1.9399,3.6914,-6.3767e-12,-0.96996,0,0,0.083333,1.579e-15,0,0.66667
0.41259,0.43677,4.9511,-0.09485,-15.057,649.33,1.2523,-0.41744,-1.9655,1.6697,-1.4627e-11,-0.98275,0,0,0.083333,1.0115e-15,0,0.66667
0.90059,0.93606,10.807,0.65409,23.636,25.758,-18.85,6.2834,-0.47663,-25.134,-2.2635e-07,-0.23832,0,0,0.083333,7.8949e-16,0,0.66667
0.81028,0.22525,9.7233,-0.41213,-27.009,81.648,10.686,-3.562,-1.3982,14.248,3.4563e-11,-0.69909,0,0,0.083333,-0,-0,0.66667
0.54085,0.42281,6.4902,-0.11579,-15.662,419.23,2.0039,-0.66798,-1.9485,2.6719,1.4955e-12,-0.97424,0,0,0.083333,-7.8949e-16,0,0.66667
0.40503,0.63919,4.8604,0.20879,33.399,664.05,-2.7061,0.90204,-1.8489,-3.6082,-2.9778e-12,-0.92444,0,0,0.083333,-0,-0,0.66667
0.39718,0.33766,4.7661,-0.24351,-39.252,679.39,3.095,-1.0317,-1.7856,4.1266,-6.608e-13,-0.89281,0,0,0.083333,1.9737e-16,0,0.66667
0.11399,0.36409,1.3679,-0.20387,-38.524,1289.6,0.74364,-0.24788,-1.8499,0.99152,1.2433e-08,-0.92493,0,0,0.083333,-0,-0,0.66667
0.93724,0.14245,11.247,-0.53632,-12.366,11.388,16.085,-5.3618,-0.98378,21.447,8.5279e-08,-0.49189,0,0,0.083333,4.6906e-16,1.2811e-16,0.66667
0.23454,0.40188,2.8144,-0.14717,-26.62,1018.6,1.1046,-0.36819,-1.9306,1.4727,-8.1994e-12,-0.96532,0,0,0.083333,-9.8686e-17,0,0.66667
0.15282,0.067395,1.8338,-0.64891,-121.59,1201.4,3.1732,-1.0577,-0.50284,4.231,7.4645e-08,-0.25142,0,0,0.083333,-0,-0,0.66667
0.51002,0.8732,6.1202,0.55979,79.378,471.99,-9.1361,3.0454,-0.88359,-12.181,-5.4623e-12,-0.4418,0,0,0.083333,1.0856e-15,0,0.66667
0.45504,0.037538,5.4605,-0.69369,-105.55,570.37,10.101,-3.3671,-0.29183,13.468,4.2899e-13,-0.14592,0,0,0.083333,-0,-0,0.66667
0.074027,0.29194,0.88832,-0.31208,-59.441,1381.5,0.73929,-0.24643,-1.652,0.98571,2.1685e-07,-0.82602,0,0,0.083333,-0,-0,0.66667
0.57557,0.92189,6.9069,0.63284,81.146,364.77,-11.656,3.8853,-0.57689,-15.541,7.9936e-13,-0.28844,0,0,0.083333,-0,-0,0.66667
0.69854,0.76841,8.3824,0.40261,39.415,194.08,-8.9997,2.9999,-1.4212,-12,1.6964e-13,-0.71061,0,0,0.083333,-0,-0,0.66667
0.49055,0.93834,5.8866,0.65751,95.774,506.23,-10.321,3.4404,-0.46045,-13.762,-2.4576e-12,-0.23022,0,0,0.083333,1.579e-15,0,0.66667
0.072894,0.054061,0.87472,-0.66891,-127.67,1384.3,1.5603,-0.5201,-0.40627,2.0804,4.3903e-06,-0.20313,0,0,0.083333,4.9343e-17,0,0.66667
0.17966,0.54278,2.156,0.064163,11.884,1140.5,-0.36889,0.12296,-1.981,-0.49185,-8.8328e-11,-0.9905,0,0,0.083333,3.9475e-16,0,0.66667
0.11594,0.24126,1.3912,-0.38811,-73.35,1285.2,1.4399,-0.47996,-1.4606,1.9198,3.3393e-09,-0.73029,0,0,0.083333,-0,-0,0.66667
0.58346,0.72576,7.0016,0.33864,42.727,351.69,-6.3226,2.1075,-1.5895,-8.4301,1.4913e-12,-0.79474,0,0,0.083333,-0,-0,0.66667
0.085088,0.97073,1.0211,0.70609,134.54,1356.2,-1.9225,0.64085,-0.22431,-2.5634,2.5581e-06,-0.11216,0,0,0.083333,1.9737e-16,0,0.66667
0.38405,0.75733,4.6087,0.386,63.015,705.42,-4.7439,1.5813,-1.4665,-6.3251,1.5487e-11,-0.73327,0,0,0.083333,-0,-0,0.66667
0.14716,0.11936,1.7659,-0.57095,-107.11,1214.2,2.6886,-0.89621,-0.83747,3.5848,1.3661e-09,-0.41874,0,0,0.083333,2.9606e-16,0,0.66667
0.41149,0.61001,4.9378,0.16502,26.227,651.51,-2.1729,0.7243,-1.9,-2.8972,-4.3321e-13,-0.94999,0,0,0.083333,-0,-0,0.66667
0.62527,0.24428,7.5033,-0.38358,-44.688,289.97,7.675,-2.5583,-1.484,10.233,2.0179e-12,-0.74199,0,0,0.083333,-3.9475e-16,0,0.66667
0.35954,0.71342,4.3145,0.32013,53.367,754.4,-3.6832,1.2277,-1.6431,-4.911,1.9287e-12,-0.82155,0,0,0.083333,-5.9212e-16,0,0.66667
0.89598,0.84621,10.752,0.51932,19.506,27.12,-14.89,4.9632,-1.039,-19.853,1.0497e-08,-0.51949,0,0,0.083333,-0,-0,0.66667
0.41748,0.10465,5.0098,-0.59303,-93.887,640.69,7.9225,-2.6408,-0.7475,10.563,-9.3876e-12,-0.37375,0,0,0.083333,-0,-0,0.66667
0.93366,0.26282,11.204,-0.35578,-8.6023,11.675,10.629,-3.5432,-1.5486,14.173,-2.917e-07,-0.77428,0,0,0.083333,1.579e-15,0,0.66667
0.82046,0.32313,9.8455,-0.2653,-16.514,73.186,6.9654,-2.3218,-1.7454,9.2873,9.4618e-11,-0.87272,0,0,0.083333,1.579e-15,0,0.66667
0.11664,0.87196,1.3997,0.55794,105.52,1283.7,-2.0825,0.69418,-0.88987,-2.7767,-3.7483e-08,-0.44493,0,0,0.083333,4.9343e-17,0,0.66667
0.10397,0.85778,1.2476,0.53667,101.77,1312.7,-1.7854,0.59514,-0.97261,-2.3806,4.1848e-08,-0.48631,0,0,0.083333,-0,-0,0.66667
0.13281,0.066259,1.5937,-0.65061,-122.62,1246.8,2.765,-0.92168,-0.49146,3.6867,-1.3395e-07,-0.24573,0,0,0.083333,-3.9475e-16,0,0.66667
0.63847,0.46753,7.6616,-0.048698,-5.5103,271.01,0.99496,-0.33165,-1.9947,1.3266,-4.5763e-12,-0.99734,0,0,0.083333,1.1842e-15,0,0.66667
0.68459,0.35949,8.2151,-0.21077,-21.389,210.63,4.6174,-1.5391,-1.8422,6.1565,1.4322e-12,-0.92109,0,0,0.083333,-2.3897e-15,0,0.66667
0.79001,0.30871,9.4801,-0.28694,-20.565,98.402,7.2539,-2.418,-1.7039,9.6719,5.0482e-11,-0.85197,0,0,0.083333,-0,-0,0.66667
0.54233,0.58307,6.5079,0.1246,16.817,416.81,-2.1624,0.7208,-1.9425,-2.8832,8.5931e-14,-0.97127,0,0,0.083333,7.8949e-16,0,0.66667
0.67536,0.50057,8.1043,0.00085322,0.0886,222.07,-0.018439,0.0061464,-2.0007,-0.024586,1.9383e-12,-1.0004,0,0,0.083333,-3.158e-15,0,0.66667
0.68675,0.048312,8.241,-0.67753,-68.661,209.48,14.889,-4.9632,-0.37295,19.853,-1.9691e-12,-0.18647,0,0,0.083333,-0,-9.7851e-17,0.66667
0.33823,0.9943,4.0588,0.74145,126.06,798.68,-8.025,2.675,-0.042564,-10.7,7.4136e-12,-0.021282,0,0,0.083333,-5.9212e-16,0,0.66667
0.65052,0.79776,7.8062,0.44664,49.298,255.26,-9.2976,3.0992,-1.2871,-12.397,-3.638e-12,-0.64353,0,0,0.083333,-0,-0,0.66667
0.4041,0.4784,4.8492,-0.032399,-5.186,665.77,0.41896,-0.13965,-1.9982,0.55861,-2.3427e-12,-0.99909,0,0,0.083333,-0,-0,0.66667
0.64016,0.85952,7.682,0.53929,60.958,269.65,-11.047,3.6825,-0.97184,-14.73,-3.9879e-12,-0.48592,0,0,0.083333,7.8949e-16,-1.2288e-16,0.66667
0.93462,0.99731,11.215,0.74597,18.111,13.519,-22.31,7.4368,-0.022798,-29.747,2.4822e-06,-0.011399,0,0,0.083333,-1.9737e-15,-3.1009e-17,0.66667
0.42997,0.85972,5.1596,0.53958,84.295,616.75,-7.4241,2.4747,-0.96035,-9.8988,-3.3027e-12,-0.48017,0,0,0.083333,7.8949e-16,0,0.66667
0.50617,0.36276,6.074,-0.20586,-29.288,477.9,3.3344,-1.1115,-1.8454,4.4459,-2.4307e-12,-0.92272,0,0,0.083333,-0,-0,0.66667
0.33206,0.37787,3.9848,-0.18319,-31.194,810.46,1.9466,-0.64886,-1.8802,2.5955,5.4268e-12,-0.94011,0,0,0.083333,7.8949e-16,0,0.66667
0.57872,0.95167,6.9446,0.67751,86.442,360.06,-12.547,4.1823,-0.37347,-16.729,4.9161e-12,-0.18674,0,0,0.083333,-7.8949e-16,0,0.66667
0.86342,0.55627,10.361,0.084402,4.0757,43.377,-2.332,0.77733,-1.9735,-3.1093,2.4694e-09,-0.98677,0,0,0.083333,7.8949e-16,0,0.66667
0.28365,0.12436,3.4038,-0.56347,-99.338,912.66,5.1145,-1.7048,-0.87385,6.8193,9.7993e-12,-0.43693,0,0,0.083333,5.181e-16,0,0.66667
0.83439,0.1727,10.013,-0.49095,-28.472,63.59,13.108,-4.3695,-1.139,17.478,-2.032e-09,-0.5695,0,0,0.083333,-0,-0,0.66667
0.51948,0.46244,6.2337,-0.056345,-7.8661,454.96,0.93663,-0.31221,-1.9879,1.2488,2.966e-13,-0.99393,0,0,0.083333,-0,-0,0.66667
0.22608,0.7184,2.7129,0.3276,59.53,1037.3,-2.37,0.79,-1.6156,-3.16,8.1832e-12,-0.80781,0,0,0.083333,4.4409e-16,0,0.66667
0.41945,0.52088,5.0334,0.031315,4.9364,636.14,-0.42032,0.14011,-1.9978,-0.56043,-2.6371e-12,-0.9989,0,0,0.083333,-0,-0,0.66667
0.16699,0.77954,2.0039,0.4193,78.093,1169.1,-2.2407,0.7469,-1.3734,-2.9876,-1.6207e-10,-0.6867,0,0,0.083333,-2.4672e-17,0,0.66667
0.91239,0.74393,10.949,0.3659,11.607,19.307,-10.683,3.561,-1.5207,-14.244,2.6275e-08,-0.76034,0,0,0.083333,-7.8949e-16,0,0.66667
0.057947,0.30546,0.69537,-0.29181,-55.695,1418.7,0.54111,-0.18037,-1.6953,0.72148,1.5755e-07,-0.84766,0,0,0.083333,-9.8686e-17,0,0.66667
0.604,0.14348,7.248,-0.53478,-65.066,321.26,10.336,-3.4455,-0.97986,13.782,2.748e-12,-0.48993,0,0,0.083333,-7.8949e-16,0,0.66667
0.10395,0.11858,1.2474,-0.57213,-108.52,1312.8,1.9032,-0.63438,-0.83338,2.5375,-1.1821e-07,-0.41669,0,0,0.083333,-0,-0,0.66667
0.31348,0.43915,3.7617,-0.09127,-15.749,849.09,0.91556,-0.30519,-1.9762,1.2207,-1.4784e-11,-0.98812,0,0,0.083333,-0,-0,0.66667
0.14294,0.17127,1.7153,-0.49309,-92.576,1223.7,2.2555,-0.75182,-1.1368,3.0073,1.5762e-09,-0.56841,0,0,0.083333,1.9737e-16,0,0.66667
0.49951,0.23049,5.9941,-0.40427,-58.085,489.79,6.462,-2.154,-1.4248,8.6159,8.5532e-13,-0.71242,0,0,0.083333,-7.8949e-16,0,0.66667
0.6361,0.97022,7.6332,0.70532,80.58,275.97,-14.357,4.7856,-0.23018,-19.143,1.7764e-14,-0.11509,0,0,0.083333,-0,-1.0729e-16,0.66667
0.82926,0.41907,9.9511,-0.1214,-7.2109,66.315,3.2214,-1.0738,-1.9518,4.2952,-6.0527e-12,-0.97588,0,0,0.083333,-0,-0,0.66667
0.45001,0.058475,5.4002,-0.66229,-101.32,579.56,9.5372,-3.1791,-0.44115,12.716,3.6025e-12,-0.22058,0,0,0.083333,-9.8686e-16,-4.4295e-17,0.66667
0.76945,0.51411,9.2334,0.021163,1.6453,116.98,-0.52108,0.17369,-1.997,-0.69478,7.5863e-12,-0.9985,0,0,0.083333,-0,-0,0.66667
0.59534,0.24004,7.1441,-0.38995,-48.168,333.75,7.4288,-2.4763,-1.4625,9.9051,3.4386e-12,-0.73127,0,0,0.083333,-7.8949e-16,0,0.66667
0.97226,0.218,11.667,-0.42299,-4.2743,3.1551,13.16,-4.3868,-1.3644,17.547,4.4444e-06,-0.68222,0,0,0.083333,4.9343e-16,0,0.66667
0.11972,0.99152,1.4366,0.73728,139.52,1276.8,-2.8245,0.94149,-0.064358,-3.7659,6.2205e-08,-0.032179,0,0,0.083333,4.3783e-16,0,0.66667
0.81632,0.66953,9.7958,0.25429,16.158,76.379,-6.6427,2.2142,-1.7687,-8.8569,-8.4281e-11,-0.88435,0,0,0.083333,-0,-0,0.66667
0.83516,0.099316,10.022,-0.60103,-34.784,63.579,16.062,-5.3541,-0.71197,21.417,-3.5237e-09,-0.35598,0,0,0.083333,-0,-0,0.66667
0.79157,0.72079,9.4989,0.33118,23.588,97.143,-8.3888,2.7963,-1.6081,-11.185,-5.6592e-11,-0.80403,0,0,0.083333,3.158e-15,0,0.66667
0.45482,0.51049,5.4579,0.015738,2.3875,569.61,-0.22906,0.076354,-2.002,-0.30541,-4.7197e-12,-1.001,0,0,0.083333,-0,-0,0.66667
0.52721,0.28593,6.3265,-0.3211,-44.363,442.18,5.4172,-1.8057,-1.6325,7.223,-5.2491e-13,-0.81625,0,0,0.083333,-0,-0,0.66667
0.98538,0.67792,11.825,0.26688,1.3509,1.1124,-8.4152,2.8051,-1.7514,-11.22,-3.5673e-07,-0.87571,0,0,0.083333,7.8949e-16,0,0.66667
0.94464,0.25478,11.336,-0.36782,-7.4404,8.5546,11.119,-3.7062,-1.5154,14.825,-1.4558e-07,-0.75769,0,0,0.083333,-3.158e-15,0,0.66667
0.763,0.89419,9.156,0.59128,47.304,124.64,-14.437,4.8122,-0.75772,-19.249,4.3233e-11,-0.37886,0,0,0.083333,7.8949e-16,3.7203e-17,0.66667
0.46026,0.91705,5.5231,0.62558,94.556,560.57,-9.2138,3.0713,-0.60431,-12.285,-4.6692e-12,-0.30216,0,0,0.083333,-0,-0,0.66667
0.54024,0.41633,6.4828,-0.12551,-16.994,420.25,2.1698,-0.72325,-1.94,2.893,2.2551e-12,-0.97,0,0,0.083333,-1.579e-15,0,0.66667
0.80456,0.51223,9.6547,0.018348,1.2317,85.596,-0.47239,0.15746,-1.9944,-0.62985,7.2087e-11,-0.99721,0,0,0.083333,-0,-0,0.66667
0.27687,0.64853,3.3224,0.22279,39.379,926.76,-1.9739,0.65797,-1.8217,-2.6319,-1.0786e-11,-0.91087,0,0,0.083333,1.9737e-16,0,0.66667
0.25653,0.92592,3.0784,0.63888,114.49,971.11,-5.2446,1.7482,-0.54468,-6.9928,2.7578e-12,-0.27234,0,0,0.083333,-0,-0,0.66667
0.21386,0.90675,2.5663,0.61013,111.67,1064.6,-4.1755,1.3918,-0.67517,-5.5673,1.723e-09,-0.33759,0,0,0.083333,-0,-0,0.66667
0.55121,0.32995,6.6145,-0.25507,-33.962,402.46,4.499,-1.4997,-1.7666,5.9987,-4.9294e-13,-0.88328,0,0,0.083333,-0,-0,0.66667
0.9514,0.80414,11.417,0.45621,8.1401,7.2371,-13.889,4.6297,-1.263,-18.519,8.6319e-07,-0.6315,0,0,0.083333,7.8949e-16,0,0.66667
0.23774,0.12669,2.8528,-0.55996,-101.29,1011.9,4.2599,-1.42,-0.88582,5.6799,2.9752e-11,-0.44291,0,0,0.083333,7.8949e-16,0,0.66667
0.8016,0.91246,9.6192,0.61869,42.344,89.703,-15.87,5.29,-0.637,-21.16,1.1159e-09,-0.3185,0,0,0.083333,1.579e-15,0,0.66667
0.03041,0.58781,0.36492,0.13171,25.19,1482.4,-0.12817,0.042723,-1.9438,-0.17089,4.8546e-07,-0.97192,0,0,0.083333,-2.4672e-17,0,0.66667
0.50622,0.39804,6.0746,-0.15295,-21.755,477.75,2.4776,-0.82586,-1.9132,3.3034,-1.1184e-12,-0.95661,0,0,0.083333,7.8949e-16,0,0.66667
0.28403,0.33822,3.4083,-0.24266,-42.706,911.46,2.2055,-0.73517,-1.7917,2.9407,1.5072e-12,-0.89587,0,0,0.083333,5.9212e-16,0,0.66667
0.28272,0.82166,3.3927,0.48249,85.069,914.51,-4.3652,1.4551,-1.1758,-5.8202,-7.7365e-12,-0.5879,0,0,0.083333,-0,-0,0.66667
0.39197,0.10458,4.7037,-0.59314,-96.255,690.22,7.4398,-2.4799,-0.75283,9.9197,4.7313e-12,-0.37641,0,0,0.083333,-0,-0,0.66667
0.53546,0.88598,6.4255,0.57897,79.154,429.07,-9.9204,3.3068,-0.80632,-13.227,7.9492e-13,-0.40316,0,0,0.083333,-0,-0,0.66667
0.77289,0.018424,9.2746,-0.72236,-55.814,115.86,17.866,-5.9552,-0.14032,23.821,-5.9542e-11,-0.070158,0,0,0.083333,-0,-0,0.66667
0.96166,0.024513,11.54,-0.71323,-10.26,6.6046,21.948,-7.3161,-0.1875,29.264,-2.8944e-05,-0.093751,0,0,0.083333,-1.579e-15,0,0.66667
0.15039,0.88174,1.8046,0.57261,107.32,1206.8,-2.7556,0.91853,-0.831,-3.6741,-3.466e-09,-0.4155,0,0,0.083333,-0,-0,0.66667
0.39479,0.2005,4.7375,-0.44925,-72.644,684.37,5.6755,-1.8918,-1.2805,7.5673,-2.1978e-12,-0.64027,0,0,0.083333,-0,-0,0.66667
0.16274,0.45097,1.9529,-0.073544,-13.704,1178.6,0.38299,-0.12766,-1.9767,0.51066,1.3917e-11,-0.98833,0,0,0.083333,-0,-0,0.66667
0.83664,0.37561,10.04,-0.18659,-10.647,61.068,4.9955,-1.6652,-1.8734,6.6607,-2.4074e-10,-0.9367,0,0,0.083333,3.158e-15,0,0.66667
0.084802,0.22377,1.0176,-0.41435,-78.814,1356.7,1.1244,-0.3748,-1.3861,1.4992,2.4963e-08,-0.69307,0,0,0.083333,1.9737e-16,0,0.66667
0.85629,0.9379,10.275,0.65685,33.555,49.72,-17.999,5.9995,-0.46736,-23.998,-1.4636e-08,-0.23368,0,0,0.083333,3.158e-15,5.0268e-18,0.66667
0.74085,0.74376,8.8901,0.36563,31.509,146.31,-8.6681,2.8894,-1.5212,-11.557,-4.9676e-12,-0.76058,0,0,0.083333,1.6229e-15,0,0.66667
0.85834,0.24122,10.3,-0.38816,-19.454,47.152,10.662,-3.5539,-1.4689,14.216,-2.0679e-09,-0.73447,0,0,0.083333,-0,-0,0.66667
0.88992,0.0033146,10.679,-0.74503,-29.754,31.4,21.216,-7.0722,-0.032713,28.289,4.8904e-08,-0.016357,0,0,0.083333,-0,-0,0.66667
0.15078,0.44213,1.8093,-0.086804,-16.237,1205.7,0.41881,-0.1396,-1.9706,0.55842,-4.8254e-10,-0.98532,0,0,0.083333,-3.9475e-16,0,0.66667
0.55669,0.51067,6.6802,0.016011,2.1121,393.42,-0.28522,0.095073,-1.9956,-0.38029,-6.4584e-12,-0.99778,0,0,0.083333,-0,-0,0.66667
0.30252,0.76637,3.6302,0.39955,69.526,872.38,-3.8678,1.2893,-1.4288,-5.1571,-7.585e-13,-0.71441,0,0,0.083333,-3.9475e-16,0,0.66667
0.27122,0.35213,3.2547,-0.22181,-39.336,938.88,1.9251,-0.6417,-1.8219,2.5668,8.9728e-13,-0.91095,0,0,0.083333,-0,-0,0.66667
0.016434,0.18353,0.19721,-0.47471,-90.953,1514.9,0.24964,-0.083216,-1.2046,0.33286,-9.7424e-07,-0.60232,0,0,0.083333,-0,-0,0.66667
0.51518,0.65322,6.1822,0.22982,32.293,462.42,-3.7888,1.2629,-1.8193,-5.0518,-6.7093e-12,-0.90963,0,0,0.083333,9.8686e-16,0,0.66667
0.019049,0.48891,0.22859,-0.016638,-3.1837,1508.8,0.010142,-0.0033803,-1.9984,0.013523,7.1318e-07,-0.99919,0,0,0.083333,-2.4672e-17,0,0.66667
0.89823,0.79698,10.779,0.44547,16.355,25.735,-12.804,4.2681,-1.29,-17.072,5.4367e-08,-0.64498,0,0,0.083333,1.579e-15,0,0.66667
0.26698,0.79501,3.2038,0.44252,78.74,948.23,-3.7806,1.2602,-1.3073,-5.0409,-8.35e-12,-0.65364,0,0,0.083333,-0,-0,0.66667
0.49337,0.90514,5.9205,0.60771,88.157,501.08,-9.5945,3.1982,-0.68415,-12.793,9.8002e-12,-0.34208,0,0,0.083333,-1.0856e-15,0,0.66667
0.63642,0.033281,7.637,-0.70008,-79.921,275.5,14.257,-4.7525,-0.2567,19.01,-2.891e-12,-0.12835,0,0,0.083333,-0,-0,0.66667
0.0014998,0.75922,0.017997,0.38883,74.49,1549.5,-0.018659,0.006218,-1.4659,-0.02488,-2.5692e-06,-0.73295,0,0,0.083333,-0,1.6423e-16,0.66667
0.11324,0.90119,1.3589,0.60179,113.94,1291.5,-2.1807,0.72689,-0.71166,-2.9076,9.6718e-09,-0.35583,0,0,0.083333,1.9737e-16,0,0.66667
0.46654,0.28062,5.5985,-0.32907,-49.274,548.41,4.9128,-1.6376,-1.6181,6.5504,8.9058e-12,-0.80905,0,0,0.083333,-1.1596e-15,0,0.66667
0.62328,0.50271,7.4793,0.0040617,0.47452,292.33,-0.081009,0.027003,-2.0038,-0.10801,3.3585e-12,-1.0019,0,0,0.083333,-0,-0,0.66667
0.81967,0.030365,9.8361,-0.70445,-44.334,75.654,18.477,-6.1591,-0.23266,24.637,5.0029e-09,-0.11633,0,0,0.083333,5.1608e-16,0,0.66667
0.41481,0.35281,4.9777,-0.22079,-34.98,645.16,2.9307,-0.9769,-1.8226,3.9076,-9.0925e-12,-0.9113,0,0,0.083333,-0,-0,0.66667
0.92685,0.49431,11.122,-0.0085361,-0.22601,13.27,0.25318,-0.084392,-1.9975,0.33757,-2.4955e-07,-0.99875,0,0,0.083333,2.3685e-15,0,0.66667
0.59738,0.84056,7.1686,0.51085,62.92,331.03,-9.7655,3.2552,-1.0721,-13.021,4.6629e-13,-0.53605,0,0,0.083333,-0,-0,0.66667
0.0018308,0.99116,0.02197,0.73673,141.44,1548.8,-0.043911,0.014684,-0.071983,-0.058525,7.0203e-05,-0.035991,0,0,0.083333,4.6259e-18,3.2042e-16,0.66667
0.68004,0.8623,8.1605,0.54345,55.938,217.23,-11.826,3.942,-0.94552,-15.768,-1.3403e-12,-0.47276,0,0,0.083333,7.8949e-16,0,0.66667
0.21277,0.50727,2.5533,0.010899,1.9915,1066.5,-0.074207,0.024736,-1.9962,-0.098942,6.0122e-11,-0.99812,0,0,0.083333,-7.8949e-16,0,0.66667
0.015256,0.051402,0.18307,-0.6729,-129.09,1517.6,0.32848,-0.10946,-0.3963,0.43799,4.78e-05,-0.19815,0,0,0.083333,2.4672e-17,0,0.66667
0.73575,0.59022,8.829,0.13533,11.842,151.28,-3.1863,1.0621,-1.9394,-4.2484,-2.7434e-12,-0.96969,0,0,0.083333,-3.9475e-16,0,0.66667
0.55191,0.4465,6.6229,-0.080252,-10.669,401.15,1.4173,-0.47245,-1.9744,1.8898,9.9698e-13,-0.98721,0,0,0.083333,-0,-0,0.66667
0.78362,0.30711,9.4035,-0.28934,-21.296,104.12,7.2554,-2.4185,-1.7043,9.6738,3.8443e-11,-0.85214,0,0,0.083333,1.1842e-15,0,0.66667
0.088169,0.094568,1.058,-0.60815,-115.74,1349.1,1.7158,-0.57194,-0.68301,2.2878,1.7675e-09,-0.34151,0,0,0.083333,-3.9475e-16,0,0.66667
0.3557,0.075972,4.2684,-0.63604,-106.56,762.75,7.2397,-2.4132,-0.56045,9.6529,-4.893e-12,-0.28022,0,0,0.083333,-0,3.1937e-17,0.66667
0.2997,0.58124,3.5964,0.12186,21.226,878.09,-1.1687,0.38957,-1.9476,-1.5583,-1.4389e-11,-0.97378,0,0,0.083333,3.9475e-16,0,0.66667
0.569,0.62994,6.828,0.19491,25.2,373.94,-3.5489,1.183,-1.8616,-4.7319,1.5683e-12,-0.93079,0,0,0.083333,-0,-0,0.66667
0.51015,0.34994,6.1218,-0.22509,-31.85,471.04,3.6745,-1.2248,-1.8171,4.8993,1.0232e-12,-0.90853,0,0,0.083333,-0,-0,0.66667
0.78213,0.84185,9.3855,0.51278,38.068,106.23,-12.834,4.278,-1.0712,-17.112,-1.321e-10,-0.53559,0,0,0.083333,1.9737e-16,0,0.66667
0.18706,0.10068,2.2447,-0.59898,-110.85,1124.2,3.5854,-1.1951,-0.73083,4.7806,-2.5812e-09,-0.36541,0,0,0.083333,-0,-0,0.66667
0.5765,0.95686,6.9179,0.68529,87.781,363.54,-12.642,4.2141,-0.33319,-16.856,4.4142e-12,-0.16659,0,0,0.083333,-6.8271e-16,0,0.66667
0.64438,0.26259,7.7325,-0.35611,-39.822,263.32,7.343,-2.4477,-1.5479,9.7906,-1.3141e-12,-0.77393,0,0,0.083333,-0,-0,0.66667
0.45987,0.40907,5.5184,-0.13639,-20.572,560.38,2.0071,-0.66904,-1.9307,2.6762,-3.0194e-12,-0.96537,0,0,0.083333,1.579e-15,0,0.66667
0.55798,0.56017,6.6957,0.09025,11.881,391.38,-1.6114,0.53715,-1.9699,-2.1486,2.2626e-12,-0.98494,0,0,0.083333,7.8949e-16,0,0.66667
0.97433,0.008785,11.692,-0.73682,-7.1559,4.7632,22.973,-7.6577,-0.066246,30.631,1.6553e-05,-0.033123,0,0,0.083333,-0,-0,0.66667
0.75167,0.15333,9.0201,-0.52,-43.272,135.62,12.508,-4.1693,-1.0425,16.677,7.8879e-12,-0.52124,0,0,0.083333,-0,-0,0.66667
0.38099,0.49936,4.5718,-0.00095643,-0.15642,711.2,0.01166,-0.0038868,-1.9977,0.015547,-1.1189e-11,-0.99887,0,0,0.083333,2.4918e-15,0,0.66667
0.43402,0.37278,5.2082,-0.19082,-29.632,608.52,2.6503,-0.88342,-1.8709,3.5337,1.6984e-12,-0.93546,0,0,0.083333,-1.9737e-16,0,0.66667
0.71283,0.58404,8.554,0.12605,11.833,176.76,-2.8754,0.95846,-1.94,-3.8339,1.2288e-12,-0.96998,0,0,0.083333,-0,-0,0.66667
0.093712,0.91135,1.1245,0.61703,117.31,1336.3,-1.8503,0.61678,-0.65423,-2.4671,-1.4415e-07,-0.32711,0,0,0.083333,1.9737e-16,5.3916e-17,0.66667
0.63781,0.83104,7.6537,0.49657,56.393,272.75,-10.135,3.3783,-1.1237,-13.513,4.5164e-12,-0.56183,0,0,0.083333,-1.5448e-15,0,0.66667
0.11436,0.68526,1.3723,0.27789,52.518,1288.8,-1.0169,0.33898,-1.7237,-1.3559,-1.323e-08,-0.86187,0,0,0.083333,-2.1286e-16,0,0.66667
0.10185,0.1612,1.2222,-0.5082,-96.402,1317.6,1.6563,-0.5521,-1.078,2.2084,3.4877e-08,-0.53902,0,0,0.083333,-3.9475e-16,0,0.66667
0.66667,0.38966,8,-0.16551,-17.563,233.32,3.5309,-1.177,-1.8994,4.7079,-1.2255e-12,-0.94972,0,0,0.083333,-0,-0,0.66667
0.1671,0.48798,2.0052,-0.018033,-3.3552,1168.7,0.096428,-0.032143,-1.9962,0.12857,6.3209e-10,-0.99812,0,0,0.083333,-5.1302e-19,0,0.66667
0.76472,0.57545,9.1766,0.11317,8.9572,121.59,-2.7694,0.92312,-1.9592,-3.6925,-3.8185e-12,-0.9796,0,0,0.083333,-1.579e-15,0,0.66667
0.75059,0.76309,9.0071,0.39463,32.916,136.27,-9.4787,3.1596,-1.4519,-12.638,-5.8424e-12,-0.72593,0,0,0.083333,-0,-0,0.66667
0.31202,0.34367,3.7442,-0.2345,-40.517,852.22,2.3414,-0.78047,-1.812,3.1219,-2.0259e-12,-0.90601,0,0,0.083333,9.2519e-17,0,0.66667
0.57086,0.56405,6.8504,0.096081,12.381,370.93,-1.7552,0.58506,-1.9641,-2.3402,6.803e-12,-0.98207,0,0,0.083333,-1.579e-15,0,0.66667
0.64514,0.68013,7.7417,0.2702,30.149,262.1,-5.5782,1.8594,-1.7385,-7.4376,-2.5393e-12,-0.86925,0,0,0.083333,-0,-0,0.66667
0.81146,0.63461,9.7376,0.20191,13.131,80.132,-5.2431,1.7477,-1.8596,-6.9908,-8.8457e-11,-0.92982,0,0,0.083333,-0,-0,0.66667
0.20147,0.54579,2.4176,0.068685,12.612,1091.7,-0.4428,0.1476,-1.986,-0.5904,1.8094e-11,-0.99301,0,0,0.083333,3.9475e-16,0,0.66667
0.67624,0.97175,8.1149,0.70763,73.688,222.75,-15.313,5.1043,-0.2185,-20.417,-8.9884e-13,-0.10925,0,0,0.083333,-0,-0,0.66667
0.82289,0.74368,9.8747,0.36552,22.495,71.602,-9.625,3.2083,-1.5224,-12.833,-3.8204e-11,-0.76118,0,0,0.083333,7.8949e-16,0,0.66667
0.41439,0.62937,4.9726,0.19406,30.755,645.94,-2.5733,0.85775,-1.8625,-3.431,2.5957e-13,-0.93127,0,0,0.083333,-0,-0,0.66667
0.4937,0.79912,5.9244,0.44868,64.981,500.07,-7.0883,2.3628,-1.2802,-9.4511,2.4092e-12,-0.64011,0,0,0.083333,-0,-0,0.66667
0.51425,0.092599,6.171,-0.6111,-86.183,464.89,10.056,-3.3521,-0.67714,13.408,-6.3327e-12,-0.33857,0,0,0.083333,7.6124e-17,0,0.66667
0.93933,0.20945,11.272,-0.43583,-9.6775,10.292,13.1,-4.3668,-1.3273,17.467,-1.0692e-07,-0.66365,0,0,0.083333,-7.8949e-16,0,0.66667
0.051651,0.18478,0.61981,-0.47283,-90.376,1433.3,0.78151,-0.2605,-1.2035,1.042,3.0305e-07,-0.60177,0,0,0.083333,-1.4803e-16,0,0.66667
0.57155,0.32931,6.8586,-0.25603,-32.968,370.02,4.6828,-1.5609,-1.7628,6.2437,-1.0343e-12,-0.88138,0,0,0.083333,-7.8949e-16,0,0.66667
0.48976,0.46441,5.8771,-0.05338,-7.7595,506.5,0.83658,-0.27886,-1.9874,1.1154,-3.5487e-12,-0.99371,0,0,0.083333,2.9e-16,0,0.66667
0.34383,0.10821,4.1259,-0.58769,-99.365,786.82,6.4661,-2.1554,-0.779,8.6214,7.2342e-13,-0.3895,0,0,0.083333,-0,-0,0.66667
0.66992,0.35388,8.039,-0.21918,-23.079,229.19,4.6986,-1.5662,-1.8315,6.2648,3.2419e-14,-0.91576,0,0,0.083333,-1.579e-15,0,0.66667
0.76944,0.22449,9.2333,-0.41327,-32.203,117.68,10.175,-3.3918,-1.392,13.567,1.8023e-11,-0.69601,0,0,0.083333,1.579e-15,0,0.66667
0.54006,0.79796,6.4807,0.44694,60.616,421.07,-7.724,2.5747,-1.2855,-10.299,-5.5036e-12,-0.64274,0,0,0.083333,7.8949e-16,0,0.66667
0.041638,0.089342,0.49966,-0.61599,-117.95,1456.5,0.82075,-0.27357,-0.64856,1.0943,1.7983e-05,-0.32428,0,0,0.083333,-7.4015e-17,0,0.66667
0.23508,0.4534,2.821,-0.069903,-12.639,1017.4,0.52585,-0.17528,-1.9878,0.70113,-2.8154e-12,-0.99392,0,0,0.083333,3.9475e-16,0,0.66667
0.02044,0.65854,0.24528,0.2378,45.515,1505.6,-0.15554,0.051848,-1.7974,-0.20739,1.2499e-06,-0.89871,0,0,0.083333,-0,-0,0.66667
0.32778,0.89207,3.9333,0.58811,100.65,819.88,-6.1687,2.0562,-0.77646,-8.2249,-5.1439e-12,-0.38823,0,0,0.083333,-0,9.7837e-17,0.66667
0.46806,0.51805,5.6167,0.02708,4.0445,545.39,-0.4056,0.1352,-2.0027,-0.5408,-6.8773e-13,-1.0013,0,0,0.083333,-0,-0,0.66667
0.78457,0.58986,9.4148,0.13479,9.8732,102.99,-3.384,1.128,-1.9358,-4.512,3.8314e-12,-0.96788,0,0,0.083333,-1.9737e-15,0,0.66667
0.53227,0.86651,6.3873,0.54976,75.501,434.27,-9.364,3.1213,-0.9301,-12.485,-2.1716e-12,-0.46505,0,0,0.083333,7.8949e-16,0,0.66667
0.47743,0.57581,5.7291,0.11372,16.792,528.5,-1.7374,0.57912,-1.9497,-2.3165,-1.1761e-12,-0.97486,0,0,0.083333,-7.8949e-16,0,0.66667
0.69795,0.16356,8.3754,-0.50466,-49.533,195.12,11.271,-3.7571,-1.0918,15.028,6.3221e-12,-0.54591,0,0,0.083333,-1.579e-15,0,0.66667
0.017417,0.65799,0.20901,0.23698,45.363,1512.6,-0.13208,0.044028,-1.8041,-0.17611,8.2361e-07,-0.90207,0,0,0.083333,-0,-0,0.66667
0.69499,0.7636,8.3399,0.3954,39.081,198.31,-8.7935,2.9312,-1.4397,-11.725,5.0981e-13,-0.71985,0,0,0.083333,-0,-0,0.66667
0.31196,0.66653,3.7435,0.24979,43.162,852.36,-2.4936,0.83119,-1.784,-3.3247,-6.7446e-12,-0.89202,0,0,0.083333,-0,-0,0.66667
0.55979,0.62212,6.7175,0.18318,24.048,388.55,-3.2813,1.0938,-1.8824,-4.3751,-4.5435e-12,-0.94118,0,0,0.083333,9.8686e-16,0,0.66667
0.60681,0.15223,7.2817,-0.52166,-63.122,317.08,10.13,-3.3765,-1.0342,13.506,-2.2666e-12,-0.51709,0,0,0.083333,1.5435e-15,0,0.66667
0.18214,0.49022,2.1857,-0.014664,-2.7135,1134.9,0.085469,-0.02849,-1.9962,0.11396,-3.1588e-10,-0.99808,0,0,0.083333,-1.9737e-16,0,0.66667
0.25027,0.47403,3.0033,-0.038954,-6.988,984.16,0.31197,-0.10399,-2.0018,0.41596,-3.4642e-13,-1.0009,0,0,0.083333,-0,-0,0.66667
0.57882,0.25958,6.9458,-0.36063,-45.882,358.9,6.6797,-2.2266,-1.5431,8.9063,-7.323e-13,-0.77155,0,0,0.083333,-0,-0,0.66667
0.26262,0.56729,3.1515,0.10093,17.984,957.38,-0.84822,0.28274,-1.9646,-1.131,-2.5868e-12,-0.98228,0,0,0.083333,-0,-0,0.66667
0.23942,0.14642,2.873,-0.53036,-95.838,1008.2,4.0633,-1.3544,-0.9971,5.4177,2.4306e-11,-0.49855,0,0,0.083333,-1.9737e-16,0,0.66667
0.35903,0.53876,4.3084,0.058144,9.6909,755.24,-0.66801,0.22267,-1.9947,-0.89069,9.5424e-14,-0.99734,0,0,0.083333,-0,-0,0.66667
0.90441,0.57822,10.853,0.11734,4.0343,22.073,-3.3958,1.1319,-1.9534,-4.5278,2.676e-08,-0.97671,0,0,0.083333,-0,-0,0.66667
0.86921,0.8369,10.431,0.50535,23.559,41.101,-14.056,4.6854,-1.0888,-18.742,1.0511e-08,-0.54442,0,0,0.083333,1.579e-15,0,0.66667
0.51404,0.81544,6.1684,0.47316,66.676,464.85,-7.783,2.5943,-1.2081,-10.377,-3.8836e-12,-0.60404,0,0,0.083333,-0,-0,0.66667
0.051748,0.067147,0.62097,-0.64928,-124.23,1433.1,1.0752,-0.35839,-0.49912,1.4335,-2.6289e-06,-0.24956,0,0,0.083333,-0,-0,0.66667
0.80034,0.68407,9.6041,0.2761,18.916,89.455,-7.0713,2.3571,-1.7291,-9.4283,-4.9641e-11,-0.86457,0,0,0.083333,-1.9737e-15,0,0.66667
0.18119,0.35672,2.1743,-0.21492,-39.795,1137.1,1.2461,-0.41538,-1.8318,1.6615,-1.1696e-10,-0.91588,0,0,0.083333,-0,-0,0.66667
0.66874,0.1063,8.0249,-0.59055,-62.546,231.78,12.638,-4.2125,-0.75982,16.85,-1.43e-13,-0.37991,0,0,0.083333,-0,-3.5326e-17,0.66667
0.83537,0.12587,10.024,-0.56119,-32.413,63.219,15.002,-5.0006,-0.87733,20.002,-1.8456e-12,-0.43866,0,0,0.083333,-0,-0,0.66667
0.9648,0.024871,11.578,-0.71269,-9.4243,6.034,22.003,-7.3345,-0.19303,29.338,-1.2693e-05,-0.096516,0,0,0.083333,-1.579e-15,-6.4134e-17,0.66667
0.12685,0.044622,1.5222,-0.68307,-128.97,1260.5,2.7726,-0.9242,-0.34344,3.6968,-2.6464e-08,-0.17172,0,0,0.083333,1.9737e-16,0,0.66667
0.52331,0.95731,6.2797,0.68596,95.571,449.77,-11.487,3.829,-0.32262,-15.316,-2.1902e-12,-0.16131,0,0,0.083333,-0,-0,0.66667
0.85061,0.63851,10.207,0.20777,10.917,51.593,-5.6555,1.8852,-1.8422,-7.5406,4.6141e-10,-0.92112,0,0,0.083333,-0,-0,0.66667
0.53761,0.51156,6.4513,0.017343,2.3574,424.54,-0.29837,0.099456,-1.995,-0.39782,8.613e-12,-0.99749,0,0,0.083333,-0,-0,0.66667
0.73005,0.98469,8.7606,0.72704,65.168,159.44,-16.985,5.6616,-0.11844,-22.646,2.6557e-12,-0.059221,0,0,0.083333,-8.6455e-16,0,0.66667
0.78546,0.66195,9.4255,0.24292,17.739,102.36,-6.1058,2.0353,-1.7889,-8.141,-3.4058e-11,-0.89445,0,0,0.083333,-0,-0,0.66667
0.8366,0.44765,10.039,-0.078532,-4.4797,60.974,2.1024,-0.70079,-1.9739,2.8032,-1.2044e-10,-0.98694,0,0,0.083333,-0,-0,0.66667
0.66653,0.9183,7.9984,0.62745,66.84,234.8,-13.383,4.461,-0.59697,-17.844,3.177e-12,-0.29849,0,0,0.083333,-1.579e-15,0,0.66667
0.89774,0.63682,10.773,0.20523,7.5361,25.212,-5.8957,1.9652,-1.846,-7.861,3.3057e-08,-0.92298,0,0,0.083333,-0,-0,0.66667
0.64779,0.7446,7.7735,0.36689,40.72,258.71,-7.6055,2.5352,-1.5177,-10.141,-2.1974e-12,-0.75886,0,0,0.083333,-0,-0,0.66667
0.94464,0.42481,11.336,-0.11278,-2.2669,7.9366,3.4091,-1.1364,-1.9504,4.5455,-5.601e-09,-0.97522,0,0,0.083333,1.579e-15,0,0.66667
0.6293,0.61683,7.5516,0.17524,20.226,283.9,-3.529,1.1763,-1.8891,-4.7053,-3.2596e-13,-0.94455,0,0,0.083333,-7.8949e-16,0,0.66667
0.87243,0.7129,10.469,0.31936,14.494,38.545,-8.9157,2.9719,-1.6388,-11.888,5.2921e-09,-0.81942,0,0,0.083333,-0,-0,0.66667
0.59566,0.60651,7.1479,0.15977,19.702,332.87,-3.0453,1.0151,-1.9115,-4.0604,-1.5552e-12,-0.95576,0,0,0.083333,-0,-0,0.66667
0.34435,0.44667,4.1322,-0.080001,-13.493,785.14,0.88155,-0.29385,-1.9831,1.1754,4.3772e-12,-0.99153,0,0,0.083333,-0,-0,0.66667
0.81346,0.022646,9.7615,-0.71603,-46.47,80.585,18.639,-6.2129,-0.18196,24.852,3.1082e-09,-0.090979,0,0,0.083333,-0,-0,0.66667
0.43238,0.44689,5.1886,-0.079663,-12.39,611.54,1.1022,-0.36741,-1.9746,1.4696,3.7039e-12,-0.98731,0,0,0.083333,-0,-0,0.66667
0.12655,0.58318,1.5185,0.12477,23.501,1260.9,-0.50524,0.16841,-1.9479,-0.67366,-4.1937e-09,-0.97395,0,0,0.083333,-0,-0,0.66667
0.96857,0.34168,11.623,-0.23748,-2.6966,3.078,7.3606,-2.4535,-1.8075,9.8141,8.4311e-07,-0.90373,0,0,0.083333,1.9737e-16,0,0.66667
0.85256,0.45814,10.231,-0.062792,-3.2566,50.146,1.7131,-0.57103,-1.9819,2.2841,-8.973e-10,-0.99094,0,0,0.083333,-7.8949e-16,0,0.66667
0.56126,0.38188,6.7351,-0.17719,-23.205,386.2,3.1823,-1.0608,-1.8927,4.2431,2.8493e-12,-0.94636,0,0,0.083333,-0,-0,0.66667
0.67061,0.97878,8.0473,0.71817,75.842,229.97,-15.412,5.1372,-0.17014,-20.549,1.9922e-12,-0.085072,0,0,0.083333,-0,8.6029e-17,0.66667
0.99772,0.18062,11.973,-0.47907,-0.25268,1.272,15.295,-5.0984,-1.1859,20.394,1.4395e-06,-0.59297,0,0,0.083333,1.579e-15,-6.7752e-17,0.66667
0.16131,0.51522,1.9357,0.02283,4.256,1181.8,-0.11785,0.039282,-1.9951,-0.15713,-2.1521e-10,-0.99756,0,0,0.083333,-0,-0,0.66667
0.53454,0.58657,6.4145,0.12986,17.736,429.68,-2.2213,0.74044,-1.94,-2.9617,5.5711e-13,-0.97,0,0,0.083333,3.9475e-16,0,0.66667
0.39098,0.9898,4.6917,0.73471,119.48,692.56,-9.1921,3.064,-0.087151,-12.256,2.462e-12,-0.043575,0,0,0.083333,-0,-0,0.66667
0.54115,0.97415,6.4938,0.71122,96.524,420.16,-12.316,4.1053,-0.19857,-16.421,5.8415e-12,-0.099285,0,0,0.083333,-0,-0,0.66667
0.10338,0.37075,1.2405,-0.19387,-36.72,1313.9,0.64134,-0.21378,-1.8634,0.85512,3.058e-08,-0.93171,0,0,0.083333,9.8686e-17,0,0.66667
0.44074,0.055551,5.2889,-0.66667,-103.05,596.83,9.4026,-3.1342,-0.41978,12.537,2.1725e-12,-0.20989,0,0,0.083333,-7.8949e-16,0,0.66667
0.46146,0.5814,5.5376,0.1221,18.381,557.45,-1.803,0.601,-1.9426,-2.404,-3.3875e-12,-0.97132,0,0,0.083333,-5.4648e-16,0,0.66667
0.59589,0.23974,7.1507,-0.39039,-48.173,332.92,7.4441,-2.4814,-1.46,9.9255,-1.0925e-13,-0.73001,0,0,0.083333,7.8949e-16,0,0.66667
0.66238,0.4353,7.9485,-0.097048,-10.402,238.85,2.057,-0.68568,-1.9638,2.7427,-1.7768e-12,-0.98192,0,0,0.083333,1.1842e-15,0,0.66667
0.59015,0.89184,7.0818,0.58776,73.415,342.2,-11.1,3.6999,-0.77063,-14.8,-2.8093e-12,-0.38531,0,0,0.083333,7.8949e-16,0,0.66667
0.72938,0.65646,8.7526,0.23469,20.965,158.32,-5.4776,1.8259,-1.8029,-7.3035,5.6288e-12,-0.90144,0,0,0.083333,-3.158e-15,0,0.66667
0.5809,0.85343,6.9708,0.53015,67.286,356.14,-9.8549,3.285,-1.0013,-13.14,-3.4017e-13,-0.50065,0,0,0.083333,-0,-0,0.66667
0.4431,0.15497,5.3172,-0.51754,-79.7,592.01,7.3384,-2.4461,-1.0456,9.7845,-5.3295e-12,-0.52278,0,0,0.083333,-8.7193e-16,0,0.66667
0.49679,0.92105,5.9615,0.63158,91.228,495.17,-10.04,3.3468,-0.58131,-13.387,5.7216e-12,-0.29066,0,0,0.083333,-7.8949e-16,1.2575e-16,0.66667
0.43009,0.22275,5.1611,-0.41587,-64.909,616.26,5.7235,-1.9078,-1.3816,7.6314,2.3626e-12,-0.69079,0,0,0.083333,-0,-0,0.66667
0.21007,0.5939,2.5209,0.14084,25.769,1072.6,-0.9468,0.3156,-1.9268,-1.2624,1.6261e-11,-0.96341,0,0,0.083333,-7.8949e-16,0,0.66667
0.2268,0.012168,2.7216,-0.73175,-133.25,1036.2,5.3108,-1.7703,-0.091775,7.081,6.7438e-11,-0.045887,0,0,0.083333,-0,-0,0.66667
0.45739,0.63807,5.4887,0.2071,31.333,564.99,-3.0312,1.0104,-1.8455,-4.0416,-6.6962e-12,-0.92274,0,0,0.083333,-0,-0,0.66667
0.43355,0.32222,5.2026,-0.26667,-41.44,609.48,3.6997,-1.2332,-1.7458,4.9329,2.2531e-12,-0.8729,0,0,0.083333,-0,-0,0.66667
0.77928,0.45019,9.3514,-0.07471,-5.5901,107.76,1.8631,-0.62102,-1.9823,2.4841,1.3567e-11,-0.99115,0,0,0.083333,-0,-0,0.66667
0.42086,0.38199,5.0503,-0.17701,-27.869,633.51,2.3839,-0.79462,-1.8935,3.1785,9.0372e-13,-0.94676,0,0,0.083333,-0,-0,0.66667
0.67337,0.689,8.0804,0.28349,29.609,224.89,-6.1087,2.0362,-1.7188,-8.1449,-4.0568e-12,-0.85942,0,0,0.083333,1.579e-15,0,0.66667
0.16604,0.71684,1.9925,0.32526,60.574,1171.2,-1.7282,0.57606,-1.6214,-2.3042,1.0663e-10,-0.81072,0,0,0.083333,2.4579e-17,0,0.66667
0.82406,0.98348,9.8887,0.72522,44.659,72.441,-19.124,6.3746,-0.12821,-25.499,1.1369e-10,-0.064104,0,0,0.083333,-1.579e-15,0,0.66667
0.68541,0.30098,8.2249,-0.29852,-30.244,209.79,6.5475,-2.1825,-1.6851,8.73,-3.7197e-12,-0.84253,0,0,0.083333,-0,-0,0.66667
0.78905,0.74114,9.4686,0.36171,26.048,99.453,-9.1331,3.0444,-1.5307,-12.177,-1.9488e-11,-0.76533,0,0,0.083333,-0,-0,0.66667
0.35948,0.98533,4.3138,0.72799,121.69,755.33,-8.3744,2.7915,-0.12259,-11.166,-1.4975e-12,-0.061297,0,0,0.083333,7.8949e-16,0,0.66667
0.66255,0.62731,7.9506,0.19097,20.466,238.72,-4.0488,1.3496,-1.8675,-5.3984,-6.0325e-12,-0.93377,0,0,0.083333,1.579e-15,0,0.66667
0.21709,0.49256,2.6051,-0.011164,-2.036,1057,0.077557,-0.025852,-2.0028,0.10341,-4.6771e-11,-1.0014,0,0,0.083333,-0,-0,0.66667
0.22101,0.67497,2.6521,0.26245,47.795,1048.4,-1.8561,0.6187,-1.7566,-2.4748,2.2724e-11,-0.8783,0,0,0.083333,-0,-0,0.66667
0.24246,0.15272,2.9095,-0.52092,-93.979,1001.6,4.0416,-1.3472,-1.0317,5.3888,4.8579e-12,-0.51587,0,0,0.083333,4.9343e-16,0,0.66667
0.26459,0.13852,3.1751,-0.54222,-96.666,953.53,4.5909,-1.5303,-0.95904,6.1211,-2.6668e-11,-0.47952,0,0,0.083333,-0,-0,0.66667
0.40841,0.23231,4.9009,-0.40153,-64.067,657.74,5.2476,-1.7492,-1.4284,6.9969,-6.8079e-12,-0.71422,0,0,0.083333,7.8949e-16,0,0.66667
0.8287,0.83192,9.9443,0.49789,29.784,67.758,-13.203,4.401,-1.1243,-17.604,1.5254e-09,-0.56215,0,0,0.083333,-0,-0,0.66667
0.94742,0.63041,11.369,0.19561,3.7393,7.3455,-5.9304,1.9768,-1.8611,-7.9072,5.6251e-08,-0.93053,0,0,0.083333,-0,-0,0.66667
0.63246,0.10229,7.5895,-0.59657,-68.597,280.56,12.074,-4.0246,-0.73049,16.098,2.1716e-12,-0.36524,0,0,0.083333,-0,-0,0.66667
0.13474,0.43952,1.6169,-0.090721,-17.05,1242.2,0.39116,-0.13039,-1.9683,0.52154,3.6346e-09,-0.98413,0,0,0.083333,3.9475e-16,0,0.66667
0.41999,0.4292,5.0399,-0.1062,-16.732,635.12,1.4272,-0.47575,-1.9626,1.903,-8.4176e-12,-0.98128,0,0,0.083333,-0,-0,0.66667
0.93619,0.74681,11.234,0.37021,8.6191,10.952,-11.091,3.6969,-1.5174,-14.788,2.918e-07,-0.7587,0,0,0.083333,-3.9475e-16,0,0.66667
0.32054,0.37835,3.8465,-0.18248,-31.336,834.37,1.8718,-0.62392,-1.8782,2.4957,-1.4548e-12,-0.9391,0,0,0.083333,-7.8949e-16,0,0.66667
0.61928,0.15504,7.4314,-0.51744,-61.089,298.93,10.254,-3.418,-1.0458,13.672,2.7711e-13,-0.52292,0,0,0.083333,1.1842e-15,0,0.66667
0.93513,0.66733,11.222,0.25099,5.9191,10.902,-7.5108,2.5036,-1.7774,-10.014,2.0396e-07,-0.88869,0,0,0.083333,-0,-0,0.66667
0.46068,0.94583,5.5282,0.66875,101.07,559.94,-9.8586,3.2862,-0.40578,-13.145,-4.9569e-12,-0.20289,0,0,0.083333,-0,-0,0.66667
0.5004,0.9102,6.0048,0.61531,88.44,488.81,-9.8528,3.2843,-0.66088,-13.137,7.9847e-12,-0.33044,0,0,0.083333,-1.579e-15,0,0.66667
0.91869,0.20322,11.024,-0.44518,-13.166,17.172,13.087,-4.3624,-1.295,17.45,-5.5145e-08,-0.6475,0,0,0.083333,-0,-0,0.66667
0.92982,0.53804,11.158,0.057065,1.4507,12.29,-1.6979,0.56598,-1.9845,-2.2639,-1.7812e-08,-0.99225,0,0,0.083333,-0,-0,0.66667
0.90449,0.61406,10.854,0.1711,5.881,22.115,-4.9521,1.6507,-1.8986,-6.6029,3.6598e-08,-0.94931,0,0,0.083333,7.8949e-16,0,0.66667
0.51363,0.47578,6.1636,-0.036323,-5.113,464.93,0.59701,-0.199,-1.9979,0.79602,-2.7905e-13,-0.99893,0,0,0.083333,1.579e-15,0,0.66667
0.63981,0.044453,7.6777,-0.68332,-77.423,270.74,13.99,-4.6634,-0.34478,18.654,-5.7376e-13,-0.17239,0,0,0.083333,-0,-0,0.66667
0.58901,0.51044,7.0681,0.015665,1.9551,342.85,-0.29526,0.098418,-1.9966,-0.39367,6.6197e-13,-0.99832,0,0,0.083333,-0,-0,0.66667
0.15849,0.46472,1.9019,-0.052914,-9.8736,1188.2,0.26837,-0.089457,-1.9925,0.35783,3.4105e-10,-0.99623,0,0,0.083333,2.4672e-16,0,0.66667
0.62345,0.88361,7.4814,0.57541,67.399,293.18,-11.48,3.8266,-0.82616,-15.306,-9.1038e-13,-0.41308,0,0,0.083333,-0,-0,0.66667
0.31914,0.89431,3.8297,0.59146,101.86,837.82,-6.0404,2.0135,-0.75206,-8.0538,-8.4759e-12,-0.37603,0,0,0.083333,-0,-0,0.66667
0.13074,0.89931,1.5688,0.59896,112.91,1251.5,-2.5058,0.83526,-0.7213,-3.341,4.6918e-09,-0.36065,0,0,0.083333,9.8686e-17,0,0.66667
0.215,0.12075,2.58,-0.56888,-104.04,1062,3.914,-1.3047,-0.84893,5.2186,-1.8407e-10,-0.42446,0,0,0.083333,-9.8686e-17,0,0.66667
0.31366,0.18441,3.7639,-0.47338,-81.781,849.07,4.7514,-1.5838,-1.2084,6.3352,-6.7901e-13,-0.60418,0,0,0.083333,4.9343e-16,0,0.66667
0.95145,0.24594,11.417,-0.38108,-6.767,6.9048,11.603,-3.8676,-1.4873,15.47,-4.5832e-07,-0.74367,0,0,0.083333,1.579e-15,0,0.66667
0.99077,0.53119,11.889,0.046786,0.13792,0.36425,-1.4833,0.49444,-1.9898,-1.9778,-1.3058e-06,-0.99491,0,0,0.083333,3.3307e-16,0,0.66667
0.86689,0.43779,10.403,-0.093308,-4.3985,41.317,2.5884,-0.8628,-1.9662,3.4512,-3.9717e-09,-0.98312,0,0,0.083333,-0,-0,0.66667
0.46186,0.90018,5.5423,0.60027,90.541,557.57,-8.8717,2.9572,-0.71518,-11.829,-3.8245e-12,-0.35759,0,0,0.083333,-3.9475e-16,0,0.66667
0.46562,0.73428,5.5874,0.35141,52.684,550.13,-5.236,1.7453,-1.5606,-6.9813,-1.0906e-11,-0.78032,0,0,0.083333,7.8949e-16,0,0.66667
0.76473,0.7609,9.1767,0.39135,31.031,122.15,-9.5768,3.1923,-1.4603,-12.769,-1.6161e-11,-0.73016,0,0,0.083333,-0,-0,0.66667
0.098408,0.80443,1.1809,0.45664,86.659,1325.4,-1.438,0.47933,-1.2564,-1.9173,-5.4879e-08,-0.62821,0,0,0.083333,9.8686e-17,0,0.66667
0.99404,0.64014,11.928,0.21021,0.36685,0.41745,-6.6865,2.2288,-1.8391,-8.9153,1.084e-06,-0.91954,0,0,0.083333,-0,-0,0.66667
0.69221,0.81168,8.3066,0.46752,46.585,201.91,-10.356,3.452,-1.2218,-13.808,2.9843e-12,-0.61088,0,0,0.083333,-2.4672e-16,0,0.66667
0.29929,0.62281,3.5914,0.18422,32.1,879,-1.7643,0.58809,-1.8817,-2.3524,-1.2815e-11,-0.94086,0,0,0.083333,-4.9343e-16,0,0.66667
0.90885,0.68066,10.906,0.27099,8.9155,20.467,-7.8813,2.6271,-1.7402,-10.508,4.2569e-08,-0.87009,0,0,0.083333,-0,-0,0.66667
0.55258,0.61331,6.6309,0.16997,22.575,400.13,-3.0055,1.0018,-1.8938,-4.0073,1.7537e-12,-0.94688,0,0,0.083333,-7.8949e-16,0,0.66667
0.08519,0.40236,1.0223,-0.14646,-27.833,1355.8,0.39925,-0.13308,-1.9203,0.53233,5.4941e-08,-0.96017,0,0,0.083333,4.9343e-17,0,0.66667
0.10825,0.20183,1.2989,-0.44725,-84.698,1302.9,1.5492,-0.51641,-1.2929,2.0656,3.0975e-08,-0.64644,0,0,0.083333,-0,-0,0.66667
0.031665,0.03733,0.37998,-0.694,-133.06,1479.6,0.70323,-0.23443,-0.29423,0.93763,-2.66e-05,-0.14711,0,0,0.083333,-9.8686e-17,0,0.66667
0.21619,0.15132,2.5943,-0.52302,-95.57,1059.3,3.6184,-1.2061,-1.029,4.8245,-1.8051e-10,-0.5145,0,0,0.083333,6.2145e-16,0,0.66667
0.051414,0.59795,0.61697,0.14693,28.054,1433.8,-0.24174,0.080579,-1.9217,-0.32232,-3.1657e-08,-0.96087,0,0,0.083333,-0,-0,0.66667
0.51027,0.037254,6.1233,-0.69412,-98.512,472.01,11.334,-3.778,-0.28426,15.112,-3.2356e-12,-0.14213,0,0,0.083333,-0,-0,0.66667
0.08294,0.12949,0.99528,-0.55576,-105.83,1361.1,1.475,-0.49168,-0.89991,1.9667,8.398e-08,-0.44995,0,0,0.083333,-1.9737e-16,0,0.66667
0.44312,0.93707,5.3175,0.6556,101.07,592.35,-9.2964,3.0988,-0.46984,-12.395,-6.6924e-12,-0.23492,0,0,0.083333,1.0609e-15,0,0.66667
0.2362,0.86588,2.8344,0.54883,99.347,1015.3,-4.1483,1.3828,-0.93174,-5.531,1.0308e-11,-0.46587,0,0,0.083333,1.9737e-16,0,0.66667
0.55972,0.38976,6.7166,-0.16536,-21.711,388.64,2.9618,-0.98727,-1.9032,3.9491,1.8923e-12,-0.95158,0,0,0.083333,-7.8949e-16,0,0.66667
0.43897,0.0036207,5.2676,-0.74457,-115.4,600.41,10.459,-3.4863,-0.033122,13.945,-1.2398e-11,-0.016561,0,0,0.083333,-0,-0,0.66667
0.83754,0.77516,10.05,0.41273,23.489,61.039,-11.062,3.6873,-1.391,-14.749,8.9442e-11,-0.69548,0,0,0.083333,7.8949e-16,0,0.66667
0.33654,0.45015,4.0385,-0.074772,-12.687,801.16,0.80526,-0.26842,-1.9758,1.0737,1.6777e-11,-0.98789,0,0,0.083333,-0,-0,0.66667
0.23023,0.54214,2.7628,0.063215,11.457,1028,-0.46573,0.15524,-1.9841,-0.62097,2.7326e-12,-0.99203,0,0,0.083333,-0,-0,0.66667
0.94012,0.40432,11.281,-0.14353,-3.121,9.2186,4.3178,-1.4393,-1.9288,5.7571,-1.1338e-07,-0.96439,0,0,0.083333,-3.9475e-16,0,0.66667
0.46636,0.43249,5.5964,-0.10127,-15.157,548.49,1.5113,-0.50377,-1.9655,2.0151,8.4766e-13,-0.98275,0,0,0.083333,3.9475e-16,0,0.66667
0.028158,0.27018,0.33789,-0.34473,-65.978,1487.7,0.31062,-0.10354,-1.5774,0.41416,-2.4754e-06,-0.7887,0,0,0.083333,-2.4672e-17,0,0.66667
0.079436,0.52244,0.95324,0.03366,6.4024,1369,-0.085563,0.028521,-1.9999,-0.11408,-1.6488e-08,-0.99997,0,0,0.083333,-0,-0,0.66667
0.55557,0.05728,6.6669,-0.66408,-88.064,396.52,11.806,-3.9354,-0.42842,15.742,-2.0428e-14,-0.21421,0,0,0.083333,-7.8949e-16,0,0.66667
0.21077,0.24305,2.5293,-0.38543,-70.55,1071.2,2.5996,-0.86654,-1.4679,3.4662,-1.7232e-11,-0.73393,0,0,0.083333,-0,-0,0.66667
0.14824,0.15645,1.7788,-0.51533,-96.61,1211.7,2.4445,-0.81483,-1.053,3.2593,-6.4147e-09,-0.52648,0,0,0.083333,-3.9475e-16,0,0.66667
0.19553,0.38159,2.3464,-0.17762,-32.701,1104.9,1.1114,-0.37046,-1.8839,1.4818,-3.2605e-11,-0.94197,0,0,0.083333,-3.9475e-16,0,0.66667
0.74475,0.91589,8.937,0.62384,53.23,143.23,-14.867,4.9558,-0.6133,-19.823,2.1731e-11,-0.30665,0,0,0.083333,-0,-0,0.66667
0.94901,0.069248,11.388,-0.64613,-12.231,8.8675,19.622,-6.5406,-0.51431,26.163,9.3651e-07,-0.25716,0,0,0.083333,-0,-6.0668e-17,0.66667
0.12938,0.50742,1.5525,0.01113,2.0946,1254.4,-0.046077,0.015359,-1.9978,-0.061437,-1.2306e-09,-0.99891,0,0,0.083333,-0,-0,0.66667
0.87978,0.84159,10.557,0.51239,22.073,35.24,-14.425,4.8084,-1.0651,-19.234,-9.3105e-09,-0.53254,0,0,0.083333,2.3685e-15,0,0.66667
0.71192,0.8544,8.543,0.5316,50.182,178.82,-12.111,4.0369,-0.99108,-16.148,-1.1529e-12,-0.49554,0,0,0.083333,-0,-0,0.66667
0.55684,0.51423,6.6821,0.021348,2.8154,393.17,-0.38039,0.1268,-1.9948,-0.50719,-8.7191e-12,-0.9974,0,0,0.083333,1.579e-15,0,0.66667
0.067019,0.071265,0.80422,-0.6431,-122.82,1397.8,1.3792,-0.45973,-0.52743,1.8389,1.9465e-07,-0.26371,0,0,0.083333,-0,-0,0.66667
0.78774,0.15648,9.4529,-0.51528,-37.383,101.18,12.989,-4.3297,-1.0535,17.319,2.2759e-10,-0.52673,0,0,0.083333,-3.158e-15,0,0.66667
0.81228,0.093668,9.7474,-0.6095,-39.691,80.91,15.843,-5.2809,-0.68744,21.124,2.9266e-09,-0.34372,0,0,0.083333,2.2341e-15,0,0.66667
0.75458,0.67652,9.055,0.26479,21.756,131.87,-6.3937,2.1312,-1.7484,-8.5249,-6.4975e-12,-0.8742,0,0,0.083333,-7.8949e-16,0,0.66667
0.55049,0.64035,6.6059,0.21052,28.058,403.56,-3.7085,1.2362,-1.8413,-4.9446,-5.7065e-13,-0.92067,0,0,0.083333,7.8949e-16,0,0.66667
0.6316,0.10491,7.5793,-0.59263,-68.264,281.74,11.978,-3.9926,-0.74719,15.971,7.0521e-13,-0.37359,0,0,0.083333,-0,-0,0.66667
0.43666,0.89167,5.24,0.58751,91.161,604.25,-8.2094,2.7365,-0.7776,-10.946,-5.7394e-12,-0.3888,0,0,0.083333,7.8949e-16,9.8241e-17,0.66667
0.30785,0.48799,3.6942,-0.018015,-3.1206,860.89,0.17747,-0.059157,-1.9964,0.23663,6.6337e-12,-0.99819,0,0,0.083333,-0,-0,0.66667
0.20771,0.44408,2.4925,-0.083885,-15.363,1077.8,0.55756,-0.18585,-1.9731,0.74341,-1.8573e-11,-0.98654,0,0,0.083333,3.9475e-16,0,0.66667
0.77076,0.66046,9.2491,0.24068,18.633,115.96,-5.9363,1.9788,-1.7918,-7.9151,-1.5676e-11,-0.89592,0,0,0.083333,-0,-0,0.66667
0.93478,0.97998,11.217,0.71997,17.411,13.282,-21.536,7.1788,-0.15757,-28.715,-1.6281e-06,-0.078787,0,0,0.083333,-1.579e-15,-9.0887e-17,0.66667
0.62152,0.31795,7.4582,-0.27308,-32.04,295.09,5.4312,-1.8104,-1.7347,7.2415,-4.2855e-13,-0.86735,0,0,0.083333,-0,-0,0.66667
0.53425,0.80619,6.411,0.45928,62.846,430.72,-7.8519,2.6173,-1.2506,-10.469,-3.6104e-13,-0.62528,0,0,0.083333,-0,-0,0.66667
0.88327,0.24692,10.599,-0.37962,-15.858,32.835,10.73,-3.5766,-1.4843,14.306,-3.0182e-09,-0.74214,0,0,0.083333,-1.7122e-15,0,0.66667
0.044803,0.12335,0.53764,-0.56497,-108.11,1449.2,0.80999,-0.26999,-0.86831,1.08,6.9882e-06,-0.43416,0,0,0.083333,-1.8504e-17,-1.0827e-16,0.66667
0.30268,0.98015,3.6321,0.72022,125.58,872.62,-6.9758,2.3253,-0.15208,-9.3011,5.2083e-12,-0.076042,0,0,0.083333,7.8949e-16,0,0.66667
0.38247,0.83569,4.5897,0.50353,82.374,708.77,-6.1627,2.0542,-1.0945,-8.217,9.0572e-12,-0.54723,0,0,0.083333,-3.9475e-16,0,0.66667
0.031099,0.038127,0.37319,-0.69281,-132.83,1480.9,0.68948,-0.22985,-0.30078,0.9193,-3.4945e-05,-0.15039,0,0,0.083333,-0,6.7754e-17,0.66667
0.51993,0.45172,6.2392,-0.072419,-10.104,454.19,1.2049,-0.40163,-1.9792,1.6065,1.9322e-12,-0.98962,0,0,0.083333,-0,-0,0.66667
0.94058,0.87963,11.287,0.56945,12.467,10.611,-17.139,5.7131,-0.84772,-22.853,-1.809e-06,-0.42386,0,0,0.083333,-0,-0,0.66667
0.79725,0.31631,9.5669,-0.27554,-19.139,92.084,7.0295,-2.3432,-1.7372,9.3727,5.1178e-11,-0.8686,0,0,0.083333,-0,-0,0.66667
0.53509,0.91167,6.4211,0.6175,84.497,429.8,-10.573,3.5245,-0.64352,-14.098,-1.4904e-12,-0.32176,0,0,0.083333,-0,-0,0.66667
0.67654,0.87204,8.1185,0.55806,57.96,221.69,-12.082,4.0272,-0.89124,-16.109,-2.828e-12,-0.44562,0,0,0.083333,-0,-0,0.66667
0.78523,0.42885,9.4228,-0.10673,-7.7958,102.36,2.6819,-0.89396,-1.9582,3.5758,4.5127e-11,-0.97909,0,0,0.083333,-7.8949e-16,0,0.66667
0.26109,0.27632,3.1331,-0.33552,-59.872,960.83,2.8033,-0.93442,-1.5981,3.7377,-4.4365e-12,-0.79907,0,0,0.083333,3.9475e-16,0,0.66667
0.27566,0.85734,3.308,0.53601,94.94,929.69,-4.7282,1.5761,-0.97499,-6.3043,-1.6196e-11,-0.48749,0,0,0.083333,-0,-0,0.66667
0.60522,0.35685,7.2627,-0.21473,-26.011,318.68,4.1586,-1.3862,-1.8342,5.5449,6.6969e-13,-0.9171,0,0,0.083333,-0,-0,0.66667
0.67418,0.58495,8.0902,0.12743,13.274,223.62,-2.7492,0.9164,-1.9439,-3.6656,2.6068e-13,-0.97197,0,0,0.083333,-0,-0,0.66667
0.0036135,0.87296,0.043362,0.55944,107.27,1544.6,-0.06468,0.021563,-0.88745,-0.086239,4.3013e-06,-0.44372,0,0,0.083333,6.9389e-18,-4.8213e-17,0.66667
0.8557,0.026302,10.268,-0.71055,-36.489,50.424,19.457,-6.4855,-0.20449,25.942,-1.1878e-08,-0.10225,0,0,0.083333,-7.8949e-16,0,0.66667
0.14491,0.82087,1.7389,0.48131,90.306,1219.2,-2.2319,0.74397,-1.1746,-2.9759,5.639e-10,-0.5873,0,0,0.083333,-0,-0,0.66667
0.51235,0.27029,6.1482,-0.34457,-48.632,467.45,5.6493,-1.8831,-1.5775,7.5324,3.3618e-12,-0.78875,0,0,0.083333,-0,-0,0.66667
0.56218,0.13851,6.7462,-0.54223,-71.055,385.51,9.7547,-3.2516,-0.96094,13.006,5.2225e-13,-0.48047,0,0,0.083333,-0,1.1532e-16,0.66667
0.0071911,0.63552,0.086294,0.20328,38.919,1536.3,-0.046779,0.015592,-1.8488,-0.062372,-8.6908e-07,-0.92442,0,0,0.083333,-0,-0,0.66667
0.42885,0.29313,5.1462,-0.31031,-48.472,618.43,4.2585,-1.4195,-1.6534,5.6779,-2.2826e-13,-0.82669,0,0,0.083333,-0,-0,0.66667
0.53374,0.97323,6.4049,0.70985,97.421,432.39,-12.124,4.0413,-0.21024,-16.165,3.7428e-12,-0.10512,0,0,0.083333,-0,-0,0.66667
0.69071,0.66443,8.2885,0.24665,24.636,203.16,-5.4516,1.8172,-1.7837,-7.2688,4.4409e-15,-0.89184,0,0,0.083333,-0,-0,0.66667
0.90317,0.71305,10.838,0.31957,11.154,23.042,-9.2361,3.0787,-1.6374,-12.315,4.9066e-08,-0.8187,0,0,0.083333,-7.8949e-16,0,0.66667
0.068561,0.3189,0.82273,-0.27165,-51.773,1394.1,0.59598,-0.19866,-1.7343,0.79464,2.2579e-07,-0.86717,0,0,0.083333,-0,-0,0.66667
0.2831,0.42108,3.3972,-0.11838,-20.84,913.37,1.0724,-0.35748,-1.9525,1.4299,9.1539e-12,-0.97626,0,0,0.083333,-3.9475e-16,0,0.66667
0.52793,0.72903,6.3352,0.34355,47.419,441.01,-5.8039,1.9346,-1.58,-7.7385,-8.7708e-13,-0.78998,0,0,0.083333,-0,-0,0.66667
0.29023,0.95158,3.4828,0.67737,119.03,898.85,-6.2911,2.097,-0.36442,-8.3881,-4.8437e-12,-0.18221,0,0,0.083333,-0,-0,0.66667
0.42013,0.45016,5.0416,-0.074766,-11.778,634.84,1.0052,-0.33506,-1.9828,1.3402,-6.3347e-12,-0.99139,0,0,0.083333,-0,-0,0.66667
0.98205,0.077172,11.785,-0.63424,-4.2263,3.1498,19.932,-6.6438,-0.57098,26.575,3.6e-06,-0.28549,0,0,0.083333,-1.579e-15,0,0.66667
0.056933,0.4301,0.6832,-0.10486,-20.007,1421,0.19103,-0.063678,-1.9579,0.25471,-1.0543e-08,-0.97894,0,0,0.083333,-4.9343e-17,0,0.66667
0.92891,0.067207,11.147,-0.64919,-16.996,14.663,19.297,-6.4324,-0.498,25.73,-1.9233e-06,-0.249,0,0,0.083333,-0,-0,0.66667
0.66798,0.90439,8.0157,0.60659,64.376,232.83,-12.966,4.322,-0.69153,-17.288,2.5775e-12,-0.34576,0,0,0.083333,-9.8686e-16,0,0.66667
0.49858,0.99958,5.983,0.74937,108.11,492.47,-11.956,3.9853,-0.0083686,-15.941,-9.1847e-12,-0.0041843,0,0,0.083333,2.4178e-15,-5.2662e-18,0.66667
0.4647,0.30432,5.5764,-0.29352,-44.041,551.72,4.3647,-1.4549,-1.6923,5.8196,-2.2515e-12,-0.84615,0,0,0.083333,-0,-0,0.66667
0.55893,0.45056,6.7072,-0.074165,-9.7483,389.83,1.3265,-0.44217,-1.9795,1.7687,-1.7698e-12,-0.98974,0,0,0.083333,-0,-0,0.66667
0.29159,0.22546,3.499,-0.41181,-72.177,895.53,3.8425,-1.2808,-1.3943,5.1234,4.3667e-12,-0.69716,0,0,0.083333,-0,-0,0.66667
0.1718,0.26951,2.0616,-0.34574,-64.264,1158.3,1.9007,-0.63358,-1.5821,2.5343,-2.4462e-10,-0.79105,0,0,0.083333,-0,-0,0.66667
0.61974,0.038283,7.4369,-0.69258,-81.842,298.97,13.735,-4.5783,-0.29183,18.313,4.2073e-12,-0.14592,0,0,0.083333,-0,-0,0.66667
0.98848,0.44304,11.862,-0.085442,-0.32668,0.53896,2.7026,-0.90088,-1.9729,3.6035,-2.3802e-07,-0.98646,0,0,0.083333,-0,-0,0.66667
0.51622,0.018567,6.1946,-0.72215,-101.67,461.94,11.929,-3.9764,-0.15137,15.906,-7.3008e-12,-0.075683,0,0,0.083333,1.579e-15,0,0.66667
0.67101,0.84887,8.0521,0.5233,55.079,228.6,-11.236,3.7455,-1.0319,-14.982,-8.7308e-13,-0.51594,0,0,0.083333,-0,-1.2307e-16,0.66667
0.51953,0.52528,6.2344,0.03792,5.2934,454.86,-0.63041,0.21014,-1.994,-0.84055,-1.679e-12,-0.997,0,0,0.083333,-7.8949e-16,0,0.66667
0.20003,0.51937,2.4004,0.029061,5.3394,1094.9,-0.18602,0.062005,-1.9969,-0.24802,-3.5819e-12,-0.99845,0,0,0.083333,-0,-0,0.66667
0.5787,0.99398,6.9444,0.74097,94.613,360.38,-13.722,4.5739,-0.054087,-18.295,-4.9738e-14,-0.027044,0,0,0.083333,-1.1842e-15,0,0.66667
0.95788,0.89281,11.495,0.58922,9.1978,6.5197,-18.061,6.0203,-0.76295,-24.081,1.302e-05,-0.38148,0,0,0.083333,-0,-0,0.66667
0.69242,0.21137,8.3091,-0.43295,-43.103,201.54,9.593,-3.1977,-1.3311,12.791,1.2745e-12,-0.66557,0,0,0.083333,-7.8949e-16,0,0.66667
0.027337,0.20901,0.32804,-0.43649,-83.574,1489.6,0.38183,-0.12728,-1.3213,0.5091,-5.2944e-06,-0.66064,0,0,0.083333,-0,-0,0.66667
0.36312,0.53918,4.3574,0.058775,9.7628,746.98,-0.68296,0.22765,-1.9868,-0.91061,6.1071e-12,-0.99342,0,0,0.083333,-7.8949e-16,0,0.66667
0.63389,0.62693,7.6066,0.19039,21.763,277.49,-3.862,1.2873,-1.8682,-5.1493,-2.1589e-12,-0.93409,0,0,0.083333,-0,-0,0.66667
0.56707,0.87729,6.8049,0.56594,73.576,377.84,-10.27,3.4233,-0.85998,-13.693,2.0908e-12,-0.42999,0,0,0.083333,-0,-0,0.66667
0.12133,0.2166,1.456,-0.4251,-80.25,1272.9,1.6505,-0.55018,-1.3576,2.2007,-7.2028e-09,-0.67878,0,0,0.083333,-4.9343e-17,0,0.66667
0.93647,0.038718,11.238,-0.69192,-16.283,12.572,20.735,-6.9116,-0.3026,27.647,6.6323e-06,-0.1513,0,0,0.083333,-0,-7.1792e-17,0.66667
0.39384,0.036604,4.7261,-0.69509,-112.7,686.83,8.7602,-2.9201,-0.28243,11.68,7.4616e-12,-0.14122,0,0,0.083333,-0,-0,0.66667
0.72926,0.50845,8.7512,0.01267,1.1315,158.24,-0.29566,0.098554,-1.9967,-0.39422,-4.9519e-13,-0.99836,0,0,0.083333,-0,-0,0.66667
0.78569,0.071463,9.4282,-0.64281,-47.132,103.64,16.161,-5.3871,-0.52887,21.549,-1.3804e-09,-0.26444,0,0,0.083333,1.579e-15,0,0.66667
0.21299,0.19504,2.5559,-0.45744,-83.677,1066.3,3.1178,-1.0393,-1.2528,4.1571,1.2383e-10,-0.62639,0,0,0.083333,-3.9475e-16,0,0.66667
0.66262,0.018374,7.9515,-0.72244,-77.775,240.33,15.319,-5.1062,-0.14026,20.425,1.2408e-12,-0.070131,0,0,0.083333,-0,-0,0.66667
0.52337,0.35384,6.2804,-0.21923,-30.446,448.5,3.6717,-1.2239,-1.8248,4.8956,6.4164e-12,-0.91242,0,0,0.083333,-1.579e-15,0,0.66667
0.1783,0.75623,2.1396,0.38435,71.284,1143.7,-2.1929,0.73097,-1.4713,-2.9239,-1.4282e-11,-0.73563,0,0,0.083333,-0,-0,0.66667
0.71844,0.8444,8.6213,0.5166,47.833,171.32,-11.877,3.9589,-1.059,-15.836,4.4231e-13,-0.5295,0,0,0.083333,-0,1.0268e-16,0.66667
0.54058,0.53153,6.4869,0.047298,6.4,419.65,-0.81818,0.27273,-1.9897,-1.0909,2.0804e-12,-0.99483,0,0,0.083333,-1.579e-15,0,0.66667
0.21409,0.65289,2.5691,0.22933,41.892,1063.7,-1.5712,0.52372,-1.8115,-2.0949,2.6927e-11,-0.90575,0,0,0.083333,9.8686e-17,0,0.66667
0.41806,0.52392,5.0167,0.035881,5.6642,638.8,-0.48002,0.16001,-1.9945,-0.64002,-4.2535e-12,-0.99725,0,0,0.083333,-0,-0,0.66667
0.68076,0.60811,8.1691,0.16216,16.616,215.34,-3.5326,1.1775,-1.9023,-4.7102,1.3896e-12,-0.95113,0,0,0.083333,-0,-0,0.66667
0.99376,0.70561,11.925,0.30842,0.58701,0.69974,-9.8077,3.2692,-1.6578,-13.077,1.8419e-06,-0.82892,0,0,0.083333,-1.579e-15,0,0.66667
0.54844,0.24087,6.5813,-0.38869,-52.015,407.21,6.8215,-2.2738,-1.4662,9.0953,-1.5477e-12,-0.73308,0,0,0.083333,-3.9475e-16,0,0.66667
0.79392,0.92846,9.527,0.64269,45.519,96.379,-16.328,5.4426,-0.53175,-21.77,-2.7981e-10,-0.26587,0,0,0.083333,-0,-8.9429e-17,0.66667
0.33058,0.39259,3.9669,-0.16111,-27.464,813.52,1.7043,-0.56811,-1.9088,2.2724,7.6052e-12,-0.95439,0,0,0.083333,-3.9475e-16,0,0.66667
0.51156,0.74819,6.1387,0.37228,52.609,468.86,-6.0943,2.0314,-1.5068,-8.1257,1.5277e-12,-0.75339,0,0,0.083333,-9.8686e-16,0,0.66667
0.83503,0.060414,10.02,-0.65938,-38.239,64,17.619,-5.873,-0.45108,23.492,3.3561e-08,-0.22554,0,0,0.083333,8.3934e-16,0,0.66667
0.97046,0.96762,11.645,0.70143,7.7882,5.0395,-21.783,7.2609,-0.25484,-29.044,-6.1864e-05,-0.12742,0,0,0.083333,-4.9343e-16,0,0.66667
0.17847,0.99939,2.1417,0.74909,139.24,1143.7,-4.2781,1.426,-0.0022486,-5.7042,1.1578e-09,-0.0011243,0,0,0.083333,3.7007e-17,0,0.66667
0.85131,0.80829,10.216,0.46244,24.274,51.914,-12.598,4.1993,-1.2361,-16.797,-1.661e-09,-0.61804,0,0,0.083333,8.9882e-16,0,0.66667
0.9884,0.29136,11.861,-0.31297,-1.2355,1.0224,9.8987,-3.2996,-1.6502,13.198,-4.8857e-07,-0.82512,0,0,0.083333,-0,-0,0.66667
0.45046,0.0052165,5.4055,-0.74218,-113.57,579,10.698,-3.5661,-0.042888,14.264,-1.2779e-11,-0.021444,0,0,0.083333,3.158e-15,0,0.66667
0.30796,0.75736,3.6955,0.38604,66.925,860.9,-3.8043,1.2681,-1.4682,-5.0724,-2.5573e-12,-0.73409,0,0,0.083333,7.8949e-16,0,0.66667
0.91246,0.27683,10.95,-0.33475,-10.604,19.174,9.7743,-3.2581,-1.5985,13.032,-3.6347e-08,-0.79923,0,0,0.083333,1.1842e-15,0,0.66667
0.21986,0.012547,2.6383,-0.73118,-133.58,1051.5,5.1442,-1.7147,-0.10334,6.8589,-4.1936e-11,-0.051669,0,0,0.083333,-0,-0,0.66667
0.98826,0.78533,11.859,0.42799,1.7491,1.4809,-13.535,4.5117,-1.3481,-18.047,2.9683e-06,-0.67406,0,0,0.083333,-0,-0,0.66667
0.40154,0.51792,4.8185,0.026887,4.3144,670.75,-0.34549,0.11516,-1.9948,-0.46065,-3.8202e-12,-0.99742,0,0,0.083333,-0,-0,0.66667
0.092234,0.92904,1.1068,0.64356,122.41,1339.7,-1.8995,0.63315,-0.53089,-2.5326,-2.6312e-08,-0.26545,0,0,0.083333,-0,-7.7937e-17,0.66667
0.13677,0.28011,1.6413,-0.32983,-61.987,1237.6,1.4436,-0.4812,-1.6132,1.9248,3.4366e-09,-0.8066,0,0,0.083333,-2.5905e-16,0,0.66667
0.47707,0.18478,5.7249,-0.47283,-69.956,529.67,7.2184,-2.4061,-1.2018,9.6246,1.8061e-12,-0.60091,0,0,0.083333,-9.8686e-16,0,0.66667
0.060948,0.26878,0.73137,-0.34683,-66.184,1411.8,0.67642,-0.22547,-1.5754,0.9019,2.1157e-07,-0.78771,0,0,0.083333,-9.8686e-17,0,0.66667
0.25189,0.04275,3.0226,-0.68588,-123.27,981.28,5.5284,-1.8428,-0.32977,7.3712,3.3172e-11,-0.16488,0,0,0.083333,-0,-0,0.66667
0.795,0.45099,9.54,-0.073516,-5.1514,93.715,1.8702,-0.62341,-1.9831,2.4937,1.1343e-11,-0.99156,0,0,0.083333,-1.579e-15,0,0.66667
0.78533,0.226,9.424,-0.411,-30.075,102.93,10.329,-3.4429,-1.3981,13.772,-9.7717e-12,-0.69904,0,0,0.083333,-0,-0,0.66667
0.81082,0.44991,9.7298,-0.075141,-4.8989,80.499,1.9496,-0.64987,-1.9827,2.5995,5.5624e-11,-0.99137,0,0,0.083333,-0,-0,0.66667
0.046263,0.14681,0.55515,-0.52978,-101.34,1445.8,0.78428,-0.26143,-1.0078,1.0457,3.4568e-06,-0.50391,0,0,0.083333,-0,1.3129e-16,0.66667
0.76645,0.18365,9.1974,-0.47452,-37.421,120.78,11.638,-3.8794,-1.2053,15.518,7.8114e-11,-0.60263,0,0,0.083333,-0,-0,0.66667
0.80685,0.25212,9.6822,-0.37181,-24.751,84.302,9.5999,-3.2,-1.5062,12.8,1.1759e-10,-0.75308,0,0,0.083333,-0,-0,0.66667
0.01605,0.0094212,0.1926,-0.73587,-141.23,1515.8,0.37774,-0.12595,-0.081127,0.50364,-4.875e-05,-0.040563,0,0,0.083333,-0,-0,0.66667
0.39133,0.044415,4.6959,-0.68338,-111.05,691.73,8.5576,-2.8525,-0.34481,11.41,7.6552e-12,-0.1724,0,0,0.083333,-0,-0,0.66667
0.86558,0.98975,10.387,0.73463,35.354,44.543,-20.348,6.7827,-0.077352,-27.131,4.403e-08,-0.038676,0,0,0.083333,-1.579e-15,0,0.66667
0.95847,0.019304,11.502,-0.72104,-11.227,7.2814,22.115,-7.3718,-0.14827,29.487,-2.3061e-05,-0.074133,0,0,0.083333,-0,-0,0.66667
0.91959,0.75894,11.035,0.38841,11.345,16.604,-11.43,3.8099,-1.4653,-15.24,9.5745e-08,-0.73266,0,0,0.083333,-1.579e-15,0,0.66667
0.54699,0.71422,6.5639,0.32134,43.084,409.43,-5.6245,1.8748,-1.6406,-7.4994,1.2346e-13,-0.82032,0,0,0.083333,-1.9737e-16,0,0.66667
0.30992,0.40668,3.7191,-0.13998,-24.216,856.57,1.3883,-0.46275,-1.9327,1.851,-6.3369e-12,-0.96637,0,0,0.083333,-7.8949e-16,0,0.66667
0.58926,0.18277,7.0712,-0.47585,-59.473,343.17,8.9729,-2.991,-1.1934,11.964,-8.276e-12,-0.59669,0,0,0.083333,1.1842e-15,0,0.66667
0.59599,0.35697,7.1519,-0.21455,-26.446,332.44,4.0918,-1.3639,-1.8379,5.4557,1.6813e-12,-0.91893,0,0,0.083333,-0,-0,0.66667
0.66455,0.17444,7.9746,-0.48834,-52.189,236.82,10.385,-3.4616,-1.1477,13.846,-4.734e-13,-0.57386,0,0,0.083333,2.5044e-18,0,0.66667
0.59082,0.61068,7.0898,0.16602,20.657,340.19,-3.1388,1.0463,-1.9021,-4.185,2.0346e-12,-0.95105,0,0,0.083333,-0,-0,0.66667
0.86806,0.053434,10.417,-0.66985,-31.621,42.667,18.607,-6.2023,-0.4006,24.809,4.0207e-08,-0.2003,0,0,0.083333,7.8949e-16,0,0.66667
0.37398,0.44872,4.4877,-0.076926,-12.66,725.18,0.92059,-0.30686,-1.9835,1.2275,4.4612e-12,-0.99174,0,0,0.083333,-0,-0,0.66667
0.24402,0.73298,2.9282,0.34947,62.943,997.95,-2.7289,0.90962,-1.5619,-3.6385,3.7497e-12,-0.78097,0,0,0.083333,3.9475e-16,0,0.66667
0.020487,0.25432,0.24584,-0.36852,-70.564,1505.5,0.24159,-0.080533,-1.5152,0.32212,-3.0569e-06,-0.75761,0,0,0.083333,4.9343e-17,0,0.66667
0.23269,0.16672,2.7923,-0.49991,-90.624,1022.9,3.7224,-1.2408,-1.1143,4.9632,-1.0689e-11,-0.55717,0,0,0.083333,-0,-0,0.66667
0.1616,0.25634,1.9392,-0.36549,-68.18,1181.3,1.8901,-0.63002,-1.5223,2.5201,-3.6081e-11,-0.76116,0,0,0.083333,3.9475e-16,0,0.66667
0.23816,0.78434,2.8579,0.42651,77.076,1010.8,-3.2505,1.0835,-1.353,-4.334,1.4969e-11,-0.67648,0,0,0.083333,-7.8949e-16,0,0.66667
0.88096,0.085815,10.572,-0.62128,-26.595,35.189,17.514,-5.8381,-0.6242,23.352,-1.31e-07,-0.3121,0,0,0.083333,-7.8949e-16,0,0.66667
0.7316,0.53757,8.7792,0.05635,4.9956,155.7,-1.3192,0.43974,-1.9897,-1.759,-1.7819e-12,-0.99486,0,0,0.083333,-0,-0,0.66667
0.24339,0.12656,2.9207,-0.56017,-101.04,999.57,4.3628,-1.4543,-0.8815,5.8171,1.0317e-10,-0.44075,0,0,0.083333,7.8949e-16,0,0.66667
0.79305,0.58087,9.5167,0.12131,8.5736,95.446,-3.0785,1.0262,-1.9463,-4.1047,-3.3965e-11,-0.97316,0,0,0.083333,7.8949e-16,0,0.66667
0.54412,0.8354,6.5295,0.5031,67.835,414.55,-8.7599,2.92,-1.1009,-11.68,5.0715e-13,-0.55043,0,0,0.083333,-3.9475e-16,0,0.66667
0.40649,0.91017,4.8778,0.61526,98.493,661.95,-8.003,2.6677,-0.66159,-10.671,2.4372e-12,-0.33079,0,0,0.083333,-0,-0,0.66667
0.2058,0.52327,2.4696,0.034898,6.3963,1082,-0.22983,0.076609,-1.9967,-0.30644,1.7056e-11,-0.99833,0,0,0.083333,-0,-0,0.66667
0.31073,0.31513,3.7288,-0.27731,-47.963,854.96,2.7574,-0.91913,-1.7303,3.6765,1.5761e-12,-0.86515,0,0,0.083333,-7.8949e-16,0,0.66667
0.079247,0.64631,0.95096,0.21946,41.755,1369.5,-0.55653,0.18551,-1.8331,-0.74205,-1.0768e-07,-0.91655,0,0,0.083333,-0,-0,0.66667
0.23362,0.88911,2.8035,0.58366,105.81,1021,-4.3634,1.4545,-0.79388,-5.8179,-1.908e-10,-0.39694,0,0,0.083333,-0,-0,0.66667
0.66575,0.39219,7.989,-0.16172,-17.198,234.5,3.4452,-1.1484,-1.9031,4.5936,1.4753e-12,-0.95155,0,0,0.083333,-7.8841e-16,0,0.66667
0.35102,0.56818,4.2122,0.10227,17.157,771.52,-1.1487,0.3829,-1.9591,-1.5316,3.2707e-12,-0.97954,0,0,0.083333,7.8949e-16,0,0.66667
0.81972,0.0065887,9.8366,-0.74012,-46.607,75.841,19.414,-6.4713,-0.048525,25.885,2.2862e-09,-0.024263,0,0,0.083333,-0,-0,0.66667
0.66115,0.79381,7.9339,0.44072,47.461,241.1,-9.3242,3.1081,-1.3066,-12.432,-2.2888e-12,-0.65331,0,0,0.083333,-0,-0,0.66667
0.62435,0.5208,7.4922,0.031199,3.6369,290.8,-0.62333,0.20778,-2.0021,-0.8311,-9.8754e-13,-1.0011,0,0,0.083333,-0,-0,0.66667
0.42028,0.53119,5.0433,0.046788,7.3694,634.55,-0.62925,0.20975,-1.9969,-0.839,-1.6257e-11,-0.99843,0,0,0.083333,4.9343e-16,0,0.66667
0.645,0.33561,7.74,-0.24658,-27.519,262.24,5.0895,-1.6965,-1.782,6.786,-4.5697e-13,-0.891,0,0,0.083333,-0,-0,0.66667
0.87483,0.76858,10.498,0.40287,17.985,37.477,-11.278,3.7594,-1.4297,-15.038,1.0327e-09,-0.71486,0,0,0.083333,-1.579e-15,0,0.66667
0.31127,0.97505,3.7353,0.71258,123.52,854.54,-7.0978,2.3659,-0.19907,-9.4637,-2.4349e-12,-0.099534,0,0,0.083333,-0,-0,0.66667
0.34275,0.71128,4.113,0.31692,53.549,788.58,-3.476,1.1587,-1.6478,-4.6347,-5.3846e-12,-0.82389,0,0,0.083333,-0,-0,0.66667
0.84868,0.79629,10.184,0.44443,23.702,53.562,-12.07,4.0232,-1.2948,-16.093,-1.7917e-09,-0.64742,0,0,0.083333,1.579e-15,0,0.66667
0.52989,0.1128,6.3587,-0.5808,-80.067,438.34,9.8485,-3.2828,-0.80421,13.131,-3.4603e-12,-0.4021,0,0,0.083333,-0,-0,0.66667
0.92369,0.83095,11.084,0.49643,13.829,15.587,-14.674,4.8912,-1.1262,-19.565,1.2782e-07,-0.56312,0,0,0.083333,-0,-0,0.66667
0.18755,0.012216,2.2506,-0.73168,-135.52,1123.3,4.3913,-1.4638,-0.1037,5.8551,-1.542e-09,-0.051851,0,0,0.083333,-0,-0,0.66667
0.21487,0.29796,2.5785,-0.30305,-55.352,1062,2.0838,-0.69459,-1.672,2.7784,-4.1682e-11,-0.83598,0,0,0.083333,-0,-0,0.66667
0.86246,0.77279,10.35,0.40918,19.957,44.696,-11.293,3.7643,-1.4049,-15.057,6.0534e-09,-0.70244,0,0,0.083333,-7.8949e-16,0,0.66667
0.09949,0.38882,1.1939,-0.16676,-31.609,1322.9,0.53092,-0.17697,-1.8975,0.7079,2.9898e-08,-0.94875,0,0,0.083333,1.9737e-16,0,0.66667
0.47166,0.6585,5.6599,0.23775,35.368,539,-3.5883,1.1961,-1.8004,-4.7845,1.5654e-13,-0.90021,0,0,0.083333,-1.579e-15,0,0.66667
0.8394,0.98559,10.073,0.72838,41.287,61.347,-19.565,6.5216,-0.11149,-26.087,-8.3876e-11,-0.055745,0,0,0.083333,1.579e-15,0,0.66667
0.69374,0.010883,8.3248,-0.73368,-73.053,201.24,16.287,-5.4291,-0.082271,21.716,-1.6804e-12,-0.041136,0,0,0.083333,-0,-0,0.66667
0.46224,0.52394,5.5469,0.035911,5.4009,555.99,-0.53119,0.17706,-1.9917,-0.70826,-7.8129e-12,-0.99587,0,0,0.083333,7.8949e-16,0,0.66667
0.1652,0.88897,1.9824,0.58345,108.83,1173.3,-3.0843,1.0281,-0.78544,-4.1124,-1.8804e-09,-0.39272,0,0,0.083333,-0,-0,0.66667
0.55082,0.30946,6.6098,-0.28581,-38.084,403.14,5.0378,-1.6793,-1.7091,6.7171,-3.3267e-12,-0.85453,0,0,0.083333,-0,-0,0.66667
0.98798,0.64704,11.856,0.22056,0.89446,0.79215,-6.973,2.3243,-1.8263,-9.2973,1.8587e-07,-0.91313,0,0,0.083333,1.579e-15,0,0.66667
0.80516,0.56896,9.6619,0.10344,6.926,85.145,-2.6651,0.88836,-1.9581,-3.5534,2.936e-11,-0.97906,0,0,0.083333,-0,-0,0.66667
0.054929,0.72349,0.65915,0.33524,64.015,1425.7,-0.58926,0.19642,-1.5968,-0.78567,-1.5364e-07,-0.79839,0,0,0.083333,-0,-0,0.66667
0.71093,0.90805,8.5311,0.61207,58.003,180.31,-13.924,4.6415,-0.66483,-18.566,2.156e-11,-0.33242,0,0,0.083333,-0,-0,0.66667
0.97662,0.88206,11.719,0.57309,4.9466,3.3582,-17.91,5.97,-0.82828,-23.88,-2.3132e-05,-0.41414,0,0,0.083333,-0,-0,0.66667
0.19337,0.9309,2.3205,0.64634,119.36,1110.2,-3.9996,1.3332,-0.51144,-5.3327,2.6006e-09,-0.25572,0,0,0.083333,-1.9737e-16,0,0.66667
0.95641,0.80361,11.477,0.45541,7.2894,6.1134,-13.938,4.6459,-1.2624,-18.584,2.3716e-06,-0.63118,0,0,0.083333,-0,-0,0.66667
0.23335,0.53065,2.8001,0.045981,8.321,1021.2,-0.34334,0.11445,-1.9984,-0.45779,1.6123e-11,-0.99921,0,0,0.083333,5.9214e-17,0,0.66667
0.8194,0.5339,9.8328,0.050845,3.1782,73.707,-1.3332,0.4444,-1.9877,-1.7776,2.2916e-10,-0.99384,0,0,0.083333,3.158e-15,0,0.66667
0.14942,0.38342,1.793,-0.17487,-32.729,1208.8,0.83612,-0.27871,-1.8873,1.1148,4.9016e-10,-0.94367,0,0,0.083333,-0,-0,0.66667
0.5141,0.23897,6.1693,-0.39154,-55.141,464.54,6.4414,-2.1471,-1.4582,8.5885,-2.6299e-12,-0.72909,0,0,0.083333,-0,-0,0.66667
0.36401,0.67803,4.3682,0.26705,44.344,745.3,-3.1107,1.0369,-1.7442,-4.1476,3.8658e-13,-0.87208,0,0,0.083333,-0,-0,0.66667
0.67069,0.36763,8.0483,-0.19855,-20.866,228.17,4.2614,-1.4205,-1.8643,5.6818,1.3549e-12,-0.93213,0,0,0.083333,-1.1842e-15,0,0.66667
0.17912,0.55688,2.1494,0.085316,15.806,1141.7,-0.48901,0.163,-1.9704,-0.65202,1.3195e-10,-0.9852,0,0,0.083333,9.8686e-17,0,0.66667
0.57975,0.60444,6.957,0.15665,19.881,357.13,-2.9062,0.96874,-1.9158,-3.875,1.142e-12,-0.9579,0,0,0.083333,-0,-0,0.66667
0.0024237,0.43417,0.029084,-0.098743,-18.902,1547.4,0.0076581,-0.0025536,-1.9675,0.01021,-1.2691e-06,-0.98374,0,0,0.083333,-7.7099e-19,0,0.66667
0.42565,0.52367,5.1079,0.03551,5.5619,624.29,-0.48367,0.16122,-1.9946,-0.6449,-1.1281e-11,-0.99731,0,0,0.083333,-0,-0,0.66667
0.51579,0.38209,6.1895,-0.17687,-24.827,461.32,2.9193,-0.97311,-1.896,3.8924,-1.0416e-12,-0.94801,0,0,0.083333,-0,-0,0.66667
0.8378,0.85272,10.054,0.52908,30.127,61.349,-14.184,4.7281,-1.0012,-18.913,1.4486e-09,-0.5006,0,0,0.083333,-0,-0,0.66667
0.75764,0.89539,9.0917,0.59309,48.378,129.94,-14.379,4.793,-0.74502,-19.172,-2.1538e-10,-0.37251,0,0,0.083333,7.8949e-16,0,0.66667
0.091892,0.55444,1.1027,0.081655,15.498,1340.3,-0.24011,0.080037,-1.979,-0.32015,-1.7012e-08,-0.98951,0,0,0.083333,9.8686e-17,0,0.66667
0.62503,0.90707,7.5004,0.61061,71.316,291.07,-12.213,4.0709,-0.68302,-16.284,-2.8244e-13,-0.34151,0,0,0.083333,-0,-0,0.66667
0.66,0.063188,7.92,-0.65522,-70.911,243.44,13.838,-4.6128,-0.47381,18.451,-3.5252e-12,-0.23691,0,0,0.083333,1.579e-15,0,0.66667
0.73403,0.095351,8.8083,-0.60697,-53.626,154.5,14.257,-4.7524,-0.69768,19.01,-8.8663e-11,-0.34884,0,0,0.083333,-0,1.9186e-17,0.66667
0.55486,0.55218,6.6583,0.078266,10.356,396.38,-1.3897,0.46322,-1.9739,-1.8529,2.4175e-12,-0.98697,0,0,0.083333,-0,-0,0.66667
0.10736,0.98554,1.2883,0.72831,138.2,1305.1,-2.502,0.83401,-0.11597,-3.336,-4.6987e-07,-0.057987,0,0,0.083333,1.9737e-16,0,0.66667
0.64035,0.87877,7.6842,0.56816,64.215,269.51,-11.642,3.8808,-0.85965,-15.523,-7.5717e-12,-0.42983,0,0,0.083333,1.579e-15,0,0.66667
0.67053,0.61891,8.0464,0.17837,18.751,228.35,-3.8272,1.2757,-1.8911,-5.1029,-8.4155e-13,-0.94554,0,0,0.083333,3.9475e-16,0,0.66667
0.25011,0.43582,3.0013,-0.096267,-17.272,984.53,0.77046,-0.25682,-1.9753,1.0273,-9.9779e-12,-0.98767,0,0,0.083333,-9.8686e-17,0,0.66667
0.94828,0.49218,11.379,-0.011734,-0.22018,6.938,0.35606,-0.11869,-1.9971,0.47475,1.4364e-07,-0.99857,0,0,0.083333,1.579e-15,0,0.66667
0.45265,0.40322,5.4318,-0.14518,-22.081,573.68,2.1028,-0.70095,-1.932,2.8038,2.5613e-12,-0.96602,0,0,0.083333,-3.9475e-16,0,0.66667
0.86672,0.87647,10.401,0.5647,26.833,42.851,-15.662,5.2206,-0.86316,-20.882,-1.3986e-08,-0.43158,0,0,0.083333,3.158e-15,0,0.66667
0.65308,0.72567,7.837,0.3385,37.115,251.52,-7.0742,2.3581,-1.5928,-9.4322,-1.1688e-12,-0.7964,0,0,0.083333,-0,-0,0.66667
0.61654,0.038218,7.3984,-0.69267,-82.381,303.58,13.666,-4.5553,-0.29019,18.221,4.2686e-12,-0.1451,0,0,0.083333,-0,-0,0.66667
0.5494,0.91583,6.5928,0.62375,83.499,406.34,-10.966,3.6553,-0.61781,-14.621,-7.1063e-12,-0.30891,0,0,0.083333,-0,-0,0.66667
0.64757,0.21319,7.7708,-0.43022,-47.795,259.19,8.915,-2.9717,-1.3383,11.887,-1.7559e-12,-0.66914,0,0,0.083333,-0,-0,0.66667
0.84434,0.22515,10.132,-0.41228,-22.558,56.344,11.139,-3.7131,-1.4018,14.852,4.1536e-10,-0.7009,0,0,0.083333,-0,-0,0.66667
0.77688,0.73211,9.3225,0.34816,26.343,110.46,-8.6553,2.8851,-1.5668,-11.54,-2.0512e-11,-0.78342,0,0,0.083333,-0,-0,0.66667
0.67263,0.83184,8.0715,0.49777,52.17,226.43,-10.714,3.5713,-1.1242,-14.285,-1.0001e-12,-0.56211,0,0,0.083333,7.8949e-16,0,0.66667
0.031845,0.21756,0.38214,-0.42366,-81.091,1479.1,0.43173,-0.14391,-1.3688,0.57564,-1.6568e-06,-0.68441,0,0,0.083333,1.2336e-17,0,0.66667
0.0086948,0.86808,0.10434,0.55212,105.85,1532.8,-0.15361,0.051189,-0.91233,-0.20482,-2.2008e-05,-0.45616,0,0,0.083333,-0,-0,0.66667
0.35854,0.070706,4.3025,-0.64394,-107.64,757.02,7.3881,-2.4627,-0.5309,9.8508,-4.9774e-12,-0.26545,0,0,0.083333,-0,-0,0.66667
0.030634,0.46881,0.36761,-0.046782,-8.9465,1481.9,0.04586,-0.015286,-1.9994,0.061146,6.9524e-07,-0.99969,0,0,0.083333,-0,-0,0.66667
0.51785,0.3809,6.2142,-0.17865,-25.004,457.81,2.9604,-0.98681,-1.8887,3.9472,-1.7542e-13,-0.94435,0,0,0.083333,-0,-0,0.66667
0.0035539,0.40624,0.042647,-0.14064,-26.923,1544.8,0.015994,-0.0053305,-1.9304,0.021326,1.3096e-06,-0.96519,0,0,0.083333,-6.4981e-18,0,0.66667
0.48073,0.65258,5.7688,0.22887,33.667,522.68,-3.5209,1.1736,-1.8136,-4.6945,-5.3384e-12,-0.9068,0,0,0.083333,7.8949e-16,0,0.66667
0.37761,0.94904,4.5313,0.67356,110.81,718.83,-8.1389,2.713,-0.38776,-10.852,2.121e-12,-0.19388,0,0,0.083333,-0,-0,0.66667
0.95746,0.5817,11.49,0.12255,1.8896,4.9092,-3.7549,1.2516,-1.9445,-5.0065,-2.8167e-08,-0.97226,0,0,0.083333,1.579e-15,0,0.66667
0.055854,0.24063,0.67024,-0.38906,-74.3,1423.5,0.69536,-0.23179,-1.4579,0.92715,1.1623e-07,-0.72894,0,0,0.083333,4.9343e-17,0,0.66667
0.065191,0.52445,0.78229,0.03667,6.9893,1401.9,-0.076497,0.025499,-1.9963,-0.102,-3.8249e-08,-0.99816,0,0,0.083333,9.8686e-17,0,0.66667
0.84927,0.61228,10.191,0.16841,8.92,52.409,-4.5769,1.5256,-1.8957,-6.1025,5.0304e-10,-0.94787,0,0,0.083333,-0,-0,0.66667
0.79526,0.36054,9.5431,-0.2092,-14.651,93.657,5.3237,-1.7746,-1.8473,7.0982,4.2696e-11,-0.92365,0,0,0.083333,-0,-0,0.66667
0.93585,0.3409,11.23,-0.23865,-5.5654,10.655,7.1468,-2.3823,-1.8014,9.5291,-1.9156e-07,-0.90072,0,0,0.083333,-7.8949e-16,0,0.66667
0.078237,0.9913,0.93884,0.73695,140.61,1372,-1.845,0.61501,-0.076213,-2.46,-1.4404e-08,-0.038106,0,0,0.083333,9.8686e-17,0,0.66667
0.6201,0.32638,7.4412,-0.26043,-30.641,297.1,5.1677,-1.7226,-1.756,6.8903,-6.0396e-13,-0.87801,0,0,0.083333,-0,-0,0.66667
0.5144,0.72858,6.1729,0.34286,48.252,463.93,-5.6439,1.8813,-1.5861,-7.5251,4.2499e-13,-0.79307,0,0,0.083333,-0,-0,0.66667
0.32157,0.92545,3.8589,0.63817,109.76,832.86,-6.567,2.189,-0.54786,-8.7561,-1.2544e-11,-0.27393,0,0,0.083333,3.9475e-16,0,0.66667
0.61081,0.55516,7.3297,0.082735,9.9108,310.35,-1.6171,0.53904,-1.9795,-2.1562,4.7421e-12,-0.98974,0,0,0.083333,-7.8949e-16,0,0.66667
0.91808,0.6612,11.017,0.2418,7.1686,16.719,-7.1038,2.3679,-1.7915,-9.4717,8.811e-08,-0.89577,0,0,0.083333,-0,-0,0.66667
0.062566,0.96324,0.75079,0.69486,132.83,1408.1,-1.3912,0.46374,-0.29103,-1.8549,1.0369e-05,-0.14551,0,0,0.083333,-4.9343e-17,0,0.66667
0.65973,0.050748,7.9167,-0.67388,-72.996,243.9,14.226,-4.7421,-0.38462,18.969,-1.9904e-12,-0.19231,0,0,0.083333,7.8949e-16,0,0.66667
0.28517,0.9244,3.4221,0.63661,112.18,909.54,-5.8093,1.9364,-0.55752,-7.7458,-1.0276e-11,-0.27876,0,0,0.083333,-0,-0,0.66667
0.40545,0.76995,4.8654,0.40493,64.798,663.5,-5.2536,1.7512,-1.4221,-7.0049,3.324e-12,-0.71105,0,0,0.083333,-0,-0,0.66667
0.84969,0.68059,10.196,0.27088,14.322,52.331,-7.3654,2.4551,-1.7358,-9.8205,5.8865e-10,-0.86791,0,0,0.083333,-0,-0,0.66667
0.12173,0.018045,1.4608,-0.72293,-136.72,1272.2,2.8161,-0.93869,-0.14128,3.7548,-2.8309e-07,-0.070639,0,0,0.083333,-3.9475e-16,9.632e-17,0.66667
0.84297,0.3251,10.116,-0.26235,-14.443,56.817,7.077,-2.359,-1.7604,9.436,-3.6842e-10,-0.88018,0,0,0.083333,-0,-0,0.66667
0.40424,0.59201,4.8509,0.13801,22.09,665.53,-1.7853,0.5951,-1.9356,-2.3804,-5.5558e-12,-0.96781,0,0,0.083333,-0,-0,0.66667
0.98389,0.60256,11.807,0.15384,0.85818,0.99306,-4.8435,1.6145,-1.922,-6.458,-3.2834e-07,-0.961,0,0,0.083333,-0,-0,0.66667
0.91802,0.68206,11.016,0.27309,8.1068,16.822,-8.0224,2.6741,-1.7341,-10.697,9.0145e-08,-0.86704,0,0,0.083333,1.579e-15,0,0.66667
0.40767,0.91421,4.8921,0.62132,99.353,659.66,-8.1055,2.7018,-0.63119,-10.807,7.7272e-13,-0.3156,0,0,0.083333,7.8949e-16,0,0.66667
0.29792,0.17841,3.575,-0.48238,-84.232,882.2,4.5988,-1.5329,-1.1773,6.1317,2.4647e-13,-0.58863,0,0,0.083333,-3.9475e-16,0,0.66667
0.22095,0.13257,2.6514,-0.55114,-100.51,1048.8,3.8967,-1.2989,-0.92201,5.1956,-5.1773e-11,-0.46101,0,0,0.083333,7.8949e-16,0,0.66667
0.21774,0.65951,2.6128,0.23926,43.635,1055.6,-1.6671,0.55569,-1.8019,-2.2228,1.6789e-11,-0.90096,0,0,0.083333,-0,-0,0.66667
0.76874,0.63348,9.2249,0.20022,15.616,117.82,-4.9254,1.6418,-1.8576,-6.5672,-5.8091e-12,-0.92879,0,0,0.083333,-0,-0,0.66667
0.75544,0.15447,9.0653,-0.51829,-42.563,131.8,12.529,-4.1764,-1.0428,16.706,1.3299e-11,-0.52142,0,0,0.083333,1.9737e-15,0,0.66667
0.97825,0.53983,11.739,0.059749,0.45888,1.4701,-1.8704,0.62347,-1.9837,-2.4939,1.208e-07,-0.99186,0,0,0.083333,-0,-0,0.66667
0.08331,0.51249,0.99972,0.01873,3.5602,1360.1,-0.049931,0.016644,-1.9957,-0.066575,1.5559e-08,-0.99784,0,0,0.083333,-0,-0,0.66667
0.22018,0.77882,2.6422,0.41823,76.239,1050.4,-2.9468,0.98226,-1.3826,-3.929,8.8751e-12,-0.69132,0,0,0.083333,1.9737e-16,0,0.66667
0.98371,0.51229,11.805,0.018433,0.10361,0.88674,-0.58025,0.19342,-2.0042,-0.77367,3.0411e-06,-1.0021,0,0,0.083333,-0,-0,0.66667
0.54637,0.6823,6.5565,0.27346,36.692,410.35,-4.7811,1.5937,-1.7407,-6.3748,5.5733e-13,-0.87033,0,0,0.083333,1.113e-15,0,0.66667
0.55367,0.87998,6.644,0.56998,75.747,399.24,-10.099,3.3662,-0.84141,-13.465,-1.217e-11,-0.42071,0,0,0.083333,1.579e-15,0,0.66667
0.34877,0.58031,4.1853,0.12047,20.248,776.11,-1.3445,0.44817,-1.9455,-1.7927,2.5255e-12,-0.97273,0,0,0.083333,-0,-0,0.66667
0.70379,0.51064,8.4454,0.015955,1.5367,187.23,-0.35932,0.11977,-2.0046,-0.4791,9.4144e-13,-1.0023,0,0,0.083333,-0,-0,0.66667
0.49976,0.33378,5.9972,-0.24933,-35.786,489.08,3.9874,-1.3291,-1.7857,5.3166,2.4192e-12,-0.89287,0,0,0.083333,3.9475e-16,0,0.66667
0.46949,0.67239,5.6339,0.25858,38.572,542.95,-3.8849,1.295,-1.7674,-5.1799,-5.0271e-12,-0.88369,0,0,0.083333,-7.8949e-16,0,0.66667
0.54977,0.23752,6.5973,-0.39371,-52.579,405.05,6.9265,-2.3088,-1.4491,9.2353,-1.97e-12,-0.72454,0,0,0.083333,-0,-0,0.66667
0.02518,0.33842,0.30216,-0.24237,-46.38,1494.6,0.1953,-0.0651,-1.788,0.2604,-1.4959e-06,-0.89399,0,0,0.083333,-1.2336e-17,0,0.66667
0.53126,0.33415,6.3751,-0.24877,-34.155,435.27,4.2293,-1.4098,-1.7874,5.639,-2.1241e-12,-0.89371,0,0,0.083333,-0,-0,0.66667
0.13296,0.9488,1.5956,0.67321,126.89,1246.5,-2.8644,0.9548,-0.38426,-3.8192,2.6428e-08,-0.19213,0,0,0.083333,-0,-0,0.66667
0.45893,0.75295,5.5071,0.37943,57.342,562.41,-5.5722,1.8574,-1.4855,-7.4295,-9.0652e-12,-0.74277,0,0,0.083333,-0,-0,0.66667
0.082271,0.356,0.98725,-0.21601,-41.077,1362.5,0.56868,-0.18956,-1.8323,0.75823,7.9519e-08,-0.91614,0,0,0.083333,-0,-0,0.66667
0.88896,0.7388,10.668,0.35819,14.264,29.852,-10.189,3.3965,-1.5467,-13.586,2.0875e-08,-0.77337,0,0,0.083333,-0,-0,0.66667
0.37843,0.63,4.5411,0.19501,31.973,716.37,-2.3615,0.78715,-1.8648,-3.1486,6.9214e-12,-0.9324,0,0,0.083333,-0,-0,0.66667
0.43035,0.13911,5.1643,-0.54134,-84.536,616.03,7.455,-2.485,-0.95368,9.9399,4.2126e-12,-0.47684,0,0,0.083333,-7.8949e-16,0,0.66667
0.74206,0.6167,8.9047,0.17505,15.006,144.62,-4.1567,1.3856,-1.887,-5.5423,-1.7608e-12,-0.94348,0,0,0.083333,-0,-0,0.66667
0.15577,0.78972,1.8693,0.43458,81.245,1194.5,-2.1663,0.72209,-1.3347,-2.8884,8.1173e-10,-0.66736,0,0,0.083333,-0,-0,0.66667
0.57502,0.93349,6.9003,0.65024,83.471,365.69,-11.965,3.9883,-0.49741,-15.953,1.3056e-13,-0.2487,0,0,0.083333,7.8949e-16,0,0.66667
0.51105,0.038345,6.1326,-0.69248,-98.173,470.67,11.325,-3.7748,-0.29304,15.099,-4.5492e-12,-0.14652,0,0,0.083333,-0,-0,0.66667
0.3683,0.76622,4.4196,0.39933,66.104,736.85,-4.7064,1.5688,-1.4288,-6.2752,3.6291e-12,-0.71439,0,0,0.083333,3.5333e-16,0,0.66667
0.68334,0.18924,8.2,-0.46614,-47.541,212.82,10.193,-3.3977,-1.2268,13.591,-2.0783e-13,-0.61342,0,0,0.083333,-1.579e-15,0,0.66667
0.79449,0.57925,9.5338,0.11887,8.3497,94.199,-3.0222,1.0074,-1.9509,-4.0296,-3.4394e-11,-0.97547,0,0,0.083333,1.579e-15,0,0.66667
0.46768,0.60175,5.6122,0.15263,22.81,546.13,-2.2843,0.76142,-1.9218,-3.0457,-5.8065e-12,-0.96092,0,0,0.083333,-0,-0,0.66667
0.62735,0.076552,7.5282,-0.63517,-73.851,287.89,12.751,-4.2504,-0.5668,17.002,1.4646e-12,-0.2834,0,0,0.083333,-0,-0,0.66667
0.91254,0.74859,10.95,0.37289,11.812,19.274,-10.889,3.6296,-1.503,-14.518,2.4599e-08,-0.7515,0,0,0.083333,4.9343e-16,0,0.66667
0.45697,0.46272,5.4837,-0.05592,-8.4621,565.66,0.81772,-0.27257,-1.9881,1.0903,-4.5366e-12,-0.99403,0,0,0.083333,7.8949e-16,0,0.66667
0.13502,0.97472,1.6202,0.71208,134.19,1241.9,-3.0767,1.0256,-0.19422,-4.1022,-1.5647e-07,-0.097109,0,0,0.083333,-0,-0,0.66667
0.54323,0.79162,6.5188,0.43743,59.033,415.83,-7.604,2.5347,-1.3187,-10.139,-1.2186e-12,-0.65936,0,0,0.083333,-0,-0,0.66667
0.43003,0.1151,5.1603,-0.57736,-90.216,616.74,7.9449,-2.6483,-0.81057,10.593,-2.8311e-12,-0.40528,0,0,0.083333,-3.9475e-16,0,0.66667
0.76831,0.21489,9.2198,-0.42767,-33.473,118.81,10.515,-3.5049,-1.3512,14.02,3.2221e-11,-0.67561,0,0,0.083333,-1.9737e-15,0,0.66667
0.79767,0.15509,9.5721,-0.51737,-35.971,92.533,13.206,-4.402,-1.0547,17.608,-3.8746e-10,-0.52736,0,0,0.083333,1.875e-15,0,0.66667
0.17185,0.48559,2.0622,-0.021612,-4.0145,1158,0.11885,-0.039616,-2.0055,0.15846,2.0344e-10,-1.0028,0,0,0.083333,-1.9737e-16,0,0.66667
0.43794,0.82676,5.2553,0.49014,75.895,601.61,-6.8689,2.2896,-1.1518,-9.1585,-3.5607e-12,-0.57589,0,0,0.083333,-0,-0,0.66667
0.26682,0.55991,3.2019,0.089865,15.974,948.31,-0.76729,0.25576,-1.9764,-1.0231,-1.4481e-11,-0.9882,0,0,0.083333,4.9343e-16,0,0.66667
0.95469,0.45745,11.456,-0.063826,-1.0484,5.4497,1.9499,-0.64996,-1.9887,2.5998,2.4709e-07,-0.99433,0,0,0.083333,-0,-0,0.66667
0.93687,0.26601,11.242,-0.35098,-8.0797,10.677,10.522,-3.5075,-1.5674,14.03,-2.7111e-07,-0.78372,0,0,0.083333,-0,-0,0.66667
0.43435,0.096443,5.2122,-0.60534,-94.174,608.66,8.4137,-2.8046,-0.698,11.218,2.176e-13,-0.349,0,0,0.083333,-1.579e-15,8.241e-17,0.66667
0.43101,0.131,5.1721,-0.5535,-86.382,614.82,7.634,-2.5447,-0.90723,10.179,-3.0909e-12,-0.45361,0,0,0.083333,-0,-0,0.66667
0.74648,0.33578,8.9577,-0.24633,-20.813,140.12,5.8842,-1.9614,-1.7837,7.8455,3.431e-12,-0.89186,0,0,0.083333,-0,-0,0.66667
0.59598,0.24476,7.1517,-0.38286,-47.234,332.78,7.3015,-2.4338,-1.4811,9.7354,6.0565e-12,-0.74055,0,0,0.083333,-1.1842e-15,0,0.66667
0.25907,0.45586,3.1089,-0.06621,-11.821,965.06,0.5489,-0.18297,-1.9803,0.73186,-4.4088e-12,-0.99015,0,0,0.083333,-3.068e-16,0,0.66667
0.48317,0.59661,5.798,0.14491,21.247,518.24,-2.2406,0.74686,-1.9304,-2.9875,-1.031e-11,-0.96519,0,0,0.083333,1.579e-15,0,0.66667
0.89011,0.55187,10.681,0.077807,3.058,28.701,-2.2162,0.73874,-1.9844,-2.9549,9.4137e-09,-0.9922,0,0,0.083333,-0,-0,0.66667
0.68155,0.04317,8.1786,-0.68525,-70.386,215.96,14.945,-4.9817,-0.32674,19.927,-3.1122e-12,-0.16337,0,0,0.083333,-0,-0,0.66667
0.56313,0.22848,6.7575,-0.40727,-53.232,383.63,7.3391,-2.4464,-1.4159,9.7855,-3.3937e-12,-0.70796,0,0,0.083333,-0,-0,0.66667
0.87675,0.15357,10.521,-0.51965,-22.92,36.917,14.579,-4.8598,-1.0436,19.439,1.7174e-09,-0.52182,0,0,0.083333,7.8949e-16,0,0.66667
0.27628,0.88114,3.3153,0.57171,101.25,928.44,-5.0544,1.6848,-0.83557,-6.7392,-1.7907e-11,-0.41778,0,0,0.083333,-0,-0,0.66667
0.99685,0.59528,11.962,0.14292,0.092383,0.1852,-4.5591,1.5197,-1.9285,-6.0788,1.3836e-06,-0.96423,0,0,0.083333,-0,-0,0.66667
0.19984,0.7393,2.3981,0.35895,66.004,1095.4,-2.2954,0.76514,-1.5415,-3.0606,1.3512e-10,-0.77076,0,0,0.083333,-0,-0,0.66667
0.83979,0.75664,10.078,0.38496,21.62,59.364,-10.345,3.4484,-1.472,-13.794,4.6864e-11,-0.73602,0,0,0.083333,-0,-0,0.66667
0.74234,0.41112,8.9081,-0.13332,-11.416,144.27,3.1669,-1.0556,-1.9331,4.2226,1.5752e-12,-0.96657,0,0,0.083333,-0,-0,0.66667
0.86405,0.17985,10.369,-0.48022,-23.2,44.025,13.278,-4.426,-1.1779,17.704,-9.7977e-09,-0.58894,0,0,0.083333,7.8949e-16,0,0.66667
0.58492,0.37206,7.019,-0.19191,-24.136,349.21,3.5921,-1.1974,-1.8659,4.7895,4.0239e-12,-0.93295,0,0,0.083333,-9.8686e-16,0,0.66667
0.23238,0.27996,2.7886,-0.33006,-59.794,1023.4,2.4544,-0.81814,-1.6161,3.2725,-1.2832e-11,-0.80806,0,0,0.083333,4.4409e-16,0,0.66667
0.48352,0.030188,5.8022,-0.70472,-103.62,518.85,10.904,-3.6346,-0.24052,14.538,-4.7962e-13,-0.12026,0,0,0.083333,6.3658e-16,1.2959e-17,0.66667
0.86238,0.081894,10.349,-0.62716,-30.753,45.786,17.307,-5.769,-0.60157,23.076,7.8008e-08,-0.30078,0,0,0.083333,-0,-0,0.66667
0.7978,0.10732,9.5737,-0.58902,-40.978,92.759,15.037,-5.0125,-0.77108,20.05,-1.2561e-09,-0.38554,0,0,0.083333,-1.579e-15,0,0.66667
0.17351,0.08388,2.0821,-0.62418,-116.12,1154.7,3.4657,-1.1552,-0.61784,4.6209,-1.661e-09,-0.30892,0,0,0.083333,1.9737e-16,0,0.66667
0.99221,0.37599,11.907,-0.18602,-0.45242,0.45498,5.9061,-1.9687,-1.874,7.8748,-7.0207e-07,-0.937,0,0,0.083333,-0,-0,0.66667
0.030412,0.98132,0.36495,0.72197,138.46,1482.5,-0.70264,0.23422,-0.15158,-0.93684,1.8669e-05,-0.075789,0,0,0.083333,-0,-0,0.66667
0.39265,0.79194,4.7118,0.43791,70.948,688.56,-5.5023,1.8341,-1.3203,-7.3364,5.0195e-12,-0.66014,0,0,0.083333,-0,-0,0.66667
0.7544,0.023561,9.0528,-0.71466,-59.084,133.83,17.252,-5.7508,-0.18225,23.003,-1.1834e-11,-0.091123,0,0,0.083333,-0,-0,0.66667
0.97374,0.77146,11.685,0.40719,3.8846,2.8823,-12.688,4.2293,-1.4078,-16.917,-4.46e-06,-0.70389,0,0,0.083333,1.579e-15,0,0.66667
0.14213,0.77632,1.7055,0.41448,77.805,1225.5,-1.8851,0.62836,-1.3931,-2.5134,-2.3315e-09,-0.69657,0,0,0.083333,1.9737e-16,0,0.66667
0.92404,0.439,11.088,-0.091506,-2.5151,14.289,2.7058,-0.90193,-1.9733,3.6077,-9.4424e-08,-0.98664,0,0,0.083333,-0,-0,0.66667
0.21902,0.22511,2.6283,-0.41234,-75.203,1052.9,2.89,-0.96333,-1.4025,3.8533,1.7577e-12,-0.70125,0,0,0.083333,-0,-0,0.66667
0.55264,0.50474,6.6317,0.0071117,0.94428,399.95,-0.12577,0.041922,-1.997,-0.16769,-7.0172e-12,-0.99849,0,0,0.083333,-0,-0,0.66667
0.43281,0.30191,5.1937,-0.29714,-46.217,610.92,4.1153,-1.3718,-1.6837,5.4871,-1.4708e-12,-0.84183,0,0,0.083333,-0,-0,0.66667
0.80806,0.51426,9.6967,0.021389,1.4127,82.72,-0.55307,0.18436,-1.9961,-0.73743,1.1192e-11,-0.99804,0,0,0.083333,-0,-0,0.66667
0.13857,0.33453,1.6628,-0.24821,-46.612,1233.5,1.1006,-0.36687,-1.7831,1.4675,2.1608e-09,-0.89156,0,0,0.083333,9.8686e-17,0,0.66667
0.19087,0.099821,2.2904,-0.60027,-110.93,1115.7,3.6663,-1.2221,-0.71881,4.8885,1.6746e-10,-0.3594,0,0,0.083333,-0,-0,0.66667
0.56751,0.683,6.8102,0.2745,35.591,376.41,-4.985,1.6617,-1.73,-6.6467,9.4147e-14,-0.86499,0,0,0.083333,-0,-0,0.66667
0.20995,0.5164,2.5194,0.024601,4.5008,1072.8,-0.16528,0.055093,-1.9936,-0.22037,1.3088e-11,-0.99678,0,0,0.083333,-0,-0,0.66667
0.87999,0.035636,10.56,-0.69655,-30.117,36.171,19.615,-6.5382,-0.27287,26.153,4.6648e-07,-0.13643,0,0,0.083333,-0,-0,0.66667
0.57835,0.11715,6.9402,-0.57427,-73.24,360.23,10.628,-3.5427,-0.83442,14.171,-3.042e-12,-0.41721,0,0,0.083333,7.8949e-16,0,0.66667
0.91176,0.10797,10.941,-0.58805,-18.915,20.595,17.157,-5.719,-0.76704,22.876,-9.4162e-08,-0.38352,0,0,0.083333,-1.579e-15,0,0.66667
0.76434,0.49026,9.1721,-0.014611,-1.1578,121.91,0.35736,-0.11912,-2.0032,0.47648,-2.0837e-12,-1.0016,0,0,0.083333,-1.579e-15,0,0.66667
0.47494,0.59457,5.6993,0.14186,21.014,532.99,-2.156,0.71868,-1.926,-2.8747,-1.4764e-11,-0.963,0,0,0.083333,1.579e-15,0,0.66667
0.69241,0.60405,8.3089,0.15608,15.513,200.96,-3.4582,1.1527,-1.9107,-4.611,-2.4514e-13,-0.95536,0,0,0.083333,-0,-0,0.66667
0.059802,0.57533,0.71763,0.11299,21.553,1414.4,-0.21623,0.072077,-1.9552,-0.28831,-3.4707e-08,-0.9776,0,0,0.083333,-9.8686e-17,0,0.66667
0.63126,0.33956,7.5751,-0.24066,-27.668,281.23,4.8613,-1.6204,-1.791,6.4818,-1.7542e-13,-0.89549,0,0,0.083333,-3.9475e-16,0,0.66667
0.98405,0.019628,11.809,-0.72056,-4.3464,3.5793,22.69,-7.5634,-0.16039,30.253,-7.5332e-06,-0.080195,0,0,0.083333,-0,9.2209e-17,0.66667
0.11938,0.074443,1.4326,-0.63834,-120.71,1277.5,2.4386,-0.81288,-0.54776,3.2515,2.1383e-07,-0.27388,0,0,0.083333,1.9737e-16,0,0.66667
0.45157,0.058123,5.4188,-0.66282,-101.23,576.69,9.5778,-3.1926,-0.44188,12.77,2.7178e-13,-0.22094,0,0,0.083333,1.9737e-16,-4.7547e-17,0.66667
0.018534,0.92438,0.22241,0.63657,122.08,1510,-0.37753,0.12585,-0.55933,-0.50337,1.0364e-05,-0.27967,0,0,0.083333,2.4672e-17,0,0.66667
0.68813,0.68056,8.2575,0.27084,27.24,206.37,-5.9639,1.988,-1.7451,-7.9519,3.6904e-13,-0.87257,0,0,0.083333,-0,-0,0.66667
0.019423,0.87546,0.23307,0.56319,107.95,1508,-0.35003,0.11668,-0.87242,-0.46671,1.0364e-05,-0.43621,0,0,0.083333,-0,-0,0.66667
0.45527,0.64893,5.4633,0.2234,33.883,568.91,-3.2546,1.0849,-1.8247,-4.3395,-8.1788e-12,-0.91236,0,0,0.083333,-3.9475e-16,0,0.66667
0.21915,0.61545,2.6298,0.17318,31.558,1052.5,-1.2145,0.40482,-1.8997,-1.6193,2.4972e-11,-0.94985,0,0,0.083333,-0,-0,0.66667
0.80722,0.053099,9.6866,-0.67035,-44.763,85.339,17.316,-5.7719,-0.39926,23.088,1.2733e-09,-0.19963,0,0,0.083333,7.8949e-16,0,0.66667
0.64564,0.84299,7.7476,0.51448,57.445,262.08,-10.629,3.5431,-1.0574,-14.173,-4.281e-12,-0.52872,0,0,0.083333,3.9475e-16,0,0.66667
0.66627,0.77702,7.9952,0.41553,44.197,234.35,-8.8593,2.9531,-1.3835,-11.812,-3.6664e-12,-0.69173,0,0,0.083333,1.184e-15,0,0.66667
0.54989,0.81526,6.5987,0.47289,63.174,405.06,-8.3212,2.7737,-1.206,-11.095,-7.6747e-12,-0.60299,0,0,0.083333,1.579e-15,0,0.66667
0.25045,0.29479,3.0054,-0.30782,-55.244,983.9,2.4669,-0.82231,-1.6691,3.2892,-2.5033e-12,-0.83454,0,0,0.083333,-0,-0,0.66667
0.81569,0.9147,9.7883,0.62205,39.855,78.274,-16.237,5.4123,-0.62417,-21.649,9.9124e-10,-0.31209,0,0,0.083333,-0,-0,0.66667
0.88012,0.77327,10.561,0.40991,17.571,34.615,-11.545,3.8482,-1.3999,-15.393,-5.4089e-09,-0.69995,0,0,0.083333,-7.8949e-16,0,0.66667
0.43832,0.8791,5.2598,0.56865,88.064,601.09,-7.976,2.6587,-0.85612,-10.635,-1.0731e-11,-0.42806,0,0,0.083333,1.579e-15,0,0.66667
0.58633,0.74113,7.036,0.3617,45.41,347.34,-6.7864,2.2621,-1.5307,-9.0486,3.1113e-12,-0.76535,0,0,0.083333,3.9475e-16,0,0.66667
0.6243,0.18345,7.4916,-0.47483,-55.469,291.62,9.486,-3.162,-1.2045,12.648,1.2443e-12,-0.60226,0,0,0.083333,7.8949e-16,-1.661e-18,0.66667
0.72761,0.10077,8.7313,-0.59884,-53.981,161.45,13.943,-4.6477,-0.72119,18.591,3.4138e-11,-0.36059,0,0,0.083333,-0,-0,0.66667
0.5909,0.60245,7.0908,0.15368,19.117,340.04,-2.9058,0.96861,-1.9166,-3.8744,1.8743e-12,-0.95831,0,0,0.083333,-0,-0,0.66667
0.8066,0.035633,9.6792,-0.69655,-46.672,85.999,17.979,-5.9929,-0.27201,23.972,-1.9661e-10,-0.13601,0,0,0.083333,-0,-0,0.66667
0.82409,0.10417,9.8891,-0.59375,-36.451,71.656,15.658,-5.2192,-0.74499,20.877,1.2541e-09,-0.37249,0,0,0.083333,-0,-0,0.66667
0.55655,0.97893,6.6786,0.71839,95.173,395.17,-12.794,4.2648,-0.16141,-17.059,-7.689e-12,-0.080705,0,0,0.083333,-0,-0,0.66667
0.88295,0.62833,10.595,0.1925,8.0407,32.497,-5.4389,1.813,-1.8648,-7.2519,8.4901e-09,-0.93242,0,0,0.083333,-0,-0,0.66667
0.20294,0.6236,2.4353,0.18541,34.03,1088.4,-1.204,0.40134,-1.8859,-1.6054,8.0497e-12,-0.94294,0,0,0.083333,-1.2336e-16,0,0.66667
0.41362,0.76532,4.9634,0.39798,63.172,647.69,-5.2675,1.7558,-1.4324,-7.0233,4.4276e-13,-0.71621,0,0,0.083333,-0,-0,0.66667
0.63011,0.75902,7.5613,0.38853,44.814,283.16,-7.8341,2.6114,-1.4605,-10.446,-2.248e-12,-0.73025,0,0,0.083333,1.579e-15,0,0.66667
0.10257,0.91683,1.2309,0.62525,118.67,1316,-2.0523,0.68409,-0.60592,-2.7363,1.7831e-07,-0.30296,0,0,0.083333,-0,-0,0.66667
0.71864,0.8183,8.6237,0.47745,44.162,170.94,-10.98,3.6599,-1.1971,-14.64,2.0677e-12,-0.59854,0,0,0.083333,1.579e-15,3.3995e-18,0.66667
0.47968,0.89464,5.7562,0.59196,87.374,525.32,-9.0865,3.0288,-0.75158,-12.115,-5.7998e-13,-0.37579,0,0,0.083333,7.8949e-16,0,0.66667
0.37899,0.21618,4.5479,-0.42573,-69.831,715.53,5.1632,-1.7211,-1.3551,6.8843,-3.5412e-12,-0.67754,0,0,0.083333,1.9737e-16,0,0.66667
0.45185,0.012101,5.4222,-0.73185,-111.81,576.4,10.582,-3.5273,-0.099446,14.109,-3.8174e-12,-0.049723,0,0,0.083333,-0,9.3667e-17,0.66667
0.36759,0.15763,4.411,-0.51356,-85.121,738.49,6.0408,-2.0136,-1.0592,8.0545,-1.4366e-12,-0.52961,0,0,0.083333,-0,-0,0.66667
0.23954,0.15483,2.8745,-0.51776,-93.548,1007.9,3.9687,-1.3229,-1.0451,5.2917,5.407e-12,-0.52256,0,0,0.083333,-4.0863e-16,0,0.66667
0.91587,0.59212,10.99,0.13818,4.1984,17.373,-4.0499,1.35,-1.9296,-5.3999,5.5077e-08,-0.96482,0,0,0.083333,-2.1711e-15,0,0.66667
0.79936,0.081268,9.5923,-0.6281,-43.428,91.638,16.066,-5.3555,-0.59835,21.422,6.0465e-10,-0.29917,0,0,0.083333,7.8949e-16,0,0.66667
0.33394,0.58875,4.0073,0.13313,22.635,806.56,-1.4226,0.47421,-1.9341,-1.8968,-1.3025e-11,-0.96703,0,0,0.083333,3.9475e-16,0,0.66667
0.16905,0.84906,2.0286,0.52359,97.499,1164.6,-2.8324,0.94414,-1.0263,-3.7766,-3.1262e-09,-0.51316,0,0,0.083333,-0,-0,0.66667
0.11663,0.21968,1.3995,-0.42048,-79.466,1283.6,1.5693,-0.52309,-1.3685,2.0923,-2.8316e-09,-0.68423,0,0,0.083333,-0,-0,0.66667
0.79533,0.52872,9.544,0.043074,3.0138,93.414,-1.0963,0.36542,-1.9977,-1.4617,-5.1021e-11,-0.99884,0,0,0.083333,3.9475e-16,0,0.66667
0.70203,0.63458,8.4243,0.20186,19.547,189.47,-4.5348,1.5116,-1.8596,-6.0465,-1.7355e-12,-0.92978,0,0,0.083333,-0,-0,0.66667
0.075233,0.23456,0.90279,-0.39815,-75.846,1378.8,0.95853,-0.31951,-1.4365,1.278,2.1882e-07,-0.71826,0,0,0.083333,-0,-0,0.66667
0.11659,0.94458,1.3991,0.66687,126.22,1283.9,-2.4881,0.82937,-0.41489,-3.3175,-6.6503e-08,-0.20744,0,0,0.083333,-0,-0,0.66667
0.9138,0.083089,10.966,-0.62537,-19.696,19.997,18.287,-6.0956,-0.60519,24.382,2.0953e-08,-0.30259,0,0,0.083333,-7.8949e-16,0,0.66667
0.86977,0.14118,10.437,-0.53824,-25.011,40.936,14.981,-4.9935,-0.96677,19.974,-3.1248e-09,-0.48338,0,0,0.083333,-1.579e-15,0,0.66667
0.29195,0.079273,3.5034,-0.63109,-110.73,895.11,5.8959,-1.9653,-0.58105,7.8613,1.8872e-11,-0.29052,0,0,0.083333,3.9475e-16,0,0.66667
0.102,0.12575,1.224,-0.56138,-106.52,1317.2,1.8323,-0.61078,-0.8766,2.4431,-9.0305e-08,-0.4383,0,0,0.083333,-0,-0,0.66667
0.80889,0.6429,9.7067,0.21435,14.112,82.234,-5.5482,1.8494,-1.8356,-7.3976,-6.0932e-11,-0.9178,0,0,0.083333,-0,-0,0.66667
0.026174,0.61649,0.31408,0.17474,33.431,1492.3,-0.14636,0.048786,-1.8887,-0.19514,9.2093e-07,-0.94437,0,0,0.083333,-0,-0,0.66667
0.63635,0.81808,7.6362,0.47713,54.347,274.71,-9.7158,3.2386,-1.1892,-12.954,2.7089e-13,-0.59461,0,0,0.083333,-0,-0,0.66667
0.16009,0.3699,1.921,-0.19515,-36.402,1184.6,0.99971,-0.33324,-1.8639,1.3329,2.453e-10,-0.93196,0,0,0.083333,-1.9737e-16,0,0.66667
0.69162,0.84504,8.2995,0.51757,51.68,202.81,-11.455,3.8183,-1.0471,-15.273,-5.6239e-12,-0.52356,0,0,0.083333,1.579e-15,0,0.66667
0.16802,0.53761,2.0162,0.056421,10.494,1166.7,-0.30335,0.10112,-1.9878,-0.40447,4.7458e-10,-0.99391,0,0,0.083333,-0,-0,0.66667
0.34905,0.76668,4.1886,0.40002,67.279,775.82,-4.468,1.4893,-1.4278,-5.9574,2.5153e-12,-0.7139,0,0,0.083333,3.9475e-16,0,0.66667
0.12209,0.43894,1.465,-0.091597,-17.272,1271,0.35785,-0.11928,-1.9717,0.47713,-6.0717e-10,-0.98586,0,0,0.083333,-0,-0,0.66667
0.28709,0.0035861,3.445,-0.74462,-131.18,905.69,6.8407,-2.2802,-0.025873,9.1209,1.5206e-12,-0.012937,0,0,0.083333,-0,-0,0.66667
0.1291,0.82795,1.5492,0.49192,92.711,1255.2,-2.0322,0.67739,-1.1378,-2.7096,-7.1521e-09,-0.56889,0,0,0.083333,1.9737e-16,0,0.66667
0.46339,0.60416,5.5606,0.15624,23.47,553.96,-2.3169,0.77228,-1.9101,-3.0891,-7.7962e-12,-0.95503,0,0,0.083333,-0,-0,0.66667
0.64941,0.9215,7.7929,0.63225,70.091,257.44,-13.139,4.3796,-0.5744,-17.518,-6.0405e-12,-0.2872,0,0,0.083333,7.8949e-16,0,0.66667
0.39451,0.77,4.7341,0.40499,65.489,684.84,-5.1128,1.7043,-1.4154,-6.817,3.2809e-12,-0.70772,0,0,0.083333,-3.9475e-16,0,0.66667
0.95296,0.16314,11.436,-0.50529,-8.7518,7.1159,15.409,-5.1362,-1.0995,20.545,-2.0079e-06,-0.54974,0,0,0.083333,-0,-0,0.66667
0.75487,0.80105,9.0584,0.45157,37.129,132.12,-10.908,3.636,-1.2723,-14.544,2.7788e-11,-0.63614,0,0,0.083333,-7.8949e-16,0,0.66667
0.54438,0.34144,6.5325,-0.23784,-32.008,413.56,4.1432,-1.3811,-1.8011,5.5243,1.9713e-12,-0.90053,0,0,0.083333,-2.9606e-16,0,0.66667
0.56352,0.57896,6.7623,0.11844,15.452,382.54,-2.1358,0.71193,-1.9545,-2.8477,3.1601e-12,-0.97725,0,0,0.083333,-0,-0,0.66667
0.3206,0.8383,3.8472,0.50745,87.256,834.63,-5.2061,1.7354,-1.0807,-6.9415,-1.1842e-11,-0.54034,0,0,0.083333,-7.5373e-18,0,0.66667
0.51252,0.96563,6.1502,0.69845,98.823,468.17,-11.455,3.8184,-0.26635,-15.273,2.0908e-12,-0.13317,0,0,0.083333,1.9737e-16,-3.5427e-17,0.66667
0.75781,0.73982,9.0937,0.35973,29.242,128.87,-8.7234,2.9078,-1.5356,-11.631,-9.2859e-12,-0.76781,0,0,0.083333,7.8949e-16,0,0.66667
0.0018096,0.16617,0.021716,-0.50075,-95.981,1548.8,0.028992,-0.0096681,-1.1111,0.038654,-6.0416e-06,-0.55557,0,0,0.083333,-0,1.7104e-16,0.66667
0.48059,0.64674,5.7671,0.22011,32.383,522.92,-3.385,1.1283,-1.8266,-4.5134,-5.6468e-12,-0.91332,0,0,0.083333,7.8949e-16,0,0.66667
0.90416,0.62556,10.85,0.18833,6.4963,22.289,-5.4491,1.8164,-1.8773,-7.2655,3.887e-08,-0.93864,0,0,0.083333,-0,-0,0.66667
0.8495,0.90819,10.194,0.61228,32.603,53.825,-16.644,5.5481,-0.66471,-22.192,7.8696e-09,-0.33235,0,0,0.083333,-0,-0,0.66667
0.221,0.75037,2.6519,0.37556,68.421,1048.5,-2.6559,0.8853,-1.5016,-3.5412,1.4468e-11,-0.75081,0,0,0.083333,-7.8949e-16,0,0.66667
0.73624,0.14126,8.8348,-0.53811,-47.162,151.82,12.678,-4.2259,-0.97278,16.903,2.21e-11,-0.48639,0,0,0.083333,-0,-0,0.66667
0.58487,0.63432,7.0185,0.20148,25.343,349.29,-3.771,1.257,-1.8517,-5.0279,-6.1373e-13,-0.92584,0,0,0.083333,1.579e-15,0,0.66667
0.52554,0.11453,6.3064,-0.57821,-80.218,445.64,9.7238,-3.2413,-0.80785,12.965,-6.0991e-12,-0.40392,0,0,0.083333,7.8949e-16,0,0.66667
0.66144,0.4526,7.9373,-0.071098,-7.6374,240.05,1.5049,-0.50163,-1.9789,2.0065,-2.0905e-13,-0.98943,0,0,0.083333,-0,-0,0.66667
0.63207,0.60237,7.5848,0.15356,17.619,279.98,-3.106,1.0353,-1.9121,-4.1413,-2.4292e-12,-0.95606,0,0,0.083333,-0,-0,0.66667
0.071417,0.045138,0.85701,-0.68229,-130.26,1387.7,1.5593,-0.51976,-0.34058,2.079,6.2766e-06,-0.17029,0,0,0.083333,-0,-0,0.66667
0.41684,0.78662,5.0021,0.42994,68.036,641.55,-5.7349,1.9116,-1.3405,-7.6465,2.2191e-12,-0.67026,0,0,0.083333,-1.579e-15,0,0.66667
0.1993,0.095559,2.3916,-0.60666,-111.73,1096.9,3.869,-1.2897,-0.69133,5.1587,2.9201e-09,-0.34566,0,0,0.083333,-0,-0,0.66667
0.70058,0.52862,8.407,0.042923,4.1714,191.04,-0.96229,0.32076,-1.9955,-1.283,-1.0565e-12,-0.99774,0,0,0.083333,-0,-0,0.66667
0.27331,0.28183,3.2797,-0.32726,-57.985,934.48,2.8622,-0.95406,-1.6163,3.8162,-8.1666e-12,-0.80816,0,0,0.083333,-0,-0,0.66667
0.43642,0.72147,5.237,0.33221,51.48,604.16,-4.6395,1.5465,-1.613,-6.1859,-1.3722e-11,-0.80649,0,0,0.083333,1.579e-15,0,0.66667
0.82163,0.66364,9.8595,0.24545,15.185,72.245,-6.4535,2.1512,-1.7821,-8.6046,-8.5899e-11,-0.89106,0,0,0.083333,-0,-0,0.66667
0.78306,0.18049,9.3968,-0.47927,-35.429,105.24,12.01,-4.0032,-1.1862,16.013,-8.2965e-11,-0.59312,0,0,0.083333,7.8949e-16,0,0.66667
0.85416,0.57525,10.25,0.11288,5.7963,49.159,-3.0854,1.0285,-1.9516,-4.1139,3.4114e-10,-0.97579,0,0,0.083333,-0,-0,0.66667
0.47905,0.26242,5.7486,-0.35636,-52.559,525.87,5.463,-1.821,-1.5452,7.284,3.6193e-12,-0.77262,0,0,0.083333,-7.8949e-16,0,0.66667
0.92649,0.15387,11.118,-0.5192,-13.959,14.725,15.393,-5.131,-1.0402,20.524,-2.2912e-07,-0.52012,0,0,0.083333,3.9475e-16,0,0.66667
0.031555,0.93274,0.37866,0.64911,124.41,1479.9,-0.65545,0.21849,-0.50912,-0.87392,1.8843e-05,-0.25456,0,0,0.083333,1.2336e-17,0,0.66667
0.93828,0.7027,11.259,0.30404,6.835,10.107,-9.129,3.043,-1.6763,-12.172,2.1809e-07,-0.83816,0,0,0.083333,-0,-0,0.66667
0.34863,0.066985,4.1835,-0.64952,-109.46,777.16,7.2461,-2.4154,-0.49803,9.6615,8.5558e-12,-0.24902,0,0,0.083333,-7.8949e-16,0,0.66667
0.81282,0.82677,9.7539,0.49016,31.769,79.908,-12.749,4.2497,-1.1521,-16.999,-3.6717e-10,-0.57604,0,0,0.083333,-1.579e-15,0,0.66667
0.94832,0.039593,11.38,-0.69061,-13.289,9.3382,20.957,-6.9858,-0.30182,27.943,7.7441e-06,-0.15091,0,0,0.083333,-0,-5.3029e-17,0.66667
0.89181,0.40842,10.702,-0.13737,-5.3207,27.923,3.9203,-1.3068,-1.9381,5.2271,-1.2953e-08,-0.96906,0,0,0.083333,-0,-0,0.66667
0.69802,0.9162,8.3762,0.62431,61.352,195.54,-13.945,4.6483,-0.61135,-18.593,-5.3646e-13,-0.30568,0,0,0.083333,-0,-0,0.66667
0.67018,0.22221,8.0422,-0.41668,-43.902,229.3,8.936,-2.9787,-1.3864,11.915,-1.7559e-12,-0.69322,0,0,0.083333,-0,-0,0.66667
0.97358,0.6843,11.683,0.27645,2.6285,2.4402,-8.6128,2.8709,-1.7266,-11.484,-1.804e-06,-0.86329,0,0,0.083333,-2.0802e-15,0,0.66667
0.46511,0.43215,5.5813,-0.10177,-15.255,550.78,1.5147,-0.5049,-1.9628,2.0196,3.0425e-12,-0.98139,0,0,0.083333,-5.9212e-16,0,0.66667
0.10402,0.46534,1.2482,-0.051992,-9.8443,1312.4,0.17306,-0.057686,-1.9881,0.23074,-9.6644e-09,-0.99406,0,0,0.083333,9.8686e-17,0,0.66667
0.024147,0.41298,0.28977,-0.13053,-24.974,1497,0.10087,-0.033622,-1.9356,0.13449,-6.4737e-07,-0.9678,0,0,0.083333,4.9343e-17,0,0.66667
0.8813,0.92694,10.576,0.64042,27.357,35.124,-18.061,6.0203,-0.53789,-24.081,2.1803e-07,-0.26894,0,0,0.083333,-0,-0,0.66667
0.026191,0.433,0.31429,-0.1005,-19.224,1492.2,0.084227,-0.028076,-1.9619,0.1123,-7.6137e-07,-0.98097,0,0,0.083333,3.7007e-17,0,0.66667
0.95083,0.058909,11.41,-0.66164,-12.1,8.5354,20.131,-6.7104,-0.44587,26.842,-3.9704e-06,-0.22294,0,0,0.083333,1.9737e-15,0,0.66667
0.56992,0.88755,6.839,0.58133,75.227,373.41,-10.602,3.534,-0.79404,-14.136,3.0065e-12,-0.39702,0,0,0.083333,-0,-0,0.66667
0.65757,0.77338,7.8908,0.41007,44.522,245.74,-8.6287,2.8762,-1.4062,-11.505,-2.6645e-12,-0.70308,0,0,0.083333,3.9475e-16,0,0.66667
0.90917,0.27292,10.91,-0.34062,-11.183,20.539,9.9098,-3.3033,-1.588,13.213,-3.0739e-08,-0.79398,0,0,0.083333,-7.8949e-16,0,0.66667
0.90195,0.84431,10.823,0.51647,18.334,24.375,-14.907,4.9689,-1.0511,-19.875,5.4417e-08,-0.52553,0,0,0.083333,-3.158e-15,0,0.66667
0.39086,0.59887,4.6903,0.1483,24.041,691.73,-1.8549,0.6183,-1.9291,-2.4732,-1.3072e-12,-0.96457,0,0,0.083333,-7.8949e-16,0,0.66667
0.61254,0.039673,7.3505,-0.69049,-82.77,309.36,13.534,-4.5115,-0.30483,18.046,6.156e-12,-0.15242,0,0,0.083333,-0,-0,0.66667
0.52184,0.63292,6.262,0.19938,27.749,451.06,-3.3295,1.1098,-1.8551,-4.4393,-8.1382e-12,-0.92754,0,0,0.083333,-0,-0,0.66667
0.81704,0.11365,9.8045,-0.57953,-36.855,76.994,15.152,-5.0507,-0.80355,20.203,1.9088e-09,-0.40177,0,0,0.083333,-0,-0,0.66667
0.056183,0.87675,0.67419,0.56513,108.02,1422.8,-1.016,0.33867,-0.86175,-1.3547,1.7223e-06,-0.43087,0,0,0.083333,1.9737e-16,0,0.66667
0.62698,0.98826,7.5237,0.73239,85.322,288.87,-14.694,4.8981,-0.094966,-19.592,2.192e-12,-0.047483,0,0,0.083333,-0,-0,0.66667
0.42974,0.92015,5.1569,0.63022,98.549,617.44,-8.6666,2.8889,-0.58334,-11.555,2.4869e-12,-0.29167,0,0,0.083333,-7.8949e-16,0,0.66667
0.86093,0.77428,10.331,0.41142,20.275,45.635,-11.334,3.7782,-1.4017,-15.113,5.0014e-09,-0.70087,0,0,0.083333,1.579e-15,0,0.66667
0.68787,0.75936,8.2544,0.38905,39.187,206.98,-8.5636,2.8545,-1.4683,-11.418,-2.4691e-13,-0.73414,0,0,0.083333,-0,-0,0.66667
0.26102,0.80646,3.1323,0.45969,82.079,961.11,-3.8397,1.2799,-1.2468,-5.1196,3.7725e-12,-0.62341,0,0,0.083333,1.9737e-16,0,0.66667
0.13424,0.024918,1.6109,-0.71262,-134.32,1243.7,3.0612,-1.0204,-0.1909,4.0816,1.4547e-07,-0.09545,0,0,0.083333,-1.9737e-16,0,0.66667
0.54134,0.32024,6.4961,-0.26964,-36.463,418.59,4.671,-1.557,-1.7384,6.228,6.2705e-13,-0.86922,0,0,0.083333,-0,-0,0.66667
0.9819,0.96711,11.783,0.70066,4.7739,3.629,-22.015,7.3384,-0.25677,-29.354,-1.7064e-05,-0.12839,0,0,0.083333,-1.8284e-15,0,0.66667
0.34991,0.32517,4.1989,-0.26224,-44.051,773.89,2.9363,-0.97877,-1.7516,3.9151,-1.438e-12,-0.8758,0,0,0.083333,7.8949e-16,0,0.66667
0.99541,0.68646,11.945,0.27969,0.35117,0.54186,-8.9091,2.9697,-1.7209,-11.879,1.9008e-06,-0.86043,0,0,0.083333,-4.9343e-16,0,0.66667
0.51808,0.83483,6.2169,0.50225,70.387,458.04,-8.3264,2.7755,-1.1045,-11.102,-9.1038e-13,-0.55223,0,0,0.083333,3.9475e-16,0,0.66667
0.19034,0.60302,2.284,0.15453,28.508,1116.5,-0.94119,0.31373,-1.9157,-1.2549,4.8297e-11,-0.95783,0,0,0.083333,-0,-0,0.66667
0.030616,0.62382,0.36739,0.18574,35.526,1482,-0.18197,0.060656,-1.8842,-0.24262,7.4238e-07,-0.94211,0,0,0.083333,-6.1679e-17,0,0.66667
0.30302,0.21196,3.6363,-0.43206,-75.17,871.35,4.1896,-1.3965,-1.3329,5.5861,3.3777e-12,-0.66643,0,0,0.083333,5.9212e-16,0,0.66667
0.035078,0.79402,0.42094,0.44102,84.404,1471.7,-0.49505,0.16502,-1.3071,-0.66007,-3.2598e-07,-0.65354,0,0,0.083333,4.9343e-17,0,0.66667
0.59005,0.69449,7.0806,0.29174,36.367,341.53,-5.5084,1.8361,-1.6967,-7.3446,1.295e-12,-0.84834,0,0,0.083333,-0,-0,0.66667
0.70162,0.70425,8.4194,0.30638,29.718,190.15,-6.8788,2.2929,-1.6694,-9.1717,9.619e-13,-0.83471,0,0,0.083333,-7.8949e-16,0,0.66667
0.66999,0.56748,8.0399,0.10121,10.652,228.97,-2.17,0.72334,-1.9666,-2.8933,-1.1624e-12,-0.98332,0,0,0.083333,-0,-0,0.66667
0.35621,0.52222,4.2745,0.033323,5.5668,760.95,-0.37984,0.12661,-1.996,-0.50645,5.213e-12,-0.99801,0,0,0.083333,-0,-0,0.66667
0.11164,0.33141,1.3397,-0.25288,-47.817,1295,0.90344,-0.30115,-1.7741,1.2046,1.7936e-08,-0.88707,0,0,0.083333,1.9737e-16,0,0.66667
0.64132,0.80213,7.6958,0.4532,51.058,267.77,-9.3007,3.1002,-1.2752,-12.401,-2.6308e-12,-0.63758,0,0,0.083333,7.8949e-16,0,0.66667
0.063197,0.15304,0.75837,-0.52045,-99.369,1406.6,1.0525,-0.35084,-1.0433,1.4033,8.1796e-08,-0.52163,0,0,0.083333,-9.8686e-17,0,0.66667
0.64436,0.39764,7.7324,-0.15354,-17.154,262.99,3.166,-1.0553,-1.9152,4.2213,-3.4024e-12,-0.95762,0,0,0.083333,7.8949e-16,0,0.66667
0.83529,0.12214,10.023,-0.56679,-32.755,63.306,15.15,-5.0499,-0.85453,20.2,-3.1409e-10,-0.42726,0,0,0.083333,-2.1711e-15,0,0.66667
0.057159,0.43351,0.68591,-0.099729,-19.028,1420.5,0.18241,-0.060805,-1.9623,0.24322,-2.5196e-08,-0.98114,0,0,0.083333,9.1733e-18,0,0.66667
0.35587,0.93599,4.2704,0.65399,109.57,762.45,-7.4475,2.4825,-0.47977,-9.93,8.6384e-12,-0.23988,0,0,0.083333,-8.3884e-16,8.9391e-17,0.66667
0.61872,0.37724,7.4246,-0.18414,-21.72,298.97,3.6459,-1.2153,-1.8767,4.8612,-3.084e-12,-0.93833,0,0,0.083333,-0,-0,0.66667
0.6386,0.96193,7.6632,0.6929,78.724,272.45,-14.16,4.7198,-0.29545,-18.879,-4.0163e-12,-0.14772,0,0,0.083333,-0,-0,0.66667
0.19794,0.37041,2.3753,-0.19438,-35.753,1099.6,1.2312,-0.4104,-1.8634,1.6416,-1.2597e-11,-0.93168,0,0,0.083333,2.1589e-16,0,0.66667
0.62336,0.9519,7.4804,0.67785,79.502,293.73,-13.522,4.5072,-0.36914,-18.029,4.3787e-13,-0.18457,0,0,0.083333,-0,-0,0.66667
0.55754,0.80246,6.6905,0.45369,59.863,392.66,-8.0945,2.6982,-1.2654,-10.793,-3.7081e-12,-0.63272,0,0,0.083333,7.8949e-16,0,0.66667
0.88572,0.99214,10.629,0.73821,30.531,33.462,-20.923,6.9743,-0.059975,-27.897,1.7563e-08,-0.029987,0,0,0.083333,-0,-0,0.66667
0.69703,0.2449,8.3643,-0.38265,-37.609,195.83,8.535,-2.845,-1.4762,11.38,-2.9461e-12,-0.73812,0,0,0.083333,1.1842e-15,0,0.66667
0.36426,0.31484,4.3712,-0.27775,-46.112,744.81,3.2375,-1.0792,-1.7241,4.3167,4.8106e-12,-0.86206,0,0,0.083333,-0,-0,0.66667
0.22535,0.15108,2.7042,-0.52338,-95.228,1039.1,3.7741,-1.258,-1.0226,5.0322,-6.9791e-12,-0.51131,0,0,0.083333,-6.394e-17,0,0.66667
0.61091,0.73881,7.3309,0.35821,42.947,310.6,-7.0026,2.3342,-1.547,-9.3368,2.0273e-12,-0.7735,0,0,0.083333,-7.8949e-16,0,0.66667
0.25557,0.89698,3.0668,0.59547,106.73,973.13,-4.8698,1.6233,-0.73603,-6.4931,-5.4046e-11,-0.36802,0,0,0.083333,-0,-0,0.66667
0.075813,0.71899,0.90976,0.32849,62.552,1377.4,-0.79692,0.26564,-1.6193,-1.0626,-1.9827e-07,-0.80966,0,0,0.083333,1.9737e-16,0,0.66667
0.8227,0.6044,9.8724,0.1566,9.6293,71.266,-4.1228,1.3743,-1.9096,-5.497,-2.4544e-11,-0.9548,0,0,0.083333,-0,-0,0.66667
0.22795,0.71192,2.7354,0.31788,57.71,1033.1,-2.3188,0.77293,-1.6371,-3.0917,1.0596e-11,-0.81857,0,0,0.083333,1.9737e-16,0,0.66667
0.37955,0.3177,4.5546,-0.27345,-44.8,714.2,3.3212,-1.1071,-1.7325,4.4282,-1.5805e-12,-0.86623,0,0,0.083333,-0,-0,0.66667
0.84649,0.95893,10.158,0.68839,37.402,56.267,-18.647,6.2156,-0.3158,-24.862,-1.4161e-08,-0.1579,0,0,0.083333,-0,-0,0.66667
0.10315,0.53457,1.2378,0.051858,9.8207,1314.4,-0.17117,0.057058,-1.9875,-0.22823,8.7596e-09,-0.99375,0,0,0.083333,-3.9475e-16,0,0.66667
0.96939,0.034086,11.633,-0.69887,-8.0353,5.1822,21.679,-7.2264,-0.27,28.906,4.5124e-05,-0.135,0,0,0.083333,3.158e-15,0,0.66667
0.52282,0.72581,6.2739,0.33872,47.1,449.6,-5.6669,1.889,-1.5882,-7.5559,-6.4255e-12,-0.79409,0,0,0.083333,1.579e-15,0,0.66667
0.67334,0.94224,8.08,0.66336,69.536,226.22,-14.293,4.7644,-0.43949,-19.058,5.5511e-13,-0.21974,0,0,0.083333,-0,-0,0.66667
0.73153,0.051846,8.7784,-0.67223,-59.922,157.53,15.736,-5.2454,-0.3937,20.982,6.7688e-12,-0.19685,0,0,0.083333,7.8949e-16,0,0.66667
0.98098,0.20338,11.772,-0.44493,-3.0507,2.1875,13.967,-4.6557,-1.2954,18.623,4.1546e-06,-0.64769,0,0,0.083333,-1.1617e-15,0,0.66667
0.55276,0.046745,6.6331,-0.67988,-90.582,401.12,12.026,-4.0086,-0.35272,16.035,-5.107e-12,-0.17636,0,0,0.083333,7.8949e-16,0,0.66667
0.69972,0.90663,8.3967,0.60995,59.651,193.44,-13.657,4.5525,-0.67808,-18.21,4.2686e-12,-0.33904,0,0,0.083333,-0,-0,0.66667
0.68269,0.78343,8.1922,0.42514,43.415,213.5,-9.2876,3.0959,-1.3559,-12.383,5.0173e-12,-0.67794,0,0,0.083333,-1.579e-15,0,0.66667
0.63023,0.75449,7.5628,0.38173,44.016,282.97,-7.6985,2.5662,-1.4796,-10.265,-1.1906e-12,-0.73978,0,0,0.083333,-0,-0,0.66667
0.79934,0.48237,9.5921,-0.026446,-1.8178,89.974,0.67645,-0.22548,-1.9985,0.90193,-1.0121e-11,-0.99927,0,0,0.083333,-0,-0,0.66667
0.34565,0.64796,4.1479,0.22194,37.403,782.54,-2.4548,0.81828,-1.8275,-3.2731,-9.5102e-13,-0.91373,0,0,0.083333,-0,-0,0.66667
0.48189,0.93812,5.7827,0.65718,96.788,521.58,-10.134,3.378,-0.46696,-13.512,9.2335e-12,-0.23348,0,0,0.083333,-0,7.6684e-18,0.66667
0.078123,0.46139,0.93747,-0.057908,-11.017,1372,0.14477,-0.048255,-1.9958,0.19302,-3.8126e-09,-0.9979,0,0,0.083333,-4.9343e-17,0,0.66667
0.91011,0.19459,10.921,-0.45811,-14.935,20.607,13.342,-4.4473,-1.2528,17.789,-2.2744e-08,-0.62642,0,0,0.083333,-0,-0,0.66667
0.55923,0.050662,6.7107,-0.67401,-88.863,390.71,12.062,-4.0205,-0.38434,16.082,-7.3719e-14,-0.19217,0,0,0.083333,-6.6226e-16,-9.2889e-17,0.66667
0.52499,0.16856,6.2998,-0.49716,-68.983,446.32,8.352,-2.784,-1.1173,11.136,-4.1567e-13,-0.55863,0,0,0.083333,-0,-0,0.66667
0.26695,0.35196,3.2034,-0.22206,-39.48,948.08,1.897,-0.63233,-1.8287,2.5293,5.721e-13,-0.91433,0,0,0.083333,-0,-0,0.66667
0.89999,0.16742,10.8,-0.49887,-18.038,25.17,14.367,-4.7892,-1.1112,19.157,-4.5577e-08,-0.55562,0,0,0.083333,-0,-0,0.66667
0.013914,0.98328,0.16696,0.72492,139.13,1520.7,-0.32272,0.10754,-0.13448,-0.4303,-4.8849e-05,-0.067239,0,0,0.083333,-2.4672e-17,9.8203e-17,0.66667
0.097001,0.59699,1.164,0.14549,27.589,1328.6,-0.4516,0.15053,-1.9253,-0.60213,-3.0652e-08,-0.96267,0,0,0.083333,-0,-0,0.66667
0.060075,0.82778,0.7209,0.49167,93.896,1413.8,-0.94518,0.31506,-1.1416,-1.2602,2.4307e-07,-0.5708,0,0,0.083333,9.8686e-17,0,0.66667
0.24092,0.83077,2.8911,0.49615,89.568,1004.9,-3.8251,1.275,-1.1206,-5.1001,6.3429e-12,-0.56032,0,0,0.083333,3.9475e-16,0,0.66667
0.49685,0.89628,5.9622,0.59442,85.827,494.95,-9.4509,3.1503,-0.7436,-12.601,5.5085e-12,-0.3718,0,0,0.083333,-0,-0,0.66667
0.46352,0.045407,5.5623,-0.68189,-102.72,554.79,10.114,-3.3714,-0.34359,13.486,-2.6628e-12,-0.17179,0,0,0.083333,-0,-0,0.66667
0.27055,0.65899,3.2466,0.23849,42.313,940.35,-2.0647,0.68823,-1.7961,-2.7529,-7.0246e-12,-0.89803,0,0,0.083333,-0,-0,0.66667
0.55511,0.72119,6.6613,0.33179,43.918,396.29,-5.8938,1.9646,-1.6054,-7.8584,3.0314e-12,-0.80268,0,0,0.083333,-0,-0,0.66667
0.22734,0.9578,2.728,0.6867,124.97,1034.9,-4.9956,1.6652,-0.31914,-6.6607,2.7307e-10,-0.15957,0,0,0.083333,-0,-0,0.66667
0.3657,0.53423,4.3884,0.051345,8.51,741.78,-0.60085,0.20028,-1.9877,-0.80113,1.6298e-12,-0.99385,0,0,0.083333,7.8949e-16,0,0.66667
0.16996,0.63352,2.0396,0.20028,37.234,1162.3,-1.0893,0.36309,-1.8599,-1.4524,-7.2663e-11,-0.92997,0,0,0.083333,-0,-0,0.66667
0.66427,0.8092,7.9713,0.46379,49.588,237.1,-9.8587,3.2862,-1.2318,-13.145,1.4948e-12,-0.61589,0,0,0.083333,-9.8686e-16,0,0.66667
0.081667,0.11209,0.98001,-0.58187,-110.84,1364,1.5206,-0.50688,-0.79525,2.0275,5.167e-08,-0.39763,0,0,0.083333,9.8686e-17,0,0.66667
0.34329,0.38553,4.1195,-0.1717,-28.987,787.35,1.8862,-0.62874,-1.9013,2.5149,3.4674e-12,-0.95063,0,0,0.083333,7.8949e-16,0,0.66667
0.53103,0.68641,6.3723,0.27962,38.407,435.71,-4.7515,1.5838,-1.7301,-6.3353,1.3318e-12,-0.86503,0,0,0.083333,8.3884e-16,0,0.66667
0.54953,0.13679,6.5944,-0.54482,-72.866,405.86,9.5806,-3.1935,-0.94534,12.774,-5.5698e-12,-0.47267,0,0,0.083333,1.579e-15,0,0.66667
0.36765,0.89809,4.4119,0.59714,99.026,738.54,-7.0253,2.3418,-0.72813,-9.3671,-7.8604e-13,-0.36407,0,0,0.083333,-0,-0,0.66667
0.64375,0.6384,7.725,0.2076,23.229,263.89,-4.2766,1.4255,-1.8465,-5.7021,-1.6547e-12,-0.92327,0,0,0.083333,-0,-0,0.66667
0.16445,0.23775,1.9734,-0.39338,-73.32,1174.9,2.0701,-0.69004,-1.4454,2.7601,-5.1888e-11,-0.72271,0,0,0.083333,-1.9475e-16,0,0.66667
0.7243,0.38051,8.6916,-0.17923,-16.261,163.85,4.1542,-1.3847,-1.883,5.5389,-1.2825e-12,-0.9415,0,0,0.083333,1.579e-15,0,0.66667
0.92525,0.66774,11.103,0.25161,6.8221,14.136,-7.4497,2.4832,-1.7743,-9.9329,1.7185e-07,-0.88716,0,0,0.083333,-0,-0,0.66667
0.98983,0.045843,11.878,-0.68124,-2.5783,2.8605,21.578,-7.1927,-0.34656,28.77,-0.00011104,-0.17328,0,0,0.083333,-1.579e-15,0,0.66667
0.87848,0.077268,10.542,-0.6341,-27.685,36.593,17.825,-5.9418,-0.56951,23.767,-1.8972e-07,-0.28475,0,0,0.083333,1.579e-15,0,0.66667
0.26092,0.73009,3.131,0.34514,61.597,961.21,-2.8817,0.96057,-1.574,-3.8423,-3.566e-13,-0.78698,0,0,0.083333,-3.9475e-16,0,0.66667
0.038093,0.33015,0.45712,-0.25478,-48.715,1464.6,0.31057,-0.10352,-1.7649,0.4141,-7.9397e-08,-0.88247,0,0,0.083333,-4.9343e-17,0,0.66667
0.97403,0.18866,11.688,-0.46701,-4.4307,3.1154,14.556,-4.852,-1.2228,19.408,7.4204e-06,-0.61138,0,0,0.083333,-0,-0,0.66667
0.55712,0.2772,6.6854,-0.3342,-44.093,393.06,5.958,-1.986,-1.6005,7.944,1.5361e-12,-0.80025,0,0,0.083333,-9.8686e-16,0,0.66667
0.53971,0.13165,6.4765,-0.55252,-75.036,421.95,9.5424,-3.1808,-0.91073,12.723,-2.8555e-12,-0.45536,0,0,0.083333,-0,-0,0.66667
0.14646,0.18103,1.7575,-0.47846,-89.728,1215.7,2.2424,-0.74747,-1.1829,2.9899,-1.6633e-09,-0.59146,0,0,0.083333,-9.8686e-17,0,0.66667
0.91249,0.54032,10.95,0.060483,1.9084,18.634,-1.7661,0.5887,-1.9833,-2.3548,4.6578e-08,-0.99165,0,0,0.083333,-1.579e-15,0,0.66667
0.95761,0.19209,11.491,-0.46187,-7.1916,5.8916,14.153,-4.7178,-1.24,18.871,-2.6749e-06,-0.62001,0,0,0.083333,-3.158e-15,0,0.66667
0.85963,0.29768,10.316,-0.30348,-15.062,46.082,8.3481,-2.7827,-1.679,11.131,-1.9239e-09,-0.83952,0,0,0.083333,1.579e-15,0,0.66667
0.69276,0.072768,8.3131,-0.64085,-63.892,201.95,14.207,-4.7355,-0.53676,18.942,8.5443e-13,-0.26838,0,0,0.083333,-0,-0,0.66667
0.3859,0.10849,4.6308,-0.58727,-95.831,702.17,7.2521,-2.4174,-0.77111,9.6694,2.4785e-12,-0.38555,0,0,0.083333,-0,-0,0.66667
0.92673,0.36692,11.121,-0.19962,-5.3025,13.51,5.9196,-1.9732,-1.8559,7.8929,-1.5218e-07,-0.92796,0,0,0.083333,-7.8949e-16,0,0.66667
0.85447,0.47745,10.254,-0.033828,-1.7332,48.911,0.92496,-0.30832,-1.9934,1.2333,-1.5434e-10,-0.99671,0,0,0.083333,-1.579e-15,0,0.66667
0.83789,0.0019632,10.055,-0.74706,-42.732,62.529,20.03,-6.6768,-0.013235,26.707,-1.4643e-09,-0.0066174,0,0,0.083333,-0,-0,0.66667
0.58406,0.01764,7.0087,-0.72354,-91.502,352.05,13.523,-4.5076,-0.13487,18.03,3.4994e-13,-0.067433,0,0,0.083333,-0,-0,0.66667
0.069977,0.02375,0.83973,-0.71437,-136.45,1391,1.5997,-0.53322,-0.1815,2.1329,5.0353e-06,-0.090748,0,0,0.083333,9.8686e-17,0,0.66667
0.025655,0.76683,0.30786,0.40025,76.63,1493.5,-0.32858,0.10953,-1.4269,-0.43811,4.3576e-06,-0.71344,0,0,0.083333,-4.9343e-17,0,0.66667
0.2256,0.52562,2.7072,0.038427,6.9801,1038.2,-0.27741,0.092471,-1.9911,-0.36989,2.1622e-12,-0.99557,0,0,0.083333,-0,-0,0.66667
0.092302,0.687,1.1076,0.28049,53.255,1339.4,-0.82848,0.27616,-1.7252,-1.1046,-4.325e-08,-0.86258,0,0,0.083333,9.8686e-17,0,0.66667
0.74511,0.67919,8.9413,0.26878,22.819,141.6,-6.4087,2.1362,-1.7407,-8.5449,-6.4246e-12,-0.87033,0,0,0.083333,7.8949e-16,0,0.66667
0.85106,0.74144,10.213,0.36216,19.009,51.703,-9.8628,3.2876,-1.5296,-13.15,4.6891e-10,-0.76479,0,0,0.083333,7.8949e-16,0,0.66667
0.54047,0.17388,6.4856,-0.48918,-66.322,420.51,8.4603,-2.8201,-1.1451,11.28,-3.7446e-12,-0.57256,0,0,0.083333,7.8949e-16,0,0.66667
0.61127,0.96831,7.3353,0.70246,84.427,311.26,-13.741,4.5802,-0.24937,-18.321,3.4639e-13,-0.12468,0,0,0.083333,-2.2204e-16,0,0.66667
0.47314,0.62937,5.6777,0.19405,28.811,536.29,-2.938,0.97933,-1.8648,-3.9173,-6.9322e-12,-0.93239,0,0,0.083333,-0,-0,0.66667
0.93519,0.83149,11.222,0.49723,11.811,11.804,-14.88,4.96,-1.1223,-19.84,2.1937e-07,-0.56117,0,0,0.083333,-2.6865e-15,0,0.66667
0.61281,0.19283,7.3538,-0.46075,-55.075,308.1,9.0353,-3.0118,-1.2451,12.047,4.0696e-12,-0.62256,0,0,0.083333,-0,-0,0.66667
0.62036,0.7915,7.4443,0.43725,51.475,297.13,-8.6801,2.8934,-1.3179,-11.573,-1.4451e-12,-0.65894,0,0,0.083333,-0,-0,0.66667
0.85801,0.91771,10.296,0.62657,31.628,48.465,-17.203,5.7344,-0.60773,-22.938,-2.4923e-08,-0.30387,0,0,0.083333,-0,9.169e-17,0.66667
0.38374,0.13184,4.6049,-0.55224,-90.27,706.37,6.7813,-2.2604,-0.91188,9.0418,-6.2261e-13,-0.45594,0,0,0.083333,-0,-0,0.66667
0.06411,0.67409,0.76931,0.26114,49.799,1404.4,-0.53573,0.17858,-1.7605,-0.71431,-2.1003e-07,-0.88024,0,0,0.083333,-9.8686e-17,0,0.66667
0.74015,0.34466,8.8818,-0.23301,-20.107,146.73,5.5187,-1.8396,-1.8048,7.3582,1.3936e-12,-0.9024,0,0,0.083333,-0,-0,0.66667
0.84419,0.26199,10.13,-0.35702,-19.536,56.252,9.6445,-3.2148,-1.5529,12.859,-3.714e-10,-0.77643,0,0,0.083333,-1.579e-15,0,0.66667
0.52023,0.13977,6.2428,-0.54035,-75.517,454.48,8.9954,-2.9985,-0.95937,11.994,-5.1621e-12,-0.47969,0,0,0.083333,-0,-0,0.66667
0.46764,0.72691,5.6117,0.34036,50.901,546.43,-5.0934,1.6978,-1.5927,-6.7912,-1.533e-11,-0.79633,0,0,0.083333,1.579e-15,0,0.66667
0.098624,0.57044,1.1835,0.10566,20.029,1324.8,-0.33347,0.11116,-1.9579,-0.44462,-2.4398e-08,-0.97895,0,0,0.083333,-0,-0,0.66667
0.31326,0.64746,3.7591,0.22118,38.182,849.62,-2.2172,0.73907,-1.8315,-2.9563,-1.5721e-12,-0.91573,0,0,0.083333,-0,-0,0.66667
0.18739,0.077767,2.2486,-0.63335,-117.23,1123.5,3.7978,-1.2659,-0.58066,5.0637,2.7552e-09,-0.29033,0,0,0.083333,-0,-0,0.66667
0.74742,0.024789,8.9691,-0.71282,-60.364,140.93,17.049,-5.683,-0.19477,22.732,-6.7697e-12,-0.097386,0,0,0.083333,-0,-6.4743e-17,0.66667
0.16037,0.77034,1.9244,0.40551,75.688,1184.1,-2.081,0.69366,-1.4136,-2.7746,-4.8331e-11,-0.70682,0,0,0.083333,-0,-0,0.66667
0.68463,0.69572,8.2156,0.29358,29.802,210.74,-6.4319,2.144,-1.6941,-8.5759,1.8741e-13,-0.84707,0,0,0.083333,-0,-0,0.66667
0.44067,0.24092,5.2881,-0.38862,-59.959,596.28,5.4801,-1.8267,-1.463,7.3068,-9.8779e-12,-0.73149,0,0,0.083333,3.9475e-16,0,0.66667
0.0042513,0.93655,0.051016,0.65482,125.63,1543.1,-0.089092,0.029702,-0.47495,-0.11879,6.3985e-06,-0.23748,0,0,0.083333,-1.542e-18,2.3367e-17,0.66667
0.70234,0.12995,8.4281,-0.55508,-53.858,190.1,12.475,-4.1585,-0.91028,16.634,6.7528e-12,-0.45514,0,0,0.083333,-0,-5.5057e-17,0.66667
0.79289,0.32764,9.5147,-0.25855,-18.3,95.807,6.56,-2.1867,-1.7607,8.7466,4.7291e-11,-0.88033,0,0,0.083333,-0,-0,0.66667
0.33849,0.31614,4.0619,-0.27579,-46.745,797.29,2.9873,-0.99575,-1.7273,3.983,7.4907e-12,-0.86367,0,0,0.083333,-7.8949e-16,0,0.66667
0.47734,0.20532,5.728,-0.44202,-65.362,529.13,6.7517,-2.2506,-1.301,9.0023,2.6801e-12,-0.65049,0,0,0.083333,-1.3548e-15,0,0.66667
0.048717,0.11058,0.5846,-0.58413,-111.75,1440.1,0.91062,-0.30354,-0.78919,1.2142,2.5819e-06,-0.39459,0,0,0.083333,-0,-0,0.66667
0.22657,0.15863,2.7188,-0.51205,-93.107,1036.4,3.7125,-1.2375,-1.0645,4.95,2.7959e-11,-0.53225,0,0,0.083333,-0,-0,0.66667
0.69626,0.28613,8.3551,-0.3208,-31.582,196.59,7.1475,-2.3825,-1.6306,9.5299,-2.5704e-12,-0.8153,0,0,0.083333,-0,-0,0.66667
0.14114,0.030166,1.6936,-0.70475,-132.57,1228,3.1829,-1.061,-0.24128,4.2439,9.3633e-08,-0.12064,0,0,0.083333,-2.2204e-16,0,0.66667
0.23059,0.78913,2.7671,0.43369,78.672,1027.4,-3.2002,1.0667,-1.3303,-4.2669,4.2709e-11,-0.66515,0,0,0.083333,7.8949e-16,0,0.66667
0.69479,0.574,8.3375,0.11099,10.96,198.03,-2.4677,0.82258,-1.9519,-3.2903,2.2413e-12,-0.97595,0,0,0.083333,-0,-0,0.66667
0.068365,0.09101,0.82039,-0.61349,-117.12,1394.7,1.3421,-0.44737,-0.65923,1.7895,6.7273e-07,-0.32962,0,0,0.083333,4.9343e-17,0,0.66667
0.72933,0.67694,8.752,0.2654,23.716,158.44,-6.1942,2.0647,-1.7467,-8.2589,-7.3852e-13,-0.87336,0,0,0.083333,7.8949e-16,0,0.66667
0.62746,0.66786,7.5295,0.25179,29.18,286.6,-5.0556,1.6852,-1.7757,-6.7409,9.5612e-13,-0.88786,0,0,0.083333,-0,-0,0.66667
0.65207,0.26076,7.8248,-0.35886,-39.443,252.93,7.488,-2.496,-1.5403,9.984,-2.3412e-12,-0.77017,0,0,0.083333,-0,-0,0.66667
0.32147,0.049843,3.8576,-0.67524,-116.17,833.17,6.9461,-2.3154,-0.37471,9.2615,-1.2598e-11,-0.18735,0,0,0.083333,-3.9475e-16,0,0.66667
0.53844,0.55079,6.4613,0.076179,10.342,423.18,-1.3126,0.43752,-1.9751,-1.7501,-5.5944e-13,-0.98754,0,0,0.083333,7.8949e-16,0,0.66667
0.078783,0.4845,0.94539,-0.023243,-4.4214,1370.5,0.058596,-0.019532,-2.0034,0.078128,5.5309e-08,-1.0017,0,0,0.083333,-9.8686e-17,0,0.66667
0.28452,0.3005,3.4142,-0.29925,-52.658,910.46,2.7245,-0.90816,-1.6812,3.6327,4.1995e-12,-0.8406,0,0,0.083333,-3.9475e-16,0,0.66667
0.20287,0.72393,2.4344,0.33589,61.68,1088.7,-2.1805,0.72683,-1.6061,-2.9073,6.541e-11,-0.80305,0,0,0.083333,-0,-0,0.66667
0.51135,0.74782,6.1362,0.37173,52.546,469.22,-6.0827,2.0276,-1.5079,-8.1102,9.9476e-14,-0.75394,0,0,0.083333,-8.8818e-16,0,0.66667
0.65221,0.47814,7.8265,-0.032787,-3.5982,252.3,0.68428,-0.22809,-1.9947,0.91237,-3.5226e-12,-0.99735,0,0,0.083333,-0,-0,0.66667
0.61509,0.40338,7.381,-0.14493,-17.218,304.17,2.8527,-0.95088,-1.9228,3.8035,-2.0417e-12,-0.96141,0,0,0.083333,7.8949e-16,0,0.66667
0.13364,0.5529,1.6036,0.079344,14.916,1244.7,-0.3393,0.1131,-1.9735,-0.4524,-1.8685e-09,-0.98676,0,0,0.083333,-9.8686e-17,0,0.66667
0.18016,0.45509,2.1619,-0.067359,-12.474,1139.4,0.38832,-0.12944,-1.9795,0.51776,5.1586e-11,-0.98973,0,0,0.083333,1.9737e-16,0,0.66667
0.49726,0.89243,5.9671,0.58865,84.942,494.21,-9.3667,3.1222,-0.76847,-12.489,4.885e-13,-0.38423,0,0,0.083333,7.8949e-16,0,0.66667
0.020049,0.61707,0.24059,0.1756,33.606,1506.5,-0.11266,0.037555,-1.8885,-0.15022,7.5479e-07,-0.94425,0,0,0.083333,-1.2336e-17,0,0.66667
0.73614,0.27412,8.8337,-0.33883,-29.644,151.24,7.9815,-2.6605,-1.5949,10.642,-1.5228e-12,-0.79743,0,0,0.083333,-0,-0,0.66667
0.59242,0.081343,7.1091,-0.62799,-78.146,338.91,11.905,-3.9684,-0.60149,15.873,1.6964e-13,-0.30074,0,0,0.083333,-0,-0,0.66667
0.15883,0.34742,1.906,-0.22888,-42.714,1187.5,1.1633,-0.38777,-1.8155,1.5511,2.9698e-10,-0.90776,0,0,0.083333,-0,-0,0.66667
0.91731,0.97515,11.008,0.71273,21.655,19.21,-20.921,6.9738,-0.19199,-27.895,-4.0149e-07,-0.095996,0,0,0.083333,-0,-1.2669e-16,0.66667
0.54373,0.84745,6.5247,0.52117,70.325,415.25,-9.068,3.0227,-1.0349,-12.091,3.09e-12,-0.51747,0,0,0.083333,-1.579e-15,0,0.66667
0.99776,0.065581,11.973,-0.65163,-0.46597,2.3093,20.805,-6.9351,-0.49291,27.741,6.8999e-05,-0.24646,0,0,0.083333,3.158e-15,1.0525e-16,0.66667
0.042324,0.2771,0.50789,-0.33435,-63.923,1454.8,0.45283,-0.15094,-1.601,0.60377,5.8481e-07,-0.80051,0,0,0.083333,-2.4672e-17,0,0.66667
0.81295,0.48425,9.7554,-0.023619,-1.5241,78.77,0.61443,-0.20481,-2.004,0.81923,7.3962e-11,-1.002,0,0,0.083333,-0,-0,0.66667
0.077381,0.34908,0.92857,-0.22638,-43.085,1373.8,0.56057,-0.18686,-1.8236,0.74742,1.3096e-07,-0.91182,0,0,0.083333,-1.9737e-16,0,0.66667
0.94025,0.052189,11.283,-0.67172,-14.875,11.341,20.211,-6.7368,-0.39638,26.947,1.1916e-05,-0.19819,0,0,0.083333,-7.8949e-16,0,0.66667
0.36144,0.74681,4.3372,0.37022,61.633,750.63,-4.282,1.4273,-1.5156,-5.7093,2.3448e-12,-0.75781,0,0,0.083333,5.9212e-16,0,0.66667
0.66661,0.32439,7.9993,-0.26341,-27.966,233.54,5.619,-1.873,-1.7502,7.492,-1.9589e-12,-0.87508,0,0,0.083333,-0,-0,0.66667
0.71461,0.3643,8.5753,-0.20355,-19.014,174.82,4.6547,-1.5516,-1.851,6.2063,-2.7311e-13,-0.92548,0,0,0.083333,-0,-0,0.66667
0.7131,0.18449,8.5572,-0.47327,-44.494,177.24,10.8,-3.5999,-1.2011,14.399,-7.6916e-13,-0.60057,0,0,0.083333,1.9737e-16,0,0.66667
0.69395,0.019381,8.3274,-0.72093,-71.728,200.92,16.009,-5.3364,-0.14802,21.346,-2.0002e-12,-0.074012,0,0,0.083333,-0,-0,0.66667
0.01165,0.79441,0.1398,0.44162,84.612,1526,-0.16463,0.054874,-1.305,-0.21951,-3.9945e-06,-0.65248,0,0,0.083333,2.4672e-17,0,0.66667
0.22048,0.35625,2.6457,-0.21562,-39.272,1049.6,1.5213,-0.50709,-1.8374,2.0284,-2.1088e-11,-0.9187,0,0,0.083333,3.9475e-16,0,0.66667
0.79727,0.76274,9.5673,0.39411,27.404,92.399,-10.055,3.3516,-1.4539,-13.407,-1.3127e-10,-0.72694,0,0,0.083333,-0,-0,0.66667
0.78697,0.43065,9.4436,-0.10403,-7.5438,100.8,2.6197,-0.87324,-1.9584,3.493,4.9932e-11,-0.97921,0,0,0.083333,7.8949e-16,0,0.66667
0.80166,0.25381,9.6199,-0.36928,-25.173,88.597,9.4733,-3.1578,-1.5134,12.631,1.5834e-10,-0.75669,0,0,0.083333,-0,-0,0.66667
0.0078286,0.73778,0.093943,0.35666,68.314,1534.8,-0.089349,0.029782,-1.5433,-0.11913,-2.1116e-06,-0.77165,0,0,0.083333,-1.2336e-17,0,0.66667
0.041346,0.66354,0.49615,0.2453,46.89,1457.1,-0.32456,0.10819,-1.7831,-0.43274,-7.3453e-08,-0.89153,0,0,0.083333,-0,-0,0.66667
0.073826,0.71318,0.88591,0.31977,60.908,1382,-0.75542,0.25181,-1.635,-1.0072,-2.2417e-07,-0.81752,0,0,0.083333,-9.8686e-17,0,0.66667
0.87375,0.85433,10.485,0.53149,23.986,38.642,-14.861,4.9535,-0.99957,-19.814,7.3975e-09,-0.49978,0,0,0.083333,-0,-1.1311e-17,0.66667
0.47744,0.18345,5.7293,-0.47483,-70.22,529.02,7.2544,-2.4181,-1.195,9.6726,-3.7828e-12,-0.59748,0,0,0.083333,3.9475e-16,0,0.66667
0.73172,0.38486,8.7807,-0.17272,-15.311,155.67,4.0442,-1.3481,-1.8948,5.3922,5.7154e-13,-0.9474,0,0,0.083333,-0,-0,0.66667
0.21832,0.011827,2.6198,-0.73226,-133.87,1054.9,5.1157,-1.7052,-0.099576,6.8209,-1.1346e-10,-0.049788,0,0,0.083333,-0,-0,0.66667
0.66983,0.74717,8.038,0.37076,39.083,229.63,-7.947,2.649,-1.5143,-10.596,-2.6601e-12,-0.75716,0,0,0.083333,9.8686e-16,0,0.66667
0.44403,0.31563,5.3283,-0.27655,-42.49,589.83,3.9295,-1.3098,-1.725,5.2394,-4.9767e-12,-0.8625,0,0,0.083333,1.579e-15,0,0.66667
0.98864,0.26339,11.864,-0.35492,-1.3787,1.1534,11.228,-3.7428,-1.5501,14.971,-9.9515e-07,-0.77504,0,0,0.083333,-0,-0,0.66667
0.28625,0.46239,3.435,-0.05642,-9.9123,906.63,0.5168,-0.17227,-1.9863,0.68907,-3.6188e-13,-0.99316,0,0,0.083333,5.9212e-16,0,0.66667
0.10849,0.67679,1.3019,0.26519,50.181,1302.2,-0.92068,0.30689,-1.7549,-1.2276,-2.6064e-08,-0.87744,0,0,0.083333,9.8686e-17,0,0.66667
0.5469,0.11601,6.5628,-0.57598,-77.373,410.24,10.08,-3.3601,-0.8279,13.44,3.233e-13,-0.41395,0,0,0.083333,-0,-0,0.66667
0.68117,0.99277,8.1741,0.73916,76.057,216.72,-16.112,5.3706,-0.053842,-21.482,2.3359e-12,-0.026921,0,0,0.083333,-7.8949e-16,0,0.66667
0.13472,0.42222,1.6166,-0.11667,-21.927,1242.2,0.50297,-0.16766,-1.9478,0.67062,2.6751e-09,-0.97391,0,0,0.083333,3.7832e-17,0,0.66667
0.53924,0.84777,6.4709,0.52165,70.876,422.62,-9.0016,3.0005,-1.0289,-12.002,2.6796e-12,-0.51446,0,0,0.083333,-0,-0,0.66667
0.74439,0.19068,8.9327,-0.46399,-39.554,142.91,11.052,-3.6841,-1.2321,14.737,1.1282e-11,-0.61605,0,0,0.083333,-0,-0,0.66667
0.11184,0.55352,1.3421,0.080277,15.174,1294.5,-0.28731,0.09577,-1.9784,-0.38308,-8.2918e-09,-0.9892,0,0,0.083333,-0,-0,0.66667
0.78567,0.93562,9.4281,0.65343,47.924,103.71,-16.428,5.4761,-0.48094,-21.904,2.387e-09,-0.24047,0,0,0.083333,1.9737e-15,0,0.66667
0.54416,0.41552,6.5299,-0.12671,-17.053,413.8,2.2065,-0.73549,-1.9437,2.942,-2.6898e-12,-0.97185,0,0,0.083333,-0,-0,0.66667
0.010525,0.60215,0.12629,0.15322,29.33,1528.6,-0.051603,0.017201,-1.9138,-0.068804,-2.0904e-07,-0.95691,0,0,0.083333,-0,-0,0.66667
0.5891,0.8754,7.0692,0.5631,70.451,343.71,-10.615,3.5383,-0.87168,-14.153,-4.3876e-13,-0.43584,0,0,0.083333,-0,-0,0.66667
0.80467,0.79198,9.656,0.43798,29.474,86.326,-11.278,3.7592,-1.3137,-15.037,-1.954e-10,-0.65683,0,0,0.083333,-0,-0,0.66667
0.99094,0.46195,11.891,-0.05707,-0.16447,0.35953,1.8097,-0.60323,-1.9848,2.4129,7.8173e-07,-0.99239,0,0,0.083333,5.8676e-16,0,0.66667
0.99131,0.64842,11.896,0.22264,0.62128,0.58324,-7.0624,2.3541,-1.8199,-9.4166,7.3137e-07,-0.90993,0,0,0.083333,1.579e-15,0,0.66667
0.41395,0.13027,4.9674,-0.55459,-88.089,647.38,7.3464,-2.4488,-0.90268,9.7952,-1.6492e-11,-0.45134,0,0,0.083333,-0,-0,0.66667
0.037335,0.10977,0.44802,-0.58534,-112.1,1466.5,0.69932,-0.2331,-0.7779,0.93243,8.9222e-06,-0.38895,0,0,0.083333,5.1297e-18,0,0.66667
0.97041,0.53089,11.645,0.04634,0.49178,2.5111,-1.439,0.47966,-1.9968,-1.9187,8.0733e-07,-0.99839,0,0,0.083333,1.6777e-15,0,0.66667
0.22054,0.39546,2.6465,-0.15682,-28.557,1049.4,1.1067,-0.3689,-1.9152,1.4756,-9.6859e-12,-0.95761,0,0,0.083333,-1.9737e-16,0,0.66667
0.95501,0.65072,11.46,0.22608,3.6979,5.6182,-6.9091,2.303,-1.8212,-9.2122,6.8632e-08,-0.91062,0,0,0.083333,7.8949e-16,0,0.66667
0.96537,0.38426,11.584,-0.17361,-2.1726,3.4746,5.363,-1.7877,-1.8924,7.1507,3.6192e-07,-0.94621,0,0,0.083333,-0,-0,0.66667
0.32834,0.055942,3.94,-0.66609,-114.02,818.89,6.9984,-2.3328,-0.42969,9.3312,-7.1725e-12,-0.21485,0,0,0.083333,-3.9475e-16,0,0.66667
0.76276,0.99924,9.1531,0.74887,60.129,125.74,-18.278,6.0928,-0.0078107,-24.371,1.1275e-11,-0.0039053,0,0,0.083333,-0,-9.3211e-18,0.66667
0.63192,0.10669,7.5831,-0.58996,-67.909,281.28,11.93,-3.9766,-0.75819,15.907,-2.3093e-13,-0.3791,0,0,0.083333,-0,-0,0.66667
0.84643,0.89218,10.157,0.58827,31.895,55.728,-15.934,5.3112,-0.77016,-21.245,3.3148e-09,-0.38508,0,0,0.083333,-0,-0,0.66667
0.9544,0.37234,11.453,-0.19148,-3.1722,5.6799,5.8481,-1.9494,-1.8745,7.7975,-1.8074e-08,-0.93727,0,0,0.083333,3.9475e-16,0,0.66667
0.2058,0.9087,2.4696,0.61306,112.6,1082.4,-4.0374,1.3458,-0.66548,-5.3832,-3.6775e-10,-0.33274,0,0,0.083333,-0,-0,0.66667
0.40934,0.34792,4.9121,-0.22812,-36.34,655.7,2.9882,-0.99606,-1.8157,3.9842,-1.0758e-11,-0.90784,0,0,0.083333,-0,-0,0.66667
0.72856,0.051773,8.7427,-0.67234,-60.492,160.77,15.675,-5.2249,-0.3892,20.9,-1.3952e-11,-0.1946,0,0,0.083333,7.8949e-16,0,0.66667
0.58992,0.70393,7.079,0.30589,38.144,341.76,-5.7744,1.9248,-1.6659,-7.6992,1.6525e-12,-0.83294,0,0,0.083333,-0,-0,0.66667
0.9412,0.40722,11.294,-0.13917,-2.9717,8.9075,4.1915,-1.3972,-1.9314,5.5886,-1.0554e-07,-0.96571,0,0,0.083333,-0,-0,0.66667
0.44689,0.077457,5.3626,-0.63381,-97.284,585.27,9.0638,-3.0213,-0.56766,12.085,1.2985e-12,-0.28383,0,0,0.083333,-0,-0,0.66667
0.61758,0.92022,7.411,0.63033,74.756,301.8,-12.457,4.1523,-0.58289,-16.609,-1.3092e-12,-0.29145,0,0,0.083333,-0,-0,0.66667
0.082488,0.1309,0.98986,-0.55365,-105.43,1362.1,1.4614,-0.48714,-0.90858,1.9486,6.962e-08,-0.45429,0,0,0.083333,-0,-0,0.66667
0.23041,0.76424,2.765,0.39636,71.894,1027.8,-2.9224,0.97414,-1.4398,-3.8966,1.8284e-11,-0.71991,0,0,0.083333,3.9475e-16,0,0.66667
0.12199,0.112,1.4638,-0.582,-109.95,1271.5,2.2719,-0.75729,-0.79565,3.0292,6.7896e-08,-0.39782,0,0,0.083333,-0,-1.7076e-17,0.66667
0.76669,0.71463,9.2003,0.32194,25.325,120.05,-7.8985,2.6328,-1.6367,-10.531,-6.4926e-12,-0.81834,0,0,0.083333,-7.8949e-16,0,0.66667
0.019268,0.29361,0.23122,-0.30959,-59.269,1508.3,0.19089,-0.063631,-1.6581,0.25452,-1.8424e-06,-0.82907,0,0,0.083333,-0,-0,0.66667
0.941,0.45598,11.292,-0.066025,-1.4135,8.8876,1.9881,-0.66271,-1.9837,2.6508,-1.3797e-07,-0.99183,0,0,0.083333,-0,-0,0.66667
0.83589,0.039249,10.031,-0.69113,-39.919,63.577,18.487,-6.1622,-0.2976,24.649,-4.9275e-09,-0.1488,0,0,0.083333,-0,-0,0.66667
0.67901,0.97084,8.1481,0.70627,73.036,219.26,-15.346,5.1153,-0.22334,-20.461,2.8422e-13,-0.11167,0,0,0.083333,-0,-0,0.66667
0.02865,0.93276,0.3438,0.64913,124.44,1486.6,-0.59514,0.19841,-0.50337,-0.7935,4.3268e-05,-0.25169,0,0,0.083333,-1.2336e-17,0,0.66667
0.2579,0.43741,3.0948,-0.093888,-16.774,967.6,0.77483,-0.25828,-1.9659,1.0331,-4.0656e-13,-0.98294,0,0,0.083333,1.7887e-16,0,0.66667
0.13628,0.84959,1.6354,0.52439,98.657,1238.8,-2.2869,0.76229,-1.0208,-3.0492,-7.9968e-09,-0.51039,0,0,0.083333,-0,-0,0.66667
0.7107,0.32717,8.5284,-0.25925,-24.501,179.41,5.8959,-1.9653,-1.7566,7.8612,-3.9062e-12,-0.87829,0,0,0.083333,1.579e-15,0,0.66667
0.069466,0.086263,0.83359,-0.62061,-118.47,1392.2,1.3796,-0.45985,-0.6267,1.8394,1.0429e-06,-0.31335,0,0,0.083333,-9.8686e-17,0,0.66667
0.88989,0.4529,10.679,-0.070649,-2.7819,28.805,2.0118,-0.67061,-1.9874,2.6824,-6.4152e-09,-0.9937,0,0,0.083333,-0,-0,0.66667
0.55437,0.26041,6.6524,-0.35939,-47.635,397.53,6.3755,-2.1252,-1.5365,8.5007,2.4603e-13,-0.76825,0,0,0.083333,-1.579e-15,0,0.66667
0.10339,0.14302,1.2407,-0.53547,-101.56,1314,1.7716,-0.59053,-0.97671,2.3621,-3.5103e-08,-0.48836,0,0,0.083333,-0,-0,0.66667
0.46053,0.62673,5.5263,0.1901,28.654,559.22,-2.8014,0.93381,-1.8684,-3.7352,8.0957e-13,-0.93421,0,0,0.083333,-1.579e-15,0,0.66667
0.14199,0.44494,1.7038,-0.082593,-15.49,1225.7,0.37526,-0.12509,-1.9797,0.50035,1.2529e-09,-0.98987,0,0,0.083333,-0,-0,0.66667
0.42314,0.39424,5.0777,-0.15863,-24.916,629.13,2.148,-0.716,-1.9144,2.864,1.9964e-12,-0.95718,0,0,0.083333,-3.9475e-16,0,0.66667
0.71387,0.435,8.5665,-0.097497,-9.1238,175.54,2.2272,-0.7424,-1.9646,2.9696,-2.3823e-12,-0.98229,0,0,0.083333,1.1842e-15,0,0.66667
0.69629,0.95678,8.3555,0.68517,67.707,197.91,-15.267,5.0889,-0.32661,-20.355,2.4141e-12,-0.16331,0,0,0.083333,-0,-0,0.66667
0.34815,0.67045,4.1778,0.25567,43.007,777.47,-2.8483,0.94945,-1.7654,-3.7978,-4.059e-12,-0.88268,0,0,0.083333,-0,-0,0.66667
0.34876,0.60419,4.1851,0.15629,26.27,776.15,-1.7442,0.58141,-1.9104,-2.3256,-4.7041e-12,-0.95519,0,0,0.083333,-0,-0,0.66667
0.076125,0.95097,0.91349,0.67645,129.05,1376.8,-1.6478,0.54927,-0.37508,-2.1971,-4.4917e-06,-0.18754,0,0,0.083333,-0,-0,0.66667
0.087513,0.65898,1.0502,0.23848,45.311,1350.4,-0.66783,0.22261,-1.795,-0.89044,-5.3139e-08,-0.89748,0,0,0.083333,-0,-0,0.66667
0.049881,0.17337,0.59857,-0.48995,-93.673,1437.4,0.78205,-0.26068,-1.1465,1.0427,7.3444e-07,-0.57323,0,0,0.083333,-0,-0,0.66667
0.074476,0.088519,0.89371,-0.61722,-117.73,1380.6,1.471,-0.49033,-0.64507,1.9613,1.2454e-06,-0.32254,0,0,0.083333,-1.4803e-16,2.7656e-18,0.66667
0.38509,0.84141,4.6211,0.51212,83.587,703.6,-6.3108,2.1036,-1.0652,-8.4144,5.9219e-12,-0.53262,0,0,0.083333,2.9606e-16,0,0.66667
0.81637,0.95834,9.7965,0.68751,43.963,78.114,-17.96,5.9868,-0.31811,-23.947,1.9354e-09,-0.15906,0,0,0.083333,-0,-0,0.66667
0.34118,0.49237,4.0941,-0.01145,-1.9359,791.63,0.12501,-0.041671,-2.0008,0.16668,1.4582e-11,-1.0004,0,0,0.083333,-3.9475e-16,0,0.66667
0.50612,0.15198,6.0734,-0.52203,-74.398,478.6,8.4546,-2.8182,-1.028,11.273,3.4817e-13,-0.51402,0,0,0.083333,2.9968e-16,0,0.66667
0.62349,0.73148,7.4818,0.34721,40.591,292.43,-6.9275,2.3092,-1.5746,-9.2367,-2.1707e-12,-0.78728,0,0,0.083333,-0,-0,0.66667
0.58529,0.71946,7.0235,0.3292,41.399,348.87,-6.1656,2.0552,-1.6118,-8.2208,-3.2343e-12,-0.80592,0,0,0.083333,1.579e-15,0,0.66667
0.13388,0.96206,1.6065,0.69309,130.63,1244.5,-2.9692,0.98974,-0.28829,-3.959,-1.1587e-07,-0.14414,0,0,0.083333,9.8686e-17,0,0.66667
0.61941,0.69096,7.433,0.28644,33.753,298.13,-5.6775,1.8925,-1.7058,-7.5701,-4.8939e-13,-0.8529,0,0,0.083333,-0,-0,0.66667
0.52236,0.29755,6.2683,-0.30367,-42.248,450.33,5.076,-1.692,-1.6679,6.768,2.5824e-12,-0.83394,0,0,0.083333,-6.1859e-16,0,0.66667
0.75148,0.084566,9.0177,-0.62315,-51.966,136.29,14.985,-4.995,-0.62284,19.98,1.8713e-10,-0.31142,0,0,0.083333,-7.8949e-16,0,0.66667
0.67568,0.23686,8.1081,-0.39471,-41.02,222.22,8.5344,-2.8448,-1.4447,11.379,-4.0297e-12,-0.72235,0,0,0.083333,7.8949e-16,0,0.66667
0.47896,0.36711,5.7475,-0.19933,-29.384,525.82,3.0551,-1.0184,-1.8558,4.0734,-3.1251e-12,-0.92789,0,0,0.083333,-7.8949e-16,0,0.66667
0.95613,0.64978,11.474,0.22466,3.582,5.3715,-6.8738,2.2913,-1.8211,-9.1651,6.6358e-08,-0.91054,0,0,0.083333,-0,-0,0.66667
0.26092,0.3591,3.131,-0.21135,-37.704,961.12,1.7647,-0.58822,-1.8385,2.3529,-3.5429e-12,-0.91927,0,0,0.083333,-0,-0,0.66667
0.71065,0.80208,8.5278,0.45312,42.895,179.99,-10.304,3.4348,-1.2657,-13.739,1.7781e-12,-0.63285,0,0,0.083333,-7.8949e-16,0,0.66667
0.20164,0.60542,2.4197,0.15812,29.037,1091.3,-1.0203,0.3401,-1.9144,-1.3604,4.9943e-11,-0.95721,0,0,0.083333,-0,-0,0.66667
0.66362,0.81815,7.9634,0.47722,51.11,238,-10.134,3.3781,-1.1865,-13.512,3.0669e-12,-0.59325,0,0,0.083333,-1.579e-15,0,0.66667
0.24952,0.23314,2.9942,-0.4003,-71.905,986.02,3.1962,-1.0654,-1.4361,4.2616,-6.6576e-12,-0.71806,0,0,0.083333,-0,-0,0.66667
0.20625,0.31008,2.475,-0.28489,-52.229,1081.1,1.8802,-0.62674,-1.7124,2.507,-5.5632e-11,-0.8562,0,0,0.083333,-1.4803e-16,0,0.66667
0.37017,0.025093,4.4421,-0.71236,-117.99,733.79,8.4383,-2.8128,-0.19357,11.251,-1.3665e-11,-0.096783,0,0,0.083333,3.9475e-16,0,0.66667
0.50886,0.39287,6.1063,-0.16069,-22.774,473.21,2.6166,-0.8722,-1.904,3.4888,-1.2066e-12,-0.95198,0,0,0.083333,-0,-0,0.66667
0.68093,0.94056,8.1711,0.66084,67.966,216.63,-14.4,4.7998,-0.44416,-19.199,-3.0989e-12,-0.22208,0,0,0.083333,1.579e-15,0,0.66667
0.3096,0.69843,3.7151,0.29764,51.523,857.36,-2.9487,0.98292,-1.6853,-3.9317,-1.0359e-11,-0.84266,0,0,0.083333,-7.8949e-16,0,0.66667
0.38234,0.014758,4.588,-0.72786,-119.3,709.6,8.9052,-2.9684,-0.11189,11.874,1.2822e-11,-0.055946,0,0,0.083333,-1.579e-15,0,0.66667
0.76093,0.98273,9.1311,0.7241,58.5,127.38,-17.632,5.8772,-0.13318,-23.509,-6.2688e-12,-0.066589,0,0,0.083333,-1.579e-15,0,0.66667
0.33003,0.69773,3.9604,0.29659,50.597,814.76,-3.1323,1.0441,-1.6897,-4.1764,-8.5851e-12,-0.84483,0,0,0.083333,7.8949e-16,0,0.66667
0.063799,0.90406,0.76559,0.60609,115.77,1405.2,-1.2374,0.41246,-0.69883,-1.6498,1.0191e-06,-0.34942,0,0,0.083333,1.1102e-16,0,0.66667
0.046104,0.46968,0.55325,-0.045476,-8.6864,1446.1,0.067093,-0.022365,-1.9992,0.089457,-3.6716e-07,-0.9996,0,0,0.083333,-1.9737e-16,0,0.66667
0.13493,0.090602,1.6191,-0.6141,-115.64,1242,2.6514,-0.88381,-0.65661,3.5352,-4.0554e-08,-0.32831,0,0,0.083333,1.9737e-16,0,0.66667
0.46952,0.8339,5.6342,0.50085,74.802,543.37,-7.525,2.5083,-1.1134,-10.033,-4.4631e-12,-0.5567,0,0,0.083333,-0,-0,0.66667
0.3841,0.41569,4.6092,-0.12647,-20.628,705.05,1.5545,-0.51815,-1.9392,2.0726,-5.2658e-12,-0.96962,0,0,0.083333,-0,-0,0.66667
0.6752,0.17222,8.1024,-0.49167,-51.201,223.14,10.623,-3.5411,-1.1399,14.164,-4.2455e-12,-0.56993,0,0,0.083333,7.8949e-16,0,0.66667
0.095395,0.35155,1.1447,-0.22268,-42.247,1332.3,0.67975,-0.22658,-1.827,0.90633,4.3923e-08,-0.91348,0,0,0.083333,1.9737e-16,0,0.66667
0.1618,0.388,1.9417,-0.168,-31.318,1180.7,0.86984,-0.28995,-1.8962,1.1598,1.2511e-10,-0.9481,0,0,0.083333,-0,-0,0.66667
0.96914,0.34178,11.63,-0.23733,-2.644,2.9867,7.3601,-2.4534,-1.8071,9.8135,9.3407e-07,-0.90357,0,0,0.083333,1.9737e-16,0,0.66667
0.42449,0.22941,5.0938,-0.40589,-63.722,626.88,5.5134,-1.8378,-1.4151,7.3513,-1.2568e-12,-0.70756,0,0,0.083333,-0,-0,0.66667
0.91605,0.32726,10.993,-0.25911,-7.869,17.537,7.5956,-2.5319,-1.7576,10.127,-7.1581e-08,-0.87878,0,0,0.083333,-0,-0,0.66667
0.23435,0.3619,2.8121,-0.20714,-37.476,1019,1.5534,-0.5178,-1.8546,2.0712,-4.3304e-12,-0.92732,0,0,0.083333,3.9475e-16,0,0.66667
0.98255,0.069165,11.791,-0.64625,-4.1961,3.183,20.319,-6.7731,-0.51794,27.092,-2.9931e-06,-0.25897,0,0,0.083333,-0,-0,0.66667
0.12649,0.55562,1.5179,0.083424,15.713,1261,-0.33767,0.11256,-1.979,-0.45023,-1.7851e-09,-0.9895,0,0,0.083333,-0,-0,0.66667
0.77992,0.33681,9.3591,-0.24479,-18.283,107.4,6.1094,-2.0365,-1.7911,8.1458,2.682e-11,-0.89553,0,0,0.083333,-7.8949e-16,0,0.66667
0.98063,0.98689,11.768,0.73033,5.357,3.9777,-22.918,7.6393,-0.10224,-30.557,-3.662e-05,-0.051118,0,0,0.083333,-0,-0,0.66667
0.48703,0.91383,5.8443,0.62075,90.8,512.33,-9.6742,3.2247,-0.63104,-12.899,7.6881e-12,-0.31552,0,0,0.083333,-1.579e-15,0,0.66667
0.48989,0.0087591,5.8786,-0.73686,-107.51,507.68,11.551,-3.8504,-0.066331,15.402,-2.2826e-13,-0.033165,0,0,0.083333,-0,-0,0.66667
0.17515,0.1629,2.1018,-0.50564,-93.945,1150.9,2.834,-0.94466,-1.091,3.7786,5.365e-11,-0.54549,0,0,0.083333,-0,-0,0.66667
0.60894,0.28507,7.3073,-0.32239,-38.793,313.4,6.2822,-2.0941,-1.6374,8.3763,5.5294e-12,-0.8187,0,0,0.083333,-1.579e-15,0,0.66667
0.24288,0.012775,2.9146,-0.73084,-132.02,1001,5.6802,-1.8934,-0.096571,7.5736,-3.0118e-12,-0.048286,0,0,0.083333,7.8949e-16,0,0.66667
0.7168,0.099254,8.6016,-0.60112,-55.989,173.54,13.788,-4.5961,-0.71806,18.384,1.0771e-11,-0.35903,0,0,0.083333,-0,6.0345e-17,0.66667
0.47407,0.30264,5.6888,-0.29604,-43.919,534.74,4.4909,-1.497,-1.6854,5.9879,-4.5697e-13,-0.84268,0,0,0.083333,3.9475e-16,0,0.66667
0.23239,0.26393,2.7887,-0.35411,-64.156,1023.4,2.6333,-0.87777,-1.5562,3.5111,-1.0387e-11,-0.77811,0,0,0.083333,3.9475e-16,0,0.66667
0.46068,0.37624,5.5282,-0.18563,-27.976,558.93,2.7366,-0.91219,-1.8745,3.6488,2.1867e-12,-0.93723,0,0,0.083333,-0,-0,0.66667
0.024607,0.50149,0.29529,0.002233,0.42717,1495.9,-0.0017583,0.00058854,-1.9972,-0.0023433,3.6296e-06,-0.99858,0,0,0.083333,-0,-0,0.66667
0.097131,0.43378,1.1656,-0.099325,-18.834,1328.3,0.30872,-0.10291,-1.9652,0.41163,2.1947e-08,-0.9826,0,0,0.083333,9.8686e-17,0,0.66667
0.10145,0.42528,1.2175,-0.11208,-21.233,1318.3,0.36386,-0.12129,-1.9509,0.48515,2.3887e-08,-0.97547,0,0,0.083333,-0,-0,0.66667
0.38922,0.12442,4.6707,-0.56338,-91.638,695.56,7.0169,-2.339,-0.87649,9.3558,5.6404e-12,-0.43824,0,0,0.083333,-9.6219e-16,0,0.66667
0.71597,0.010907,8.5916,-0.73364,-68.635,175.16,16.808,-5.6028,-0.086839,22.411,2.2489e-12,-0.04342,0,0,0.083333,-0,8.9689e-17,0.66667
0.052882,0.3437,0.63458,-0.23445,-44.765,1430.4,0.39674,-0.13225,-1.8024,0.52899,9.3369e-08,-0.90121,0,0,0.083333,-1.4109e-16,0,0.66667
0.012488,0.55875,0.14986,0.088124,16.866,1524,-0.035216,0.011738,-1.9731,-0.046954,-4.0156e-07,-0.98655,0,0,0.083333,1.8504e-17,0,0.66667
0.14747,0.85479,1.7696,0.53219,99.804,1213.4,-2.5114,0.83714,-0.98882,-3.3486,2.5861e-09,-0.49441,0,0,0.083333,-3.9475e-16,0,0.66667
0.93668,0.72859,11.24,0.34288,7.9155,10.708,-10.277,3.4258,-1.5871,-13.703,2.6867e-07,-0.79356,0,0,0.083333,-0,-0,0.66667
0.86574,0.22478,10.389,-0.41283,-19.688,42.745,11.437,-3.8122,-1.3906,15.249,-7.3986e-09,-0.69531,0,0,0.083333,-3.158e-15,0,0.66667
0.40252,0.88777,4.8302,0.58166,93.449,669.56,-7.4921,2.4974,-0.79584,-9.9895,2.0011e-12,-0.39792,0,0,0.083333,-0,-0,0.66667
0.16129,0.76328,1.9355,0.39492,73.686,1182,-2.0384,0.67946,-1.4425,-2.7178,-3.7887e-11,-0.72124,0,0,0.083333,-0,-0,0.66667
0.35482,0.79219,4.2579,0.43828,73.387,764.12,-4.9764,1.6588,-1.3147,-6.6352,1.62e-12,-0.65737,0,0,0.083333,-0,-0,0.66667
0.93483,0.33782,11.218,-0.24327,-5.7622,10.975,7.2773,-2.4258,-1.7909,9.703,-1.9821e-07,-0.89543,0,0,0.083333,-0,-0,0.66667
0.64355,0.88129,7.7226,0.57194,64.194,265.14,-11.778,3.9261,-0.83764,-15.704,-5.7909e-12,-0.41882,0,0,0.083333,-0,-0,0.66667
0.47107,0.8897,5.6528,0.58454,87.193,540.79,-8.8115,2.9372,-0.78642,-11.749,-3.1086e-13,-0.39321,0,0,0.083333,-7.8949e-16,0,0.66667
0.40237,0.24072,4.8284,-0.38892,-62.417,669.46,5.0076,-1.6692,-1.461,6.6768,-1.8723e-12,-0.73049,0,0,0.083333,-0,-0,0.66667
0.89655,0.85186,10.759,0.52779,19.725,26.895,-15.142,5.0473,-1.0062,-20.189,-1.2466e-08,-0.50309,0,0,0.083333,-0,-0,0.66667
0.97347,0.04841,11.682,-0.67739,-6.7357,4.4401,21.101,-7.0337,-0.36591,28.135,6.946e-05,-0.18295,0,0,0.083333,1.579e-15,0,0.66667
0.77868,0.38502,9.3441,-0.17247,-12.941,108.42,4.2976,-1.4325,-1.8952,5.7301,2.0234e-11,-0.94762,0,0,0.083333,-0,-0,0.66667
0.83334,0.52676,10,0.040142,2.3315,63.277,-1.0705,0.35682,-1.992,-1.4273,-4.2739e-10,-0.99598,0,0,0.083333,7.8949e-16,0,0.66667
0.30709,0.11486,3.6851,-0.57771,-100.32,863.03,5.6771,-1.8924,-0.81016,7.5695,-3.018e-12,-0.40508,0,0,0.083333,-3.9475e-16,0,0.66667
0.93952,0.32229,11.274,-0.26656,-5.8679,9.6424,8.0141,-2.6714,-1.7496,10.685,-1.7812e-07,-0.87478,0,0,0.083333,-1.579e-15,0,0.66667
0.4527,0.30996,5.4324,-0.28506,-43.373,573.73,4.1295,-1.3765,-1.7183,5.5059,-9.5968e-13,-0.85914,0,0,0.083333,1.2196e-15,0,0.66667
0.17931,0.46583,2.1517,-0.05126,-9.4957,1141.3,0.29412,-0.09804,-1.9873,0.39216,1.9546e-10,-0.99367,0,0,0.083333,-2.9606e-16,0,0.66667
0.5963,0.74654,7.1556,0.36981,45.593,332.26,-7.0567,2.3522,-1.5156,-9.4089,2.3319e-12,-0.7578,0,0,0.083333,7.8949e-16,0,0.66667
0.6841,0.58017,8.2092,0.12026,12.215,211.13,-2.6326,0.87752,-1.9479,-3.5101,2.1783e-12,-0.97394,0,0,0.083333,-7.8949e-16,0,0.66667
0.43734,0.13403,5.2481,-0.54895,-85.09,602.87,7.6825,-2.5608,-0.93564,10.243,-4.8073e-12,-0.46782,0,0,0.083333,7.8949e-16,8.9381e-17,0.66667
0.37334,0.74478,4.4801,0.36716,60.507,726.7,-4.3865,1.4622,-1.5242,-5.8487,5.5311e-12,-0.76212,0,0,0.083333,-3.9475e-16,0,0.66667
0.70431,0.47125,8.4518,-0.04312,-4.1471,186.62,0.97185,-0.32395,-1.9985,1.2958,-2.045e-12,-0.99927,0,0,0.083333,-0,-0,0.66667
0.25974,0.13312,3.1169,-0.55031,-98.384,964.02,4.5741,-1.5247,-0.91985,6.0987,-4.965e-11,-0.45992,0,0,0.083333,-0,-0,0.66667
0.68635,0.86072,8.2362,0.54109,54.798,209.37,-11.884,3.9613,-0.96307,-15.845,1.1235e-12,-0.48154,0,0,0.083333,7.8949e-16,-2.9118e-17,0.66667
0.57492,0.71539,6.899,0.32308,41.375,364.87,-5.9439,1.9813,-1.6295,-7.9252,-2.7689e-12,-0.81476,0,0,0.083333,7.8949e-16,0,0.66667
0.33501,0.38039,4.0201,-0.17942,-30.483,804.38,1.9234,-0.64113,-1.882,2.5645,6.6747e-12,-0.94098,0,0,0.083333,-0,-0,0.66667
0.67669,0.88759,8.1203,0.58139,60.376,221.6,-12.589,4.1965,-0.7955,-16.786,6.608e-13,-0.39775,0,0,0.083333,-0,-0,0.66667
0.042896,0.13669,0.51475,-0.54496,-104.29,1453.6,0.74805,-0.24935,-0.94251,0.9974,6.9521e-06,-0.47126,0,0,0.083333,-0,-0,0.66667
0.54883,0.72644,6.5859,0.33966,45.414,406.47,-5.9653,1.9884,-1.5924,-7.9538,1.8519e-12,-0.79618,0,0,0.083333,-0,-0,0.66667
0.5956,0.042348,7.1472,-0.68648,-84.983,334.37,13.084,-4.3612,-0.32693,17.445,4.956e-12,-0.16347,0,0,0.083333,-1.579e-15,0,0.66667
0.28722,0.63992,3.4466,0.20988,36.859,904.63,-1.929,0.64299,-1.8396,-2.572,-1.8493e-11,-0.91978,0,0,0.083333,-3.9475e-16,0,0.66667
0.35628,0.8629,4.2754,0.54435,91.099,761.37,-6.2062,2.0687,-0.9463,-8.2749,7.3235e-12,-0.47315,0,0,0.083333,-0,-0,0.66667
0.86302,0.97445,10.356,0.71167,34.829,45.918,-19.654,6.5513,-0.19874,-26.205,1.6099e-07,-0.09937,0,0,0.083333,3.158e-15,0,0.66667
0.61937,0.28437,7.4325,-0.32345,-38.125,298.26,6.4107,-2.1369,-1.6256,8.5477,2.1223e-12,-0.81278,0,0,0.083333,-1.579e-15,0,0.66667
0.63994,0.61974,7.6793,0.17961,20.264,269.08,-3.6782,1.2261,-1.8913,-4.9042,-3.062e-13,-0.94566,0,0,0.083333,-0,-0,0.66667
0.10461,0.96779,1.2553,0.70168,133.2,1311.4,-2.3489,0.78297,-0.24823,-3.1319,-1.5552e-06,-0.12411,0,0,0.083333,6.1679e-17,0,0.66667
0.23792,0.6579,2.855,0.23685,42.777,1011.2,-1.8032,0.60108,-1.8009,-2.4043,-2.8921e-13,-0.90046,0,0,0.083333,-0,-0,0.66667
0.71928,0.009716,8.6314,-0.73543,-68.132,171.42,16.927,-5.6424,-0.082922,22.57,2.1494e-13,-0.041461,0,0,0.083333,-0,-0,0.66667
0.69947,0.16882,8.3936,-0.49677,-48.552,193.28,11.119,-3.7064,-1.1215,14.826,1.97e-12,-0.56073,0,0,0.083333,-0,-0,0.66667
0.44662,0.39028,5.3595,-0.16458,-25.204,584.87,2.3521,-0.78404,-1.8995,3.1362,-1.9895e-13,-0.94977,0,0,0.083333,-0,-0,0.66667
0.039252,0.45917,0.47103,-0.06124,-11.704,1461.9,0.076922,-0.025641,-1.9825,0.10256,-3.4862e-07,-0.99123,0,0,0.083333,-0,-0,0.66667
0.050396,0.52244,0.60476,0.033667,6.428,1436.1,-0.054294,0.018098,-1.9954,-0.072392,1.3235e-08,-0.99768,0,0,0.083333,9.8686e-17,0,0.66667
0.088504,0.63435,1.062,0.20153,38.281,1348.1,-0.57074,0.19025,-1.8527,-0.76099,-4.5088e-08,-0.92633,0,0,0.083333,-0,-0,0.66667
0.86433,0.31429,10.372,-0.27857,-13.388,43.156,7.7048,-2.5683,-1.7225,10.273,-3.2788e-09,-0.86126,0,0,0.083333,-0,-0,0.66667
0.13609,0.1409,1.6331,-0.53865,-101.35,1239.3,2.3459,-0.78195,-0.96595,3.1278,-1.5026e-09,-0.48298,0,0,0.083333,-1.9737e-16,0,0.66667
0.65826,0.20135,7.8991,-0.44797,-48.573,244.94,9.4363,-3.1454,-1.2885,12.582,-2.0695e-12,-0.64424,0,0,0.083333,-0,-0,0.66667
0.57697,0.18307,6.9236,-0.47539,-60.725,362.06,8.7771,-2.9257,-1.2014,11.703,-3.3351e-12,-0.60068,0,0,0.083333,-0,-0,0.66667
0.7266,0.93175,8.7191,0.64763,58.602,162.8,-15.058,5.0194,-0.50492,-20.077,1.5418e-11,-0.25246,0,0,0.083333,-1.1842e-15,0,0.66667
0.58257,0.65481,6.9908,0.23222,29.332,352.87,-4.3291,1.443,-1.8074,-5.7721,4.7011e-12,-0.90369,0,0,0.083333,-3.9475e-16,0,0.66667
0.17942,0.46234,2.153,-0.056495,-10.465,1141,0.32436,-0.10812,-1.9848,0.43248,1.5292e-10,-0.99239,0,0,0.083333,-1.9737e-16,0,0.66667
0.73408,0.64469,8.809,0.21704,19.1,153.18,-5.0985,1.6995,-1.839,-6.7979,-3.1313e-12,-0.9195,0,0,0.083333,7.8949e-16,0,0.66667
0.59544,0.12312,7.1453,-0.56531,-69.915,334.13,10.772,-3.5905,-0.86775,14.362,6.0973e-12,-0.43387,0,0,0.083333,-8.8818e-16,0,0.66667
0.54618,0.031394,6.5542,-0.70291,-94.648,411.88,12.285,-4.0951,-0.25021,16.381,-7.9137e-13,-0.12511,0,0,0.083333,1.579e-15,-1.8142e-18,0.66667
0.72712,0.81886,8.7255,0.47829,43.114,161.48,-11.129,3.7096,-1.1828,-14.838,7.3319e-12,-0.59141,0,0,0.083333,-1.579e-15,0,0.66667
0.31395,0.7762,3.7674,0.4143,71.537,848.38,-4.1622,1.3874,-1.3938,-5.5496,-6.0605e-12,-0.6969,0,0,0.083333,5.9212e-16,0,0.66667
0.070608,0.36837,0.84729,-0.19745,-37.615,1389.4,0.44613,-0.14871,-1.8575,0.59484,1.6095e-07,-0.92874,0,0,0.083333,-9.8686e-17,0,0.66667
0.088214,0.24035,1.0586,-0.38947,-74.031,1348.9,1.0994,-0.36647,-1.4574,1.4659,1.7244e-08,-0.72872,0,0,0.083333,-0,-0,0.66667
0.32773,0.16596,3.9327,-0.50106,-85.709,819.82,5.2548,-1.7516,-1.1137,7.0063,-4.4902e-12,-0.55683,0,0,0.083333,7.8949e-16,-4.6886e-17,0.66667
0.23168,0.27243,2.7802,-0.34135,-61.864,1025,2.5307,-0.84358,-1.5866,3.3743,-1.242e-11,-0.79329,0,0,0.083333,-0,-0,0.66667
0.74822,0.79584,8.9786,0.44375,37.335,138.87,-10.625,3.5416,-1.3024,-14.166,2.4869e-12,-0.65118,0,0,0.083333,-1.579e-15,0,0.66667
0.60764,0.93684,7.2917,0.65527,79.268,316.37,-12.741,4.2471,-0.47752,-16.988,-2.5011e-12,-0.23876,0,0,0.083333,-4.9343e-17,-8.1196e-18,0.66667
0.095431,0.94941,1.1452,0.67411,128.18,1332.4,-2.0586,0.6862,-0.38709,-2.7448,3.1184e-07,-0.19355,0,0,0.083333,-0,-0,0.66667
0.71985,0.45678,8.6382,-0.064827,-5.9595,168.72,1.4933,-0.49777,-1.9893,1.9911,-4.2888e-13,-0.99466,0,0,0.083333,-0,-0,0.66667
0.9161,0.98994,10.993,0.73492,22.667,19.831,-21.544,7.1814,-0.076169,-28.726,-6.5777e-08,-0.038085,0,0,0.083333,-0,-0,0.66667
0.82438,0.18212,9.8926,-0.47682,-29.167,70.886,12.579,-4.1929,-1.191,16.772,1.5734e-11,-0.59552,0,0,0.083333,-1.579e-15,0,0.66667
0.67331,0.43523,8.0797,-0.097159,-10.142,224.71,2.0934,-0.69779,-1.971,2.7912,-1.6633e-12,-0.98551,0,0,0.083333,1.9737e-16,0,0.66667
0.77664,0.41129,9.3197,-0.13306,-10.063,110.26,3.3069,-1.1023,-1.9353,4.4092,1.3878e-11,-0.96766,0,0,0.083333,-0,-0,0.66667
0.15012,0.97693,1.8015,0.71539,134.22,1207.6,-3.4367,1.1456,-0.17679,-4.5823,4.6494e-08,-0.088397,0,0,0.083333,-0,-0,0.66667
0.065513,0.43656,0.78615,-0.095165,-18.139,1401.2,0.1995,-0.066501,-1.9693,0.266,6.6178e-08,-0.98463,0,0,0.083333,-1.2336e-17,0,0.66667
0.74798,0.59705,8.9758,0.14558,12.232,138.41,-3.4845,1.1615,-1.9277,-4.646,-4.2255e-13,-0.96384,0,0,0.083333,-0,-0,0.66667
0.98478,0.3791,11.817,-0.18135,-0.95205,0.96224,5.7147,-1.9049,-1.8901,7.6197,2.0887e-07,-0.94503,0,0,0.083333,-0,-0,0.66667
0.24024,0.34967,2.8829,-0.22549,-40.676,1006.1,1.7335,-0.57785,-1.8161,2.3114,-4.1841e-12,-0.90806,0,0,0.083333,-0,-0,0.66667
0.56194,0.65792,6.7432,0.23687,30.994,385.19,-4.2595,1.4198,-1.8075,-5.6793,1.5468e-12,-0.90374,0,0,0.083333,-0,-0,0.66667
0.080826,0.021624,0.96991,-0.71756,-136.84,1366,1.8559,-0.61864,-0.17004,2.4746,1.0885e-06,-0.085019,0,0,0.083333,-0,-0,0.66667
0.56119,0.93798,6.7342,0.65697,86.324,387.51,-11.798,3.9326,-0.47062,-15.73,-3.7739e-12,-0.23531,0,0,0.083333,-0,-5.9765e-18,0.66667
0.45044,0.053266,5.4052,-0.6701,-102.48,578.8,9.6588,-3.2196,-0.40428,12.878,-1.3616e-12,-0.20214,0,0,0.083333,3.9475e-16,-8.2177e-17,0.66667
0.24055,0.17723,2.8866,-0.48416,-87.415,1005.7,3.7269,-1.2423,-1.1628,4.9692,1.5709e-11,-0.58139,0,0,0.083333,1.9737e-16,0,0.66667
0.56538,0.38539,6.7845,-0.17191,-22.361,379.64,3.1103,-1.0368,-1.8953,4.147,9.2859e-13,-0.94765,0,0,0.083333,-0,-0,0.66667
0.65399,0.91808,7.8479,0.62713,68.799,251.28,-13.124,4.3748,-0.60319,-17.499,-4.106e-12,-0.3016,0,0,0.083333,-0,-0,0.66667
0.91167,0.98864,10.94,0.73297,23.744,21.56,-21.383,7.1277,-0.086562,-28.511,-5.1422e-07,-0.043281,0,0,0.083333,-7.8949e-16,0,0.66667
0.78264,0.47761,9.3917,-0.03358,-2.4786,104.66,0.841,-0.28033,-1.9997,1.1213,-9.9957e-12,-0.99987,0,0,0.083333,-0,-0,0.66667
0.97683,0.18807,11.722,-0.46789,-3.9482,2.7619,14.625,-4.8752,-1.2187,19.501,7.5927e-06,-0.60937,0,0,0.083333,-3.158e-15,0,0.66667
0.44272,0.24631,5.3126,-0.38053,-58.577,592.43,5.3909,-1.797,-1.483,7.1879,-4.7971e-12,-0.74148,0,0,0.083333,-7.8949e-16,0,0.66667
0.14102,0.98614,1.6923,0.72921,137.2,1228.2,-3.2907,1.0969,-0.11545,-4.3876,-4.6847e-08,-0.057723,0,0,0.083333,-3.9475e-16,0,0.66667
0.40997,0.3371,4.9196,-0.24435,-38.903,654.51,3.2057,-1.0686,-1.787,4.2742,-7.9892e-12,-0.89351,0,0,0.083333,-0,-0,0.66667
0.7923,0.71937,9.5076,0.32906,23.365,96.502,-8.3428,2.7809,-1.6141,-11.124,-5.1666e-11,-0.80705,0,0,0.083333,-3.158e-15,0,0.66667
0.21104,0.72377,2.5324,0.33566,61.419,1070.5,-2.2668,0.75558,-1.5957,-3.0223,2.9355e-11,-0.79786,0,0,0.083333,-0,-0,0.66667
0.17738,0.11632,2.1286,-0.57552,-106.89,1145.9,3.2668,-1.0889,-0.8192,4.3557,-9.9996e-10,-0.4096,0,0,0.083333,-0,-0,0.66667
0.6451,0.96021,7.7412,0.69032,77.322,263.54,-14.25,4.7502,-0.30363,-19.001,-4.6221e-12,-0.15182,0,0,0.083333,-7.8949e-16,0,0.66667
0.94704,0.0022828,11.364,-0.74658,-14.778,10.064,22.625,-7.5417,-0.015538,30.167,5.7735e-08,-0.0077691,0,0,0.083333,-0,-0,0.66667
0.40926,0.65573,4.9112,0.2336,37.216,655.86,-3.0593,1.0198,-1.8075,-4.0791,-4.0443e-12,-0.90376,0,0,0.083333,9.3752e-16,0,0.66667
0.69687,0.18304,8.3625,-0.47544,-46.788,196.31,10.602,-3.5341,-1.1932,14.136,7.0166e-14,-0.59658,0,0,0.083333,3.9475e-16,0,0.66667
0.40397,0.80808,4.8477,0.46212,74.08,666.47,-5.9739,1.9913,-1.243,-7.9652,-2.8653e-12,-0.62149,0,0,0.083333,3.9475e-16,0,0.66667
0.34982,0.86577,4.1978,0.54866,92.302,774.51,-6.1417,2.0472,-0.92609,-8.189,8.2183e-12,-0.46305,0,0,0.083333,-0,-0,0.66667
0.13297,0.8846,1.5956,0.57689,108.67,1246.4,-2.4547,0.81823,-0.81247,-3.2729,1.4833e-08,-0.40624,0,0,0.083333,-0,-0,0.66667
0.019913,0.9709,0.23895,0.70634,135.52,1506.8,-0.45006,0.15005,-0.22517,-0.60006,4.6403e-05,-0.11258,0,0,0.083333,-0,-0,0.66667
0.11967,0.35455,1.436,-0.21818,-41.174,1276.6,0.8355,-0.2785,-1.8276,1.114,7.4943e-09,-0.91381,0,0,0.083333,1.9737e-16,0,0.66667
0.44424,0.55486,5.3309,0.082295,12.635,589.26,-1.1699,0.38996,-1.9721,-1.5598,-6.7941e-12,-0.98606,0,0,0.083333,7.8949e-16,0,0.66667
0.72978,0.088672,8.7574,-0.61699,-55.255,159.15,14.409,-4.8029,-0.64477,19.212,4.8104e-12,-0.32238,0,0,0.083333,7.8949e-16,0,0.66667
0.05369,0.22257,0.64428,-0.41615,-79.503,1428.6,0.71498,-0.23833,-1.3809,0.95331,1.4855e-07,-0.69047,0,0,0.083333,-0,-0,0.66667
0.22167,0.46032,2.66,-0.059516,-10.831,1046.9,0.42217,-0.14072,-1.9879,0.56289,8.5032e-12,-0.99395,0,0,0.083333,1.9737e-16,0,0.66667
0.031064,0.82726,0.37277,0.49088,93.995,1481,-0.48797,0.16266,-1.1499,-0.65063,3.9572e-06,-0.57497,0,0,0.083333,-4.9343e-17,2.2005e-17,0.66667
0.83332,0.0098636,9.9999,-0.7352,-43.117,65.686,19.605,-6.5351,-0.075198,26.14,-8.0973e-09,-0.037599,0,0,0.083333,-0,-0,0.66667
0.38188,0.25125,4.5825,-0.37313,-61.03,709.72,4.5597,-1.5199,-1.5021,6.0795,-2.2844e-12,-0.75106,0,0,0.083333,-0,-0,0.66667
0.28458,0.86424,3.415,0.54636,96.257,910.64,-4.9755,1.6585,-0.93817,-6.634,-9.2411e-12,-0.46908,0,0,0.083333,3.9475e-16,0,0.66667
0.78367,0.70085,9.4041,0.30128,22.173,104.1,-7.5554,2.5185,-1.6784,-10.074,-3.8995e-11,-0.8392,0,0,0.083333,-0,-0,0.66667
0.2789,0.33684,3.3468,-0.24474,-43.208,922.41,2.1843,-0.72811,-1.7888,2.9124,3.9326e-12,-0.89441,0,0,0.083333,-1.9737e-16,0,0.66667
0.28082,0.65141,3.3698,0.22712,40.048,918.31,-2.0409,0.68031,-1.8234,-2.7212,-1.728e-11,-0.91169,0,0,0.083333,5.9212e-16,0,0.66667
0.935,0.29637,11.22,-0.30545,-7.2274,11.093,9.1391,-3.0464,-1.6692,12.185,-2.5185e-07,-0.83461,0,0,0.083333,-0,-0,0.66667
0.16421,0.064978,1.9706,-0.65253,-121.82,1175.6,3.429,-1.143,-0.48279,4.572,-3.1717e-08,-0.24139,0,0,0.083333,-0,-0,0.66667
0.03791,0.5235,0.45492,0.035257,6.7391,1465.1,-0.042771,0.014257,-1.9918,-0.057028,7.5608e-09,-0.9959,0,0,0.083333,-0,-0,0.66667
0.95604,0.13779,11.473,-0.54331,-8.8187,6.6389,16.622,-5.5406,-0.95062,22.162,-6.2628e-06,-0.47531,0,0,0.083333,-0,-0,0.66667
0.30613,0.047756,3.6736,-0.67837,-117.97,865.25,6.6455,-2.2152,-0.35973,8.8607,-9.9547e-12,-0.17987,0,0,0.083333,-0,-0,0.66667
0.41408,0.38982,4.9689,-0.16527,-26.2,646.52,2.19,-0.72999,-1.8984,2.9199,-6.1584e-12,-0.9492,0,0,0.083333,-0,-0,0.66667
0.79679,0.41034,9.5615,-0.13448,-9.3518,92.227,3.429,-1.143,-1.9436,4.572,6.4426e-11,-0.97181,0,0,0.083333,-0,-0,0.66667
0.35618,0.37755,4.2742,-0.18367,-30.69,761.06,2.0934,-0.69782,-1.8809,2.7913,5.3122e-12,-0.94044,0,0,0.083333,-0,-0,0.66667
0.10486,0.91812,1.2583,0.62719,118.99,1310.7,-2.1045,0.7015,-0.59908,-2.806,2.0491e-07,-0.29954,0,0,0.083333,-0,-0,0.66667
0.7889,0.46697,9.4668,-0.049539,-3.5631,99.047,1.2506,-0.41687,-1.9881,1.6675,-3.5103e-11,-0.99407,0,0,0.083333,1.9737e-16,0,0.66667
0.12962,0.49695,1.5554,-0.0045743,-0.86084,1253.8,0.018973,-0.0063243,-1.9985,0.025297,1.556e-09,-0.99926,0,0,0.083333,-5.9212e-16,0,0.66667
0.19804,0.53091,2.3765,0.046363,8.5256,1099.3,-0.29382,0.097938,-1.9909,-0.39175,1.3025e-10,-0.99547,0,0,0.083333,-3.1841e-16,0,0.66667
0.13971,0.60177,1.6765,0.15265,28.652,1230.8,-0.68245,0.22748,-1.9222,-0.90993,-1.055e-09,-0.9611,0,0,0.083333,-0,-0,0.66667
0.22166,0.88614,2.6599,0.57921,105.61,1047.3,-4.1084,1.3695,-0.80746,-5.4778,3.1164e-11,-0.40373,0,0,0.083333,3.9475e-16,0,0.66667
0.23535,0.57571,2.8242,0.11356,20.532,1016.8,-0.85526,0.28509,-1.9587,-1.1403,2.5832e-12,-0.97935,0,0,0.083333,-3.9475e-16,0,0.66667
0.7264,0.42413,8.7168,-0.11381,-10.256,161.44,2.6455,-0.88184,-1.9495,3.5274,9.9165e-13,-0.97475,0,0,0.083333,-0,-0,0.66667
0.095244,0.43219,1.1429,-0.10171,-19.293,1332.6,0.31,-0.10333,-1.9672,0.41333,1.9913e-08,-0.98358,0,0,0.083333,-0,-0,0.66667
0.66824,0.85493,8.0189,0.53239,56.419,232.19,-11.385,3.7949,-0.99122,-15.179,-8.491e-13,-0.49561,0,0,0.083333,-0,-0,0.66667
0.91093,0.42093,10.931,-0.11861,-3.8086,19.317,3.4575,-1.1525,-1.9474,4.61,-2.7493e-08,-0.9737,0,0,0.083333,-0,-0,0.66667
0.63,0.97624,7.56,0.71437,82.682,284.52,-14.402,4.8005,-0.18304,-19.202,4.2073e-12,-0.091522,0,0,0.083333,-0,-0,0.66667
0.33688,0.39549,4.0426,-0.15677,-26.597,800.5,1.6901,-0.56335,-1.9085,2.2534,9.3366e-12,-0.95424,0,0,0.083333,-0,-0,0.66667
0.83945,0.86837,10.073,0.55256,31.184,60.306,-14.843,4.9477,-0.91287,-19.791,1.2117e-10,-0.45644,0,0,0.083333,-0,-0,0.66667
0.89856,0.29002,10.783,-0.31498,-11.495,25.105,9.0568,-3.0189,-1.6431,12.076,-4.7348e-08,-0.82155,0,0,0.083333,-0,-0,0.66667
0.49346,0.18092,5.9215,-0.47861,-69.352,500.57,7.5576,-2.5192,-1.1819,10.077,6.8967e-13,-0.59096,0,0,0.083333,-0,-0,0.66667
0.56348,0.58696,6.7618,0.13044,17.018,382.61,-2.352,0.78399,-1.9445,-3.136,2.6608e-12,-0.97227,0,0,0.083333,-0,-0,0.66667
0.58066,0.28307,6.968,-0.32539,-41.256,355.97,6.0462,-2.0154,-1.6257,8.0616,8.9662e-13,-0.81287,0,0,0.083333,-1.579e-15,0,0.66667
0.13276,0.87756,1.5931,0.56633,106.68,1246.9,-2.4059,0.80197,-0.85634,-3.2079,1.2709e-08,-0.42817,0,0,0.083333,-0,-0,0.66667
0.37306,0.47912,4.4767,-0.031325,-5.1591,727,0.37396,-0.12465,-1.9989,0.49861,2.4839e-12,-0.99943,0,0,0.083333,-0,-0,0.66667
0.81161,0.54168,9.7394,0.06252,4.0605,79.852,-1.6237,0.54125,-1.991,-2.165,1.1559e-11,-0.99551,0,0,0.083333,-0,-0,0.66667
0.5196,0.27096,6.2353,-0.34356,-47.996,455.06,5.7125,-1.9042,-1.5789,7.6167,-1.307e-12,-0.78943,0,0,0.083333,7.8949e-16,0,0.66667
0.93958,0.2099,11.275,-0.43515,-9.622,10.216,13.084,-4.3612,-1.3289,17.445,-9.2499e-08,-0.66443,0,0,0.083333,7.8949e-16,0,0.66667
0.61582,0.15283,7.3898,-0.52076,-61.91,303.93,10.262,-3.4207,-1.0327,13.683,3.5518e-12,-0.51635,0,0,0.083333,1.8232e-16,0,0.66667
0.77945,0.17475,9.3535,-0.48788,-36.598,108.57,12.169,-4.0563,-1.1562,16.225,-1.0124e-11,-0.57811,0,0,0.083333,-7.8949e-16,0,0.66667
0.24803,0.048347,2.9763,-0.67748,-122,989.65,5.3771,-1.7924,-0.37017,7.1695,1.6669e-10,-0.18508,0,0,0.083333,-0,9.7811e-17,0.66667
0.55931,0.99284,6.7117,0.73926,97.524,390.85,-13.231,4.4104,-0.056972,-17.642,-1.3793e-12,-0.028486,0,0,0.083333,-2.3685e-15,6.9702e-17,0.66667
0.81064,0.55802,9.7277,0.087028,5.6789,80.653,-2.2575,0.75251,-1.9763,-3.0101,-8.8752e-11,-0.98813,0,0,0.083333,8.5249e-17,0,0.66667
0.15271,0.51122,1.8325,0.016834,3.147,1201.3,-0.082265,0.027422,-1.9982,-0.10969,1.6157e-09,-0.99908,0,0,0.083333,-0,-0,0.66667
0.54016,0.65967,6.4819,0.23951,32.443,420.49,-4.1399,1.38,-1.7928,-5.5199,4.5697e-13,-0.89642,0,0,0.083333,-0,-0,0.66667
0.6103,0.37096,7.3236,-0.19356,-23.216,311.19,3.7801,-1.26,-1.8724,5.0402,-2.1856e-12,-0.93618,0,0,0.083333,-1.9737e-16,0,0.66667
0.18706,0.859,2.2447,0.5385,99.622,1124.2,-3.2234,1.0745,-0.97491,-4.2978,8.8783e-10,-0.48745,0,0,0.083333,3.9475e-16,0,0.66667
0.63689,0.4807,7.6427,-0.028956,-3.2876,273.19,0.59014,-0.19671,-1.9958,0.78685,2.508e-12,-0.99792,0,0,0.083333,-0,-0,0.66667
0.067575,0.33906,0.8109,-0.24141,-46.012,1396.4,0.52201,-0.174,-1.7906,0.69602,1.9872e-07,-0.8953,0,0,0.083333,-0,-0,0.66667
0.77954,0.66646,9.3545,0.24969,18.679,107.76,-6.2286,2.0762,-1.7812,-8.3048,-2.6585e-11,-0.8906,0,0,0.083333,-0,-0,0.66667
0.32597,0.81993,3.9117,0.47989,82.183,823.42,-5.0058,1.6686,-1.1833,-6.6744,-3.5025e-12,-0.59166,0,0,0.083333,-0,-0,0.66667
0.48278,0.54781,5.7934,0.07171,10.518,518.89,-1.1078,0.36928,-1.9847,-1.4771,-3.3695e-12,-0.99234,0,0,0.083333,-0,-0,0.66667
0.38231,0.48385,4.5877,-0.024218,-3.9562,708.57,0.29629,-0.098762,-1.9935,0.39505,6.8941e-12,-0.99674,0,0,0.083333,-7.8949e-16,0,0.66667
0.32698,0.33176,3.9237,-0.25236,-43.141,821.04,2.6405,-0.88016,-1.7777,3.5206,1.958e-12,-0.88886,0,0,0.083333,3.9475e-16,0,0.66667
0.98768,0.060623,11.852,-0.65907,-3.0112,2.8457,20.83,-6.9435,-0.4563,27.774,-8.1896e-05,-0.22815,0,0,0.083333,-7.8949e-16,0,0.66667
0.879,0.40083,10.548,-0.14876,-6.4104,34.534,4.1842,-1.3947,-1.9204,5.579,-7.6477e-09,-0.96018,0,0,0.083333,7.8949e-16,0,0.66667
0.30229,0.1537,3.6275,-0.51946,-90.464,873.03,5.0249,-1.675,-1.0384,6.6999,-1.0574e-11,-0.5192,0,0,0.083333,9.8686e-17,0,0.66667
0.16065,0.60063,1.9278,0.15094,28.148,1183.3,-0.77594,0.25865,-1.9173,-1.0346,-1.2071e-10,-0.95865,0,0,0.083333,-0,-0,0.66667
0.52931,0.88366,6.3518,0.57549,79.398,439.29,-9.7477,3.2492,-0.82494,-12.997,6.2172e-15,-0.41247,0,0,0.083333,-0,-0,0.66667
0.13806,0.40359,1.6567,-0.14461,-27.154,1234.6,0.63887,-0.21296,-1.9276,0.85182,7.7451e-10,-0.96382,0,0,0.083333,-2.9606e-16,0,0.66667
0.64979,0.46835,7.7975,-0.047474,-5.2388,255.55,0.98713,-0.32904,-1.9895,1.3162,-5.2343e-12,-0.99474,0,0,0.083333,7.339e-17,0,0.66667
0.23295,0.057651,2.7954,-0.66352,-120.4,1022.6,4.9462,-1.6487,-0.4388,6.595,-6.219e-10,-0.2194,0,0,0.083333,-1.9737e-16,0,0.66667
0.096557,0.62341,1.1587,0.18512,35.111,1329.6,-0.57199,0.19066,-1.8799,-0.76266,-3.7662e-08,-0.93993,0,0,0.083333,-6.1679e-17,0,0.66667
0.021993,0.20103,0.26391,-0.44846,-85.894,1502,0.31561,-0.10521,-1.2809,0.42081,-6.2033e-06,-0.64044,0,0,0.083333,-0,-0,0.66667
0.85906,0.79039,10.309,0.43559,21.744,46.88,-11.974,3.9915,-1.332,-15.966,3.6695e-09,-0.666,0,0,0.083333,-0,-0,0.66667
0.14271,0.339,1.7125,-0.2415,-45.298,1224,1.1029,-0.36762,-1.7953,1.4705,1.3781e-09,-0.89764,0,0,0.083333,1.9737e-16,0,0.66667
0.40293,0.079167,4.8351,-0.63125,-101.42,668.9,8.1392,-2.7131,-0.5826,10.852,-5.9135e-12,-0.2913,0,0,0.083333,3.1233e-16,0,0.66667
0.093564,0.2088,1.1228,-0.43681,-82.964,1336.6,1.3078,-0.43594,-1.3285,1.7438,3.8963e-08,-0.66426,0,0,0.083333,-9.8686e-17,0,0.66667
0.11789,0.31406,1.4147,-0.27891,-52.665,1280.7,1.0522,-0.35073,-1.7204,1.4029,8.3587e-09,-0.86021,0,0,0.083333,-0,-0,0.66667
0.37482,0.21334,4.4978,-0.42999,-70.791,723.86,5.1573,-1.7191,-1.3501,6.8764,4.531e-12,-0.67503,0,0,0.083333,-5.9212e-16,0,0.66667
0.16539,0.71545,1.9846,0.32318,60.2,1172.7,-1.7104,0.57013,-1.6256,-2.2805,7.347e-11,-0.81278,0,0,0.083333,-4.9343e-17,0,0.66667
0.71895,0.96239,8.6274,0.69359,64.276,171.56,-15.957,5.319,-0.2968,-21.276,1.1426e-11,-0.1484,0,0,0.083333,-3.9475e-16,0,0.66667
0.12585,0.32394,1.5102,-0.26409,-49.768,1262.5,1.0636,-0.35452,-1.757,1.4181,6.1076e-09,-0.87848,0,0,0.083333,-1.9737e-16,0,0.66667
0.73883,0.90311,8.866,0.60467,52.599,149.35,-14.296,4.7653,-0.69878,-19.061,1.5845e-10,-0.34939,0,0,0.083333,9.8686e-16,0,0.66667
0.84138,0.72815,10.097,0.34223,19.033,58.123,-9.2142,3.0714,-1.5851,-12.286,2.2878e-10,-0.79253,0,0,0.083333,-0,-0,0.66667
0.082681,0.18035,0.99217,-0.47948,-91.265,1361.6,1.2686,-0.42287,-1.1806,1.6915,2.9882e-08,-0.59032,0,0,0.083333,-0,-0,0.66667
0.040078,0.45357,0.48094,-0.069646,-13.31,1460,0.089321,-0.029774,-1.9785,0.11909,-2.5427e-07,-0.98924,0,0,0.083333,1.8812e-18,0,0.66667
0.49353,0.80391,5.9224,0.45587,66.04,500.38,-7.1996,2.3999,-1.2573,-9.5995,1.8971e-12,-0.62865,0,0,0.083333,-3.9475e-16,0,0.66667
0.60076,0.72083,7.2091,0.33125,40.49,325.51,-6.368,2.1227,-1.6068,-8.4906,5.7034e-12,-0.8034,0,0,0.083333,-1.579e-15,0,0.66667
0.684,0.14666,8.208,-0.53002,-53.998,212.23,11.601,-3.867,-1.0005,15.468,-1.7222e-12,-0.50026,0,0,0.083333,-0,-0,0.66667
0.47827,0.095442,5.7393,-0.60684,-89.739,527.89,9.2875,-3.0958,-0.68811,12.383,-1.0629e-11,-0.34405,0,0,0.083333,1.579e-15,0,0.66667
0.54316,0.93769,6.5179,0.65654,88.776,416.64,-11.411,3.8038,-0.46783,-15.215,5.1719e-12,-0.23392,0,0,0.083333,-1.579e-15,0,0.66667
0.54961,0.036507,6.5953,-0.69524,-93.107,406.28,12.228,-4.0758,-0.28262,16.303,-2.8635e-12,-0.14131,0,0,0.083333,-0,-0,0.66667
0.71378,0.61642,8.5654,0.17463,16.35,175.72,-3.9888,1.3296,-1.889,-5.3184,1.0894e-12,-0.9445,0,0,0.083333,-0,-0,0.66667
0.15616,0.46235,1.8739,-0.056475,-10.546,1193.5,0.28222,-0.094072,-1.9962,0.37629,7.448e-10,-0.99812,0,0,0.083333,-0,-0,0.66667
0.021742,0.16427,0.26091,-0.50359,-96.482,1502.6,0.35038,-0.1168,-1.0948,0.46716,-9.9221e-06,-0.54738,0,0,0.083333,-0,-0,0.66667
0.50805,0.38281,6.0966,-0.17579,-24.943,474.61,2.8579,-0.95265,-1.8861,3.8106,-3.5598e-12,-0.94304,0,0,0.083333,-0,-0,0.66667
0.95369,0.26879,11.444,-0.34681,-5.8658,6.2644,10.584,-3.528,-1.578,14.112,-4.9444e-07,-0.78901,0,0,0.083333,-0,-0,0.66667
0.025153,0.49148,0.30184,-0.012773,-2.4435,1494.6,0.010281,-0.0034289,-1.9959,0.013708,-2.7114e-06,-0.99793,0,0,0.083333,2.4672e-17,0,0.66667
0.6128,0.036919,7.3536,-0.69462,-83.227,309,13.621,-4.5404,-0.28436,18.162,6.8079e-12,-0.14218,0,0,0.083333,-0,-0,0.66667
0.49388,0.50072,5.9266,0.0010843,0.15677,499.22,-0.017137,0.0057122,-1.9976,-0.022849,4.289e-12,-0.99881,0,0,0.083333,-0,-0,0.66667
0.9002,0.24539,10.802,-0.38191,-13.741,24.583,11.001,-3.6671,-1.4784,14.669,-5.5438e-08,-0.73918,0,0,0.083333,-1.1842e-15,0,0.66667
0.023607,0.37281,0.28329,-0.19078,-36.505,1498.2,0.14412,-0.048041,-1.8674,0.19216,-1.0643e-06,-0.93369,0,0,0.083333,-6.1679e-18,0,0.66667
0.65951,0.43161,7.9141,-0.10258,-11.071,242.62,2.165,-0.72165,-1.9628,2.8866,1.6127e-12,-0.98138,0,0,0.083333,-1.1842e-15,0,0.66667
0.65622,0.57281,7.8746,0.10921,11.877,246.98,-2.2934,0.76446,-1.9649,-3.0578,-1.5112e-12,-0.98247,0,0,0.083333,-0,-0,0.66667
0.88375,0.049455,10.605,-0.67582,-28.34,34.057,19.112,-6.3707,-0.37181,25.483,6.2028e-08,-0.18591,0,0,0.083333,-0,-0,0.66667
0.53642,0.59916,6.4371,0.14874,20.257,426.57,-2.5532,0.85108,-1.9189,-3.4043,2.2093e-12,-0.95946,0,0,0.083333,-0,-0,0.66667
0.69065,0.99089,8.2878,0.73634,73.926,205.01,-16.274,5.4246,-0.072179,-21.698,2.4123e-12,-0.036089,0,0,0.083333,7.8949e-16,0,0.66667
0.41267,0.89755,4.952,0.59633,94.869,649.95,-7.8747,2.6249,-0.73186,-10.5,3.515e-12,-0.36593,0,0,0.083333,-0,-0,0.66667
0.82659,0.28181,9.9191,-0.32729,-19.75,68.698,8.657,-2.8857,-1.6238,11.543,1.8002e-10,-0.81191,0,0,0.083333,-3.158e-15,0,0.66667
0.68501,0.61965,8.2201,0.17948,18.191,210.07,-3.9342,1.3114,-1.8872,-5.2456,1.9338e-12,-0.94359,0,0,0.083333,-3.9475e-16,0,0.66667
0.10801,0.71761,1.2962,0.32642,61.787,1303.3,-1.1282,0.37608,-1.6261,-1.5043,-3.2423e-08,-0.81307,0,0,0.083333,-8.6351e-17,0,0.66667
0.13989,0.30359,1.6787,-0.29461,-55.313,1230.5,1.3189,-0.43962,-1.6969,1.7585,2.0839e-09,-0.84843,0,0,0.083333,-1.9737e-16,0,0.66667
0.15807,0.40868,1.8969,-0.13698,-25.566,1189.2,0.6929,-0.23097,-1.9369,0.92387,3.4126e-10,-0.96846,0,0,0.083333,-0,-0,0.66667
0.12054,0.52979,1.4465,0.044682,8.4282,1274.6,-0.17235,0.05745,-1.992,-0.2298,-1.0082e-08,-0.99599,0,0,0.083333,-6.3e-17,0,0.66667
0.23028,0.076924,2.7633,-0.63461,-115.28,1028.4,4.6764,-1.5588,-0.56624,6.2352,-8.6026e-11,-0.28312,0,0,0.083333,-0,2.8609e-17,0.66667
0.42336,0.25686,5.0803,-0.36471,-57.312,628.95,4.941,-1.647,-1.5308,6.588,-2.7693e-12,-0.7654,0,0,0.083333,-0,-0,0.66667
0.67076,0.025758,8.0491,-0.71136,-75.089,229.75,15.269,-5.0896,-0.20562,20.359,-9.0861e-13,-0.10281,0,0,0.083333,-0,-0,0.66667
0.33662,0.78189,4.0395,0.42284,71.817,801.32,-4.5548,1.5183,-1.3615,-6.073,7.9177e-12,-0.68074,0,0,0.083333,-0,-0,0.66667
0.51975,0.023978,6.2371,-0.71403,-100.02,455.9,11.876,-3.9586,-0.18585,15.835,-4.6363e-13,-0.092923,0,0,0.083333,-0,-0,0.66667
0.82112,0.77866,9.8534,0.41799,25.975,73.133,-10.983,3.661,-1.3756,-14.644,-3.6763e-11,-0.68782,0,0,0.083333,-1.7764e-15,0,0.66667
0.88459,0.13826,10.615,-0.54262,-22.508,32.857,15.36,-5.1199,-0.9493,20.48,-1.5273e-08,-0.47465,0,0,0.083333,-1.579e-15,0,0.66667
0.70449,0.98877,8.4539,0.73316,70.883,188.42,-16.528,5.5094,-0.092439,-22.038,1.414e-12,-0.046219,0,0,0.083333,-7.8949e-16,0,0.66667
0.83449,0.34166,10.014,-0.2375,-13.721,62.697,6.3422,-2.1141,-1.7966,8.4563,-3.9568e-13,-0.89832,0,0,0.083333,1.0366e-15,0,0.66667
0.30908,0.21261,3.7089,-0.43108,-74.693,858.62,4.2636,-1.4212,-1.3391,5.6848,4.1043e-12,-0.66956,0,0,0.083333,-0,-0,0.66667
0.79062,0.10312,9.4874,-0.59532,-42.726,99.014,15.061,-5.0205,-0.73616,20.082,8.0356e-10,-0.36808,0,0,0.083333,-0,-0,0.66667
0.91666,0.41763,11,-0.12355,-3.7189,17.048,3.6241,-1.208,-1.9427,4.8321,-4.6383e-08,-0.97134,0,0,0.083333,-0,-0,0.66667
0.038406,0.24269,0.46087,-0.38596,-73.829,1463.9,0.47434,-0.15811,-1.4664,0.63245,7.9595e-07,-0.73322,0,0,0.083333,2.4672e-17,0,0.66667
0.44563,0.91675,5.3475,0.62513,96.078,587.59,-8.9144,2.9715,-0.60627,-11.886,-5.8771e-12,-0.30313,0,0,0.083333,-0,-0,0.66667
0.23993,0.027215,2.8792,-0.70918,-128.28,1007.4,5.4449,-1.815,-0.20924,7.2598,2.6783e-11,-0.10462,0,0,0.083333,1.9737e-16,0,0.66667
0.49402,0.38969,5.9282,-0.16547,-23.925,499.06,2.6158,-0.87195,-1.8988,3.4878,7.3064e-12,-0.94941,0,0,0.083333,-7.8949e-16,0,0.66667
0.61748,0.3126,7.4097,-0.28111,-33.253,300.91,5.5544,-1.8515,-1.7163,7.4059,-3.2636e-12,-0.85813,0,0,0.083333,1.579e-15,0,0.66667
0.20905,0.67929,2.5086,0.26893,49.242,1074.9,-1.799,0.59968,-1.7394,-2.3987,5.0195e-11,-0.86972,0,0,0.083333,-1.9737e-16,0,0.66667
0.87443,0.52237,10.493,0.033554,1.4968,36.95,-0.93889,0.31296,-2.0019,-1.2519,2.0898e-09,-1.001,0,0,0.083333,-0,-0,0.66667
0.25589,0.18965,3.0707,-0.46552,-83.36,972.24,3.8119,-1.2706,-1.227,5.0825,-1.5011e-11,-0.61349,0,0,0.083333,7.8949e-16,0,0.66667
0.71361,0.64632,8.5633,0.21949,20.564,175.99,-5.0121,1.6707,-1.8258,-6.6828,1.291e-12,-0.91292,0,0,0.083333,-0,-0,0.66667
0.85223,0.21904,10.227,-0.42144,-21.979,51.151,11.493,-3.8311,-1.3657,15.324,6.5421e-10,-0.68287,0,0,0.083333,-0,-0,0.66667
0.93241,0.53865,11.189,0.057971,1.4201,11.454,-1.7297,0.57656,-1.9855,-2.3062,1.592e-08,-0.99274,0,0,0.083333,-0,-0,0.66667
0.95573,0.86508,11.469,0.54762,8.9542,6.73,-16.748,5.5827,-0.9347,-22.331,6.3035e-06,-0.46735,0,0,0.083333,7.8949e-16,0,0.66667
0.6802,0.24168,8.1624,-0.38748,-39.809,216.5,8.4341,-2.8114,-1.4621,11.245,-2.6592e-12,-0.73106,0,0,0.083333,-7.8949e-16,0,0.66667
0.62852,0.37471,7.5422,-0.18793,-21.726,285.01,3.7798,-1.2599,-1.8751,5.0397,2.4338e-12,-0.93757,0,0,0.083333,7.4015e-17,0,0.66667
0.59597,0.96345,7.1516,0.69518,86.01,333.86,-13.258,4.4192,-0.28398,-17.677,-4.2286e-12,-0.14199,0,0,0.083333,1.1842e-15,0,0.66667
0.48512,0.090965,5.8215,-0.61355,-89.96,515.69,9.5247,-3.1749,-0.66779,12.7,3.153e-13,-0.3339,0,0,0.083333,1.9737e-16,0,0.66667
0.36043,0.40206,4.3252,-0.14692,-24.461,752.44,1.6945,-0.56484,-1.9285,2.2593,-3.0085e-12,-0.96423,0,0,0.083333,-3.9475e-16,0,0.66667
0.020765,0.37739,0.24918,-0.18391,-35.195,1504.8,0.12221,-0.040737,-1.8779,0.16295,-8.6875e-07,-0.93893,0,0,0.083333,-0,-0,0.66667
0.74867,0.45036,8.9841,-0.074457,-6.2398,137.64,1.7838,-0.5946,-1.9839,2.3784,1.3924e-12,-0.99197,0,0,0.083333,-0,-0,0.66667
0.39368,0.29979,4.7241,-0.30031,-48.577,686.33,3.7832,-1.2611,-1.6793,5.0443,-4.0685e-12,-0.83963,0,0,0.083333,-0,-0,0.66667
0.27934,0.72659,3.3521,0.33988,60.008,921.57,-3.0381,1.0127,-1.5919,-4.0509,-1.4809e-11,-0.79595,0,0,0.083333,-0,-0,0.66667
0.77753,0.64453,9.3304,0.2168,16.345,109.55,-5.3942,1.7981,-1.8317,-7.1922,-2.0711e-11,-0.91587,0,0,0.083333,7.8949e-16,0,0.66667
0.66027,0.65236,7.9232,0.22854,24.63,241.77,-4.8288,1.6096,-1.8135,-6.4384,-7.0837e-12,-0.90677,0,0,0.083333,9.8686e-16,0,0.66667
0.9098,0.65141,10.918,0.22712,7.3918,19.967,-6.6122,2.2041,-1.8164,-8.8163,4.5797e-08,-0.90821,0,0,0.083333,-0,-0,0.66667
0.12761,0.97485,1.5314,0.71228,134.49,1258.7,-2.9087,0.96957,-0.19746,-3.8783,9.2341e-08,-0.098732,0,0,0.083333,-0,-0,0.66667
0.38236,0.40878,4.5883,-0.13683,-22.353,708.51,1.6742,-0.55806,-1.9302,2.2322,-1.3524e-12,-0.9651,0,0,0.083333,-0,-0,0.66667
0.57738,0.72787,6.9286,0.34181,43.591,361.08,-6.3154,2.1051,-1.59,-8.4205,-7.6295e-13,-0.79501,0,0,0.083333,-0,-0,0.66667
0.3545,0.83951,4.254,0.50927,85.331,764.91,-5.7771,1.9257,-1.0759,-7.7028,1.9882e-12,-0.53797,0,0,0.083333,5.9212e-16,0,0.66667
0.34805,0.89432,4.1766,0.59148,99.677,778.21,-6.5877,2.1959,-0.75407,-8.7836,5.3082e-12,-0.37704,0,0,0.083333,3.9475e-16,0,0.66667
0.48409,0.52926,5.8091,0.04389,6.4267,516.56,-0.6799,0.22663,-2.0009,-0.90653,-6.7202e-12,-1.0004,0,0,0.083333,-1.9737e-16,0,0.66667
0.071438,0.10391,0.85726,-0.59414,-113.36,1387.6,1.3582,-0.45274,-0.74086,1.811,8.2775e-07,-0.37043,0,0,0.083333,-1.9737e-16,0,0.66667
0.038686,0.98067,0.46423,0.72101,138.19,1463.4,-0.89258,0.29751,-0.14733,-1.1901,-2.134e-05,-0.073666,0,0,0.083333,-0,-0,0.66667
0.84061,0.71233,10.087,0.31849,17.788,58.588,-8.5672,2.8557,-1.6396,-11.423,2.2375e-10,-0.81982,0,0,0.083333,-0,-0,0.66667
0.0073689,0.070195,0.088427,-0.64471,-123.68,1535.9,0.15202,-0.050639,-0.51818,0.20271,5.303e-05,-0.25909,0,0,0.083333,-0,-0,0.66667
0.70376,0.67832,8.4451,0.26748,25.785,187.54,-6.0238,2.0079,-1.7513,-8.0317,7.9359e-13,-0.87566,0,0,0.083333,-0,-0,0.66667
0.44556,0.72811,5.3468,0.34217,52.495,587.06,-4.8786,1.6262,-1.5795,-6.5048,-2.8342e-12,-0.78977,0,0,0.083333,-7.8949e-16,0,0.66667
0.96951,0.49011,11.634,-0.014832,-0.16236,2.6396,0.46016,-0.15339,-2.0045,0.61355,1.8924e-06,-1.0023,0,0,0.083333,-0,-0,0.66667
0.80992,0.38482,9.7191,-0.17278,-11.317,81.329,4.4779,-1.4926,-1.8949,5.9706,6.8647e-11,-0.94744,0,0,0.083333,-0,-0,0.66667
0.39961,0.44953,4.7953,-0.075708,-12.171,674.52,0.96813,-0.32271,-1.9755,1.2908,4.0074e-12,-0.98775,0,0,0.083333,-0,-0,0.66667
0.39383,0.58422,4.726,0.12632,20.421,685.87,-1.592,0.53066,-1.9431,-2.1227,-4.6052e-13,-0.97156,0,0,0.083333,-3.9475e-16,0,0.66667
0.12859,0.28239,1.5431,-0.32642,-61.481,1256.2,1.3432,-0.44774,-1.6216,1.7909,5.1525e-09,-0.81079,0,0,0.083333,-0,-0,0.66667
0.36459,0.98041,4.3751,0.72061,119.93,745.01,-8.4073,2.8024,-0.15059,-11.21,2.6761e-12,-0.075294,0,0,0.083333,-0,-0,0.66667
0.20418,0.83573,2.4502,0.5036,92.498,1085.9,-3.2904,1.0968,-1.103,-4.3872,-7.6588e-11,-0.55149,0,0,0.083333,-1.9737e-16,0,0.66667
0.31607,0.38714,3.7929,-0.16929,-29.163,843.7,1.7123,-0.57076,-1.8972,2.283,-8.4001e-12,-0.94858,0,0,0.083333,-0,-0,0.66667
0.56232,0.38288,6.7478,-0.17569,-22.969,384.51,3.1613,-1.0538,-1.8974,4.2151,2.0859e-12,-0.94869,0,0,0.083333,-0,-0,0.66667
0.86191,0.49465,10.343,-0.008032,-0.39181,44.259,0.22153,-0.073844,-2.0014,0.29537,-6.323e-09,-1.0007,0,0,0.083333,-3.9475e-16,0,0.66667
0.098202,0.83654,1.1784,0.50481,95.828,1325.9,-1.5863,0.52878,-1.0921,-2.1151,-5.3645e-08,-0.54606,0,0,0.083333,-0,-0,0.66667
0.83006,0.91389,9.9607,0.62084,36.958,67.367,-16.491,5.4969,-0.63214,-21.988,-4.7739e-09,-0.31607,0,0,0.083333,-0,-0,0.66667
0.92067,0.33557,11.048,-0.24664,-7.0873,15.765,7.2664,-2.4221,-1.788,9.6885,-1.155e-07,-0.894,0,0,0.083333,7.8949e-16,0,0.66667
0.22363,0.2116,2.6835,-0.4326,-78.737,1042.8,3.0957,-1.0319,-1.3323,4.1276,-2.0758e-11,-0.66614,0,0,0.083333,3.9475e-16,0,0.66667
0.20085,0.73423,2.4102,0.35135,64.578,1093.2,-2.2582,0.75273,-1.5625,-3.0109,1.1063e-10,-0.78124,0,0,0.083333,-0,-0,0.66667
0.76844,0.32781,9.2212,-0.25828,-20.174,118.22,6.3511,-2.117,-1.7631,8.4681,8.6886e-12,-0.88157,0,0,0.083333,1.579e-15,0,0.66667
0.020528,0.78497,0.24634,0.42745,81.867,1505.4,-0.28079,0.0936,-1.3485,-0.37439,4.6297e-06,-0.67425,0,0,0.083333,-0,-0,0.66667
0.48994,0.48942,5.8793,-0.015867,-2.3059,506.16,0.24876,-0.082921,-1.9958,0.33168,-8.0583e-13,-0.99789,0,0,0.083333,7.8949e-16,0,0.66667
0.022375,0.65851,0.26851,0.23776,45.502,1501.1,-0.17024,0.056747,-1.796,-0.22698,1.3981e-06,-0.898,0,0,0.083333,-4.9343e-17,0,0.66667
0.8073,0.44005,9.6876,-0.089925,-5.9613,83.372,2.3231,-0.77436,-1.9693,3.0974,-4.6136e-12,-0.98464,0,0,0.083333,3.158e-15,0,0.66667
0.024361,0.43118,0.29234,-0.10322,-19.748,1496.5,0.080469,-0.026824,-1.9584,0.10729,-7.2478e-07,-0.9792,0,0,0.083333,-3.7007e-17,0,0.66667
0.16055,0.69774,1.9266,0.29661,55.335,1183.6,-1.5239,0.50796,-1.6853,-2.0318,-1.8252e-10,-0.84264,0,0,0.083333,-3.9475e-16,0,0.66667
0.24613,0.6043,2.9536,0.15645,28.131,993.21,-1.2322,0.41073,-1.9117,-1.6429,-1.7497e-12,-0.95583,0,0,0.083333,-0,-0,0.66667
0.99712,0.39689,11.965,-0.15467,-0.084527,0.19547,4.9351,-1.645,-1.9154,6.5802,-1.3748e-06,-0.9577,0,0,0.083333,1.579e-15,0,0.66667
0.42075,0.3075,5.049,-0.28875,-45.483,633.83,3.8878,-1.2959,-1.7084,5.1837,-1.1573e-12,-0.85422,0,0,0.083333,-5.9212e-16,0,0.66667
0.072263,0.15535,0.86715,-0.51697,-98.582,1385.7,1.1955,-0.39848,-1.0475,1.5939,2.6352e-07,-0.52376,0,0,0.083333,1.8504e-17,0,0.66667
0.25027,0.67356,3.0033,0.26034,46.721,984.25,-2.085,0.69499,-1.7655,-2.78,9.2013e-12,-0.88274,0,0,0.083333,-3.9475e-16,0,0.66667
0.41157,0.55579,4.9388,0.083679,13.297,651.3,-1.1021,0.36736,-1.9724,-1.4694,2.0339e-12,-0.98619,0,0,0.083333,3.9475e-16,0,0.66667
0.42026,0.083525,5.0431,-0.62471,-98.649,635.46,8.4013,-2.8004,-0.61549,11.202,-3.3813e-12,-0.30774,0,0,0.083333,-0,8.6901e-17,0.66667
0.12217,0.044824,1.4661,-0.68276,-129.07,1271.1,2.6693,-0.88976,-0.34284,3.559,-1.7227e-07,-0.17142,0,0,0.083333,-0,-0,0.66667
0.0095038,0.0064081,0.11405,-0.74039,-142.13,1531,0.22542,-0.075081,-0.048238,0.30058,8.6828e-05,-0.024119,0,0,0.083333,-0,-0,0.66667
0.81546,0.18651,9.7855,-0.47024,-30.082,77.738,12.271,-4.0902,-1.2153,16.361,-6.6176e-11,-0.60766,0,0,0.083333,-9.8686e-17,0,0.66667
0.24196,0.10642,2.9035,-0.59036,-106.58,1002.7,4.5709,-1.5236,-0.75638,6.0946,-1.6682e-10,-0.37819,0,0,0.083333,-3.9475e-16,0,0.66667
0.083424,0.34088,1.0011,-0.23868,-45.383,1359.8,0.63718,-0.21239,-1.7953,0.84958,7.5752e-08,-0.89766,0,0,0.083333,1.2336e-16,0,0.66667
0.39022,0.95234,4.6827,0.67852,110.37,693.88,-8.4727,2.8242,-0.36915,-11.297,9.0408e-12,-0.18457,0,0,0.083333,-0,-0,0.66667
0.43254,0.22345,5.1905,-0.41482,-64.576,611.62,5.7416,-1.9139,-1.3861,7.6555,-1.7311e-12,-0.69305,0,0,0.083333,-0,-0,0.66667
0.5241,0.48992,6.2891,-0.01512,-2.0968,447.13,0.25357,-0.084523,-1.995,0.33809,3.0684e-12,-0.9975,0,0,0.083333,-0,-0,0.66667
0.76031,0.65454,9.1238,0.23181,18.656,126.08,-5.6399,1.88,-1.807,-7.5198,-1.108e-11,-0.90351,0,0,0.083333,2.2698e-15,0,0.66667
0.78814,0.72111,9.4577,0.33166,23.968,100.18,-8.3646,2.7882,-1.6058,-11.153,-4.2201e-11,-0.80291,0,0,0.083333,-0,-0,0.66667
0.46938,0.10204,5.6326,-0.59694,-89.233,543.88,8.9661,-2.9887,-0.73883,11.955,-3.1557e-12,-0.36942,0,0,0.083333,-0,-0,0.66667
0.88477,0.076088,10.617,-0.63587,-26.411,33.286,18.003,-6.001,-0.55867,24.004,-1.221e-07,-0.27934,0,0,0.083333,-1.579e-15,0,0.66667
0.079143,0.48168,0.94972,-0.027476,-5.2263,1369.7,0.069584,-0.023195,-2.0018,0.092779,3.5554e-08,-1.0009,0,0,0.083333,-0,-0,0.66667
0.35568,0.0088445,4.2682,-0.73673,-123.54,763.05,8.3853,-2.7951,-0.069233,11.18,-1.8066e-12,-0.034616,0,0,0.083333,-1.579e-15,0,0.66667
0.35988,0.66214,4.3185,0.24321,40.522,753.63,-2.8009,0.93362,-1.7961,-3.7345,4.591e-12,-0.89806,0,0,0.083333,-0,-0,0.66667
0.71091,0.88156,8.5309,0.57234,54.213,180.16,-13.02,4.3401,-0.8314,-17.36,-6.1293e-12,-0.4157,0,0,0.083333,-0,-0,0.66667
0.84544,0.59199,10.145,0.13799,7.4788,54.915,-3.7331,1.2444,-1.9364,-4.9775,6.9706e-10,-0.96818,0,0,0.083333,-5.9212e-16,0,0.66667
0.72322,0.15864,8.6787,-0.51204,-46.73,165.93,11.85,-3.9501,-1.0667,15.8,7.9874e-12,-0.53334,0,0,0.083333,-3.158e-15,0,0.66667
0.11084,0.96872,1.3301,0.70308,133.28,1297.1,-2.4938,0.83125,-0.24739,-3.325,-5.4385e-07,-0.12369,0,0,0.083333,2.8681e-16,0,0.66667
0.59935,0.75124,7.1922,0.37687,46.201,327.71,-7.228,2.4093,-1.4929,-9.6374,3.1979e-12,-0.74646,0,0,0.083333,-0,-0,0.66667
0.50962,0.23845,6.1155,-0.39233,-55.597,472.23,6.3981,-2.1327,-1.449,8.5307,-2.6175e-12,-0.7245,0,0,0.083333,7.8949e-16,0,0.66667
0.60538,0.94861,7.2646,0.67292,81.774,319.76,-13.036,4.3453,-0.38843,-17.381,-4.3743e-12,-0.19422,0,0,0.083333,1.579e-15,0,0.66667
0.012168,0.64615,0.14602,0.21922,41.968,1524.8,-0.085364,0.028454,-1.8285,-0.11382,-1.641e-07,-0.91425,0,0,0.083333,-0,-0,0.66667
0.2884,0.44757,3.4608,-0.078639,-13.797,902.05,0.72574,-0.24191,-1.9738,0.96766,5.714e-12,-0.98692,0,0,0.083333,-0,-0,0.66667
0.051856,0.0098828,0.62228,-0.73518,-140.76,1432.9,1.2199,-0.40665,-0.075557,1.6266,-2.6621e-06,-0.037778,0,0,0.083333,-0,-0,0.66667
0.38587,0.56979,4.6305,0.10468,17.046,701.54,-1.2926,0.43086,-1.9588,-1.7235,2.6329e-12,-0.97942,0,0,0.083333,-0,-0,0.66667
0.75909,0.45802,9.109,-0.062976,-5.0877,127.1,1.5297,-0.50991,-1.9819,2.0396,3.475e-13,-0.99095,0,0,0.083333,-7.8949e-16,0,0.66667
0.276,0.27136,3.312,-0.34296,-60.674,928.72,3.0291,-1.0097,-1.5788,4.0387,-4.8783e-12,-0.7894,0,0,0.083333,-0,-0,0.66667
0.61411,0.69529,7.3694,0.29294,34.888,305.79,-5.7567,1.9189,-1.6927,-7.6756,-2.4123e-12,-0.84633,0,0,0.083333,-0,-0,0.66667
0.62743,0.92974,7.5292,0.64461,74.944,287.82,-12.942,4.3141,-0.52409,-17.257,-4.4409e-13,-0.26205,0,0,0.083333,-0,-0,0.66667
0.25163,0.18691,3.0196,-0.46963,-84.293,981.5,3.7816,-1.2605,-1.2203,5.0421,1.3107e-11,-0.61013,0,0,0.083333,5.9212e-16,0,0.66667
0.47504,0.35557,5.7005,-0.21665,-32.094,532.88,3.2934,-1.0978,-1.8292,4.3912,-3.294e-12,-0.91459,0,0,0.083333,-0,-0,0.66667
0.1435,0.19964,1.7219,-0.45054,-84.554,1222.4,2.0688,-0.6896,-1.2786,2.7584,1.4645e-09,-0.63929,0,0,0.083333,-0,-0,0.66667
0.070018,0.21387,0.84022,-0.4292,-81.834,1390.8,0.96166,-0.32055,-1.3414,1.2822,3.0639e-07,-0.67068,0,0,0.083333,-1.4803e-16,0,0.66667
0.79297,0.32549,9.5156,-0.26177,-18.522,95.751,6.6423,-2.2141,-1.7549,8.8564,4.8159e-11,-0.87743,0,0,0.083333,-0,-0,0.66667
0.17947,0.57966,2.1537,0.11949,22.136,1140.9,-0.68627,0.22876,-1.9448,-0.91503,8.932e-11,-0.97239,0,0,0.083333,-0,-0,0.66667
0.12621,0.82112,1.5145,0.48168,90.844,1261.8,-1.9453,0.64844,-1.1793,-2.5938,-1.0326e-09,-0.58966,0,0,0.083333,-0,-0,0.66667
0.96712,0.017,11.605,-0.7245,-8.9701,5.7308,22.422,-7.4739,-0.13657,29.895,-2.6361e-06,-0.068285,0,0,0.083333,-0,9.7922e-17,0.66667
0.055643,0.21923,0.66771,-0.42116,-80.444,1424,0.7499,-0.24997,-1.3666,0.99987,6.7272e-08,-0.68332,0,0,0.083333,-1.9737e-16,0,0.66667
0.68195,0.49211,8.1834,-0.011829,-1.2081,213.76,0.25814,-0.086046,-1.9964,0.34419,4.2217e-12,-0.99821,0,0,0.083333,-7.8949e-16,0,0.66667
0.37495,0.33703,4.4994,-0.24446,-40.209,723.34,2.9331,-0.97769,-1.7952,3.9108,2.3426e-13,-0.89759,0,0,0.083333,1.9737e-16,0,0.66667
0.17349,0.642,2.0818,0.213,39.551,1154.4,-1.1825,0.39416,-1.8416,-1.5766,6.0015e-11,-0.9208,0,0,0.083333,-0,-0,0.66667
0.27286,0.16373,3.2743,-0.50441,-89.475,935.66,4.4043,-1.4681,-1.0914,5.8724,-2.5793e-12,-0.54571,0,0,0.083333,-0,-0,0.66667
0.7317,0.81412,8.7804,0.47118,41.866,156.45,-11.032,3.6775,-1.2126,-14.71,1.6591e-12,-0.60629,0,0,0.083333,-3.158e-15,0,0.66667
0.85547,0.51122,10.266,0.016829,0.85666,48.265,-0.46069,0.15356,-1.9976,-0.61426,-9.8707e-12,-0.9988,0,0,0.083333,-0,-0,0.66667
0.26883,0.76578,3.226,0.39867,70.845,944.19,-3.4296,1.1432,-1.4345,-4.5728,-9.599e-12,-0.71725,0,0,0.083333,3.9475e-16,0,0.66667
0.34714,0.13476,4.1657,-0.54785,-92.363,779.96,6.0859,-2.0286,-0.93234,8.1145,-2.065e-13,-0.46617,0,0,0.083333,7.8949e-16,0,0.66667
0.40955,0.22527,4.9146,-0.4121,-65.684,655.56,5.4009,-1.8003,-1.3962,7.2011,-1.2548e-11,-0.69809,0,0,0.083333,-0,-0,0.66667
0.82745,0.94514,9.9294,0.66772,40.345,69.556,-17.68,5.8933,-0.42051,-23.573,-1.4107e-08,-0.21025,0,0,0.083333,-0,-0,0.66667
0.74992,0.86114,8.9991,0.54171,45.365,137.5,-13,4.3332,-0.96366,-17.333,2.1613e-11,-0.48183,0,0,0.083333,-0,-0,0.66667
0.20942,0.13551,2.5131,-0.54674,-100.22,1074.3,3.6639,-1.2213,-0.93332,4.8853,1.3839e-11,-0.46666,0,0,0.083333,-0,-0,0.66667
0.54285,0.51185,6.5143,0.01777,2.396,415.9,-0.30869,0.1029,-1.9973,-0.41158,7.4642e-12,-0.99863,0,0,0.083333,-0,-0,0.66667
0.76674,0.02665,9.2009,-0.71003,-56.138,121.64,17.421,-5.807,-0.2125,23.228,-1.414e-12,-0.10625,0,0,0.083333,7.8949e-16,0,0.66667
0.47874,0.99297,5.7449,0.73945,109.42,527.5,-11.328,3.776,-0.052834,-15.104,3.9391e-12,-0.026417,0,0,0.083333,3.9475e-16,0,0.66667
0.5555,0.99862,6.666,0.74793,99.288,396.99,-13.295,4.4318,-0.0080787,-17.727,2.764e-12,-0.0040394,0,0,0.083333,-1.9737e-16,0,0.66667
0.21251,0.41918,2.5502,-0.12123,-22.157,1067.1,0.82445,-0.27482,-1.9438,1.0993,-2.0612e-11,-0.9719,0,0,0.083333,-3.9475e-16,0,0.66667
0.65934,0.47552,7.912,-0.036724,-3.9644,242.82,0.77484,-0.25828,-1.9956,1.0331,-4.034e-12,-0.99778,0,0,0.083333,-0,-0,0.66667
0.072077,0.75977,0.86492,0.38966,74.259,1386.1,-0.89872,0.29957,-1.4565,-1.1983,-2.7624e-07,-0.72826,0,0,0.083333,-0,-0,0.66667
0.36173,0.15698,4.3408,-0.51453,-85.705,750.28,5.956,-1.9853,-1.0615,7.9413,-7.2338e-12,-0.53074,0,0,0.083333,1.579e-15,0,0.66667
0.4004,0.13142,4.8048,-0.55287,-88.985,673.62,7.0838,-2.3613,-0.91006,9.4451,3.1943e-12,-0.45503,0,0,0.083333,-0,-0,0.66667
0.60878,0.37436,7.3054,-0.18846,-22.67,313.41,3.6713,-1.2238,-1.8808,4.895,-2.6532e-12,-0.94041,0,0,0.083333,1.0362e-15,0,0.66667
0.94867,0.29757,11.384,-0.30364,-5.6833,7.3059,9.2178,-3.0726,-1.6699,12.29,-1.6296e-07,-0.83494,0,0,0.083333,-0,-0,0.66667
0.21912,0.78268,2.6295,0.42401,77.333,1052.7,-2.9732,0.99105,-1.3683,-3.9642,-4.4125e-12,-0.68416,0,0,0.083333,7.8949e-16,0,0.66667
0.54416,0.02294,6.5299,-0.71559,-96.673,415.24,12.461,-4.1535,-0.18019,16.614,2.5153e-12,-0.090095,0,0,0.083333,7.8949e-16,7.7059e-17,0.66667
0.80224,0.70969,9.6269,0.31453,21.373,87.952,-8.0746,2.6915,-1.6452,-10.766,-7.3822e-11,-0.82261,0,0,0.083333,7.8949e-16,0,0.66667
0.60296,0.95558,7.2355,0.68337,83.439,323.39,-13.185,4.3951,-0.33549,-17.581,2.6379e-13,-0.16775,0,0,0.083333,-7.8949e-16,0,0.66667
0.73883,0.79025,8.8659,0.43538,37.794,148.66,-10.293,3.4311,-1.324,-13.725,-4.8725e-12,-0.66201,0,0,0.083333,-0,-0,0.66667
0.11645,0.041796,1.3974,-0.68731,-130.11,1284.2,2.5613,-0.85375,-0.3162,3.415,-2.157e-07,-0.1581,0,0,0.083333,-0,-0,0.66667
0.83579,0.53313,10.029,0.04969,2.8472,61.531,-1.329,0.44299,-1.9881,-1.7719,-5.4482e-10,-0.99404,0,0,0.083333,3.158e-15,0,0.66667
0.3113,0.32044,3.7356,-0.26934,-46.565,853.76,2.683,-0.89435,-1.7464,3.5774,1.8663e-12,-0.8732,0,0,0.083333,-0,-0,0.66667
0.43711,0.48176,5.2453,-0.027365,-4.2342,602.61,0.38277,-0.12759,-2.0035,0.51035,7.615e-12,-1.0017,0,0,0.083333,-7.8949e-16,0,0.66667
0.08488,0.3365,1.0186,-0.24524,-46.62,1356.5,0.66612,-0.22204,-1.7824,0.88817,6.5539e-08,-0.89119,0,0,0.083333,-9.8686e-17,0,0.66667
0.68718,0.45155,8.2461,-0.072676,-7.3226,207.29,1.5981,-0.5327,-1.9875,2.1308,-1.759e-12,-0.99377,0,0,0.083333,-0,-0,0.66667
0.84731,0.29003,10.168,-0.31496,-16.906,54.027,8.5398,-2.8466,-1.6466,11.386,-4.3957e-10,-0.82331,0,0,0.083333,-0,-0,0.66667
0.48369,0.21661,5.8043,-0.42508,-62.353,517.73,6.5794,-2.1931,-1.3641,8.7726,-3.928e-12,-0.68204,0,0,0.083333,9.8686e-17,0,0.66667
0.10135,0.10131,1.2162,-0.59804,-113.52,1318.8,1.9396,-0.64653,-0.72434,2.5861,-8.0794e-08,-0.36217,0,0,0.083333,-0,-0,0.66667
0.10296,0.97275,1.2355,0.70912,134.66,1315.1,-2.3363,0.77877,-0.20892,-3.1151,-1.2399e-06,-0.10446,0,0,0.083333,-3.9475e-16,0,0.66667
0.11563,0.75551,1.3875,0.38327,72.439,1285.9,-1.4181,0.47271,-1.4744,-1.8908,-4.7799e-09,-0.73721,0,0,0.083333,-3.9475e-16,0,0.66667
0.49491,0.68882,5.9389,0.28323,40.919,497.62,-4.4856,1.4952,-1.7132,-5.9808,2.7067e-12,-0.85658,0,0,0.083333,-0,-0,0.66667
0.62202,0.1323,7.4643,-0.55155,-64.777,295.12,10.979,-3.6595,-0.91886,14.638,1.5721e-12,-0.45943,0,0,0.083333,-0,-0,0.66667
0.033262,0.19542,0.39914,-0.45687,-87.455,1475.9,0.48629,-0.1621,-1.2602,0.64838,-8.2075e-07,-0.63012,0,0,0.083333,9.8686e-17,0,0.66667
0.062583,0.89206,0.751,0.58809,112.34,1408,-1.1777,0.39258,-0.77734,-1.5703,1.0452e-06,-0.38867,0,0,0.083333,-0,-0,0.66667
0.98655,0.59929,11.839,0.14894,0.68062,0.76021,-4.7018,1.5673,-1.9235,-6.2691,-1.2137e-07,-0.96173,0,0,0.083333,-0,-0,0.66667
0.2911,0.77304,3.4932,0.40955,71.803,896.55,-3.8151,1.2717,-1.4003,-5.0868,-7.7365e-12,-0.70016,0,0,0.083333,-0,-0,0.66667
0.47673,0.10996,5.7208,-0.58506,-86.668,530.59,8.9254,-2.9751,-0.77847,11.9,-5.4179e-14,-0.38924,0,0,0.083333,2.2493e-16,0,0.66667
0.63063,0.97467,7.5676,0.712,82.296,283.62,-14.368,4.7895,-0.19463,-19.158,2.7267e-12,-0.097316,0,0,0.083333,-0,-0,0.66667
0.7149,0.012412,8.5788,-0.73138,-68.636,176.36,16.732,-5.5772,-0.096671,22.309,1.7213e-12,-0.048336,0,0,0.083333,-0,-9.4513e-17,0.66667
0.10945,0.82384,1.3134,0.48575,91.983,1300.1,-1.7012,0.56708,-1.1682,-2.2683,-1.2036e-08,-0.5841,0,0,0.083333,1.9737e-16,0,0.66667
0.10965,0.56197,1.3159,0.092961,17.581,1299.5,-0.3262,0.10873,-1.9773,-0.43493,-1.5577e-08,-0.98864,0,0,0.083333,-9.2519e-17,0,0.66667
0.91206,0.57352,10.945,0.11028,3.4974,18.848,-3.2188,1.0729,-1.9532,-4.2917,2.177e-08,-0.9766,0,0,0.083333,-0,-0,0.66667
0.32409,0.27996,3.8891,-0.33006,-56.561,827.11,3.4231,-1.141,-1.6124,4.5641,-5.1226e-13,-0.80618,0,0,0.083333,4.9343e-17,0,0.66667
0.72386,0.56461,8.6863,0.09692,8.8026,164.25,-2.245,0.74834,-1.9648,-2.9934,-7.2049e-12,-0.9824,0,0,0.083333,3.158e-15,0,0.66667
0.70962,0.68164,8.5155,0.27246,25.832,180.69,-6.187,2.0623,-1.7326,-8.2493,5.3424e-13,-0.86629,0,0,0.083333,-0,-0,0.66667
0.46881,0.42504,5.6257,-0.11244,-16.779,544.06,1.6868,-0.56226,-1.9622,2.2491,-3.5311e-12,-0.98109,0,0,0.083333,7.8949e-16,0,0.66667
0.091311,0.92629,1.0957,0.63944,121.65,1341.9,-1.8684,0.6228,-0.54742,-2.4912,1.0854e-08,-0.27371,0,0,0.083333,-0,-0,0.66667
0.88983,0.77926,10.678,0.41888,16.576,29.642,-11.928,3.9759,-1.3824,-15.903,2.4345e-08,-0.69121,0,0,0.083333,-5.9212e-16,0,0.66667
0.83452,0.93591,10.014,0.65387,38.02,64.328,-17.461,5.8204,-0.47715,-23.282,-3.7204e-08,-0.23857,0,0,0.083333,-1.6528e-15,0,0.66667
0.43167,0.451,5.1801,-0.073498,-11.44,612.88,1.0153,-0.33842,-1.9771,1.3537,9.6071e-12,-0.98855,0,0,0.083333,-0,-0,0.66667
0.4559,0.93917,5.4708,0.65875,100.1,568.69,-9.6103,3.2034,-0.45883,-12.814,-8.626e-12,-0.22942,0,0,0.083333,-0,-0,0.66667
0.5459,0.23233,6.5508,-0.40151,-53.949,411.37,7.0139,-2.338,-1.4313,9.3519,-1.3918e-12,-0.71567,0,0,0.083333,-0,-0,0.66667
0.3785,0.91044,4.5419,0.61566,101.16,716.92,-7.4568,2.4856,-0.65234,-9.9423,3.9053e-12,-0.32617,0,0,0.083333,-0,-0,0.66667
0.50468,0.78521,6.0562,0.42782,61.051,480.85,-6.9092,2.3031,-1.3476,-9.2122,3.2596e-12,-0.67379,0,0,0.083333,-1.579e-15,0,0.66667
0.47267,0.58678,5.6721,0.13018,19.336,537.07,-1.969,0.65632,-1.9387,-2.6253,-4.6029e-12,-0.96935,0,0,0.083333,-3.9475e-16,0,0.66667
0.28587,0.35413,3.4304,-0.2188,-38.461,907.51,2.0016,-0.66719,-1.8275,2.6688,4.5062e-12,-0.91373,0,0,0.083333,-0,-0,0.66667
0.87249,0.90205,10.47,0.60307,27.523,39.73,-16.838,5.6125,-0.70868,-22.45,2.5133e-08,-0.35434,0,0,0.083333,-7.8949e-16,0,0.66667
0.04716,0.14232,0.56592,-0.53652,-102.63,1443.7,0.80968,-0.26989,-0.98293,1.0796,2.7454e-06,-0.49146,0,0,0.083333,9.8686e-17,0,0.66667
0.36431,0.56984,4.3717,0.10476,17.384,744.59,-1.2213,0.40709,-1.9586,-1.6284,-2.1316e-14,-0.97929,0,0,0.083333,-7.8949e-16,0,0.66667
0.77404,0.05246,9.2884,-0.67131,-51.591,114.48,16.628,-5.5426,-0.39347,22.17,4.3535e-10,-0.19674,0,0,0.083333,7.8949e-16,0,0.66667
0.48551,0.055455,5.8262,-0.66682,-97.768,515.17,10.36,-3.4533,-0.42363,13.813,-1.3047e-12,-0.21181,0,0,0.083333,3.9475e-16,0,0.66667
0.78628,0.75986,9.4353,0.38979,28.405,102.01,-9.8075,3.2692,-1.457,-13.077,4.5759e-12,-0.72851,0,0,0.083333,-0,-0,0.66667
0.48261,0.7558,5.7913,0.3837,56.347,519.57,-5.9256,1.9752,-1.4797,-7.9008,-1.9007e-12,-0.73987,0,0,0.083333,-0,-0,0.66667
0.98946,0.88287,11.874,0.5743,2.1726,2.1743,-18.184,6.0613,-0.82467,-24.245,3.2771e-05,-0.41234,0,0,0.083333,-0,-0,0.66667
0.88404,0.16372,10.609,-0.50441,-20.997,32.953,14.27,-4.7565,-1.0916,19.026,8.2004e-09,-0.54581,0,0,0.083333,-0,-0,0.66667
0.007732,0.43667,0.092784,-0.094999,-18.184,1535.1,0.023505,-0.0078348,-1.965,0.03134,3.5372e-07,-0.98248,0,0,0.083333,5.3969e-18,0,0.66667
0.47505,0.46144,5.7006,-0.057837,-8.5651,532.75,0.87921,-0.29307,-1.9846,1.1723,1.2224e-12,-0.99228,0,0,0.083333,-3.9475e-16,0,0.66667
0.85741,0.51545,10.289,0.02318,1.1652,47.042,-0.63599,0.212,-2.0002,-0.84799,6.0958e-10,-1.0001,0,0,0.083333,3.158e-15,0,0.66667
0.34353,0.96147,4.1223,0.69221,117.16,787.69,-7.6093,2.5364,-0.30341,-10.146,8.7454e-12,-0.15171,0,0,0.083333,5.9212e-16,-7.0521e-17,0.66667
0.72899,0.10651,8.7479,-0.59024,-52.97,159.89,13.769,-4.5897,-0.75802,18.359,1.3601e-11,-0.37901,0,0,0.083333,-0,-0,0.66667
0.41832,0.21242,5.0198,-0.43138,-68.162,638.72,5.7744,-1.9248,-1.338,7.6993,-5.119e-12,-0.66898,0,0,0.083333,-7.8949e-16,0,0.66667
0.095764,0.39623,1.1492,-0.15565,-29.524,1331.4,0.47699,-0.159,-1.9161,0.63598,3.4503e-08,-0.95803,0,0,0.083333,9.8686e-17,0,0.66667
0.31526,0.041313,3.7831,-0.68803,-118.91,846.15,6.941,-2.3137,-0.3175,9.2546,-1.7094e-11,-0.15875,0,0,0.083333,7.8949e-16,0,0.66667
0.31302,0.27078,3.7562,-0.34382,-59.388,850.24,3.4439,-1.148,-1.5856,4.5919,-7.5406e-13,-0.79281,0,0,0.083333,-3.9475e-16,0,0.66667
0.65455,0.73351,7.8546,0.35026,38.278,249.59,-7.3364,2.4455,-1.5665,-9.7819,-1.7937e-12,-0.78325,0,0,0.083333,-0,-0,0.66667
0.92687,0.083069,11.122,-0.6254,-16.809,15.197,18.549,-6.1831,-0.60657,24.732,-1.5563e-06,-0.30328,0,0,0.083333,-7.8949e-16,0,0.66667
0.70369,0.96115,8.4443,0.69172,66.985,189.14,-15.576,5.1921,-0.30481,-20.768,-9.0417e-13,-0.1524,0,0,0.083333,-7.8949e-16,0,0.66667
0.32303,0.79047,3.8764,0.43571,74.758,829.45,-4.504,1.5013,-1.3222,-6.0053,1.9593e-12,-0.66112,0,0,0.083333,-0,-0,0.66667
0.68312,0.04274,8.1974,-0.68589,-70.172,214.02,14.993,-4.9978,-0.32521,19.991,-2.2133e-12,-0.1626,0,0,0.083333,-0,-0,0.66667
0.084102,0.61924,1.0092,0.17887,34.001,1358.3,-0.48138,0.16046,-1.8831,-0.64184,-6.0786e-08,-0.94155,0,0,0.083333,4.9343e-17,0,0.66667
0.3755,0.39127,4.506,-0.16309,-26.808,722.18,1.9597,-0.65324,-1.9112,2.613,-1.0552e-12,-0.95561,0,0,0.083333,-0,-0,0.66667
0.19006,0.68785,2.2807,0.28177,52.005,1117.2,-1.7137,0.57123,-1.7202,-2.2849,7.2443e-11,-0.86008,0,0,0.083333,7.8949e-16,0,0.66667
0.69305,0.01768,8.3166,-0.72348,-72.159,202.02,16.045,-5.3483,-0.13548,21.393,-1.1386e-12,-0.06774,0,0,0.083333,-0,-0,0.66667
0.66211,0.71928,7.9453,0.32893,35.313,239.55,-6.9691,2.323,-1.6132,-9.2921,-2.526e-12,-0.80658,0,0,0.083333,-0,-0,0.66667
0.35307,0.8519,4.2369,0.52785,88.558,767.85,-5.9638,1.9879,-1.0057,-7.9518,5.0875e-12,-0.50284,0,0,0.083333,-0,-0,0.66667
0.1806,0.83313,2.1672,0.49969,92.65,1138.6,-2.8879,0.96263,-1.1081,-3.8505,1.0895e-09,-0.55403,0,0,0.083333,-1.9737e-16,0,0.66667
0.15666,0.13687,1.8799,-0.5447,-101.87,1192.6,2.7307,-0.91022,-0.95122,3.6409,-1.4206e-09,-0.47561,0,0,0.083333,3.9475e-16,0,0.66667
0.23699,0.95886,2.8439,0.68829,124.67,1013.8,-5.2197,1.7399,-0.31653,-6.9597,7.7474e-11,-0.15826,0,0,0.083333,1.9737e-16,0,0.66667
0.32846,0.11359,3.9415,-0.57961,-99.144,818.45,6.0922,-2.0307,-0.81188,8.1229,2.863e-12,-0.40594,0,0,0.083333,-3.9475e-16,0,0.66667
0.8696,0.45428,10.435,-0.068585,-3.1708,39.716,1.9085,-0.63618,-1.9799,2.5447,-1.0195e-09,-0.98996,0,0,0.083333,5.4918e-16,0,0.66667
0.12191,0.96751,1.463,0.70126,132.59,1271.7,-2.7358,0.91193,-0.25277,-3.6477,5.2892e-07,-0.12639,0,0,0.083333,-3.7007e-17,0,0.66667
0.16814,0.20521,2.0177,-0.44219,-82.332,1166.6,2.3792,-0.79308,-1.3035,3.1723,2.4883e-10,-0.65176,0,0,0.083333,-0,-0,0.66667
0.37046,0.67156,4.4455,0.25733,42.495,732.35,-3.0506,1.0169,-1.7621,-4.0675,4.2937e-12,-0.88106,0,0,0.083333,-0,-0,0.66667
0.60435,0.0019786,7.2522,-0.74703,-91.041,321.63,14.447,-4.8156,-0.014113,19.263,2.2089e-12,-0.0070565,0,0,0.083333,-0,-0,0.66667
0.055815,0.26573,0.66978,-0.35141,-67.101,1423.6,0.62765,-0.20922,-1.5567,0.83686,1.4652e-07,-0.77835,0,0,0.083333,9.8686e-17,0,0.66667
0.24523,0.82851,2.9427,0.49276,88.757,995.47,-3.8668,1.2889,-1.134,-5.1558,-5.4685e-12,-0.56698,0,0,0.083333,-3.9475e-16,0,0.66667
0.83397,0.85241,10.008,0.52862,30.749,64.061,-14.107,4.7024,-1.003,-18.81,2.768e-09,-0.50152,0,0,0.083333,-0,-0,0.66667
0.66288,0.18898,7.9546,-0.46653,-50.047,238.92,9.8962,-3.2987,-1.2233,13.195,-3.4666e-12,-0.61166,0,0,0.083333,1.579e-15,0,0.66667
0.35143,0.16828,4.2172,-0.49759,-83.575,771.13,5.5957,-1.8652,-1.1153,7.461,-1.6076e-13,-0.55765,0,0,0.083333,-0,-0,0.66667
0.11421,0.84243,1.3705,0.51364,97.174,1289.2,-1.8773,0.62575,-1.0606,-2.503,7.784e-09,-0.5303,0,0,0.083333,3.1297e-16,0,0.66667
0.3249,0.45829,3.8988,-0.062558,-10.707,825.25,0.65041,-0.2168,-1.9858,0.86721,-4.9933e-12,-0.99292,0,0,0.083333,-0,-0,0.66667
0.24452,0.87613,2.9342,0.5642,101.71,997.12,-4.4146,1.4715,-0.86623,-5.8861,-7.0085e-11,-0.43311,0,0,0.083333,-7.8949e-16,0,0.66667
0.71057,0.57143,8.5268,0.10715,10.124,179.35,-2.4364,0.81212,-1.955,-3.2485,1.0401e-12,-0.97752,0,0,0.083333,-0,-0,0.66667
0.30055,0.45703,3.6066,-0.064461,-11.221,876.29,0.61995,-0.20665,-1.9841,0.82661,2.6441e-12,-0.99207,0,0,0.083333,-0,-0,0.66667
0.67724,0.78096,8.1268,0.42143,43.635,220.33,-9.1331,3.0444,-1.3668,-12.178,2.6228e-12,-0.68342,0,0,0.083333,-2.4672e-17,0,0.66667
0.41266,0.20486,4.9519,-0.44271,-70.358,649.62,5.846,-1.9487,-1.2991,7.7947,-1.1774e-11,-0.64953,0,0,0.083333,7.8949e-16,0,0.66667
0.34994,0.56267,4.1993,0.094,15.784,773.72,-1.0526,0.35087,-1.9663,-1.4035,8.1788e-12,-0.98314,0,0,0.083333,-0,-0,0.66667
0.78582,0.50929,9.4299,0.013937,1.0153,101.79,-0.35045,0.11682,-1.9971,-0.46727,-4.9484e-11,-0.99856,0,0,0.083333,-0,-0,0.66667
0.1854,0.90732,2.2248,0.61098,113.16,1127.9,-3.6249,1.2083,-0.676,-4.8332,3.6364e-09,-0.338,0,0,0.083333,7.8949e-16,1.3053e-17,0.66667
0.45682,0.96662,5.4819,0.69992,106.29,567.12,-10.232,3.4106,-0.2582,-13.642,4.7846e-12,-0.1291,0,0,0.083333,-1.1842e-15,0,0.66667
0.58351,0.71058,7.0021,0.31587,39.846,351.56,-5.898,1.966,-1.6423,-7.8641,-1.632e-12,-0.82115,0,0,0.083333,3.9475e-16,0,0.66667
0.3212,0.21449,3.8544,-0.42826,-73.574,833.26,4.4018,-1.4673,-1.3445,5.8691,2.2204e-15,-0.67223,0,0,0.083333,3.8756e-16,0,0.66667
0.70625,0.4274,8.475,-0.1089,-10.418,184.38,2.4611,-0.82038,-1.9578,3.2815,6.1351e-13,-0.9789,0,0,0.083333,-7.8949e-16,0,0.66667
0.91783,0.77585,11.014,0.41377,12.352,17.367,-12.153,4.0509,-1.3902,-16.204,5.5093e-08,-0.69512,0,0,0.083333,2.5172e-15,0,0.66667
0.073071,0.43242,0.87685,-0.10138,-19.302,1383.7,0.23704,-0.079015,-1.9612,0.31606,1.0949e-07,-0.98061,0,0,0.083333,-0,-0,0.66667
0.18143,0.4371,2.1771,-0.094346,-17.464,1136.5,0.54774,-0.18258,-1.9661,0.73032,-2.8376e-10,-0.98304,0,0,0.083333,-4.5643e-16,0,0.66667
0.50911,0.76859,6.1093,0.40288,57.137,473.14,-6.5636,2.1879,-1.4188,-8.7515,-9.3658e-13,-0.7094,0,0,0.083333,-0,-0,0.66667
0.79988,0.60458,9.5986,0.15687,10.761,89.622,-4.0153,1.3384,-1.9126,-5.3538,-6.7011e-11,-0.95631,0,0,0.083333,-0,-0,0.66667
0.63096,0.5947,7.5715,0.14205,16.335,281.53,-2.868,0.95599,-1.926,-3.824,3.8214e-13,-0.96298,0,0,0.083333,-1.579e-15,0,0.66667
0.019691,0.4018,0.23629,-0.14731,-28.189,1507.3,0.092818,-0.03094,-1.9219,0.12376,-5.6251e-07,-0.96097,0,0,0.083333,-2.4672e-17,0,0.66667
0.32998,0.85195,3.9598,0.52792,90.168,815.2,-5.5745,1.8582,-1.0118,-7.4327,-4.4302e-12,-0.5059,0,0,0.083333,-0,-0,0.66667
0.65383,0.39671,7.8459,-0.15493,-16.944,250.21,3.2416,-1.0805,-1.916,4.3222,-2.2604e-12,-0.95801,0,0,0.083333,-0,-0,0.66667
0.68714,0.81893,8.2457,0.47839,48.317,208.16,-10.519,3.5064,-1.1931,-14.025,-3.1077e-12,-0.59653,0,0,0.083333,1.579e-15,0,0.66667
0.48225,0.39361,5.787,-0.15958,-23.425,519.9,2.4626,-0.82088,-1.9113,3.2835,-3.4608e-12,-0.95563,0,0,0.083333,-0,-0,0.66667
0.053735,0.41856,0.64482,-0.12216,-23.318,1428.4,0.21006,-0.070021,-1.9427,0.28008,2.001e-08,-0.97136,0,0,0.083333,-0,-0,0.66667
0.62779,0.3525,7.5335,-0.22126,-25.621,286.09,4.4448,-1.4816,-1.8266,5.9265,-2.5913e-12,-0.91332,0,0,0.083333,-0,-0,0.66667
0.50403,0.181,6.0484,-0.47851,-68.368,482.1,7.7178,-2.5726,-1.1847,10.29,-4.6252e-12,-0.59237,0,0,0.083333,3.9475e-16,0,0.66667
0.72541,0.45976,8.705,-0.060359,-5.4555,162.5,1.4011,-0.46704,-1.9831,1.8682,1.0323e-12,-0.99157,0,0,0.083333,-0,-0,0.66667
0.39049,0.88182,4.6859,0.57273,93.058,693.08,-7.1568,2.3856,-0.84108,-9.5424,7.0943e-12,-0.42054,0,0,0.083333,-0,6.7372e-17,0.66667
0.83573,0.64832,10.029,0.22248,12.763,61.784,-5.9498,1.9833,-1.82,-7.9331,9.334e-11,-0.90998,0,0,0.083333,-0,-0,0.66667
0.3075,0.47001,3.69,-0.044984,-7.7941,861.62,0.44265,-0.14755,-1.9913,0.5902,1.455e-12,-0.99565,0,0,0.083333,-0,-0,0.66667
0.86379,0.74578,10.365,0.36867,17.807,43.749,-10.19,3.3968,-1.5154,-13.587,4.4103e-09,-0.7577,0,0,0.083333,-0,-0,0.66667
0.014481,0.16046,0.17377,-0.50931,-97.607,1519.4,0.236,-0.078662,-1.0827,0.31467,6.2785e-06,-0.54133,0,0,0.083333,-0,-0,0.66667
0.76274,0.80242,9.1529,0.45363,36.258,124.31,-11.072,3.6907,-1.2687,-14.763,-1.3334e-11,-0.63437,0,0,0.083333,-7.8949e-16,0,0.66667
0.82737,0.53621,9.9284,0.054319,3.2585,67.66,-1.4381,0.47938,-1.9954,-1.9175,-2.3419e-10,-0.99769,0,0,0.083333,-0,-0,0.66667
0.6809,0.065784,8.1708,-0.65132,-66.983,216.62,14.192,-4.7305,-0.48852,18.922,-3.3893e-12,-0.24426,0,0,0.083333,1.579e-15,0,0.66667
0.90273,0.99868,10.833,0.74802,26.578,25.438,-21.609,7.2028,-0.011026,-28.811,9.2774e-08,-0.0055128,0,0,0.083333,-1.579e-15,-1.5937e-17,0.66667
0.20173,0.82308,2.4208,0.48462,89.096,1091.3,-3.1285,1.0428,-1.1686,-4.1713,5.9726e-11,-0.58429,0,0,0.083333,-0,-0,0.66667
0.35195,0.74005,4.2234,0.36007,60.409,769.85,-4.0553,1.3518,-1.5348,-5.407,2.7081e-12,-0.7674,0,0,0.083333,-0,-0,0.66667
0.22914,0.20064,2.7497,-0.44904,-81.522,1030.7,3.2926,-1.0975,-1.2799,4.3902,-7.4013e-11,-0.63995,0,0,0.083333,-0,-0,0.66667
0.84492,0.2232,10.139,-0.4152,-22.64,55.96,11.226,-3.7419,-1.3919,14.968,6.4593e-10,-0.69597,0,0,0.083333,-0,-0,0.66667
0.74641,0.26853,8.9569,-0.3472,-29.364,140.43,8.2929,-2.7643,-1.5704,11.057,3.4914e-12,-0.7852,0,0,0.083333,-0,-0,0.66667
0.86905,0.19166,10.429,-0.46252,-21.567,41,12.862,-4.2875,-1.2365,17.15,-7.112e-09,-0.61825,0,0,0.083333,-0,-0,0.66667
0.34762,0.9859,4.1715,0.72885,123.01,779.41,-8.1077,2.7026,-0.10971,-10.81,-5.3291e-14,-0.054857,0,0,0.083333,-3.9475e-16,0,0.66667
0.15395,0.34567,1.8474,-0.23149,-43.271,1198.5,1.1404,-0.38014,-1.8121,1.5206,4.7001e-10,-0.90607,0,0,0.083333,-0,-0,0.66667
0.96828,0.26998,11.619,-0.34503,-3.9769,3.4472,10.691,-3.5636,-1.5828,14.254,1.2535e-06,-0.79138,0,0,0.083333,-0,-0,0.66667
0.44892,0.38104,5.3871,-0.17843,-27.257,580.61,2.5633,-0.85443,-1.8855,3.4177,4.3552e-12,-0.94273,0,0,0.083333,-0,-0,0.66667
0.7299,0.33153,8.7588,-0.2527,-22.539,157.79,5.9023,-1.9674,-1.7707,7.8697,5.7154e-13,-0.88535,0,0,0.083333,-0,-0,0.66667
0.65417,0.049432,7.85,-0.67585,-74.159,251.27,14.148,-4.7159,-0.37778,18.864,-4.0945e-13,-0.18889,0,0,0.083333,-0,-0,0.66667
0.14285,0.52089,1.7142,0.031338,5.876,1223.7,-0.14325,0.04775,-1.9982,-0.191,-1.075e-10,-0.99911,0,0,0.083333,-0,-0,0.66667
0.84418,0.86043,10.13,0.54065,29.678,57.002,-14.605,4.8683,-0.9667,-19.473,-2.0833e-09,-0.48335,0,0,0.083333,-1.579e-15,0,0.66667
0.97846,0.028444,11.742,-0.70733,-5.741,4.0381,22.147,-7.3824,-0.21839,29.53,6.4325e-05,-0.10919,0,0,0.083333,7.8949e-16,0,0.66667
0.96625,0.22659,11.595,-0.41012,-5.0579,4.0357,12.681,-4.2269,-1.4033,16.908,5.2102e-07,-0.70167,0,0,0.083333,-0,-0,0.66667
0.3364,0.46031,4.0368,-0.059537,-10.103,801.45,0.64091,-0.21364,-1.9833,0.85455,1.1129e-11,-0.99166,0,0,0.083333,-3.9475e-16,0,0.66667
0.92595,0.6871,11.111,0.28065,7.5442,13.97,-8.3158,2.7719,-1.7198,-11.088,1.9991e-07,-0.85989,0,0,0.083333,-2.4672e-16,0,0.66667
0.13324,0.94588,1.5989,0.66881,126.05,1245.9,-2.8517,0.95057,-0.40548,-3.8023,6.0227e-08,-0.20274,0,0,0.083333,-0,-0,0.66667
0.93972,0.9198,11.277,0.6297,14.028,11.215,-18.936,6.3119,-0.59169,-25.248,-5.45e-06,-0.29584,0,0,0.083333,1.579e-15,0,0.66667
0.0441,0.52136,0.5292,0.03204,6.121,1450.7,-0.045215,0.015071,-1.997,-0.060286,-1.6241e-07,-0.99849,0,0,0.083333,9.8686e-17,0,0.66667
0.40908,0.77445,4.9089,0.41167,65.646,656.47,-5.389,1.7963,-1.3983,-7.1853,8.5576e-13,-0.69913,0,0,0.083333,-0,-0,0.66667
0.84301,0.25814,10.116,-0.36279,-19.992,57.075,9.7866,-3.2622,-1.5375,13.049,-3.2737e-10,-0.76877,0,0,0.083333,1.579e-15,0,0.66667
0.72623,0.86015,8.7148,0.54022,48.866,162.71,-12.554,4.1848,-0.95791,-16.739,1.9348e-11,-0.47895,0,0,0.083333,-8.6003e-16,0,0.66667
0.72093,0.58245,8.6511,0.12367,11.334,167.55,-2.8531,0.95102,-1.9474,-3.8041,-2.7829e-12,-0.97369,0,0,0.083333,7.8949e-16,0,0.66667
0.27735,0.50647,3.3281,0.0097109,1.7154,925.66,-0.086185,0.028728,-1.9987,-0.11491,-7.894e-12,-0.99935,0,0,0.083333,-0,-0,0.66667
0.42121,0.15878,5.0546,-0.51183,-80.677,633.34,6.8989,-2.2996,-1.0751,9.1985,-1.2629e-11,-0.53755,0,0,0.083333,-0,-0,0.66667
0.58955,0.098303,7.0746,-0.60255,-75.354,343.17,11.367,-3.7891,-0.708,15.157,-2.3803e-12,-0.354,0,0,0.083333,-0,-0,0.66667
0.38914,0.70633,4.6697,0.30949,50.274,695.27,-3.8539,1.2846,-1.6627,-5.1385,7.2409e-13,-0.83135,0,0,0.083333,-0,-0,0.66667
0.50598,0.72314,6.0717,0.33472,47.656,478.42,-5.4195,1.8065,-1.5987,-7.2259,-5.2034e-12,-0.79935,0,0,0.083333,1.579e-15,0,0.66667
0.54035,0.21788,6.4842,-0.42318,-57.359,420.53,7.3173,-2.4391,-1.3606,9.7564,-3.3564e-12,-0.68032,0,0,0.083333,8.8818e-16,0,0.66667
0.82427,0.37278,9.8912,-0.19082,-11.641,70.13,5.0333,-1.6778,-1.8703,6.7111,8.4195e-11,-0.93516,0,0,0.083333,-1.579e-15,0,0.66667
0.72498,0.44651,8.6997,-0.080231,-7.2616,162.99,1.8613,-0.62043,-1.9734,2.4817,2.0778e-12,-0.98671,0,0,0.083333,-0,-0,0.66667
0.66049,0.41929,7.9259,-0.12107,-13.036,241.35,2.5588,-0.85294,-1.9459,3.4118,-7.1054e-13,-0.97295,0,0,0.083333,-0,-0,0.66667
0.035884,0.8363,0.43061,0.50445,96.568,1469.8,-0.57925,0.19308,-1.0932,-0.77234,-1.9831e-06,-0.54658,0,0,0.083333,4.9343e-17,0,0.66667
0.15539,0.93296,1.8646,0.64944,121.59,1195.6,-3.2292,1.0764,-0.50602,-4.3056,-5.5986e-08,-0.25301,0,0,0.083333,9.8686e-17,-4.902e-17,0.66667
0.88653,0.021107,10.638,-0.71834,-29.49,32.913,20.378,-6.7928,-0.16368,27.171,-3.8222e-08,-0.081838,0,0,0.083333,-0,-0,0.66667
0.76576,0.83426,9.1891,0.50138,39.656,121.56,-12.286,4.0953,-1.1133,-16.381,-1.7299e-11,-0.55665,0,0,0.083333,-0,-0,0.66667
0.18038,0.79132,2.1646,0.43699,81.003,1139,-2.5224,0.84081,-1.3169,-3.3632,-7.3235e-12,-0.65844,0,0,0.083333,-0,-0,0.66667
0.065156,0.19595,0.78187,-0.45607,-87.027,1402.1,0.95091,-0.31697,-1.2614,1.2679,2.9073e-07,-0.63071,0,0,0.083333,-0,-0,0.66667
0.16273,0.59753,1.9528,0.1463,27.263,1178.6,-0.76184,0.25395,-1.9207,-1.0158,3.0012e-11,-0.96037,0,0,0.083333,3.9475e-16,0,0.66667
0.83741,0.24947,10.049,-0.3758,-21.392,61.004,10.07,-3.3568,-1.4954,13.427,1.1955e-10,-0.7477,0,0,0.083333,-2.3191e-15,0,0.66667
0.97311,0.56584,11.677,0.098756,0.94953,2.1591,-3.0752,1.0251,-1.9642,-4.1003,-7.6306e-07,-0.9821,0,0,0.083333,-0,-0,0.66667
0.7551,0.55649,9.0613,0.084735,6.9439,131.09,-2.0475,0.68249,-1.972,-2.73,-9.5555e-12,-0.98602,0,0,0.083333,-0,-0,0.66667
0.7846,0.48547,9.4153,-0.021795,-1.5959,102.88,0.54722,-0.18241,-1.9977,0.72962,2.7358e-11,-0.99883,0,0,0.083333,-1.579e-15,0,0.66667
0.029384,0.80094,0.35261,0.45141,86.427,1484.8,-0.42446,0.14149,-1.2779,-0.56594,4.5535e-06,-0.63896,0,0,0.083333,-0,-0,0.66667
0.87464,0.12655,10.496,-0.56018,-25.131,38.29,15.678,-5.2261,-0.89185,20.905,-3.1591e-08,-0.44592,0,0,0.083333,3.158e-15,1.8843e-17,0.66667
0.68115,0.84575,8.1738,0.51863,53.219,215.74,-11.304,3.7681,-1.0409,-15.073,3.296e-12,-0.52044,0,0,0.083333,-0,-0,0.66667
0.34905,0.69207,4.1886,0.2881,48.433,775.68,-3.218,1.0727,-1.7025,-4.2906,-7.4021e-12,-0.85123,0,0,0.083333,7.8949e-16,0,0.66667
0.49958,0.18161,5.995,-0.47759,-68.646,489.84,7.635,-2.545,-1.1957,10.18,-2.9821e-12,-0.59784,0,0,0.083333,3.9475e-16,-3.5095e-18,0.66667
0.95006,0.90026,11.401,0.60039,11.101,8.3266,-18.253,6.0843,-0.71884,-24.337,1.1469e-06,-0.35942,0,0,0.083333,-7.8949e-16,6.4466e-17,0.66667
0.054088,0.81076,0.64905,0.46613,89.069,1427.6,-0.80678,0.26893,-1.2244,-1.0757,-1.5375e-08,-0.6122,0,0,0.083333,-1.4803e-16,0,0.66667
0.1917,0.65963,2.3004,0.23944,44.158,1113.5,-1.4688,0.48961,-1.7952,-1.9584,6.4643e-11,-0.89762,0,0,0.083333,-0,-0,0.66667
0.15015,0.93317,1.8018,0.64975,121.84,1207.4,-3.1219,1.0406,-0.49592,-4.1626,-7.6242e-08,-0.24796,0,0,0.083333,-0,-0,0.66667
0.53825,0.75052,6.459,0.37578,51.082,423.89,-6.4723,2.1574,-1.4952,-8.6298,-2.2111e-12,-0.74759,0,0,0.083333,-0,-0,0.66667
0.23563,0.25034,2.8275,-0.37449,-67.746,1016.3,2.8237,-0.94122,-1.5068,3.7649,-1.3244e-11,-0.75339,0,0,0.083333,7.8949e-16,0,0.66667
0.076734,0.46742,0.92081,-0.048864,-9.2983,1375.2,0.11999,-0.039995,-1.9964,0.15998,-4.9419e-08,-0.99819,0,0,0.083333,-0,-0,0.66667
0.515,0.90438,6.18,0.60657,85.45,463.6,-9.9962,3.3321,-0.6986,-13.328,2.4203e-12,-0.3493,0,0,0.083333,-2.9606e-16,0,0.66667
0.83625,0.84836,10.035,0.52254,30.009,62.406,-13.983,4.6611,-1.0256,-18.644,2.6212e-09,-0.51278,0,0,0.083333,-3.158e-15,0,0.66667
0.68195,0.55467,8.1834,0.082006,8.3756,213.79,-1.7896,0.59652,-1.973,-2.3861,-2.6756e-14,-0.98651,0,0,0.083333,7.8949e-16,0,0.66667
0.036724,0.025988,0.44068,-0.71102,-136.29,1467.9,0.83557,-0.27851,-0.19985,1.1141,2.3661e-05,-0.099927,0,0,0.083333,-0,-0,0.66667
0.04527,0.03859,0.54324,-0.69211,-132.55,1448.1,1.0026,-0.33419,-0.30018,1.3368,3.1761e-05,-0.15009,0,0,0.083333,-0,-7.0941e-17,0.66667
0.53809,0.072325,6.457,-0.64151,-87.408,424.94,11.046,-3.682,-0.53269,14.728,3.3937e-12,-0.26635,0,0,0.083333,-0,-0,0.66667
0.14142,0.23022,1.697,-0.40467,-75.975,1227.1,1.8313,-0.61042,-1.4229,2.4417,2.5659e-09,-0.71143,0,0,0.083333,-0,-0,0.66667
0.70723,0.11713,8.4868,-0.5743,-54.975,184.43,12.997,-4.3324,-0.82588,17.33,6.9456e-12,-0.41294,0,0,0.083333,-0,-0,0.66667
0.24745,0.18911,2.9693,-0.46633,-83.886,990.6,3.6925,-1.2308,-1.229,4.9234,5.1094e-11,-0.6145,0,0,0.083333,-0,-0,0.66667
0.43996,0.88505,5.2795,0.57758,89.292,598.04,-8.1315,2.7105,-0.81513,-10.842,-3.5492e-12,-0.40757,0,0,0.083333,-0,-0,0.66667
0.62029,0.35326,7.4435,-0.22011,-25.883,296.76,4.369,-1.4563,-1.8254,5.8254,-1.1435e-12,-0.91269,0,0,0.083333,-0,-0,0.66667
0.97274,0.2423,11.673,-0.38655,-3.8259,2.9354,12.032,-4.0108,-1.4675,16.043,3.5655e-06,-0.73375,0,0,0.083333,-0,-0,0.66667
0.19701,0.49506,2.3641,-0.0074058,-1.3624,1101.6,0.046688,-0.015563,-1.9967,0.06225,1.6621e-10,-0.99834,0,0,0.083333,-5.9212e-16,0,0.66667
0.91184,0.9253,10.942,0.63795,20.542,20.859,-18.615,6.2049,-0.54952,-24.819,-5.9202e-08,-0.27476,0,0,0.083333,-0,-0,0.66667
0.35078,0.97482,4.2093,0.71223,119.88,772.95,-7.9946,2.6649,-0.19265,-10.66,-4.5235e-12,-0.096324,0,0,0.083333,-0,-0,0.66667
0.16192,0.63754,1.9431,0.2063,38.46,1180.5,-1.069,0.35633,-1.8451,-1.4253,-2.1618e-10,-0.92257,0,0,0.083333,3.9475e-16,0,0.66667
0.42086,0.34494,5.0504,-0.23258,-36.624,633.55,3.1324,-1.0441,-1.8135,4.1765,4.0064e-12,-0.90676,0,0,0.083333,-1.579e-15,0,0.66667
0.84148,0.0782,10.098,-0.6327,-35.355,59.329,17.037,-5.679,-0.5781,22.716,-7.0106e-09,-0.28905,0,0,0.083333,-0,-0,0.66667
0.043786,0.93575,0.52543,0.65362,125.16,1451.5,-0.91582,0.30526,-0.48215,-1.2211,-2.3292e-05,-0.24107,0,0,0.083333,-0,-2.1218e-17,0.66667
0.13697,0.14018,1.6437,-0.53974,-101.53,1237.3,2.3657,-0.78857,-0.96306,3.1543,-2.139e-09,-0.48153,0,0,0.083333,1.9737e-16,0,0.66667
0.58994,0.33376,7.0793,-0.24936,-31.085,341.63,4.7074,-1.5691,-1.7777,6.2765,-4.0457e-13,-0.88887,0,0,0.083333,-0,-0,0.66667
0.40858,0.96915,4.903,0.70372,112.51,658.15,-9.2008,3.0669,-0.24213,-12.268,1.1231e-11,-0.12107,0,0,0.083333,-0,-0,0.66667
0.47828,0.54932,5.7393,0.073976,10.912,526.95,-1.1322,0.3774,-1.9767,-1.5096,-1.0415e-12,-0.98834,0,0,0.083333,-7.8949e-16,0,0.66667
0.82205,0.36567,9.8646,-0.20149,-12.434,71.831,5.3005,-1.7668,-1.852,7.0673,1.2051e-10,-0.92601,0,0,0.083333,-0,-0,0.66667
0.16727,0.79239,2.0073,0.43858,81.684,1168.5,-2.3476,0.78254,-1.3137,-3.1301,-2.7164e-10,-0.65685,0,0,0.083333,-0,-0,0.66667
0.32202,0.70099,3.8643,0.30148,51.734,831.39,-3.1067,1.0356,-1.6729,-4.1422,4.5097e-13,-0.83647,0,0,0.083333,-0,-0,0.66667
0.20551,0.45933,2.4661,-0.061004,-11.183,1082.7,0.40118,-0.13373,-1.9882,0.53491,-8.2444e-12,-0.99411,0,0,0.083333,1.9737e-16,0,0.66667
0.099323,0.71998,1.1919,0.32997,62.574,1323.3,-1.0488,0.34958,-1.6108,-1.3983,-5.0478e-08,-0.80541,0,0,0.083333,-0,-0,0.66667
0.52436,0.27671,6.2923,-0.33493,-46.47,447.01,5.62,-1.8733,-1.5977,7.4933,1.199e-13,-0.79884,0,0,0.083333,-1.9737e-16,0,0.66667
0.21257,0.6649,2.5509,0.24735,45.217,1067.1,-1.6826,0.56086,-1.7788,-2.2434,2.76e-11,-0.88942,0,0,0.083333,-0,-0,0.66667
0.90438,0.51361,10.853,0.020417,0.70195,22.023,-0.59087,0.19696,-2.0008,-0.78782,-6.6646e-09,-1.0004,0,0,0.083333,-0,-0,0.66667
0.046031,0.22699,0.55237,-0.40952,-78.294,1446.3,0.60322,-0.20107,-1.4089,0.80429,1.0392e-06,-0.70447,0,0,0.083333,-0,-0,0.66667
0.89727,0.77021,10.767,0.40531,15,26.013,-11.638,3.8792,-1.4118,-15.517,5.6864e-08,-0.70592,0,0,0.083333,-0,-0,0.66667
0.58773,0.0021656,7.0528,-0.74675,-93.846,346.54,14.045,-4.6815,-0.0147,18.726,7.0859e-12,-0.0073499,0,0,0.083333,-0,-0,0.66667
0.8616,0.33154,10.339,-0.25268,-12.369,44.744,6.9668,-2.3223,-1.7746,9.289,-2.234e-09,-0.88729,0,0,0.083333,-1.579e-15,0,0.66667
0.02917,0.4359,0.35005,-0.096156,-18.391,1485.3,0.089757,-0.02992,-1.9703,0.11968,-6.9026e-07,-0.98517,0,0,0.083333,-1.4186e-17,0,0.66667
0.33301,0.64438,3.9961,0.21657,36.855,808.53,-2.3079,0.76929,-1.8305,-3.0771,-8.3682e-12,-0.91525,0,0,0.083333,-0,-0,0.66667
0.50111,0.48759,6.0133,-0.018616,-2.6658,486.56,0.29851,-0.099505,-2.003,0.39802,6.5122e-12,-1.0015,0,0,0.083333,-7.8949e-16,0,0.66667
0.21711,0.23808,2.6053,-0.39288,-71.711,1057.1,2.7296,-0.90985,-1.4541,3.6394,2.6479e-12,-0.72706,0,0,0.083333,-0,-0,0.66667
0.4226,0.50424,5.0712,0.0063536,0.99832,630.11,-0.08592,0.02864,-2.0059,-0.11456,-1.0778e-11,-1.003,0,0,0.083333,3.158e-15,0,0.66667
0.029533,0.25831,0.35439,-0.36254,-69.384,1484.5,0.34261,-0.11421,-1.5357,0.45682,-2.2989e-06,-0.76786,0,0,0.083333,-0,-0,0.66667
0.58718,0.57368,7.0462,0.11053,13.841,345.67,-2.0768,0.69225,-1.9525,-2.769,-1.9984e-14,-0.97626,0,0,0.083333,-0,-0,0.66667
0.92973,0.69916,11.157,0.29873,7.6307,12.746,-8.8878,2.9626,-1.6783,-11.85,2.4193e-07,-0.83917,0,0,0.083333,-0,-0,0.66667
0.075808,0.19848,0.9097,-0.45228,-86.171,1377.5,1.0972,-0.36572,-1.2742,1.4629,1.7523e-07,-0.63708,0,0,0.083333,1.9737e-16,0,0.66667
0.84182,0.40509,10.102,-0.14237,-7.8834,57.386,3.8352,-1.2784,-1.9316,5.1135,-3.404e-10,-0.96579,0,0,0.083333,-1.7764e-15,0,0.66667
0.74778,0.026843,8.9734,-0.70973,-60.027,140.54,16.983,-5.6611,-0.21139,22.644,-6.2155e-12,-0.1057,0,0,0.083333,-0,-0,0.66667
0.22999,0.47214,2.7598,-0.041792,-7.5753,1028.5,0.30757,-0.10252,-1.9926,0.41009,-7.7994e-12,-0.99631,0,0,0.083333,-0,-0,0.66667
0.51812,0.92372,6.2174,0.63557,89.167,458.38,-10.538,3.5126,-0.5647,-14.05,6.4038e-13,-0.28235,0,0,0.083333,-0,-0,0.66667
0.31376,0.18887,3.7651,-0.4667,-80.618,848.85,4.6858,-1.5619,-1.2308,6.2477,2.1805e-12,-0.61539,0,0,0.083333,-0,-0,0.66667
0.61579,0.20308,7.3894,-0.44539,-52.92,303.74,8.7764,-2.9255,-1.2906,11.702,3.7446e-12,-0.64529,0,0,0.083333,-0,-0,0.66667
0.21317,0.967,2.5581,0.7005,128.33,1066.2,-4.7785,1.5928,-0.25313,-6.3713,1.2598e-10,-0.12656,0,0,0.083333,-1.4803e-16,0,0.66667
0.43589,0.61309,5.2307,0.16964,26.288,604.97,-2.3662,0.78872,-1.9007,-3.1549,-1.1662e-11,-0.95034,0,0,0.083333,3.9475e-16,0,0.66667
0.78908,0.60201,9.4689,0.15301,11,98.98,-3.8636,1.2879,-1.9127,-5.1514,-1.2555e-11,-0.95633,0,0,0.083333,-0,-0,0.66667
0.46647,0.89657,5.5976,0.59486,89.232,549.16,-8.8794,2.9598,-0.74349,-11.839,1.1386e-12,-0.37175,0,0,0.083333,-3.9475e-16,0,0.66667
0.67355,0.026473,8.0827,-0.71029,-74.463,226.17,15.309,-5.1031,-0.20975,20.413,4.583e-13,-0.10487,0,0,0.083333,-7.8949e-16,0,0.66667
0.88484,0.41989,10.618,-0.12016,-4.9394,31.41,3.4022,-1.1341,-1.945,4.5363,-7.0387e-09,-0.9725,0,0,0.083333,1.579e-15,0,0.66667
0.93814,0.55829,11.258,0.08743,1.9623,9.725,-2.6247,0.87489,-1.9791,-3.4996,2.2206e-08,-0.98957,0,0,0.083333,-1.579e-15,0,0.66667
0.98474,0.47971,11.817,-0.03044,-0.15931,0.79824,0.95921,-0.31974,-2.003,1.2789,-1.35e-06,-1.0015,0,0,0.083333,1.579e-15,0,0.66667
0.88356,0.40096,10.603,-0.14857,-6.173,32.111,4.2005,-1.4002,-1.9179,5.6007,-9.7912e-09,-0.95895,0,0,0.083333,7.8949e-16,0,0.66667
0.24358,0.51227,2.923,0.018398,3.312,998.75,-0.1434,0.0478,-1.9948,-0.1912,-1.181e-12,-0.99739,0,0,0.083333,7.8949e-16,0,0.66667
0.4083,0.74213,4.8997,0.36319,57.945,657.89,-4.7453,1.5818,-1.5333,-6.3271,1.8323e-12,-0.76665,0,0,0.083333,3.9475e-16,0,0.66667
0.37481,0.2551,4.4977,-0.36736,-60.461,723.78,4.406,-1.4687,-1.5276,5.8747,-1.3309e-12,-0.76381,0,0,0.083333,7.8949e-16,0,0.66667
0.15223,0.80743,1.8267,0.46115,86.321,1202.6,-2.2464,0.7488,-1.243,-2.9952,2.1297e-09,-0.62148,0,0,0.083333,-0,-0,0.66667
0.070456,0.32084,0.84547,-0.26874,-51.206,1389.8,0.60591,-0.20197,-1.7391,0.80788,2.1669e-07,-0.86955,0,0,0.083333,-1.9737e-16,0,0.66667
0.29574,0.65293,3.5489,0.2294,40.071,886.53,-2.171,0.72366,-1.818,-2.8946,-1.601e-11,-0.90902,0,0,0.083333,-5.9212e-16,0,0.66667
0.85996,0.73063,10.32,0.34595,17.142,46.003,-9.52,3.1733,-1.5801,-12.693,2.3187e-09,-0.79006,0,0,0.083333,-0,-0,0.66667
0.038983,0.89515,0.4678,0.59272,113.5,1462.6,-0.7394,0.24646,-0.74655,-0.98587,-1.2427e-05,-0.37328,0,0,0.083333,4.9343e-17,0,0.66667
0.21547,0.85315,2.5856,0.52972,96.83,1060.9,-3.6524,1.2175,-1.002,-4.8698,1.4866e-10,-0.50101,0,0,0.083333,-0,-0,0.66667
0.34655,0.42606,4.1586,-0.11091,-18.675,780.65,1.23,-0.41,-1.9567,1.64,-2.0464e-12,-0.97837,0,0,0.083333,3.9475e-16,0,0.66667
0.64816,0.53466,7.7779,0.051989,5.7582,257.76,-1.0783,0.35944,-1.987,-1.4378,3.8858e-12,-0.99349,0,0,0.083333,-1.579e-15,0,0.66667
0.56317,0.93398,6.758,0.65097,85.253,384.34,-11.731,3.9105,-0.49963,-15.642,-2.3581e-12,-0.24981,0,0,0.083333,-9.8686e-16,0,0.66667
0.79618,0.04826,9.5542,-0.67761,-47.556,94.623,17.264,-5.7547,-0.37272,23.019,1.6841e-09,-0.18636,0,0,0.083333,6.3611e-16,0,0.66667
0.68696,0.38658,8.2436,-0.17013,-17.156,207.64,3.74,-1.2467,-1.9029,4.9867,1.0001e-12,-0.95144,0,0,0.083333,-1.579e-15,0,0.66667
0.8895,0.80695,10.674,0.46043,18.289,29.979,-13.106,4.3685,-1.2511,-17.474,1.5576e-08,-0.62554,0,0,0.083333,-0,-0,0.66667
0.4869,0.91927,5.8428,0.6289,92.014,512.58,-9.7989,3.2663,-0.59464,-13.065,2.0464e-12,-0.29732,0,0,0.083333,7.8949e-16,0,0.66667
0.53592,0.51386,6.431,0.020796,2.8339,427.34,-0.35664,0.11888,-1.9959,-0.47552,8.5056e-12,-0.99795,0,0,0.083333,-1.579e-15,0,0.66667
0.83765,0.31094,10.052,-0.28359,-16.103,60.563,7.6015,-2.5338,-1.7115,10.135,-1.163e-10,-0.85576,0,0,0.083333,5.9212e-16,0,0.66667
0.0056932,0.87851,0.068318,0.56777,108.87,1539.8,-0.10343,0.034468,-0.85127,-0.13791,-1.247e-05,-0.42564,0,0,0.083333,-0,-0,0.66667
0.24257,0.67887,2.9109,0.2683,48.346,1001,-2.0826,0.6942,-1.74,-2.7768,4.9802e-12,-0.86998,0,0,0.083333,-3.9475e-16,0,0.66667
0.22151,0.22852,2.6581,-0.40722,-74.183,1047.4,2.8865,-0.96217,-1.411,3.8487,-2.1818e-12,-0.70552,0,0,0.083333,-0,-0,0.66667
0.56155,0.60838,6.7386,0.16258,21.281,385.72,-2.9214,0.97381,-1.9106,-3.8952,6.2439e-13,-0.95529,0,0,0.083333,-0,-0,0.66667
0.71761,0.1372,8.6113,-0.54421,-50.53,172.37,12.497,-4.1656,-0.95115,16.663,-8.9138e-12,-0.47557,0,0,0.083333,-0,-0,0.66667
0.2525,0.85647,3.0299,0.5347,95.964,979.71,-4.3203,1.4401,-0.98446,-5.7604,-9.5124e-13,-0.49223,0,0,0.083333,-0,-0,0.66667
0.50602,0.12309,6.0723,-0.56537,-80.613,478.9,9.1548,-3.0516,-0.86096,12.206,-3.8893e-12,-0.43048,0,0,0.083333,7.8949e-16,0,0.66667
0.73927,0.39609,8.8712,-0.15586,-13.483,147.54,3.6871,-1.229,-1.911,4.9161,1.4369e-12,-0.9555,0,0,0.083333,7.8949e-16,0,0.66667
0.7223,0.39672,8.6676,-0.15492,-14.14,166.04,3.5808,-1.1936,-1.9139,4.7744,1.1835e-12,-0.95697,0,0,0.083333,-7.8949e-16,0,0.66667
0.46831,0.78613,5.6197,0.4292,64.165,545.39,-6.432,2.144,-1.3518,-8.576,-1.2407e-11,-0.6759,0,0,0.083333,1.579e-15,0,0.66667
0.70619,0.12307,8.4743,-0.56539,-54.275,185.61,12.777,-4.2589,-0.86457,17.036,1.5893e-11,-0.43228,0,0,0.083333,-1.9737e-16,0,0.66667
0.55907,0.17539,6.7088,-0.48691,-64.103,390.31,8.7109,-2.9036,-1.1563,11.615,-1.8776e-12,-0.57816,0,0,0.083333,-0,-0,0.66667
0.078411,0.80388,0.94093,0.45581,86.811,1371.5,-1.1437,0.38123,-1.268,-1.5249,-8.3333e-08,-0.63401,0,0,0.083333,-0,-0,0.66667
0.9528,0.75248,11.434,0.37871,6.537,6.5825,-11.547,3.849,-1.4976,-15.396,5.5782e-07,-0.74878,0,0,0.083333,-0,-0,0.66667
0.97565,0.51169,11.708,0.017535,0.15171,1.7699,-0.54747,0.18249,-1.9947,-0.72996,-2.0391e-06,-0.99735,0,0,0.083333,-0,-0,0.66667
0.16201,0.17765,1.9442,-0.48352,-90.234,1180.4,2.5068,-0.8356,-1.1653,3.3424,8.3758e-10,-0.58265,0,0,0.083333,1.9737e-16,0,0.66667
0.41783,0.48323,5.0139,-0.025161,-3.9729,639.25,0.33641,-0.11214,-1.996,0.44855,-2.0568e-12,-0.998,0,0,0.083333,7.8949e-16,0,0.66667
0.61959,0.84469,7.4351,0.51704,61.004,298.49,-10.251,3.4171,-1.0476,-13.668,-5.0804e-13,-0.52381,0,0,0.083333,-0,-0,0.66667
0.56812,0.55051,6.8174,0.075765,9.808,375.24,-1.3774,0.45913,-1.9761,-1.8365,6.6469e-13,-0.98806,0,0,0.083333,-0,-0,0.66667
0.37473,0.2973,4.4968,-0.30405,-50.032,723.84,3.646,-1.2153,-1.6778,4.8613,8.7144e-12,-0.83888,0,0,0.083333,-1.2333e-15,0,0.66667
0.90355,0.70891,10.843,0.31336,10.895,22.855,-9.0604,3.0201,-1.6517,-12.08,4.8556e-08,-0.82583,0,0,0.083333,-0,-0,0.66667
0.67718,0.81142,8.1262,0.46713,48.393,220.54,-10.123,3.3742,-1.2224,-13.497,-4.3521e-14,-0.61118,0,0,0.083333,2.9606e-16,0,0.66667
0.11263,0.37792,1.3516,-0.18312,-34.612,1292.7,0.65997,-0.21999,-1.8814,0.87997,1.3728e-08,-0.94071,0,0,0.083333,-0,-0,0.66667
0.66956,0.74831,8.0348,0.37246,39.288,229.97,-7.9803,2.6601,-1.5094,-10.64,-1.9171e-12,-0.75472,0,0,0.083333,8.8818e-16,0,0.66667
0.21799,0.38985,2.6159,-0.16522,-30.124,1055,1.1526,-0.38418,-1.908,1.5367,-1.6852e-11,-0.95401,0,0,0.083333,-0,-0,0.66667
0.086095,0.94362,1.0331,0.66542,126.73,1353.9,-1.8333,0.61109,-0.4218,-2.4443,7.4696e-07,-0.2109,0,0,0.083333,-1.9737e-16,0,0.66667
0.35993,0.23136,4.3192,-0.40295,-67.177,753.72,4.6411,-1.547,-1.4284,6.1882,7.5699e-12,-0.71419,0,0,0.083333,-0,-0,0.66667
0.049607,0.068751,0.59529,-0.64687,-123.8,1438.1,1.0269,-0.34229,-0.51327,1.3692,2.5098e-06,-0.25664,0,0,0.083333,-0,-0,0.66667
0.14662,0.22325,1.7594,-0.41512,-77.821,1215.3,1.9476,-0.64921,-1.3843,2.5968,-1.2617e-10,-0.69216,0,0,0.083333,-0,-0,0.66667
0.45307,0.36716,5.4368,-0.19926,-30.296,572.95,2.8888,-0.96295,-1.8663,3.8518,1.0232e-12,-0.93316,0,0,0.083333,-0,-0,0.66667
0.9832,0.067792,11.798,-0.64831,-4.051,3.1361,20.398,-6.7992,-0.51023,27.197,-1.274e-05,-0.25511,0,0,0.083333,-0,-5.5528e-17,0.66667
0.84187,0.3386,10.102,-0.2421,-13.412,57.528,6.522,-2.174,-1.7947,8.696,-3.162e-10,-0.89733,0,0,0.083333,-3.9475e-16,0,0.66667
0.013205,0.20892,0.15846,-0.43663,-83.649,1522.4,0.1845,-0.061498,-1.3235,0.246,2.4141e-06,-0.66175,0,0,0.083333,-0,-0,0.66667
0.86889,0.16389,10.427,-0.50417,-23.557,41.279,14.018,-4.6727,-1.0928,18.691,-1.0803e-08,-0.54638,0,0,0.083333,-0,-0,0.66667
0.28341,0.57191,3.401,0.10787,18.985,912.69,-0.97827,0.32609,-1.9605,-1.3044,-1.5851e-11,-0.98027,0,0,0.083333,-0,-0,0.66667
0.19764,0.32075,2.3717,-0.26888,-49.472,1100.3,1.7005,-0.56683,-1.7399,2.2673,-5.0348e-11,-0.86995,0,0,0.083333,-0,-0,0.66667
0.30963,0.38352,3.7156,-0.17472,-30.234,857.19,1.7312,-0.57705,-1.892,2.3082,-2.1374e-12,-0.94602,0,0,0.083333,-0,-0,0.66667
0.52923,0.1359,6.3508,-0.54615,-75.341,439.33,9.2494,-3.0831,-0.94157,12.332,-6.9535e-12,-0.47078,0,0,0.083333,-0,-0,0.66667
0.48269,0.68024,5.7922,0.27037,39.679,519.24,-4.1761,1.392,-1.7433,-5.5681,-1.755e-12,-0.87165,0,0,0.083333,-0,-0,0.66667
0.62987,0.90466,7.5585,0.60699,70.183,284.22,-12.234,4.0781,-0.68856,-16.313,1.2745e-12,-0.34428,0,0,0.083333,-3.9475e-16,0,0.66667
0.16677,0.89205,2.0013,0.58808,109.64,1169.8,-3.1384,1.0461,-0.76729,-4.1845,-2.2535e-09,-0.38365,0,0,0.083333,1.9737e-16,0,0.66667
0.3743,0.98364,4.4916,0.72546,119.75,725.58,-8.6892,2.8964,-0.13397,-11.586,3.0873e-12,-0.066984,0,0,0.083333,-7.8949e-16,-9.8468e-17,0.66667
0.58249,0.14137,6.9899,-0.53794,-68.089,353.73,10.027,-3.3423,-0.9689,13.369,-1.3269e-12,-0.48445,0,0,0.083333,-0,-0,0.66667
0.81078,0.18814,9.7294,-0.4678,-30.608,81.451,12.137,-4.0457,-1.2262,16.183,2.588e-11,-0.61308,0,0,0.083333,-0,-0,0.66667
0.36845,0.57641,4.4213,0.11461,18.953,736.28,-1.3513,0.45045,-1.9491,-1.8018,-4.0971e-12,-0.97457,0,0,0.083333,-0,-0,0.66667
0.83938,0.49715,10.073,-0.0042777,-0.24015,58.987,0.1149,-0.0383,-1.9989,0.1532,-1.4702e-10,-0.99944,0,0,0.083333,1.7764e-15,0,0.66667
0.41681,0.062978,5.0017,-0.65553,-103.91,642.15,8.7434,-2.9145,-0.47067,11.658,-2.8066e-12,-0.23534,0,0,0.083333,-0,-0,0.66667
0.94249,0.79262,11.31,0.43893,9.2465,9.4206,-13.238,4.4127,-1.3122,-17.651,-1.9022e-08,-0.65608,0,0,0.083333,-0,-0,0.66667
0.29636,0.61458,3.5564,0.17187,30.006,885.18,-1.6299,0.54332,-1.9009,-2.1733,-1.9356e-11,-0.95046,0,0,0.083333,-0,-0,0.66667
0.3686,0.15679,4.4232,-0.51481,-85.255,736.46,6.0724,-2.0241,-1.0552,8.0965,-3.2787e-12,-0.52758,0,0,0.083333,1.579e-15,0,0.66667
0.65273,0.37856,7.8328,-0.18216,-19.974,251.71,3.8049,-1.2683,-1.8821,5.0732,-1.813e-12,-0.94105,0,0,0.083333,-0,-0,0.66667
0.58342,0.50998,7.001,0.014963,1.8863,351.4,-0.27935,0.093117,-1.9962,-0.37247,-4.3785e-12,-0.99809,0,0,0.083333,-0,-0,0.66667
0.35417,0.54389,4.25,0.065832,11.016,765.1,-0.74611,0.2487,-1.9815,-0.99481,3.3957e-12,-0.99074,0,0,0.083333,-0,-0,0.66667
0.48431,0.090671,5.8117,-0.61399,-90.118,517.14,9.5155,-3.1718,-0.66774,12.687,-1.6103e-12,-0.33387,0,0,0.083333,9.8686e-16,0,0.66667
0.66432,0.93303,7.9719,0.64955,69.58,237.77,-13.808,4.6028,-0.49627,-18.411,-2.1938e-13,-0.24814,0,0,0.083333,-0,-0,0.66667
0.05634,0.4518,0.67608,-0.072304,-13.797,1422.4,0.13036,-0.043452,-1.9775,0.17381,9.3202e-08,-0.98874,0,0,0.083333,-9.8686e-17,0,0.66667
0.6064,0.11304,7.2768,-0.58043,-70.327,317.88,11.263,-3.7544,-0.80223,15.018,1.7399e-12,-0.40112,0,0,0.083333,7.8949e-16,0,0.66667
0.74678,0.32404,8.9614,-0.26394,-22.28,139.84,6.3075,-2.1025,-1.752,8.4099,6.851e-12,-0.876,0,0,0.083333,-1.579e-15,0,0.66667
0.79397,0.52707,9.5276,0.040601,2.8576,94.593,-1.0315,0.34385,-1.9952,-1.3754,-2.6661e-11,-0.9976,0,0,0.083333,9.4025e-16,0,0.66667
0.21378,0.15008,2.5654,-0.52488,-96.014,1064.6,3.5907,-1.1969,-1.0182,4.7876,-1.7509e-10,-0.50908,0,0,0.083333,-1.9737e-16,0,0.66667
0.64111,0.51463,7.6933,0.02194,2.4683,267.37,-0.4501,0.15003,-2.0041,-0.60014,-9.3933e-13,-1.0021,0,0,0.083333,-0,-0,0.66667
0.73113,0.92557,8.7736,0.63836,56.944,157.79,-14.935,4.9784,-0.55075,-19.914,9.547e-12,-0.27537,0,0,0.083333,-7.8949e-16,0,0.66667
0.095062,0.31706,1.1407,-0.27441,-52.073,1333.1,0.83476,-0.27825,-1.7367,1.113,4.7225e-08,-0.86837,0,0,0.083333,-0,-0,0.66667
0.070073,0.1833,0.84088,-0.47505,-90.596,1390.7,1.0652,-0.35507,-1.1941,1.4203,2.8575e-07,-0.59703,0,0,0.083333,-0,-0,0.66667
0.88595,0.6207,10.631,0.18105,7.3773,30.921,-5.1329,1.711,-1.8818,-6.8439,1.1745e-08,-0.94088,0,0,0.083333,3.9475e-16,0,0.66667
0.36132,0.91635,4.3359,0.62453,104.14,751.35,-7.221,2.407,-0.61554,-9.6281,2.8062e-12,-0.30777,0,0,0.083333,-0,-0,0.66667
0.70343,0.4219,8.4412,-0.11715,-11.296,187.7,2.6371,-0.87902,-1.9575,3.5161,1.6163e-12,-0.97877,0,0,0.083333,-1.579e-15,0,0.66667
0.56015,0.76839,6.7218,0.40258,52.876,388.36,-7.2162,2.4054,-1.425,-9.6216,2.9856e-12,-0.71252,0,0,0.083333,-7.8949e-16,0,0.66667
0.33775,0.58366,4.053,0.12549,21.275,798.71,-1.3563,0.45211,-1.9404,-1.8084,-1.0404e-11,-0.97019,0,0,0.083333,-0,-0,0.66667
0.34565,0.51714,4.1478,0.025704,4.3305,782.46,-0.28431,0.09477,-1.9999,-0.37908,-3.5638e-12,-0.99995,0,0,0.083333,-0,-0,0.66667
0.90546,0.4408,10.866,-0.088801,-3.0202,21.588,2.573,-0.85766,-1.978,3.4306,-1.4823e-08,-0.98901,0,0,0.083333,-0,-0,0.66667
0.45348,0.48383,5.4418,-0.024261,-3.686,572.09,0.35206,-0.11735,-2.0041,0.46941,-1.0991e-12,-1.0021,0,0,0.083333,-0,-0,0.66667
0.48253,0.11957,5.7904,-0.57064,-83.913,520.17,8.8113,-2.9371,-0.84528,11.748,-4.3077e-13,-0.42264,0,0,0.083333,-0,-1.2404e-16,0.66667
0.97915,0.53962,11.75,0.059437,0.43652,1.368,-1.8623,0.62077,-1.9846,-2.4831,-2.1997e-08,-0.99231,0,0,0.083333,-0,-0,0.66667
0.41169,0.62297,4.9403,0.18445,29.311,651.13,-2.4299,0.80998,-1.8769,-3.2399,5.2651e-12,-0.93847,0,0,0.083333,-0,-0,0.66667
0.36945,0.28011,4.4334,-0.32984,-54.53,734.46,3.8995,-1.2998,-1.6111,5.1993,4.0175e-12,-0.80557,0,0,0.083333,3.9475e-16,0,0.66667
0.079963,0.4915,0.95956,-0.012749,-2.4247,1367.8,0.032622,-0.010874,-2.0022,0.043496,5.839e-08,-1.0011,0,0,0.083333,9.8686e-17,0,0.66667
0.38778,0.74477,4.6534,0.36715,59.73,698.02,-4.556,1.5187,-1.5217,-6.0746,6.0516e-12,-0.76087,0,0,0.083333,-1.9737e-16,0,0.66667
0.17793,0.79104,2.1352,0.43657,80.998,1144.5,-2.4857,0.82857,-1.3187,-3.3143,3.3855e-12,-0.65935,0,0,0.083333,-0,-0,0.66667
0.13134,0.73756,1.5761,0.35634,67.076,1250,-1.4977,0.49922,-1.5445,-1.9969,-5.0448e-09,-0.77227,0,0,0.083333,-1.9737e-16,0,0.66667
0.36767,0.8591,4.4121,0.53865,89.287,738.37,-6.3375,2.1125,-0.96396,-8.45,4.9081e-12,-0.48198,0,0,0.083333,-7.8949e-16,0,0.66667
0.15881,0.21267,1.9057,-0.431,-80.496,1187.6,2.1903,-0.7301,-1.341,2.9204,-2.0268e-10,-0.67049,0,0,0.083333,-9.8686e-17,0,0.66667
0.30756,0.79601,3.6908,0.44401,77.018,861.81,-4.37,1.4567,-1.2961,-5.8267,-9.6603e-12,-0.64807,0,0,0.083333,-0,-0,0.66667
0.68798,0.24931,8.2557,-0.37603,-37.862,206.8,8.2785,-2.7595,-1.5046,11.038,-4.8619e-12,-0.75232,0,0,0.083333,1.0856e-15,0,0.66667
0.83844,0.54326,10.061,0.064885,3.6627,59.665,-1.7409,0.58029,-1.9818,-2.3212,-8.275e-11,-0.99092,0,0,0.083333,-0,-0,0.66667
0.30482,0.83603,3.6579,0.50405,87.623,867.67,-4.9166,1.6389,-1.0926,-6.5555,-3.0469e-12,-0.54632,0,0,0.083333,1.9737e-16,0,0.66667
0.3531,0.206,4.2372,-0.441,-73.947,767.64,4.9829,-1.661,-1.3045,6.6439,6.1249e-12,-0.65227,0,0,0.083333,-2.3406e-17,0,0.66667
0.73064,0.65868,8.7677,0.23802,21.179,156.96,-5.5651,1.855,-1.7985,-7.4201,-4.9027e-13,-0.89925,0,0,0.083333,-0,-0,0.66667
0.77783,0.81568,9.334,0.47352,35.744,110.01,-11.786,3.9288,-1.2031,-15.715,-8.5425e-12,-0.60154,0,0,0.083333,-3.158e-15,0,0.66667
0.17703,0.72441,2.1244,0.33662,62.448,1146.5,-1.9069,0.63564,-1.5947,-2.5426,6.6482e-11,-0.79735,0,0,0.083333,3.9475e-16,0,0.66667
0.40176,0.086231,4.8211,-0.62065,-99.817,671.15,7.9792,-2.6597,-0.62846,10.639,-1.017e-13,-0.31423,0,0,0.083333,-3.9475e-16,0,0.66667
0.0029414,0.092431,0.035297,-0.61135,-117.26,1546.2,0.057535,-0.019195,-0.67268,0.076705,-2.5456e-05,-0.33634,0,0,0.083333,-1.9275e-18,0,0.66667
0.4006,0.34493,4.8072,-0.2326,-37.37,672.7,2.9817,-0.99391,-1.8055,3.9756,-3.8374e-12,-0.90276,0,0,0.083333,-0,-0,0.66667
0.8932,0.77894,10.718,0.4184,16.074,27.992,-11.959,3.9863,-1.3796,-15.945,4.5298e-08,-0.68979,0,0,0.083333,7.8949e-16,0,0.66667
0.057463,0.40294,0.68956,-0.14558,-27.778,1419.8,0.2677,-0.089234,-1.9227,0.35694,1.0037e-07,-0.96135,0,0,0.083333,-0,-0,0.66667
0.38963,0.068362,4.6756,-0.64746,-105.34,694.97,8.0726,-2.6909,-0.51462,10.763,1.0907e-12,-0.25731,0,0,0.083333,-7.8949e-16,0,0.66667
0.26534,0.7912,3.1841,0.4368,77.793,951.75,-3.7089,1.2363,-1.3282,-4.9452,-1.1341e-11,-0.66412,0,0,0.083333,-0,-0,0.66667
0.036777,0.4591,0.44132,-0.061354,-11.728,1467.7,0.072204,-0.024068,-1.9834,0.096272,-2.5566e-07,-0.9917,0,0,0.083333,-0,-0,0.66667
0.4005,0.90449,4.806,0.60674,97.685,673.55,-7.776,2.592,-0.68878,-10.368,3.4013e-12,-0.34439,0,0,0.083333,8.8818e-16,0,0.66667
0.23781,0.74657,2.8537,0.36985,66.833,1011.5,-2.8145,0.93818,-1.5139,-3.7527,8.3851e-12,-0.75694,0,0,0.083333,3.9475e-16,0,0.66667
0.83097,0.80227,9.9716,0.45341,26.774,65.903,-12.057,4.0188,-1.2695,-16.075,2.5768e-10,-0.63476,0,0,0.083333,-0,-0,0.66667
0.64363,0.54294,7.7235,0.064415,7.207,263.93,-1.3267,0.44223,-1.9853,-1.7689,1.485e-12,-0.99266,0,0,0.083333,-1.579e-15,0,0.66667
0.47657,0.7714,5.7188,0.40711,60.244,530.43,-6.2085,2.0695,-1.4065,-8.2779,-1.0463e-12,-0.70324,0,0,0.083333,-3.9475e-16,0,0.66667
0.70881,0.93015,8.5057,0.64523,61.546,182.93,-14.635,4.8783,-0.51663,-19.513,-1.6502e-12,-0.25831,0,0,0.083333,3.9475e-16,0,0.66667
0.099384,0.78849,1.1926,0.43273,82.095,1323.2,-1.3762,0.45873,-1.3311,-1.8349,-5.7377e-08,-0.66557,0,0,0.083333,-1.9737e-16,0,0.66667
0.75698,0.54939,9.0837,0.074088,6.031,129.2,-1.7947,0.59822,-1.9762,-2.3929,-4.9276e-12,-0.98809,0,0,0.083333,-0,-0,0.66667
0.29859,0.16286,3.5831,-0.50571,-88.279,880.82,4.8321,-1.6107,-1.0939,6.4428,-4.8455e-12,-0.54695,0,0,0.083333,7.8949e-16,0,0.66667
0.50277,0.54955,6.0333,0.074328,10.621,483.68,-1.1958,0.39862,-1.9808,-1.5945,2.724e-12,-0.9904,0,0,0.083333,-7.8949e-16,0,0.66667
0.094178,0.89047,1.1301,0.58571,111.33,1335.2,-1.7652,0.58838,-0.78623,-2.3535,-1.6724e-07,-0.39312,0,0,0.083333,-0,-0,0.66667
0.81456,0.35541,9.7747,-0.21688,-13.896,77.693,5.6533,-1.8844,-1.8347,7.5377,1.0001e-10,-0.91737,0,0,0.083333,-0,-0,0.66667
0.51047,0.15369,6.1256,-0.51947,-73.591,471.1,8.4855,-2.8285,-1.0386,11.314,1.9593e-12,-0.51931,0,0,0.083333,-0,-0,0.66667
0.44197,0.071251,5.3037,-0.64312,-99.26,594.46,9.0957,-3.0319,-0.52739,12.128,3.7197e-12,-0.2637,0,0,0.083333,-7.8949e-16,0,0.66667
0.13489,0.0659,1.6187,-0.65115,-122.65,1242.1,2.8107,-0.9369,-0.48986,3.7476,-1.6033e-07,-0.24493,0,0,0.083333,-3.9475e-16,0,0.66667
0.63488,0.46804,7.6185,-0.047942,-5.4668,275.99,0.97399,-0.32466,-1.9897,1.2986,-2.1128e-12,-0.99486,0,0,0.083333,7.8949e-16,0,0.66667
0.35231,0.22836,4.2277,-0.40745,-68.353,769.18,4.5936,-1.5312,-1.4056,6.1248,6.489e-12,-0.7028,0,0,0.083333,-0,-0,0.66667
0.68271,0.11074,8.1925,-0.5839,-59.721,214.06,12.756,-4.2521,-0.78507,17.008,3.1619e-13,-0.39254,0,0,0.083333,-8.0849e-16,0,0.66667
0.76246,0.28724,9.1495,-0.31915,-25.501,124.17,7.7867,-2.5956,-1.6382,10.382,9.1172e-12,-0.81908,0,0,0.083333,1.579e-15,0,0.66667
0.0067478,0.4084,0.080974,-0.1374,-26.303,1537.3,0.029669,-0.0098893,-1.9299,0.039559,6.52e-07,-0.96494,0,0,0.083333,-0,-0,0.66667
0.25906,0.70363,3.1087,0.30544,54.56,965.2,-2.5321,0.84403,-1.6641,-3.3761,-4.7518e-13,-0.83205,0,0,0.083333,-0,-0,0.66667
0.67791,0.25964,8.135,-0.36053,-37.248,219.3,7.8212,-2.6071,-1.5342,10.428,-3.3675e-12,-0.76711,0,0,0.083333,-0,-0,0.66667
0.3361,0.91638,4.0332,0.62456,106.26,802.77,-6.7173,2.2391,-0.60879,-8.9564,8.904e-12,-0.3044,0,0,0.083333,-7.8949e-16,0,0.66667
0.75013,0.95869,9.0015,0.68803,57.706,138.02,-16.516,5.5052,-0.32393,-22.021,7.0907e-11,-0.16196,0,0,0.083333,-0,-0,0.66667
0.55698,0.90543,6.6837,0.60815,80.42,394.05,-10.839,3.6131,-0.68306,-14.452,-1.4566e-12,-0.34153,0,0,0.083333,-1.0362e-15,0,0.66667
0.85824,0.25463,10.299,-0.36806,-18.452,47.143,10.108,-3.3694,-1.5233,13.478,-1.8161e-09,-0.76164,0,0,0.083333,-3.158e-15,0,0.66667
0.57058,0.99432,6.847,0.74148,96.006,373.02,-13.538,4.5128,-0.041407,-18.051,-1.1671e-12,-0.020704,0,0,0.083333,-3.9475e-16,0,0.66667
0.8894,0.98808,10.673,0.73211,29.354,31.567,-20.837,6.9455,-0.098201,-27.782,1.9597e-07,-0.049101,0,0,0.083333,-0,-0,0.66667
0.22748,0.53957,2.7297,0.05935,10.771,1034.1,-0.43202,0.14401,-1.9835,-0.57603,6.9597e-12,-0.99177,0,0,0.083333,-0,-0,0.66667
0.79398,0.89735,9.5278,0.59602,42.167,96.082,-15.143,5.0478,-0.7374,-20.191,1.0694e-10,-0.3687,0,0,0.083333,-0,-5.047e-17,0.66667
0.033947,0.88993,0.40736,0.58489,112.04,1474.3,-0.63537,0.21179,-0.78421,-0.84716,-1.6275e-07,-0.39211,0,0,0.083333,-4.9343e-17,0,0.66667
0.077267,0.75948,0.92721,0.38922,74.118,1374.1,-0.96237,0.32079,-1.4664,-1.2832,-1.6745e-07,-0.73322,0,0,0.083333,-1.9737e-16,0,0.66667
0.3959,0.79709,4.7508,0.44563,71.982,682.19,-5.6456,1.8819,-1.2907,-7.5275,7.7716e-13,-0.64534,0,0,0.083333,-0,-0,0.66667
0.18577,0.71553,2.2292,0.3233,59.778,1126.9,-1.9219,0.64062,-1.6321,-2.5625,2.6662e-11,-0.81603,0,0,0.083333,1.5368e-16,0,0.66667
0.94419,0.54458,11.33,0.066873,1.3544,8.0132,-2.0205,0.6735,-1.9799,-2.694,1.2301e-07,-0.98995,0,0,0.083333,-0,-0,0.66667
0.77968,0.66242,9.3562,0.24363,18.214,107.61,-6.0785,2.0262,-1.7926,-8.1047,-2.684e-11,-0.8963,0,0,0.083333,-0,-0,0.66667
0.74367,0.74282,8.924,0.36423,31.094,143.34,-8.6677,2.8892,-1.5248,-11.557,-2.335e-12,-0.76238,0,0,0.083333,-7.8949e-16,0,0.66667
0.492,0.27352,5.904,-0.33972,-49.279,502.84,5.3485,-1.7828,-1.5856,7.1313,-5.9104e-12,-0.79282,0,0,0.083333,7.8949e-16,0,0.66667
0.49005,0.14433,5.8806,-0.53351,-77.681,506.72,8.3662,-2.7887,-0.98448,11.155,1.0436e-12,-0.49224,0,0,0.083333,-0,-0,0.66667
0.58111,0.91334,6.9733,0.62002,78.729,356.14,-11.53,3.8432,-0.63368,-15.373,-9.9476e-14,-0.31684,0,0,0.083333,-0,-0,0.66667
0.59663,0.99058,7.1595,0.73588,90.979,333.06,-14.049,4.6831,-0.075092,-18.732,-2.9097e-12,-0.037546,0,0,0.083333,7.8949e-16,0,0.66667
0.89803,0.58576,10.776,0.12864,4.7074,24.957,-3.6966,1.2322,-1.9371,-4.9288,2.1299e-08,-0.96857,0,0,0.083333,-0,-0,0.66667
0.12083,0.91703,1.45,0.62555,118.24,1274.1,-2.4188,0.80627,-0.60693,-3.2251,-1.5401e-07,-0.30346,0,0,0.083333,-0,-0,0.66667
0.50961,0.017617,6.1154,-0.72357,-102.82,473.25,11.8,-3.9333,-0.13463,15.733,3.4532e-12,-0.067315,0,0,0.083333,-0,-0,0.66667
0.99552,0.23744,11.946,-0.39384,-0.50927,0.94592,12.546,-4.1821,-1.4462,16.729,-3.1146e-06,-0.72311,0,0,0.083333,-0,1.594e-17,0.66667
0.48143,0.36443,5.7772,-0.20336,-29.885,521.4,3.1328,-1.0443,-1.8532,4.1771,-2.4671e-12,-0.92661,0,0,0.083333,3.9475e-16,0,0.66667
0.83781,0.050104,10.054,-0.67484,-38.546,62.122,18.093,-6.0309,-0.37702,24.123,6.5067e-09,-0.18851,0,0,0.083333,-7.8949e-16,0,0.66667
0.60366,0.62256,7.2439,0.18384,22.334,320.96,-3.5512,1.1837,-1.8774,-4.7349,-1.7792e-12,-0.93871,0,0,0.083333,-3.9475e-16,0,0.66667
0.66437,0.83198,7.9725,0.49796,53.245,237.08,-10.587,3.5289,-1.114,-14.116,-2.7311e-12,-0.55699,0,0,0.083333,-0,-0,0.66667
0.27246,0.90328,3.2695,0.60492,107.4,936.68,-5.2741,1.758,-0.69576,-7.0322,4.9393e-11,-0.34788,0,0,0.083333,-9.8686e-17,0,0.66667
0.83093,0.65853,9.9712,0.23779,14.008,65.27,-6.3228,2.1076,-1.8005,-8.4304,-7.5126e-11,-0.90027,0,0,0.083333,-0,-0,0.66667
0.24447,0.96022,2.9336,0.69033,124.56,997.43,-5.4004,1.8001,-0.30245,-7.2005,-7.6292e-11,-0.15122,0,0,0.083333,-3.9475e-16,0,0.66667
0.67336,0.97752,8.0803,0.71628,75.132,226.45,-15.434,5.1447,-0.17934,-20.579,1.1262e-12,-0.089668,0,0,0.083333,-0,-0,0.66667
0.08813,0.96777,1.0576,0.70165,133.62,1349.2,-1.9788,0.65959,-0.24751,-2.6384,3.968e-06,-0.12376,0,0,0.083333,-2.4672e-17,0,0.66667
0.018852,0.0022623,0.22622,-0.74661,-143.29,1509.3,0.45017,-0.1501,-0.018874,0.6002,-7.119e-05,-0.0094369,0,0,0.083333,-0,-0,0.66667
0.47235,0.33858,5.6682,-0.24213,-35.991,537.77,3.6599,-1.22,-1.7912,4.8798,4.9112e-12,-0.89562,0,0,0.083333,-5.9212e-16,0,0.66667
0.939,0.26801,11.268,-0.34798,-7.7437,10.043,10.456,-3.4853,-1.5727,13.941,-2.1342e-07,-0.78634,0,0,0.083333,1.579e-15,0,0.66667
0.32557,0.055699,3.9069,-0.66645,-114.31,824.62,6.9433,-2.3144,-0.42216,9.2578,-9.6909e-12,-0.21108,0,0,0.083333,-0,-0,0.66667
0.32215,0.1398,3.8658,-0.5403,-92.819,831.46,5.5699,-1.8566,-0.95824,7.4265,-3.2707e-12,-0.47912,0,0,0.083333,-0,-0,0.66667
0.052031,0.84613,0.62437,0.5192,99.258,1432.4,-0.86445,0.28815,-1.0396,-1.1526,-5.3735e-08,-0.51982,0,0,0.083333,-0,-0,0.66667
0.67529,0.72947,8.1034,0.34421,35.792,222.58,-7.438,2.4793,-1.5782,-9.9173,6.2617e-14,-0.78908,0,0,0.083333,-0,-0,0.66667
0.72174,0.55175,8.6609,0.077621,7.0952,166.6,-1.7927,0.59757,-1.9787,-2.3903,-1.9331e-12,-0.98937,0,0,0.083333,7.8949e-16,0,0.66667
0.90372,0.87191,10.845,0.55787,19.487,23.81,-16.133,5.3777,-0.89542,-21.511,8.1425e-08,-0.44771,0,0,0.083333,-1.9737e-15,0,0.66667
0.43715,0.36262,5.2458,-0.20608,-31.894,602.63,2.8828,-0.96092,-1.8553,3.8437,1.2694e-12,-0.92765,0,0,0.083333,-7.8949e-16,0,0.66667
0.10952,0.29585,1.3142,-0.30623,-57.942,1299.9,1.0732,-0.35773,-1.6734,1.4309,2.5231e-08,-0.8367,0,0,0.083333,-1.9737e-16,0,0.66667
0.037607,0.80895,0.45128,0.46343,88.686,1465.8,-0.5577,0.1859,-1.2333,-0.74361,-1.9207e-06,-0.61667,0,0,0.083333,-1.2336e-17,0,0.66667
0.88077,0.71417,10.569,0.32125,13.679,33.964,-9.0544,3.0181,-1.6302,-12.073,5.071e-09,-0.81512,0,0,0.083333,-2.6797e-16,0,0.66667
0.65226,0.3708,7.8271,-0.1938,-21.274,252.36,4.0451,-1.3484,-1.8657,5.3935,-3.6415e-14,-0.93284,0,0,0.083333,-7.8949e-16,0,0.66667
0.9155,0.93726,10.986,0.65589,20.294,19.526,-19.215,6.405,-0.468,-25.62,7.8318e-08,-0.234,0,0,0.083333,1.9737e-16,0,0.66667
0.8806,0.63529,10.567,0.20293,8.6392,33.764,-5.7184,1.9061,-1.8502,-7.6245,7.0608e-09,-0.92512,0,0,0.083333,-0,-0,0.66667
0.47024,0.13954,5.6429,-0.54068,-80.704,542.16,8.1361,-2.712,-0.96378,10.848,-1.7648e-12,-0.48189,0,0,0.083333,-0,-0,0.66667
0.67034,0.30475,8.0441,-0.29287,-30.818,228.78,6.2823,-2.0941,-1.6986,8.3764,-2.8519e-12,-0.84928,0,0,0.083333,7.8949e-16,0,0.66667
0.74507,0.65826,8.9408,0.23739,20.152,141.57,-5.6599,1.8866,-1.798,-7.5465,-6.2479e-12,-0.89902,0,0,0.083333,-0,-0,0.66667
0.42221,0.73487,5.0665,0.35231,55.425,631.13,-4.76,1.5867,-1.5649,-6.3467,-4.3201e-12,-0.78247,0,0,0.083333,-0,-0,0.66667
0.15392,0.28192,1.847,-0.32712,-61.165,1198.6,1.6112,-0.53707,-1.6224,2.1483,4.3401e-10,-0.81119,0,0,0.083333,3.9475e-16,0,0.66667
0.28408,0.90538,3.409,0.60806,107.2,911.81,-5.5277,1.8426,-0.68717,-7.3703,-2.8564e-12,-0.34359,0,0,0.083333,5.9212e-16,0,0.66667
0.54848,0.071755,6.5817,-0.64237,-86.132,407.91,11.274,-3.7581,-0.53606,15.032,-5.02e-12,-0.26803,0,0,0.083333,1.579e-15,0,0.66667
0.25574,0.98992,3.0688,0.73488,131.85,973.02,-6.0139,2.0046,-0.076419,-8.0185,5.2816e-12,-0.038209,0,0,0.083333,-3.9475e-16,0,0.66667
0.89173,0.19672,10.701,-0.45493,-17.721,28.856,12.982,-4.3272,-1.2686,17.309,-2.9012e-08,-0.63429,0,0,0.083333,1.579e-15,0,0.66667
0.58075,0.82853,6.969,0.4928,62.542,356.26,-9.1582,3.0527,-1.1372,-12.211,2.836e-12,-0.56861,0,0,0.083333,-7.8949e-16,0,0.66667
0.71867,0.91353,8.6241,0.62029,57.469,171.51,-14.265,4.7551,-0.63946,-19.02,-3.0352e-11,-0.31973,0,0,0.083333,-0,-0,0.66667
0.86203,0.93594,10.344,0.6539,32.162,46.152,-18.038,6.0126,-0.4817,-24.051,-1.6068e-07,-0.24085,0,0,0.083333,-3.9475e-16,0,0.66667
0.89656,0.84404,10.759,0.51605,19.279,26.833,-14.806,4.9352,-1.051,-19.741,2.3311e-08,-0.52548,0,0,0.083333,3.158e-15,0,0.66667
0.95761,0.90462,11.491,0.60693,9.5479,6.6835,-18.598,6.1994,-0.6893,-24.798,1.5911e-05,-0.34465,0,0,0.083333,5.9212e-16,0,0.66667
0.62751,0.83674,7.5301,0.50511,58.632,287.17,-10.143,3.3809,-1.0943,-13.524,1.8856e-12,-0.54715,0,0,0.083333,-3.9475e-16,0,0.66667
0.99898,0.18864,11.988,-0.46704,-0.015889,1.182,14.93,-4.9767,-1.2303,19.907,2.9401e-06,-0.61515,0,0,0.083333,-3.158e-15,0,0.66667
0.79051,0.61114,9.4861,0.16672,11.914,97.733,-4.2173,1.4058,-1.8971,-5.623,-2.7862e-11,-0.94856,0,0,0.083333,-1.579e-15,0,0.66667
0.27082,0.39733,3.2499,-0.15401,-27.315,939.71,1.3347,-0.4449,-1.9128,1.7796,1.6733e-11,-0.95641,0,0,0.083333,1.9737e-16,0,0.66667
0.99055,0.66225,11.887,0.24337,0.75187,0.67854,-7.7142,2.5714,-1.7861,-10.286,6.7692e-07,-0.89305,0,0,0.083333,-0,-0,0.66667
0.80151,0.29131,9.6181,-0.31303,-21.341,88.564,8.0286,-2.6762,-1.6493,10.705,7.1815e-11,-0.82464,0,0,0.083333,-0,-0,0.66667
0.25311,0.42333,3.0374,-0.115,-20.6,977.99,0.93146,-0.31049,-1.9528,1.2419,-2.948e-12,-0.97638,0,0,0.083333,-0,-0,0.66667
0.031897,0.73674,0.38277,0.35511,67.951,1479,-0.36246,0.12082,-1.5571,-0.48328,1.2346e-06,-0.77853,0,0,0.083333,-0,-0,0.66667
0.95281,0.73377,11.434,0.35066,6.0445,6.4771,-10.692,3.5638,-1.5691,-14.255,4.2294e-07,-0.78456,0,0,0.083333,-0,-0,0.66667
0.55683,0.15503,6.682,-0.51746,-68.389,393.98,9.2204,-3.0735,-1.0458,12.294,-1.7453e-12,-0.52291,0,0,0.083333,-1.0031e-15,0,0.66667
0.55271,0.82495,6.6325,0.48743,64.832,400.53,-8.621,2.8737,-1.1516,-11.495,-2.9061e-12,-0.5758,0,0,0.083333,-7.8949e-16,0,0.66667
0.047378,0.51354,0.56853,0.02031,3.8789,1443.1,-0.030792,0.010264,-2.0043,-0.041056,-3.5544e-07,-1.0022,0,0,0.083333,-0,-0,0.66667
0.63904,0.34107,7.6685,-0.2384,-26.955,270.41,4.8751,-1.625,-1.8021,6.5001,5.5511e-13,-0.90103,0,0,0.083333,-1.1842e-15,0,0.66667
0.5001,0.19252,6.0012,-0.46123,-66.24,488.89,7.3812,-2.4604,-1.2513,9.8415,-2.6867e-12,-0.62567,0,0,0.083333,-0,-0,0.66667
0.80429,0.95777,9.6515,0.68665,46.488,87.837,-17.673,5.8909,-0.3193,-23.563,-1.1005e-09,-0.15965,0,0,0.083333,-0,-0,0.66667
0.06955,0.88797,0.8346,0.58195,111.06,1392,-1.2952,0.43173,-0.79153,-1.7269,-4.9977e-07,-0.39577,0,0,0.083333,-0,-0,0.66667
0.56293,0.6373,6.7552,0.20595,26.901,383.57,-3.7099,1.2366,-1.8553,-4.9466,6.5792e-13,-0.92763,0,0,0.083333,-0,-0,0.66667
0.40868,0.27336,4.9042,-0.33996,-54.212,657.13,4.4459,-1.482,-1.5906,5.9278,-4.6292e-12,-0.7953,0,0,0.083333,-3.9475e-16,0,0.66667
0.55177,0.25238,6.6212,-0.37143,-49.439,401.76,6.5581,-2.186,-1.5079,8.7442,-4.9405e-12,-0.75394,0,0,0.083333,-0,-0,0.66667
0.35846,0.49466,4.3016,-0.0080068,-1.3351,756.38,0.091845,-0.030615,-2.0052,0.12246,-1.059e-11,-1.0026,0,0,0.083333,-5.9212e-16,0,0.66667
0.99938,0.97886,11.993,0.7183,0.1375,2.7616,-22.971,7.6568,-0.17058,-30.628,-0.00022067,-0.085288,0,0,0.083333,-0,-2.5924e-16,0.66667
0.45032,0.75416,5.4039,0.38124,58.19,578.28,-5.4938,1.8313,-1.4845,-7.3251,-4.0234e-13,-0.74224,0,0,0.083333,-0,-0,0.66667
0.34582,0.069376,4.1499,-0.64594,-109.09,782.88,7.1482,-2.3827,-0.51888,9.5309,1.5952e-12,-0.25944,0,0,0.083333,-0,-0,0.66667
0.18973,0.48952,2.2767,-0.015713,-2.8991,1117.9,0.095395,-0.031798,-2.0008,0.12719,-5.4055e-11,-1.0004,0,0,0.083333,1.9737e-16,0,0.66667
0.92353,0.31245,11.082,-0.28132,-7.8041,14.82,8.3138,-2.7713,-1.7231,11.085,-1.6977e-07,-0.86156,0,0,0.083333,-1.727e-15,0,0.66667
0.10429,0.64551,1.2515,0.21826,41.334,1311.8,-0.72843,0.24281,-1.8277,-0.97125,-3.0609e-08,-0.91387,0,0,0.083333,-0,-0,0.66667
0.44034,0.14551,5.2841,-0.53174,-82.144,597.2,7.4928,-2.4976,-0.99511,9.9903,-3.888e-12,-0.49755,0,0,0.083333,3.9475e-16,0,0.66667
0.6862,0.70325,8.2344,0.30488,30.825,208.82,-6.6946,2.2315,-1.6732,-8.9262,-3.5527e-13,-0.83659,0,0,0.083333,-0,-0,0.66667
0.14241,0.89648,1.7089,0.59472,111.74,1225,-2.7101,0.90338,-0.74516,-3.6135,9.8317e-09,-0.37258,0,0,0.083333,-0,-0,0.66667
0.9315,0.088475,11.178,-0.61729,-15.566,13.623,18.4,-6.1333,-0.64208,24.533,-7.4823e-07,-0.32104,0,0,0.083333,1.9737e-15,0,0.66667
0.058875,0.82102,0.7065,0.48153,91.969,1416.6,-0.90721,0.3024,-1.1748,-1.2096,2.395e-07,-0.5874,0,0,0.083333,-0,-0,0.66667
0.2181,0.50082,2.6172,0.0012249,0.22327,1054.8,-0.0085486,0.0028495,-2.0069,-0.011398,7.0437e-11,-1.0035,0,0,0.083333,-0,-0,0.66667
0.077195,0.8302,0.92634,0.49529,94.367,1374.3,-1.2235,0.40783,-1.1324,-1.6313,-8.6651e-08,-0.56621,0,0,0.083333,-1.901e-16,0,0.66667
0.41151,0.27601,4.9381,-0.33598,-53.428,651.65,4.4243,-1.4748,-1.5962,5.8991,-6.128e-12,-0.79808,0,0,0.083333,9.8686e-16,0,0.66667
0.59726,0.83998,7.1671,0.50996,62.826,331.22,-9.7466,3.2489,-1.0754,-12.995,4.011e-12,-0.5377,0,0,0.083333,-9.8686e-16,0,0.66667
0.73114,0.79938,8.7737,0.44908,39.963,156.98,-10.507,3.5023,-1.2825,-14.009,2.1316e-13,-0.64127,0,0,0.083333,-8.6585e-16,0,0.66667
0.87843,0.5875,10.541,0.13125,5.6802,34.817,-3.6893,1.2298,-1.9386,-4.9191,6.1323e-09,-0.96929,0,0,0.083333,7.8949e-16,0,0.66667
0.35325,0.77228,4.239,0.40841,68.463,767.28,-4.6167,1.5389,-1.4033,-6.1556,4.5866e-12,-0.70165,0,0,0.083333,-3.9475e-16,0,0.66667
0.70246,0.63224,8.4296,0.19836,19.184,188.95,-4.4589,1.4863,-1.8659,-5.9452,-3.384e-13,-0.93297,0,0,0.083333,-0,-0,0.66667
0.048616,0.39034,0.5834,-0.16448,-31.415,1440.3,0.25589,-0.085297,-1.9064,0.34119,3.8481e-10,-0.9532,0,0,0.083333,-0,-0,0.66667
0.81926,0.70255,9.8311,0.30382,19.032,74.204,-7.965,2.655,-1.6675,-10.62,-7.6647e-11,-0.83377,0,0,0.083333,-1.579e-15,0,0.66667
0.31828,0.8403,3.8193,0.51045,87.919,839.48,-5.1989,1.733,-1.0709,-6.9318,-9.007e-12,-0.53546,0,0,0.083333,-3.9475e-16,0,0.66667
0.22164,0.81954,2.6597,0.47931,87.342,1047.2,-3.3995,1.1332,-1.1838,-4.5327,-1.2744e-11,-0.59192,0,0,0.083333,-0,-0,0.66667
0.36104,0.19907,4.3324,-0.45139,-75.202,751.57,5.215,-1.7383,-1.2784,6.9533,3.7774e-12,-0.63922,0,0,0.083333,-0,-0,0.66667
0.11407,0.92768,1.3688,0.64152,121.47,1289.6,-2.3417,0.78057,-0.53435,-3.1223,-9.0162e-08,-0.26717,0,0,0.083333,9.8686e-17,0,0.66667
0.29371,0.39314,3.5245,-0.16029,-28.031,890.81,1.5065,-0.50216,-1.9084,2.0086,-5.4228e-12,-0.95418,0,0,0.083333,3.9475e-16,0,0.66667
0.008789,0.091676,0.10547,-0.61249,-117.47,1532.6,0.17225,-0.057384,-0.66317,0.22968,4.8859e-05,-0.33159,0,0,0.083333,-1.2336e-17,0,0.66667
0.25326,0.0082937,3.0392,-0.73756,-132.51,978.38,5.9775,-1.9925,-0.065673,7.97,9.8068e-12,-0.032836,0,0,0.083333,-0,-0,0.66667
0.83771,0.76864,10.053,0.40297,22.907,60.882,-10.802,3.6007,-1.4188,-14.403,4.837e-11,-0.70942,0,0,0.083333,-0,-0,0.66667
0.80776,0.26752,9.6931,-0.34872,-23.109,83.486,9.0139,-3.0046,-1.565,12.018,9.0532e-11,-0.78249,0,0,0.083333,-1.579e-15,0,0.66667
0.38257,0.11092,4.5908,-0.58361,-95.519,708.76,7.1447,-2.3816,-0.78452,9.5262,4.8028e-12,-0.39226,0,0,0.083333,-7.8949e-16,0,0.66667
0.43068,0.60817,5.1682,0.16226,25.285,614.8,-2.2362,0.74542,-1.9021,-2.9817,-1.2073e-11,-0.95105,0,0,0.083333,-0,-0,0.66667
0.18259,0.62822,2.191,0.19233,35.592,1133.9,-1.1237,0.37458,-1.8667,-1.4983,1.6817e-10,-0.93335,0,0,0.083333,-3.9475e-16,0,0.66667
0.31687,0.04861,3.8025,-0.67708,-116.87,842.74,6.8656,-2.2885,-0.36779,9.1542,-1.2952e-11,-0.1839,0,0,0.083333,3.9475e-16,0,0.66667
0.41737,0.18496,5.0084,-0.47255,-74.759,640.62,6.3113,-2.1038,-1.2048,8.4151,1.1644e-12,-0.60242,0,0,0.083333,-9.8686e-17,0,0.66667
0.066468,0.93124,0.79762,0.64686,123.55,1399.1,-1.3759,0.45862,-0.51123,-1.8345,1.7972e-07,-0.25561,0,0,0.083333,-0,-0,0.66667
0.33789,0.11261,4.0546,-0.58109,-98.696,799,6.2829,-2.0943,-0.79575,8.3773,8.2685e-12,-0.39787,0,0,0.083333,-3.9475e-16,0,0.66667
0.49567,0.024039,5.9481,-0.71394,-103.36,497.42,11.324,-3.7747,-0.18604,15.099,6.1373e-12,-0.093019,0,0,0.083333,-0,-1.2847e-16,0.66667
0.0067213,0.86003,0.080656,0.54005,103.53,1537.4,-0.11615,0.038707,-0.95877,-0.15487,-1.3897e-05,-0.47939,0,0,0.083333,-0,-0,0.66667
0.43808,0.21982,5.2569,-0.42026,-65.037,601.21,5.8914,-1.9638,-1.3791,7.8552,-8.6593e-12,-0.68954,0,0,0.083333,-0,-0,0.66667
0.21869,0.84929,2.6243,0.52393,95.628,1053.8,-3.6665,1.2222,-1.0317,-4.8887,9.8761e-11,-0.51587,0,0,0.083333,-0,-0,0.66667
0.2134,0.64424,2.5608,0.21636,39.533,1065.2,-1.4775,0.49249,-1.8303,-1.97,2.9515e-11,-0.91517,0,0,0.083333,1.9737e-16,0,0.66667
0.24924,0.77146,2.9909,0.40719,73.157,986.63,-3.2476,1.0825,-1.4158,-4.3301,7.1083e-12,-0.70789,0,0,0.083333,-3.9475e-16,0,0.66667
0.12833,0.62819,1.5399,0.19229,36.207,1256.8,-0.78963,0.26321,-1.869,-1.0528,-4.839e-09,-0.9345,0,0,0.083333,3.9475e-16,0,0.66667
0.94481,0.17354,11.338,-0.48969,-9.927,9.0343,14.805,-4.9351,-1.143,19.74,2.8442e-07,-0.5715,0,0,0.083333,1.579e-15,0,0.66667
0.16907,0.18691,2.0289,-0.46964,-87.427,1164.5,2.5409,-0.84698,-1.2177,3.3879,3.8329e-10,-0.60885,0,0,0.083333,8.6351e-17,0,0.66667
0.56761,0.46806,6.8114,-0.047908,-6.2069,376.03,0.87018,-0.29006,-1.9903,1.1602,-6.6272e-12,-0.99516,0,0,0.083333,8.3884e-16,0,0.66667
0.17151,0.68881,2.0581,0.28322,52.637,1158.9,-1.5544,0.51813,-1.7224,-2.0725,1.1963e-10,-0.8612,0,0,0.083333,-3.9475e-16,0,0.66667
0.26092,0.90297,3.131,0.60446,108.03,961.56,-5.0469,1.6823,-0.69934,-6.7292,-1.5894e-10,-0.34967,0,0,0.083333,-3.9475e-16,0,0.66667
0.67678,0.24808,8.1213,-0.37788,-39.157,220.78,8.1836,-2.7279,-1.4908,10.912,-3.8014e-12,-0.74538,0,0,0.083333,2.9606e-16,0,0.66667
0.50327,0.022845,6.0392,-0.71573,-102.58,484.19,11.527,-3.8422,-0.17845,15.369,2.9567e-12,-0.089223,0,0,0.083333,-7.8949e-16,0,0.66667
0.15729,0.96524,1.8875,0.69785,130.62,1191.3,-3.5124,1.1708,-0.27381,-4.6833,1.6415e-08,-0.13691,0,0,0.083333,2.4672e-16,0,0.66667
0.082507,0.62724,0.99008,0.19085,36.29,1361.9,-0.50389,0.16796,-1.8695,-0.67186,-7.216e-08,-0.93476,0,0,0.083333,1.9737e-16,0,0.66667
0.88189,0.79276,10.583,0.43914,18.572,33.788,-12.393,4.1309,-1.3101,-16.524,-6.2614e-09,-0.65507,0,0,0.083333,-0,-0,0.66667
0.24189,0.88857,2.9027,0.58285,105.22,1002.9,-4.5115,1.5038,-0.7877,-6.0154,1.1241e-10,-0.39385,0,0,0.083333,3.9475e-16,0,0.66667
0.95897,0.63286,11.508,0.19929,2.9672,4.7254,-6.1156,2.0385,-1.8555,-8.1542,-2.5033e-08,-0.92774,0,0,0.083333,-0,-0,0.66667
0.89236,0.43385,10.708,-0.099221,-3.8234,27.612,2.8333,-0.94444,-1.9686,3.7778,-1.9514e-08,-0.9843,0,0,0.083333,-1.9737e-15,0,0.66667
0.15998,0.77837,1.9197,0.41755,77.95,1185,-2.1376,0.71252,-1.38,-2.8501,1.9607e-12,-0.68998,0,0,0.083333,-1.9737e-16,0,0.66667
0.50371,0.66382,6.0445,0.24572,35.081,482.21,-3.9607,1.3202,-1.7845,-5.281,-1.6052e-12,-0.89227,0,0,0.083333,1.579e-15,0,0.66667
0.11892,0.74561,1.427,0.36841,69.571,1278.4,-1.402,0.46732,-1.5144,-1.8693,-1.333e-09,-0.7572,0,0,0.083333,-2.9606e-16,0,0.66667
0.11084,0.31804,1.3301,-0.27295,-51.624,1296.8,0.96809,-0.3227,-1.7391,1.2908,2.0426e-08,-0.86954,0,0,0.083333,-0,-0,0.66667
0.6963,0.15929,8.3555,-0.51106,-50.391,197.13,11.387,-3.7957,-1.0682,15.183,2.7436e-12,-0.53408,0,0,0.083333,-0,-0,0.66667
0.27155,0.6912,3.2586,0.28679,50.861,938.23,-2.4921,0.83071,-1.7048,-3.3228,-1.7668e-11,-0.85238,0,0,0.083333,-0,-0,0.66667
0.96639,0.47602,11.597,-0.035968,-0.4355,3.1519,1.1123,-0.37076,-1.9971,1.483,7.2007e-08,-0.99856,0,0,0.083333,3.158e-15,0,0.66667
0.83925,0.38764,10.071,-0.16853,-9.4739,59.209,4.5261,-1.5087,-1.8967,6.0348,-1.4541e-10,-0.94835,0,0,0.083333,-0,-0,0.66667
0.09252,0.63288,1.1102,0.19931,37.833,1338.9,-0.5901,0.1967,-1.863,-0.7868,-4.0826e-08,-0.93151,0,0,0.083333,-0,-0,0.66667
0.39056,0.17051,4.6867,-0.49424,-80.257,692.78,6.177,-2.059,-1.1385,8.2359,7.0686e-12,-0.56926,0,0,0.083333,-7.8949e-16,2.9186e-17,0.66667
0.12422,0.48099,1.4906,-0.028517,-5.3742,1266.2,0.11335,-0.037785,-2.0022,0.15114,-3.596e-10,-1.0011,0,0,0.083333,1.9737e-16,0,0.66667
0.55539,0.68838,6.6647,0.28257,37.377,395.74,-5.0219,1.674,-1.7133,-6.6959,5.8638e-12,-0.85663,0,0,0.083333,-1.579e-15,0,0.66667
0.16211,0.60796,1.9453,0.16194,30.186,1180,-0.84005,0.28002,-1.903,-1.1201,-8.5681e-11,-0.95151,0,0,0.083333,-0,-0,0.66667
0.83177,0.049378,9.9812,-0.67593,-39.919,66.438,17.991,-5.997,-0.37443,23.988,1.5459e-08,-0.18721,0,0,0.083333,-0,-0,0.66667
0.25769,0.24392,3.0923,-0.38412,-68.689,968.23,3.1676,-1.0559,-1.4715,4.2234,1.4591e-12,-0.73577,0,0,0.083333,-0,-0,0.66667
0.51057,0.17655,6.1268,-0.48517,-68.705,470.83,7.9268,-2.6423,-1.1602,10.569,-3.6446e-12,-0.5801,0,0,0.083333,-0,-0,0.66667
0.78245,0.19913,9.3894,-0.4513,-33.432,105.68,11.3,-3.7667,-1.2798,15.067,-8.2002e-11,-0.63992,0,0,0.083333,-0,-0,0.66667
0.53834,0.56889,6.4601,0.10334,14.032,423.37,-1.7803,0.59342,-1.9582,-2.3737,2.0245e-12,-0.97912,0,0,0.083333,-0,-0,0.66667
0.52882,0.91703,6.3459,0.62555,86.407,440.28,-10.586,3.5286,-0.60991,-14.114,4.734e-13,-0.30496,0,0,0.083333,-0,1.3154e-16,0.66667
0.85484,0.20663,10.258,-0.44005,-22.58,49.55,12.037,-4.0125,-1.3092,16.05,-2.968e-10,-0.65458,0,0,0.083333,-0,-0,0.66667
0.2451,0.082677,2.9412,-0.62598,-112.86,995.94,4.9097,-1.6366,-0.60403,6.5463,-1.4953e-10,-0.30202,0,0,0.083333,3.9475e-16,0,0.66667
0.1271,0.87104,1.5252,0.55656,104.99,1259.8,-2.2637,0.75455,-0.90136,-3.0182,-1.5883e-08,-0.45068,0,0,0.083333,2.9606e-16,0,0.66667
0.56024,0.70531,6.7229,0.30797,40.421,388,-5.5212,1.8404,-1.6643,-7.3615,1.136e-12,-0.83213,0,0,0.083333,7.8949e-16,0,0.66667
0.12838,0.63065,1.5406,0.19598,36.902,1256.7,-0.80512,0.26837,-1.8634,-1.0735,-4.8581e-09,-0.93171,0,0,0.083333,-0,-0,0.66667
0.33116,0.0071143,3.9739,-0.73933,-126.37,813.24,7.8347,-2.6116,-0.056928,10.446,8.1259e-12,-0.028464,0,0,0.083333,-0,-0,0.66667
0.32644,0.60926,3.9173,0.16389,28.023,822.1,-1.712,0.57068,-1.9072,-2.2827,-7.0657e-12,-0.95361,0,0,0.083333,-0,-0,0.66667
0.94804,0.79681,11.377,0.44522,8.4836,7.9972,-13.507,4.5023,-1.2922,-18.009,2.7572e-07,-0.64608,0,0,0.083333,-1.579e-15,0,0.66667
0.37591,0.52619,4.511,0.039288,6.4546,721.3,-0.47261,0.15754,-2,-0.63015,-6.5067e-13,-0.99998,0,0,0.083333,3.9475e-16,0,0.66667
0.46911,0.15871,5.6293,-0.51194,-76.502,544.13,7.685,-2.5617,-1.0755,10.247,-1.5818e-12,-0.53777,0,0,0.083333,-0,-0,0.66667
0.94734,0.6721,11.368,0.25815,4.9497,7.5084,-7.8258,2.6086,-1.7594,-10.434,1.126e-07,-0.87968,0,0,0.083333,-0,-0,0.66667
0.82838,0.15169,9.9406,-0.52246,-31.32,68.102,13.849,-4.6165,-1.0368,18.466,-2.2219e-09,-0.5184,0,0,0.083333,-3.9475e-16,0,0.66667
0.672,0.43977,8.064,-0.090339,-9.4604,226.38,1.9427,-0.64755,-1.9791,2.5902,2.5965e-12,-0.98955,0,0,0.083333,-1.579e-15,0,0.66667
0.26731,0.52533,3.2077,0.038,6.7526,947.24,-0.32505,0.10835,-1.9983,-0.43341,-1.6768e-11,-0.99913,0,0,0.083333,-0,-0,0.66667
0.13326,0.44762,1.5992,-0.078572,-14.773,1245.5,0.33507,-0.11169,-1.9738,0.44676,1.7765e-09,-0.98691,0,0,0.083333,3.9475e-16,0,0.66667
0.33396,0.64467,4.0076,0.217,36.901,806.56,-2.319,0.77301,-1.829,-3.092,-7.2504e-12,-0.91448,0,0,0.083333,-0,-0,0.66667
0.15982,0.52645,1.9178,0.039673,7.3996,1185.2,-0.2029,0.067633,-1.9942,-0.27053,-1.4325e-10,-0.9971,0,0,0.083333,-0,-0,0.66667
0.9604,0.16475,11.525,-0.50287,-7.3339,5.5337,15.455,-5.1515,-1.0968,20.606,-4.1808e-06,-0.54841,0,0,0.083333,-0,-0,0.66667
0.20094,0.87979,2.4113,0.56969,104.82,1093.2,-3.6631,1.221,-0.84847,-4.8842,-4.6591e-10,-0.42423,0,0,0.083333,-0,-0,0.66667
0.31067,0.37074,3.728,-0.19389,-33.529,855.03,1.9275,-0.64252,-1.8696,2.5701,5.7975e-12,-0.93481,0,0,0.083333,-1.9737e-16,0,0.66667
0.66142,0.93218,7.937,0.64828,69.921,241.55,-13.721,4.5737,-0.50334,-18.295,-7.6561e-13,-0.25167,0,0,0.083333,-0,-0,0.66667
0.43762,0.007813,5.2515,-0.73828,-114.59,602.92,10.339,-3.4463,-0.069321,13.785,6.5761e-12,-0.03466,0,0,0.083333,-1.579e-15,0,0.66667
0.58983,0.1248,7.078,-0.5628,-70.321,342.59,10.623,-3.5409,-0.87389,14.164,2.9203e-12,-0.43694,0,0,0.083333,3.454e-16,0,0.66667
0.84885,0.71031,10.186,0.31547,16.775,53.008,-8.569,2.8563,-1.6435,-11.425,4.9493e-10,-0.82173,0,0,0.083333,-7.8949e-16,0,0.66667
0.58815,0.055265,7.0578,-0.6671,-83.696,345.55,12.555,-4.1851,-0.41464,16.74,-3.4834e-12,-0.20732,0,0,0.083333,-3.9475e-16,0,0.66667
0.49698,0.79371,5.9637,0.44056,63.527,494.3,-7.0064,2.3355,-1.3099,-9.3418,5.3468e-13,-0.65494,0,0,0.083333,-0,-0,0.66667
0.83558,0.56519,10.027,0.097782,5.6101,61.712,-2.6145,0.87151,-1.9627,-3.4861,4.8921e-10,-0.98136,0,0,0.083333,-0,-0,0.66667
0.79797,0.49385,9.5756,-0.009229,-0.63828,91.145,0.23566,-0.078554,-2.0045,0.31422,-1.2145e-10,-1.0023,0,0,0.083333,2.3685e-15,0,0.66667
0.98116,0.36389,11.774,-0.20417,-1.3528,1.3511,6.4104,-2.1368,-1.8515,8.5472,8.2724e-07,-0.92575,0,0,0.083333,-1.579e-15,0,0.66667
0.94861,0.49415,11.383,-0.0087718,-0.16354,6.8555,0.26627,-0.088757,-1.998,0.35503,1.0975e-07,-0.999,0,0,0.083333,1.579e-15,0,0.66667
0.91719,0.27032,11.006,-0.34452,-10.343,17.352,10.112,-3.3706,-1.5755,13.482,-7.23e-08,-0.78777,0,0,0.083333,-0,-0,0.66667
0.49483,0.19346,5.9379,-0.45981,-66.5,498.12,7.2808,-2.4269,-1.2458,9.7077,1.2594e-12,-0.62289,0,0,0.083333,-0,-0,0.66667
0.73715,0.52341,8.8458,0.035108,3.0574,149.71,-0.82816,0.27605,-1.9964,-1.1042,-2.2511e-12,-0.99822,0,0,0.083333,-0,-0,0.66667
0.60052,0.10126,7.2063,-0.59812,-73.298,326.66,11.494,-3.8313,-0.72421,15.325,4.3991e-12,-0.36211,0,0,0.083333,-0,-0,0.66667
0.738,0.39337,8.856,-0.15994,-13.894,148.9,3.7772,-1.2591,-1.908,5.0362,3.1697e-12,-0.95399,0,0,0.083333,-0,-0,0.66667
0.37576,0.6771,4.5091,0.26566,43.668,721.75,-3.1943,1.0648,-1.7543,-4.2591,-2.7343e-12,-0.87717,0,0,0.083333,-0,-0,0.66667
0.91111,0.45029,10.933,-0.074558,-2.3889,19.205,2.1738,-0.72459,-1.9775,2.8984,-2.8783e-08,-0.98875,0,0,0.083333,-0,-0,0.66667
0.87231,0.5237,10.468,0.035555,1.6114,38.145,-0.99249,0.33083,-1.9965,-1.3233,1.7903e-09,-0.99826,0,0,0.083333,-1.579e-15,0,0.66667
0.70467,0.62868,8.456,0.19303,18.553,186.34,-4.3526,1.4509,-1.8716,-5.8035,-1.2346e-13,-0.9358,0,0,0.083333,-0,-0,0.66667
0.26123,0.57984,3.1347,0.11975,21.356,960.4,-1.0011,0.33369,-1.9468,-1.3347,-3.519e-12,-0.9734,0,0,0.083333,-3.9475e-16,0,0.66667
0.50107,0.11302,6.0128,-0.58047,-83.333,487.53,9.3074,-3.1025,-0.80631,12.41,1.303e-12,-0.40316,0,0,0.083333,-0,-0,0.66667
0.21771,0.55662,2.6125,0.084935,15.486,1055.6,-0.59171,0.19724,-1.9793,-0.78894,3.6694e-11,-0.98967,0,0,0.083333,-9.8686e-17,0,0.66667
0.10252,0.64209,1.2302,0.21314,40.379,1315.9,-0.69924,0.23308,-1.8342,-0.93233,-3.3226e-08,-0.91709,0,0,0.083333,-1.9737e-16,0,0.66667
0.57796,0.31422,6.9355,-0.27866,-35.491,360.06,5.1538,-1.7179,-1.732,6.8718,6.7635e-13,-0.866,0,0,0.083333,-0,-0,0.66667
0.4796,0.69801,5.7552,0.29701,43.764,524.8,-4.5583,1.5194,-1.6838,-6.0777,6.6436e-13,-0.84191,0,0,0.083333,-0,-0,0.66667
0.24749,0.81062,2.9699,0.46593,83.812,990.5,-3.69,1.23,-1.2304,-4.92,-3.5408e-11,-0.61519,0,0,0.083333,-4.4409e-16,0,0.66667
0.44668,0.003778,5.3601,-0.74433,-114.39,586.03,10.639,-3.5464,-0.026974,14.186,-1.1957e-11,-0.013487,0,0,0.083333,-0,-0,0.66667
0.13839,0.5755,1.6607,0.11325,21.262,1233.8,-0.50152,0.16717,-1.956,-0.66869,-2.136e-09,-0.97798,0,0,0.083333,-1.9737e-16,0,0.66667
0.5228,0.10844,6.2736,-0.58733,-81.813,450.28,9.8259,-3.2753,-0.76908,13.101,-7.1205e-12,-0.38454,0,0,0.083333,-0,-0,0.66667
0.97037,0.025917,11.644,-0.71112,-7.9288,5.1232,22.082,-7.3606,-0.20559,29.442,4.7856e-05,-0.1028,0,0,0.083333,-1.579e-15,0,0.66667
0.82378,0.73619,9.8854,0.35428,21.701,70.89,-9.3393,3.1131,-1.5516,-12.452,-7.784e-11,-0.77579,0,0,0.083333,-9.7555e-16,0,0.66667
0.0044396,0.58786,0.053276,0.13179,25.229,1542.7,-0.018724,0.0062406,-1.9366,-0.024965,-7.9622e-07,-0.96831,0,0,0.083333,9.2519e-18,0,0.66667
0.09162,0.85325,1.0994,0.52987,100.73,1341.1,-1.5535,0.51783,-1.0037,-2.0713,-1.1111e-07,-0.50186,0,0,0.083333,-0,9.1138e-18,0.66667
0.025576,0.10481,0.30691,-0.59279,-113.61,1493.7,0.48515,-0.16174,-0.74714,0.64686,-3.0901e-05,-0.37357,0,0,0.083333,-4.9343e-17,0,0.66667
0.30843,0.74443,3.7011,0.36665,63.537,859.89,-3.6187,1.2062,-1.5209,-4.8249,-1.9464e-12,-0.76047,0,0,0.083333,-0,-0,0.66667
0.98064,0.89841,11.768,0.59762,4.2718,3.0548,-18.754,6.2512,-0.72925,-25.005,-1.4288e-05,-0.36463,0,0,0.083333,-0,-0,0.66667
0.4604,0.41938,5.5248,-0.12092,-18.227,559.39,1.7816,-0.59386,-1.9436,2.3754,-1.0691e-12,-0.97182,0,0,0.083333,7.8949e-16,0,0.66667
0.40975,0.4452,4.9169,-0.082201,-13.085,654.83,1.0778,-0.35927,-1.9755,1.4371,-1.0661e-11,-0.98776,0,0,0.083333,-0,-0,0.66667
0.40822,0.057261,4.8986,-0.66411,-106.18,658.73,8.6753,-2.8918,-0.43469,11.567,-1.4733e-11,-0.21734,0,0,0.083333,1.9737e-16,0,0.66667
0.82481,0.81368,9.8978,0.47052,28.713,70.533,-12.419,4.1396,-1.2137,-16.559,6.738e-11,-0.60686,0,0,0.083333,-0,-0,0.66667
0.58171,0.29952,6.9805,-0.30072,-38.054,354.31,5.5979,-1.866,-1.6775,7.4638,-2.3794e-12,-0.83873,0,0,0.083333,7.8949e-16,0,0.66667
0.11935,0.27295,1.4322,-0.34058,-64.302,1277.4,1.3008,-0.43359,-1.5844,1.7343,3.466e-09,-0.79219,0,0,0.083333,9.8686e-17,0,0.66667
0.44473,0.41263,5.3368,-0.13106,-20.112,588.37,1.8652,-0.62173,-1.9351,2.4869,-2.5868e-12,-0.96756,0,0,0.083333,-0,-0,0.66667
0.1464,0.00071456,1.7569,-0.74893,-140.71,1216,3.5087,-1.1696,-0.0035863,4.6782,8.2015e-10,-0.0017932,0,0,0.083333,-0,-0,0.66667
0.66607,0.41235,7.9929,-0.13148,-13.97,234.05,2.8023,-0.93411,-1.9355,3.7365,-5.4312e-13,-0.96774,0,0,0.083333,-0,-0,0.66667
0.12237,0.035943,1.4684,-0.69609,-131.59,1270.7,2.7257,-0.90858,-0.27872,3.6343,-4.1188e-07,-0.13936,0,0,0.083333,3.9475e-16,0,0.66667
0.086689,0.37305,1.0403,-0.19043,-36.183,1352.3,0.52825,-0.17608,-1.868,0.70433,4.928e-08,-0.93401,0,0,0.083333,1.2336e-16,0,0.66667
0.70336,0.16039,8.4403,-0.50941,-49.26,188.71,11.466,-3.8219,-1.0848,15.288,1.7764e-13,-0.5424,0,0,0.083333,-0,-0,0.66667
0.41126,0.58077,4.9351,0.12116,19.259,651.92,-1.5944,0.53148,-1.9449,-2.1259,-2.9311e-12,-0.97245,0,0,0.083333,7.8949e-16,0,0.66667
0.99611,0.19017,11.953,-0.46474,-0.52567,1.2485,14.814,-4.938,-1.2317,19.752,-2.7701e-06,-0.61586,0,0,0.083333,-3.158e-15,0,0.66667
0.53405,0.89124,6.4086,0.58686,80.409,431.43,-10.029,3.3431,-0.77578,-13.372,4.4134e-12,-0.38789,0,0,0.083333,-7.8949e-16,0,0.66667
0.77901,0.87135,9.3482,0.55703,41.9,109.27,-13.886,4.6286,-0.89928,-18.514,-4.5938e-11,-0.44964,0,0,0.083333,7.8949e-16,-7.6992e-17,0.66667
0.86863,0.22467,10.424,-0.413,-19.298,41.045,11.48,-3.8266,-1.3901,15.306,-6.7434e-09,-0.69506,0,0,0.083333,-0,-0,0.66667
0.79875,0.9449,9.585,0.66735,46.302,92.376,-17.057,5.6858,-0.4193,-22.743,-4.3528e-09,-0.20965,0,0,0.083333,1.579e-15,0,0.66667
0.21409,0.55583,2.569,0.083748,15.294,1063.6,-0.57374,0.19125,-1.9731,-0.76498,3.1615e-11,-0.98653,0,0,0.083333,-1.9737e-16,0,0.66667
0.68037,0.69326,8.1644,0.28989,29.75,216.05,-6.3114,2.1038,-1.6975,-8.4152,-4.1123e-13,-0.84875,0,0,0.083333,-0,-0,0.66667
0.0046244,0.54912,0.055493,0.073681,14.104,1542.3,-0.010903,0.0036334,-1.9782,-0.014538,-1.5505e-06,-0.9891,0,0,0.083333,-0,-0,0.66667
0.7958,0.13228,9.5496,-0.55158,-38.688,94.296,14.046,-4.6821,-0.92298,18.728,-1.4463e-10,-0.46149,0,0,0.083333,1.579e-15,0,0.66667
0.21583,0.018666,2.59,-0.722,-132.14,1060.4,4.9866,-1.6622,-0.14673,6.6488,-2.4617e-10,-0.073363,0,0,0.083333,-0,9.495e-17,0.66667
0.98672,0.63188,11.841,0.19783,0.89451,0.83587,-6.2464,2.0821,-1.8626,-8.3286,2.8635e-08,-0.93132,0,0,0.083333,-0,-0,0.66667
0.94415,0.26021,11.33,-0.35968,-7.3374,8.6547,10.867,-3.6223,-1.536,14.489,-1.4416e-07,-0.768,0,0,0.083333,-0,-0,0.66667
0.58512,0.95673,7.0214,0.6851,86.439,350.26,-12.828,4.2759,-0.3269,-17.104,5.5049e-12,-0.16345,0,0,0.083333,-1.4824e-15,0,0.66667
0.16047,0.66185,1.9256,0.24278,45.287,1183.8,-1.2467,0.41556,-1.7891,-1.6622,-1.8835e-10,-0.89457,0,0,0.083333,3.9475e-16,0,0.66667
0.7034,0.3659,8.4408,-0.20115,-19.403,187.84,4.5277,-1.5092,-1.8629,6.0369,2.105e-13,-0.93143,0,0,0.083333,-7.8949e-16,0,0.66667
0.41745,0.89585,5.0094,0.59377,94.008,640.75,-7.9319,2.644,-0.74435,-10.576,4.7966e-12,-0.37218,0,0,0.083333,-3.9475e-16,0,0.66667
0.46677,0.78309,5.6012,0.42463,63.598,548.18,-6.3426,2.1142,-1.3623,-8.4567,-5.8336e-12,-0.68114,0,0,0.083333,-0,-0,0.66667
0.30497,0.45951,3.6596,-0.060728,-10.54,866.96,0.59264,-0.19755,-1.9827,0.79019,5.1095e-12,-0.99136,0,0,0.083333,-0,-0,0.66667
0.86917,0.59235,10.43,0.13853,6.4266,40.032,-3.853,1.2843,-1.9295,-5.1374,2.5938e-09,-0.96473,0,0,0.083333,-7.8949e-16,0,0.66667
0.46942,0.84225,5.633,0.51337,76.688,543.58,-7.7116,2.5705,-1.0697,-10.282,-3.8898e-12,-0.53483,0,0,0.083333,-9.8686e-17,0,0.66667
0.80616,0.94861,9.6739,0.67291,45.157,86.221,-17.359,5.7864,-0.3861,-23.145,-2.0151e-09,-0.19305,0,0,0.083333,-0,-0,0.66667
0.8068,0.5848,9.6816,0.1272,8.4532,83.816,-3.284,1.0947,-1.9392,-4.3787,-4.3508e-11,-0.96958,0,0,0.083333,-0,-0,0.66667
0.55703,0.23813,6.6843,-0.39281,-51.852,393.34,7.0017,-2.3339,-1.4481,9.3357,-3.7108e-12,-0.72403,0,0,0.083333,-0,-0,0.66667
0.38613,0.75043,4.6335,0.37564,61.206,701.3,-4.6415,1.5472,-1.4975,-6.1886,5.5733e-12,-0.74877,0,0,0.083333,-0,-0,0.66667
0.68707,0.25157,8.2448,-0.37265,-37.61,207.92,8.1931,-2.731,-1.5136,10.924,-3.0145e-12,-0.7568,0,0,0.083333,-0,-0,0.66667
0.6809,0.43568,8.1708,-0.096483,-9.8808,215.1,2.1023,-0.70075,-1.964,2.803,-2.6756e-13,-0.98202,0,0,0.083333,-9.8476e-16,0,0.66667
0.18194,0.85222,2.1833,0.52834,97.927,1135.6,-3.0761,1.0254,-1.0044,-4.1014,1.4174e-09,-0.50218,0,0,0.083333,-0,-0,0.66667
0.76415,0.2725,9.1698,-0.34125,-27.103,122.57,8.3445,-2.7815,-1.5895,11.126,9.9831e-12,-0.79476,0,0,0.083333,-0,-0,0.66667
0.16518,0.19291,1.9821,-0.46064,-85.862,1173.3,2.4348,-0.81159,-1.2421,3.2463,3.2284e-10,-0.62103,0,0,0.083333,-0,-0,0.66667
0.32411,0.22206,3.8893,-0.41691,-71.47,827.19,4.3239,-1.4413,-1.3814,5.7652,-7.3719e-14,-0.69068,0,0,0.083333,7.8949e-16,0,0.66667
0.87021,0.71548,10.443,0.32322,14.91,39.824,-9.0006,3.0002,-1.6269,-12.001,5.0193e-09,-0.81345,0,0,0.083333,7.8949e-16,0,0.66667
0.57167,0.5681,6.86,0.10215,13.144,369.67,-1.8686,0.62287,-1.9595,-2.4915,-7.6616e-13,-0.97974,0,0,0.083333,1.579e-15,0,0.66667
0.2566,0.0028742,3.0792,-0.74569,-133.74,971.17,6.123,-2.041,-0.019873,8.164,4.5035e-12,-0.0099363,0,0,0.083333,-0,-0,0.66667
0.92392,0.57012,11.087,0.10518,2.8956,14.344,-3.1097,1.0366,-1.963,-4.1463,9.3812e-08,-0.98151,0,0,0.083333,3.158e-15,0,0.66667
0.66058,0.12216,7.9269,-0.56676,-61.192,242.31,11.98,-3.9935,-0.85691,15.974,2.0863e-12,-0.42845,0,0,0.083333,-1.1842e-15,0,0.66667
0.55451,0.9045,6.6541,0.60674,80.552,398.01,-10.766,3.5888,-0.68794,-14.355,-8.6997e-12,-0.34397,0,0,0.083333,-0,-0,0.66667
0.99332,0.17595,11.92,-0.48607,-1.0781,1.4678,15.45,-5.1501,-1.1558,20.6,-7.5842e-06,-0.57792,0,0,0.083333,-0,-0,0.66667
0.84555,0.95639,10.147,0.68458,37.399,56.868,-18.523,6.1744,-0.33623,-24.698,3.3741e-10,-0.16811,0,0,0.083333,-0,-0,0.66667
0.67719,0.3039,8.1263,-0.29415,-30.432,220.05,6.3743,-2.1248,-1.6894,8.4991,-2.4385e-12,-0.84471,0,0,0.083333,-0,-0,0.66667
0.081731,0.85741,0.98077,0.53612,102.09,1363.8,-1.4021,0.46738,-0.97701,-1.8695,-4.2254e-08,-0.4885,0,0,0.083333,-0,-0,0.66667
0.36445,0.54278,4.3733,0.064174,10.648,744.3,-0.74841,0.24947,-1.9824,-0.99788,2.8086e-12,-0.99122,0,0,0.083333,-0,-0,0.66667
0.50217,0.48077,6.026,-0.028847,-4.1252,484.72,0.46356,-0.15452,-1.9988,0.61807,3.466e-12,-0.99939,0,0,0.083333,-0,-0,0.66667
0.61766,0.53276,7.4119,0.049133,5.8061,300.4,-0.97111,0.3237,-1.9884,-1.2948,-5.9619e-13,-0.99419,0,0,0.083333,1.579e-15,0,0.66667
0.63988,0.045828,7.6785,-0.68126,-77.176,270.64,13.95,-4.6498,-0.35494,18.599,-1.4042e-12,-0.17747,0,0,0.083333,-0,-9.8244e-17,0.66667
0.72511,0.27032,8.7014,-0.34452,-31.209,163.27,7.994,-2.6647,-1.5741,10.659,2.0783e-12,-0.78703,0,0,0.083333,-7.8949e-16,0,0.66667
0.91024,0.80438,10.923,0.45656,14.863,20.546,-13.299,4.4329,-1.2576,-17.732,2.1673e-08,-0.62878,0,0,0.083333,7.8949e-16,0,0.66667
0.56828,0.63492,6.8193,0.20238,26.199,375.09,-3.6802,1.2267,-1.8509,-4.907,4.7824e-12,-0.92546,0,0,0.083333,-1.579e-15,0,0.66667
0.98027,0.7613,11.763,0.39194,2.7741,2.0298,-12.295,4.0982,-1.4521,-16.393,-3.3238e-06,-0.72604,0,0,0.083333,-1.579e-15,0,0.66667
0.1132,0.87359,1.3584,0.56038,106.07,1291.6,-2.0299,0.67663,-0.88345,-2.7065,4.6106e-09,-0.44173,0,0,0.083333,7.4015e-17,0,0.66667
0.46568,0.67703,5.5881,0.26555,39.794,549.89,-3.9572,1.3191,-1.7493,-5.2762,-5.0848e-12,-0.87465,0,0,0.083333,-3.9475e-16,0,0.66667
0.10167,0.90383,1.2201,0.60575,114.98,1318,-1.9708,0.65694,-0.69212,-2.6277,8.632e-08,-0.34606,0,0,0.083333,-1.9737e-16,0,0.66667
0.74245,0.35396,8.9094,-0.21906,-18.758,144.28,5.2045,-1.7348,-1.8251,6.9394,4.0328e-12,-0.91256,0,0,0.083333,-1.579e-15,0,0.66667
0.80683,0.7336,9.6819,0.35039,23.321,84.253,-9.0466,3.0155,-1.5599,-12.062,-9.9142e-11,-0.77994,0,0,0.083333,-0,-0,0.66667
0.52316,0.14529,6.2779,-0.53207,-74.044,449.51,8.9074,-2.9691,-0.98912,11.877,-5.5209e-12,-0.49456,0,0,0.083333,-0,-0,0.66667
0.43253,0.37518,5.1904,-0.18723,-29.12,611.32,2.5914,-0.8638,-1.8741,3.4552,-7.117e-12,-0.93706,0,0,0.083333,1.579e-15,0,0.66667
0.066995,0.60593,0.80394,0.1589,30.283,1397.7,-0.34066,0.11355,-1.9079,-0.45421,-1.2233e-07,-0.95397,0,0,0.083333,-0,-0,0.66667
0.56461,0.93203,6.7754,0.64805,84.664,382.03,-11.709,3.9029,-0.50926,-15.612,-2.0695e-13,-0.25463,0,0,0.083333,-7.8949e-16,0,0.66667
0.25483,0.3156,3.0579,-0.2766,-49.52,974.36,2.2556,-0.75186,-1.7263,3.0074,3.4663e-12,-0.86315,0,0,0.083333,-7.8949e-16,0,0.66667
0.082332,0.29831,0.98798,-0.30254,-57.546,1362.4,0.79707,-0.26569,-1.6726,1.0628,8.4763e-08,-0.8363,0,0,0.083333,9.8686e-17,0,0.66667
0.73371,0.39424,8.8045,-0.15864,-13.974,153.5,3.7247,-1.2416,-1.9159,4.9663,7.8071e-13,-0.95797,0,0,0.083333,7.8949e-16,0,0.66667
0.74344,0.52461,8.9213,0.036919,3.1491,143.05,-0.8783,0.29277,-1.9915,-1.1711,2.4786e-13,-0.99577,0,0,0.083333,-7.8949e-16,0,0.66667
0.37108,0.52504,4.453,0.037562,6.1969,730.97,-0.44603,0.14868,-1.994,-0.5947,2.6148e-12,-0.99702,0,0,0.083333,-0,-0,0.66667
0.18447,0.35779,2.2137,-0.21331,-39.447,1129.7,1.2592,-0.41973,-1.8382,1.6789,-1.1344e-10,-0.91908,0,0,0.083333,-0,-0,0.66667
0.51289,0.28806,6.1547,-0.3179,-44.829,466.48,5.2176,-1.7392,-1.6417,6.9568,7.7858e-12,-0.82084,0,0,0.083333,-0,-0,0.66667
0.093456,0.74398,1.1215,0.36597,69.489,1336.8,-1.0945,0.36482,-1.5308,-1.4593,-3.8502e-08,-0.76541,0,0,0.083333,5.5337e-17,0,0.66667
0.77844,0.91715,9.3413,0.62572,47.227,110.14,-15.587,5.1956,-0.6084,-20.782,-1.3743e-10,-0.3042,0,0,0.083333,-0,-0,0.66667
0.47595,0.27968,5.7115,-0.33048,-48.923,531.39,5.0334,-1.6778,-1.6086,6.7112,1.0583e-11,-0.80432,0,0,0.083333,-1.0856e-15,0,0.66667
0.96096,0.35202,11.532,-0.22197,-3.1443,4.3814,6.8258,-2.2753,-1.8207,9.1011,8.3009e-08,-0.91036,0,0,0.083333,-3.158e-15,0,0.66667
0.10902,0.097227,1.3082,-0.60416,-114.5,1301.2,2.1077,-0.70257,-0.70943,2.8103,-1.2343e-07,-0.35471,0,0,0.083333,-3.9475e-16,-3.9034e-17,0.66667
0.69796,0.66861,8.3755,0.25292,24.773,194.4,-5.6488,1.8829,-1.7695,-7.5317,-1.612e-13,-0.88475,0,0,0.083333,-0,-0,0.66667
0.80356,0.17973,9.6427,-0.4804,-32.513,87.414,12.353,-4.1177,-1.1756,16.471,9.3898e-11,-0.58781,0,0,0.083333,7.8949e-16,0,0.66667
0.72687,0.99026,8.7225,0.73538,66.578,162.97,-17.105,5.7017,-0.072982,-22.807,1.9895e-13,-0.036491,0,0,0.083333,1.6503e-15,0,0.66667
0.46145,0.58701,5.5375,0.13051,19.649,557.47,-1.9273,0.64242,-1.9356,-2.5697,-7.1844e-12,-0.96778,0,0,0.083333,6.6798e-16,0,0.66667
0.54611,0.65954,6.5533,0.23931,32.119,410.73,-4.182,1.394,-1.8025,-5.576,-4.5786e-13,-0.90125,0,0,0.083333,1.579e-15,0,0.66667
0.61519,0.61921,7.3823,0.17882,21.241,304.06,-3.5203,1.1734,-1.8833,-4.6937,1.1777e-12,-0.94164,0,0,0.083333,7.8949e-16,0,0.66667
0.059105,0.57011,0.70927,0.10517,20.062,1416,-0.19892,0.066306,-1.9604,-0.26522,-4.5084e-09,-0.9802,0,0,0.083333,-0,-0,0.66667
0.99567,0.70411,11.948,0.30616,0.35874,0.61452,-9.7548,3.2516,-1.6646,-13.006,2.2339e-06,-0.83229,0,0,0.083333,-0,-0,0.66667
0.25491,0.65454,3.0589,0.23182,41.494,974.15,-1.8909,0.63031,-1.8074,-2.5212,-4.341e-13,-0.90371,0,0,0.083333,4.4409e-16,0,0.66667
0.64341,0.60733,7.7209,0.16099,18.025,264.3,-3.3147,1.1049,-1.9083,-4.4196,2.031e-12,-0.95413,0,0,0.083333,-1.579e-15,0,0.66667
0.12643,0.1123,1.5172,-0.58154,-109.74,1261.3,2.3528,-0.78428,-0.80094,3.1371,3.0402e-08,-0.40047,0,0,0.083333,1.9737e-16,0,0.66667
0.16786,0.05337,2.0144,-0.66994,-124.93,1167.4,3.5987,-1.1996,-0.40277,4.7983,-2.337e-08,-0.20138,0,0,0.083333,-0,-0,0.66667
0.4911,0.17172,5.8933,-0.49242,-71.578,504.75,7.7386,-2.5795,-1.1336,10.318,1.299e-12,-0.5668,0,0,0.083333,7.8949e-16,0,0.66667
0.2885,0.73032,3.462,0.34548,60.652,902.01,-3.1895,1.0632,-1.5713,-4.2526,-1.1345e-11,-0.78566,0,0,0.083333,-0,-0,0.66667
0.50424,0.043184,6.0509,-0.68522,-98.046,482.38,11.057,-3.6855,-0.32863,14.742,9.8233e-13,-0.16431,0,0,0.083333,-0,-0,0.66667
0.10218,0.47686,1.2262,-0.034713,-6.575,1316.7,0.1135,-0.037834,-1.9917,0.15134,5.1721e-09,-0.99585,0,0,0.083333,-0,-0,0.66667
0.41929,0.31207,5.0315,-0.28189,-44.466,636.61,3.7822,-1.2607,-1.7199,5.043,-7.4198e-12,-0.85993,0,0,0.083333,8.8818e-16,0,0.66667
0.2686,0.46217,3.2232,-0.056748,-10.077,944.46,0.48776,-0.16259,-1.9891,0.65035,5.3105e-12,-0.99457,0,0,0.083333,1.9737e-16,0,0.66667
0.5819,0.95133,6.9828,0.677,85.896,355.15,-12.606,4.2021,-0.36908,-16.808,1.2914e-12,-0.18454,0,0,0.083333,-0,-0,0.66667
0.17171,0.71153,2.0605,0.31729,58.971,1158.5,-1.7434,0.58112,-1.6493,-2.3245,1.7639e-10,-0.82464,0,0,0.083333,-0,-0,0.66667
0.96232,0.3213,11.548,-0.26806,-3.6689,4.2391,8.2546,-2.7515,-1.7407,11.006,8.1765e-08,-0.87037,0,0,0.083333,-0,-0,0.66667
0.54421,0.36037,6.5305,-0.20944,-28.19,413.8,3.6473,-1.2158,-1.8447,4.8631,-6.2261e-13,-0.92233,0,0,0.083333,-0,-0,0.66667
0.70195,0.51346,8.4234,0.020196,1.9552,189.4,-0.45365,0.15122,-2.0026,-0.60486,1.2005e-12,-1.0013,0,0,0.083333,-0,-0,0.66667
0.93237,0.113,11.188,-0.5805,-14.431,13.127,17.32,-5.7732,-0.79885,23.093,-2.7544e-07,-0.39942,0,0,0.083333,-1.579e-15,0,0.66667
0.34537,0.84351,4.1444,0.51526,86.971,783.53,-5.6945,1.8982,-1.0606,-7.5927,4.7704e-12,-0.53029,0,0,0.083333,1.0115e-15,0,0.66667
0.51572,0.419,6.1886,-0.12149,-17.054,461.4,2.005,-0.66834,-1.9545,2.6734,4.7162e-12,-0.97727,0,0,0.083333,-0,-0,0.66667
0.78659,0.039177,9.4391,-0.69124,-50.541,103.1,17.399,-5.7997,-0.29825,23.199,-4.2945e-10,-0.14912,0,0,0.083333,-0,-0,0.66667
0.06941,0.32548,0.83292,-0.26179,-49.887,1392.2,0.58146,-0.19382,-1.7521,0.77528,2.1412e-07,-0.87603,0,0,0.083333,9.8686e-17,0,0.66667
0.75322,0.42424,9.0387,-0.11364,-9.3753,133.02,2.7391,-0.91302,-1.9537,3.6521,4.4862e-12,-0.97685,0,0,0.083333,-7.8949e-16,0,0.66667
0.11748,0.95419,1.4098,0.68128,128.93,1281.9,-2.5612,0.85372,-0.34525,-3.4149,1.6065e-07,-0.17263,0,0,0.083333,-1.9737e-16,0,0.66667
0.38913,0.64055,4.6696,0.21082,34.235,695.17,-2.6252,0.87505,-1.8452,-3.5002,1.2812e-13,-0.92258,0,0,0.083333,-0,-0,0.66667
0.69699,0.57905,8.3639,0.11858,11.639,195.38,-2.6447,0.88158,-1.9461,-3.5263,1.2335e-12,-0.97304,0,0,0.083333,-0,-0,0.66667
0.059872,0.71595,0.71846,0.32393,61.817,1414.2,-0.62061,0.20687,-1.6288,-0.82748,-1.9098e-07,-0.81438,0,0,0.083333,-0,-0,0.66667
0.66498,0.064142,7.9798,-0.65379,-69.927,236.93,13.912,-4.6374,-0.47728,18.55,-1.8741e-12,-0.23864,0,0,0.083333,1.579e-15,0,0.66667
0.97191,0.60156,11.663,0.15234,1.5347,2.398,-4.7379,1.5793,-1.9176,-6.3173,-6.641e-07,-0.95879,0,0,0.083333,-3.158e-15,0,0.66667
0.24942,0.25854,2.993,-0.36219,-65.052,986.19,2.8908,-0.96359,-1.5395,3.8544,-5.7914e-12,-0.76975,0,0,0.083333,-0,-0,0.66667
0.25914,0.33311,3.1096,-0.25034,-44.708,964.99,2.0759,-0.69197,-1.7732,2.7679,-5.5651e-12,-0.8866,0,0,0.083333,-0,-0,0.66667
0.087231,0.61674,1.0468,0.1751,33.267,1351.1,-0.48878,0.16293,-1.8872,-0.65171,-4.7796e-08,-0.9436,0,0,0.083333,-9.8686e-17,0,0.66667
0.093025,0.68387,1.1163,0.27581,52.358,1337.7,-0.82103,0.27368,-1.7357,-1.0947,-4.4994e-08,-0.86785,0,0,0.083333,4.9343e-17,0,0.66667
0.31441,0.11066,3.7729,-0.584,-100.91,847.7,5.8756,-1.9585,-0.78958,7.8342,-6.3474e-12,-0.39479,0,0,0.083333,-0,-0,0.66667
0.83253,0.30777,9.9904,-0.28835,-16.847,64.226,7.6818,-2.5606,-1.703,10.242,5.9633e-11,-0.85148,0,0,0.083333,1.1842e-15,0,0.66667
0.51242,0.21617,6.149,-0.42575,-60.112,467.5,6.9812,-2.3271,-1.3563,9.3083,-2.176e-14,-0.67815,0,0,0.083333,1.5171e-16,0,0.66667
0.38564,0.8473,4.6277,0.52094,84.989,702.53,-6.4287,2.1429,-1.0332,-8.5716,1.7386e-12,-0.51658,0,0,0.083333,-0,-0,0.66667
0.1825,0.9761,2.1901,0.71415,132.51,1134.6,-4.1707,1.3902,-0.18415,-5.561,4.9226e-09,-0.092075,0,0,0.083333,3.9475e-16,0,0.66667
0.97602,0.47668,11.712,-0.03498,-0.29792,1.7286,1.0925,-0.36418,-1.9916,1.4567,3.2781e-07,-0.99582,0,0,0.083333,3.158e-15,0,0.66667
0.74144,0.91258,8.8973,0.61886,53.387,146.67,-14.683,4.8944,-0.63449,-19.578,1.0683e-10,-0.31724,0,0,0.083333,-0,-0,0.66667
0.34016,0.79368,4.082,0.44052,74.624,794.06,-4.7951,1.5984,-1.309,-6.3935,-4.2766e-13,-0.65452,0,0,0.083333,7.8949e-16,0,0.66667
0.92233,0.0018629,11.068,-0.74721,-21.416,17.604,22.054,-7.3512,-0.022108,29.405,2.4674e-06,-0.011054,0,0,0.083333,-0,-0,0.66667
0.58633,0.84497,7.036,0.51746,65.038,347.77,-9.7089,3.2363,-1.045,-12.945,2.1476e-12,-0.52248,0,0,0.083333,-1.579e-15,0,0.66667
0.2652,0.4424,3.1824,-0.086401,-15.373,951.81,0.73323,-0.24441,-1.9803,0.97764,2.8236e-12,-0.99013,0,0,0.083333,-0,-0,0.66667
0.48157,0.46284,5.7788,-0.055736,-8.1873,521.06,0.8589,-0.2863,-1.9899,1.1452,-2.3089e-12,-0.99497,0,0,0.083333,3.9475e-16,0,0.66667
0.43439,0.6225,5.2126,0.18375,28.523,607.82,-2.5542,0.85141,-1.8809,-3.4056,-1.167e-11,-0.94046,0,0,0.083333,-8.8818e-16,0,0.66667
0.3025,0.62677,3.63,0.19016,33.066,872.21,-1.8408,0.61359,-1.8692,-2.4544,-9.6063e-12,-0.93461,0,0,0.083333,-7.8949e-16,0,0.66667
0.65676,0.83246,7.8811,0.49869,54.287,247.09,-10.481,3.4936,-1.1216,-13.974,-9.1571e-13,-0.56082,0,0,0.083333,-7.8949e-16,0,0.66667
0.79219,0.17371,9.5063,-0.48944,-34.834,97.147,12.407,-4.1358,-1.1457,16.543,3.2752e-11,-0.57284,0,0,0.083333,1.579e-15,0,0.66667
0.35326,0.69306,4.2392,0.2896,48.52,767.09,-3.2737,1.0912,-1.6986,-4.365,-4.2046e-12,-0.8493,0,0,0.083333,-0,-0,0.66667
0.43787,0.45644,5.2545,-0.065336,-10.101,601.18,0.91548,-0.30516,-1.991,1.2206,4.6144e-12,-0.99552,0,0,0.083333,-0,-0,0.66667
0.96304,0.018192,11.556,-0.72271,-10.038,6.4204,22.272,-7.424,-0.13935,29.696,-1.6291e-05,-0.069673,0,0,0.083333,-5.4389e-15,0,0.66667
0.25951,0.47543,3.1142,-0.036859,-6.5788,964.09,0.30609,-0.10203,-1.9918,0.40812,-3.298e-12,-0.9959,0,0,0.083333,-0,-0,0.66667
0.71926,0.8446,8.6311,0.5169,47.743,170.39,-11.897,3.9657,-1.0573,-15.863,8.3489e-14,-0.52866,0,0,0.083333,-0,-0,0.66667
0.85114,0.21637,10.214,-0.42545,-22.341,51.875,11.588,-3.8626,-1.3532,15.45,1.0437e-09,-0.6766,0,0,0.083333,1.0415e-15,0,0.66667
0.74183,0.96338,8.902,0.69508,59.955,146.65,-16.5,5.5001,-0.27848,-22,-3.0067e-11,-0.13924,0,0,0.083333,-0,-0,0.66667
0.21655,0.87343,2.5986,0.56015,102.36,1058.5,-3.8817,1.2939,-0.88733,-5.1756,-2.0079e-11,-0.44367,0,0,0.083333,-9.8686e-17,0,0.66667
0.43531,0.60887,5.2237,0.1633,25.322,606.06,-2.2747,0.75825,-1.9068,-3.033,-1.4089e-11,-0.95339,0,0,0.083333,-0,-0,0.66667
0.60876,0.65497,7.3051,0.23245,27.968,313.5,-4.5282,1.5094,-1.8148,-6.0376,-3.014e-12,-0.9074,0,0,0.083333,8.8818e-16,0,0.66667
0.59156,0.56195,7.0987,0.09293,11.545,339.01,-1.7592,0.58638,-1.9725,-2.3455,1.5726e-12,-0.98624,0,0,0.083333,2.2204e-16,0,0.66667
0.95189,0.15731,11.423,-0.51403,-9.1097,7.4076,15.658,-5.2192,-1.0658,20.877,-1.5876e-06,-0.53291,0,0,0.083333,3.158e-15,0,0.66667
0.3584,0.072437,4.3008,-0.64134,-107.22,757.29,7.3555,-2.4518,-0.54226,9.8074,-6.72e-12,-0.27113,0,0,0.083333,-0,-8.5609e-17,0.66667
0.53179,0.92257,6.3815,0.63385,87.177,435.35,-10.787,3.5955,-0.57716,-14.382,8.1446e-13,-0.28858,0,0,0.083333,-0,-0,0.66667
0.39838,0.20662,4.7805,-0.44007,-70.916,677.33,5.6101,-1.87,-1.307,7.4801,-1.0507e-12,-0.65351,0,0,0.083333,-7.7028e-17,0,0.66667
0.61473,0.051728,7.3768,-0.67241,-80.239,306.1,13.227,-4.4091,-0.38927,17.636,5.6772e-12,-0.19463,0,0,0.083333,-7.8949e-16,0,0.66667
0.46485,0.25474,5.5782,-0.36788,-55.208,551.57,5.4723,-1.8241,-1.5181,7.2964,-7.6161e-13,-0.75904,0,0,0.083333,-0,-0,0.66667
0.95549,0.54183,11.466,0.062752,1.0124,5.2741,-1.9187,0.63956,-1.9874,-2.5583,-2.9202e-07,-0.9937,0,0,0.083333,-0,-0,0.66667
0.70849,0.44988,8.5018,-0.07518,-7.1456,181.74,1.7044,-0.56815,-1.9767,2.2726,-1.9906e-12,-0.98833,0,0,0.083333,-0,-0,0.66667
0.49885,0.94631,5.9862,0.66946,96.47,491.7,-10.687,3.5622,-0.41086,-14.249,4.0785e-12,-0.20543,0,0,0.083333,-0,-0,0.66667
0.49291,0.27747,5.9149,-0.33379,-48.361,501.22,5.2649,-1.755,-1.6005,7.0199,-3.6549e-12,-0.80023,0,0,0.083333,3.9475e-16,0,0.66667
0.2485,0.39876,2.982,-0.15187,-27.273,988.05,1.2076,-0.40254,-1.9216,1.6102,1.9487e-12,-0.96081,0,0,0.083333,1.9737e-16,0,0.66667
0.21539,0.16364,2.5846,-0.50455,-92.218,1061.1,3.4775,-1.1592,-1.0947,4.6367,-1.2395e-10,-0.54734,0,0,0.083333,-0,-0,0.66667
0.38386,0.34359,4.6063,-0.23461,-38.285,705.61,2.8819,-0.96063,-1.8017,3.8425,-6.7413e-13,-0.90085,0,0,0.083333,-2.8372e-16,0,0.66667
0.26942,0.35289,3.233,-0.22066,-39.174,942.77,1.9024,-0.63413,-1.8258,2.5365,-6.3594e-13,-0.9129,0,0,0.083333,-0,-0,0.66667
0.29831,0.33635,3.5797,-0.24547,-42.808,881.12,2.3432,-0.78106,-1.7896,3.1242,-1.7049e-12,-0.89479,0,0,0.083333,1.9737e-16,0,0.66667
0.21497,0.020409,2.5797,-0.71939,-131.71,1062.3,4.9488,-1.6496,-0.15876,6.5984,-2.6942e-10,-0.079378,0,0,0.083333,-0,-0,0.66667
0.43072,0.15501,5.1686,-0.51749,-80.767,615.29,7.1325,-2.3775,-1.045,9.5099,-5.3291e-13,-0.52251,0,0,0.083333,-1.1349e-15,0,0.66667
0.23735,0.75909,2.8482,0.38863,70.248,1012.6,-2.9517,0.98391,-1.4633,-3.9356,1.1484e-11,-0.73165,0,0,0.083333,-0,-0,0.66667
0.42905,0.17085,5.1486,-0.49372,-77.181,618.39,6.7785,-2.2595,-1.1289,9.038,-6.5192e-13,-0.56446,0,0,0.083333,-7.8949e-16,0,0.66667
0.73823,0.60584,8.8587,0.15875,13.781,148.65,-3.7503,1.2501,-1.909,-5.0004,-3.1639e-12,-0.95451,0,0,0.083333,-0,-0,0.66667
0.19031,0.11985,2.2837,-0.57023,-105.38,1116.9,3.4727,-1.1576,-0.84497,4.6302,-1.7771e-10,-0.42248,0,0,0.083333,1.9737e-16,0,0.66667
0.98048,0.16187,11.766,-0.50719,-3.6042,2.5494,15.913,-5.3044,-1.0845,21.218,7.1059e-06,-0.54225,0,0,0.083333,-0,-0,0.66667
0.25094,0.1722,3.0113,-0.4917,-88.298,983.03,3.9484,-1.3161,-1.145,5.2645,1.5849e-11,-0.57249,0,0,0.083333,-0,-0,0.66667
0.091928,0.4598,1.1031,-0.060295,-11.444,1340.2,0.17737,-0.059123,-1.9898,0.23649,3.8647e-08,-0.9949,0,0,0.083333,9.8686e-17,0,0.66667
0.6622,0.95684,7.9464,0.68526,73.809,240.7,-14.521,4.8404,-0.32665,-19.361,1.7524e-12,-0.16332,0,0,0.083333,-7.8949e-16,0,0.66667
0.12414,0.13506,1.4896,-0.54741,-103.33,1266.5,2.1745,-0.72483,-0.93956,2.8993,2.7624e-08,-0.46978,0,0,0.083333,-0,9.6398e-17,0.66667
0.45854,0.48308,5.5025,-0.025377,-3.8332,562.77,0.37237,-0.12412,-1.9943,0.49649,9.9734e-13,-0.99717,0,0,0.083333,-0,-0,0.66667
0.55491,0.83972,6.6589,0.50959,67.553,397.05,-9.0488,3.0163,-1.0732,-12.065,-8.4022e-13,-0.53659,0,0,0.083333,-0,-0,0.66667
0.91222,0.64111,10.947,0.21167,6.7081,18.944,-6.1787,2.0596,-1.8369,-8.2383,4.8765e-08,-0.91844,0,0,0.083333,-1.579e-15,0,0.66667
0.84078,0.79813,10.089,0.44719,24.996,58.912,-12.032,4.0105,-1.289,-16.042,-2.6743e-10,-0.6445,0,0,0.083333,1.579e-15,0,0.66667
0.47647,0.52464,5.7177,0.036956,5.4631,530.18,-0.56347,0.18782,-1.9912,-0.75129,-4.3121e-12,-0.99562,0,0,0.083333,-0,-0,0.66667
0.8806,0.82029,10.567,0.48043,20.547,34.653,-13.538,4.5128,-1.1762,-18.051,-8.3121e-09,-0.5881,0,0,0.083333,-0,-0,0.66667
0.81353,0.16821,9.7624,-0.49769,-32.151,79.376,12.956,-4.3188,-1.1238,17.275,7.0901e-10,-0.56188,0,0,0.083333,-0,-0,0.66667
0.19464,0.39622,2.3357,-0.15566,-28.668,1106.9,0.96955,-0.32318,-1.9097,1.2927,-7.3095e-11,-0.95484,0,0,0.083333,1.9737e-16,0,0.66667
0.67245,0.58822,8.0694,0.13233,13.844,225.84,-2.8476,0.9492,-1.944,-3.7968,1.3574e-12,-0.97202,0,0,0.083333,-3.9475e-16,0,0.66667
0.71923,0.41989,8.6307,-0.12017,-11.069,169.46,2.7657,-0.92191,-1.9545,3.6876,-8.1934e-13,-0.97727,0,0,0.083333,-0,-0,0.66667
0.65257,0.12506,7.8309,-0.56241,-61.855,252.91,11.744,-3.9148,-0.87585,15.659,-1.811e-12,-0.43793,0,0,0.083333,-0,-0,0.66667
0.40566,0.80602,4.8679,0.45903,73.463,663.19,-5.9586,1.9862,-1.2569,-7.9449,2.5584e-12,-0.62847,0,0,0.083333,-3.9475e-16,0,0.66667
0.04361,0.98809,0.52333,0.73213,140.28,1452,-1.0217,0.34057,-0.093814,-1.3623,-4.8336e-06,-0.046907,0,0,0.083333,-5.1645e-17,0,0.66667
0.37899,0.23112,4.5479,-0.40332,-66.148,715.49,4.8914,-1.6305,-1.42,6.5219,2.438e-13,-0.71001,0,0,0.083333,-0,-0,0.66667
0.033161,0.86161,0.39793,0.54241,103.88,1476.1,-0.57559,0.19186,-0.95619,-0.76745,1.6486e-06,-0.47809,0,0,0.083333,-0,-0,0.66667
0.2442,0.48693,2.9304,-0.019599,-3.5272,997.39,0.15316,-0.051053,-1.995,0.20421,-4.3722e-12,-0.99749,0,0,0.083333,-3.9475e-16,0,0.66667
0.84278,0.47684,10.113,-0.034735,-1.912,56.641,0.93678,-0.31226,-2.0006,1.249,-3.2509e-10,-1.0003,0,0,0.083333,-0,-0,0.66667
0.47471,0.64723,5.6966,0.22085,32.729,533.47,-3.3549,1.1183,-1.8231,-4.4731,-2.0057e-12,-0.91153,0,0,0.083333,-0,-0,0.66667
0.19554,0.60545,2.3465,0.15817,29.119,1104.9,-0.98971,0.3299,-1.9067,-1.3196,6.6884e-11,-0.95335,0,0,0.083333,-0,-0,0.66667
0.93344,0.088897,11.201,-0.61665,-15.12,13.006,18.419,-6.1398,-0.647,24.559,-6.6963e-08,-0.3235,0,0,0.083333,-1.1842e-15,0,0.66667
0.17584,0.69495,2.1101,0.29243,54.266,1149.1,-1.6455,0.54851,-1.6948,-2.194,1.0589e-10,-0.84738,0,0,0.083333,-0,-0,0.66667
0.71019,0.86153,8.5223,0.54229,51.454,180.86,-12.324,4.1081,-0.95005,-16.432,-5.949e-12,-0.47502,0,0,0.083333,-7.8949e-16,0,0.66667
0.25216,0.30615,3.0259,-0.29077,-52.134,980.17,2.3462,-0.78208,-1.7017,3.1283,-3.6817e-12,-0.85083,0,0,0.083333,1.9737e-16,0,0.66667
0.12576,0.67788,1.5091,0.26683,50.285,1262.7,-1.0738,0.35792,-1.7522,-1.4317,-6.1296e-09,-0.8761,0,0,0.083333,-9.8686e-17,0,0.66667
0.42352,0.61043,5.0823,0.16565,26.008,628.41,-2.245,0.74834,-1.9053,-2.9934,-6.8463e-12,-0.95263,0,0,0.083333,-0,-0,0.66667
0.30687,0.21702,3.6825,-0.42447,-73.654,863.23,4.1682,-1.3894,-1.3572,5.5577,3.7854e-12,-0.67859,0,0,0.083333,-0,-0,0.66667
0.55624,0.17689,6.6748,-0.48466,-64.099,394.85,8.6268,-2.8756,-1.161,11.502,-3.3609e-12,-0.58048,0,0,0.083333,7.8949e-16,0,0.66667
0.0056956,0.16886,0.068347,-0.49671,-95.203,1539.8,0.090525,-0.030171,-1.1192,0.1207,6.7214e-06,-0.55961,0,0,0.083333,-0,-0,0.66667
0.40187,0.72846,4.8225,0.34268,55.011,670.35,-4.4069,1.469,-1.5805,-5.8759,-3.4639e-13,-0.79025,0,0,0.083333,-0,-0,0.66667
0.32437,0.085679,3.8925,-0.62148,-106.66,827.01,6.451,-2.1503,-0.6258,8.6013,-2.8999e-12,-0.3129,0,0,0.083333,-0,-0,0.66667
0.20888,0.59186,2.5065,0.13778,25.223,1075.2,-0.92096,0.30699,-1.9302,-1.2279,1.5184e-11,-0.96508,0,0,0.083333,9.8686e-17,0,0.66667
0.7647,0.14669,9.1764,-0.52996,-42.097,122.71,12.968,-4.3228,-1.0063,17.291,4.885e-13,-0.50313,0,0,0.083333,-7.8949e-16,-1.3136e-16,0.66667
0.21573,0.59044,2.5887,0.13565,24.757,1060,-0.93646,0.31215,-1.9356,-1.2486,-9.2452e-12,-0.96778,0,0,0.083333,-5.9212e-16,0,0.66667
0.36723,0.19459,4.4067,-0.45811,-75.929,739.11,5.3835,-1.7945,-1.2498,7.1779,9.4209e-12,-0.62492,0,0,0.083333,-7.8949e-16,0,0.66667
0.061462,0.39229,0.73754,-0.16157,-30.814,1410.5,0.31777,-0.10592,-1.9115,0.4237,1.17e-07,-0.95577,0,0,0.083333,-0,-0,0.66667
0.79907,0.030563,9.5889,-0.70416,-48.823,92.314,18.006,-6.0018,-0.24017,24.007,-1.2266e-09,-0.12008,0,0,0.083333,-4.9343e-16,0,0.66667
0.85776,0.92974,10.293,0.64461,32.606,48.722,-17.694,5.8979,-0.52592,-23.591,-4.0765e-08,-0.26296,0,0,0.083333,-7.8949e-16,0,0.66667
0.979,0.76823,11.748,0.40235,3.0428,2.2109,-12.605,4.2016,-1.4211,-16.806,-4.0533e-06,-0.71057,0,0,0.083333,-0,-0,0.66667
0.95064,0.52667,11.408,0.040011,0.71634,6.3676,-1.2172,0.40572,-1.9961,-1.6229,-5.4751e-08,-0.99807,0,0,0.083333,7.8949e-16,0,0.66667
0.48709,0.67411,5.8451,0.26117,38.113,511.4,-4.0708,1.3569,-1.758,-5.4277,-1.1586e-12,-0.87901,0,0,0.083333,-0,-0,0.66667
0.29631,0.18938,3.5558,-0.46594,-81.438,885.58,4.418,-1.4727,-1.235,5.8907,-4.003e-12,-0.61752,0,0,0.083333,-0,-0,0.66667
0.69417,0.60314,8.33,0.15471,15.304,198.82,-3.4366,1.1455,-1.9109,-4.5822,5.8487e-13,-0.95547,0,0,0.083333,-0,-0,0.66667
0.72461,0.63265,8.6953,0.19898,18.037,163.53,-4.6139,1.538,-1.8559,-6.1518,-3.193e-13,-0.92796,0,0,0.083333,-0,-0,0.66667
0.86836,0.68137,10.42,0.27205,12.709,40.758,-7.5595,2.5198,-1.7333,-10.079,4.3705e-09,-0.86663,0,0,0.083333,-1.579e-15,0,0.66667
0.20632,0.21398,2.4759,-0.42903,-78.699,1081.1,2.8326,-0.9442,-1.346,3.7768,-6.0722e-11,-0.67299,0,0,0.083333,-2.9606e-16,0,0.66667
0.39895,0.35357,4.7874,-0.21965,-35.343,675.9,2.8042,-0.93473,-1.8243,3.7389,-3.253e-12,-0.91213,0,0,0.083333,-0,-0,0.66667
0.78884,0.11693,9.4661,-0.5746,-41.533,100.48,14.505,-4.8349,-0.82201,19.339,3.7036e-10,-0.41101,0,0,0.083333,-0,-0,0.66667
0.22269,0.9841,2.6722,0.72615,132.48,1045.2,-5.1745,1.7248,-0.1236,-6.8994,-3.2698e-11,-0.061801,0,0,0.083333,3.9475e-16,0,0.66667
0.48218,0.71631,5.7862,0.32446,47.659,520.23,-5.0064,1.6688,-1.6285,-6.6752,-9.881e-13,-0.81424,0,0,0.083333,-8.4411e-16,0,0.66667
0.78097,0.98027,9.3716,0.7204,53.924,108.35,-18.003,6.0012,-0.16126,-24.005,-5.9456e-11,-0.080631,0,0,0.083333,1.579e-15,0,0.66667
0.60466,0.8741,7.2559,0.56114,68.204,320.38,-10.858,3.6192,-0.87931,-14.477,2.0188e-12,-0.43965,0,0,0.083333,-1.1395e-15,0,0.66667
0.19904,0.019905,2.3885,-0.72014,-132.76,1097.6,4.5868,-1.5289,-0.15439,6.1158,1.186e-09,-0.077196,0,0,0.083333,-0,-0,0.66667
0.49234,0.79671,5.9081,0.44506,64.57,502.45,-7.0118,2.3373,-1.2913,-9.3491,1.2128e-12,-0.64563,0,0,0.083333,-0,-0,0.66667
0.98027,0.33228,11.763,-0.25158,-1.7565,1.5569,7.8916,-2.6305,-1.7733,10.522,1.2993e-06,-0.88663,0,0,0.083333,-0,-0,0.66667
0.19192,0.006661,2.303,-0.74001,-136.84,1113.6,4.5446,-1.5149,-0.051234,6.0595,2.0604e-10,-0.025617,0,0,0.083333,-0,-0,0.66667
0.24271,0.98931,2.9125,0.73397,132.6,1001.4,-5.7005,1.9002,-0.080337,-7.6006,1.9222e-11,-0.040168,0,0,0.083333,5.9212e-16,0,0.66667
0.41545,0.075015,4.9855,-0.63748,-101.17,644.7,8.475,-2.825,-0.55107,11.3,-6.4873e-12,-0.27553,0,0,0.083333,-0,-0,0.66667
0.79504,0.88159,9.5405,0.57238,40.293,95.046,-14.562,4.8541,-0.83808,-19.416,1.4832e-10,-0.41904,0,0,0.083333,-0,-0,0.66667
0.85992,0.20208,10.319,-0.44688,-22.186,46.394,12.297,-4.099,-1.2956,16.396,-4.9063e-09,-0.64781,0,0,0.083333,-0,-0,0.66667
0.76878,0.93642,9.2254,0.65463,51.312,119.37,-16.105,5.3682,-0.47745,-21.473,-8.4545e-10,-0.23872,0,0,0.083333,-1.9737e-15,0,0.66667
0.42266,0.42529,5.0719,-0.11206,-17.609,630.02,1.5157,-0.50523,-1.9604,2.0209,-3.8705e-12,-0.98022,0,0,0.083333,-3.9475e-16,0,0.66667
0.26259,0.41026,3.1511,-0.1346,-23.986,957.45,1.1311,-0.37703,-1.9364,1.5081,-3.6895e-12,-0.96822,0,0,0.083333,-7.8949e-16,0,0.66667
0.59111,0.54918,7.0933,0.073766,9.1717,339.68,-1.3953,0.46511,-1.9813,-1.8604,1.1864e-12,-0.99067,0,0,0.083333,-0,-0,0.66667
0.55633,0.69535,6.6759,0.29302,38.702,394.26,-5.2164,1.7388,-1.6912,-6.9553,5.7909e-12,-0.84559,0,0,0.083333,-0,-0,0.66667
0.32302,0.30077,3.8762,-0.29885,-51.246,829.31,3.0891,-1.0297,-1.6795,4.1188,8.8709e-12,-0.83974,0,0,0.083333,-7.7728e-16,0,0.66667
0.2448,0.59919,2.9376,0.14879,26.772,996.11,-1.1656,0.38852,-1.9189,-1.5541,-1.2118e-12,-0.95943,0,0,0.083333,-0,-0,0.66667
0.62917,0.66007,7.55,0.2401,27.725,284.17,-4.8341,1.6114,-1.7941,-6.4455,2.5957e-12,-0.89704,0,0,0.083333,-1.579e-15,0,0.66667
0.36144,0.13262,4.3373,-0.55107,-91.835,750.95,6.3737,-2.1246,-0.92257,8.4983,1.5774e-12,-0.46129,0,0,0.083333,-0,-0,0.66667
0.44656,0.0040602,5.3587,-0.74391,-114.34,586.24,10.63,-3.5435,-0.029109,14.174,-1.4398e-11,-0.014555,0,0,0.083333,-0,-0,0.66667
0.42369,0.47054,5.0843,-0.044197,-6.9368,628.03,0.59923,-0.19974,-1.9968,0.79897,3.7059e-12,-0.99841,0,0,0.083333,-0,-0,0.66667
0.60498,0.78444,7.2598,0.42666,51.768,319.48,-8.26,2.7533,-1.3516,-11.013,2.168e-12,-0.67579,0,0,0.083333,-0,-0,0.66667
0.067117,0.11203,0.8054,-0.58195,-111.1,1397.6,1.2499,-0.41663,-0.79338,1.6665,2.0644e-07,-0.39669,0,0,0.083333,9.8686e-17,0,0.66667
0.46478,0.8614,5.5774,0.5421,81.448,552.08,-8.0627,2.6876,-0.95351,-10.75,-5.5662e-12,-0.47676,0,0,0.083333,7.8949e-16,0,0.66667
0.93632,0.049022,11.236,-0.67647,-15.942,12.513,20.268,-6.7561,-0.37696,27.025,4.3479e-06,-0.18848,0,0,0.083333,-1.579e-15,0,0.66667
0.14808,0.36654,1.777,-0.20019,-37.485,1211.8,0.94864,-0.31621,-1.8534,1.2649,5.2252e-10,-0.92671,0,0,0.083333,-9.8686e-17,0,0.66667
0.88159,0.62735,10.579,0.19102,8.0671,33.214,-5.3888,1.7963,-1.8673,-7.1851,7.286e-09,-0.93365,0,0,0.083333,-3.158e-15,0,0.66667
0.19859,0.79705,2.3831,0.44558,82.009,1098.3,-2.8316,0.94388,-1.2917,-3.7755,2.3982e-10,-0.64583,0,0,0.083333,-0,-0,0.66667
0.48283,0.46615,5.7939,-0.050771,-7.446,518.81,0.78443,-0.26148,-1.9951,1.0459,-5.1322e-12,-0.99754,0,0,0.083333,8.8818e-16,0,0.66667
0.49097,0.46971,5.8916,-0.045434,-6.5941,504.36,0.71381,-0.23794,-1.99,0.95174,-4.604e-12,-0.99499,0,0,0.083333,-0,-0,0.66667
0.2348,0.76103,2.8176,0.39155,70.867,1018.2,-2.942,0.98066,-1.461,-3.9226,1.5036e-11,-0.73052,0,0,0.083333,-0,-0,0.66667
0.59658,0.98386,7.159,0.72579,89.728,333.08,-13.856,4.6186,-0.12731,-18.474,6.1462e-13,-0.063654,0,0,0.083333,-7.8949e-16,0,0.66667
0.83706,0.94017,10.045,0.66025,37.859,62.564,-17.685,5.8951,-0.44697,-23.58,-2.2815e-08,-0.22349,0,0,0.083333,-3.158e-15,0,0.66667
0.24277,0.73399,2.9133,0.35099,63.258,1000.7,-2.7267,0.9089,-1.5576,-3.6356,2.562e-12,-0.77879,0,0,0.083333,-0,-0,0.66667
0.50573,0.24703,6.0687,-0.37945,-54.057,478.93,6.1407,-2.0469,-1.4855,8.1877,9.7433e-13,-0.74277,0,0,0.083333,-9.8686e-16,0,0.66667
0.46839,0.64587,5.6207,0.21881,32.677,544.9,-3.2796,1.0932,-1.8362,-4.3728,-8.5154e-12,-0.91808,0,0,0.083333,3.9475e-16,0,0.66667
0.8049,0.69937,9.6588,0.29906,20.072,85.695,-7.7028,2.5676,-1.6776,-10.27,-6.4978e-11,-0.83882,0,0,0.083333,-0,-0,0.66667
0.48547,0.79099,5.8256,0.43648,63.885,514.6,-6.7807,2.2602,-1.327,-9.041,-1.0152e-12,-0.66352,0,0,0.083333,-0,-0,0.66667
0.047994,0.56902,0.57593,0.10353,19.773,1441.7,-0.159,0.053001,-1.9666,-0.212,-1.6811e-08,-0.9833,0,0,0.083333,-0,-0,0.66667
0.29891,0.054888,3.5869,-0.66767,-116.66,880.45,6.3863,-2.1288,-0.41739,8.515,-8.3538e-12,-0.2087,0,0,0.083333,-1.9737e-16,0,0.66667
0.72163,0.78061,8.6596,0.42092,38.563,167.38,-9.72,3.24,-1.3718,-12.96,-2.526e-12,-0.68591,0,0,0.083333,-5.4278e-16,0,0.66667
0.54076,0.55602,6.4892,0.084023,11.366,419.36,-1.454,0.48465,-1.9716,-1.9386,4.0146e-12,-0.98578,0,0,0.083333,-3.9475e-16,0,0.66667
0.71301,0.79379,8.5561,0.44069,41.428,177.23,-10.055,3.3517,-1.3059,-13.407,7.2031e-13,-0.65295,0,0,0.083333,-0,-0,0.66667
0.89043,0.44086,10.685,-0.088714,-3.4772,28.553,2.5278,-0.84259,-1.9797,3.3704,-1.4216e-08,-0.98986,0,0,0.083333,-0,-0,0.66667
0.036948,0.26201,0.44337,-0.35698,-68.286,1467.3,0.42207,-0.14069,-1.5434,0.56276,2.3741e-07,-0.77168,0,0,0.083333,9.8686e-17,0,0.66667
0.16157,0.6831,1.9389,0.27465,51.218,1181.3,-1.4201,0.47336,-1.7294,-1.8934,-1.5035e-10,-0.86469,0,0,0.083333,-0,-0,0.66667
0.20618,0.93382,2.4742,0.65073,119.53,1081.6,-4.2934,1.4311,-0.49528,-5.7245,5.2349e-10,-0.24764,0,0,0.083333,-0,-0,0.66667
0.54819,0.36489,6.5783,-0.20266,-27.108,407.29,3.5551,-1.185,-1.8578,4.7402,-1.9726e-12,-0.9289,0,0,0.083333,7.8949e-16,0,0.66667
0.6875,0.13204,8.25,-0.55194,-55.737,207.99,12.143,-4.0476,-0.92458,16.19,-8.5922e-12,-0.46229,0,0,0.083333,1.579e-15,0,0.66667
0.34233,0.21535,4.108,-0.42697,-72.203,789.59,4.6773,-1.5591,-1.3562,6.2364,-3.455e-13,-0.67811,0,0,0.083333,-9.8686e-17,0,0.66667
0.8698,0.73147,10.438,0.3472,16.069,40.134,-9.6638,3.2213,-1.5683,-12.885,5.0166e-09,-0.78414,0,0,0.083333,-1.579e-15,0,0.66667
0.8792,0.14304,10.55,-0.53544,-23.184,35.666,15.064,-5.0214,-0.97873,20.085,-2.0268e-08,-0.48936,0,0,0.083333,-1.579e-15,0,0.66667
0.19012,0.73826,2.2815,0.35738,65.976,1117.1,-2.1743,0.72476,-1.5467,-2.899,5.1915e-11,-0.77334,0,0,0.083333,-1.9737e-16,0,0.66667
0.53183,0.077815,6.3819,-0.63328,-87.093,435.29,10.777,-3.5925,-0.57966,14.37,-2.6033e-12,-0.28983,0,0,0.083333,-0,-0,0.66667
0.98953,0.23623,11.874,-0.39565,-1.4154,1.2556,12.528,-4.1761,-1.4403,16.704,-2.3171e-06,-0.72015,0,0,0.083333,-1.1718e-15,0,0.66667
0.057573,0.18054,0.69087,-0.4792,-91.535,1419.6,0.88284,-0.29428,-1.1812,1.1771,-2.5418e-07,-0.59059,0,0,0.083333,-4.9343e-17,0,0.66667
0.083431,0.12343,1.0012,-0.56485,-107.55,1359.9,1.508,-0.50268,-0.86369,2.0107,9.9175e-08,-0.43184,0,0,0.083333,1.2336e-16,0,0.66667
0.41763,0.37178,5.0116,-0.19233,-30.382,639.71,2.5703,-0.85677,-1.8675,3.4271,2.4603e-12,-0.93376,0,0,0.083333,-7.8949e-16,0,0.66667
0.85461,0.86451,10.255,0.54677,28.157,50.175,-14.953,4.9842,-0.93455,-19.937,-4.5512e-10,-0.46728,0,0,0.083333,-0,-0,0.66667
0.39859,0.87339,4.7831,0.56008,90.307,677.17,-7.1438,2.3813,-0.88155,-9.525,2.8382e-12,-0.44077,0,0,0.083333,8.3884e-16,0,0.66667
0.0099489,0.23513,0.11939,-0.3973,-76.108,1529.9,0.12649,-0.04216,-1.4352,0.16865,2.5674e-06,-0.71758,0,0,0.083333,-1.1782e-17,0,0.66667
0.64554,0.83317,7.7465,0.49976,55.805,262.16,-10.324,3.4412,-1.1093,-13.765,-4.6017e-12,-0.55464,0,0,0.083333,7.8949e-16,0,0.66667
0.2938,0.61627,3.5256,0.1744,30.499,890.61,-1.6397,0.54656,-1.892,-2.1862,-2.3822e-11,-0.94601,0,0,0.083333,-1.9737e-16,0,0.66667
0.14993,0.39599,1.7992,-0.15601,-29.193,1207.6,0.74849,-0.2495,-1.9096,0.99799,7.6787e-10,-0.95481,0,0,0.083333,1.9737e-16,0,0.66667
0.10779,0.76584,1.2934,0.39876,75.505,1303.9,-1.3754,0.45845,-1.4376,-1.8338,-3.8222e-08,-0.7188,0,0,0.083333,-1.9737e-16,0,0.66667
0.8689,0.90366,10.427,0.60549,28.361,41.797,-16.836,5.6118,-0.69374,-22.447,-7.1964e-09,-0.34687,0,0,0.083333,4.5462e-16,0,0.66667
0.0032652,0.16902,0.039183,-0.49647,-95.159,1545.4,0.05187,-0.01729,-1.1232,0.06916,6.6313e-08,-0.56159,0,0,0.083333,6.1679e-18,0,0.66667
0.51859,0.51887,6.223,0.028305,3.9565,456.47,-0.46972,0.15657,-1.9973,-0.62629,3.7935e-12,-0.99863,0,0,0.083333,-1.579e-15,0,0.66667
0.55082,0.56016,6.6099,0.090235,12.017,402.92,-1.5905,0.53017,-1.9707,-2.1207,-2.2848e-13,-0.98534,0,0,0.083333,1.0856e-15,0,0.66667
0.11595,0.8304,1.3914,0.4956,93.713,1285.2,-1.8389,0.61296,-1.1225,-2.4518,7.1438e-09,-0.56127,0,0,0.083333,1.9737e-16,0,0.66667
0.20004,0.71909,2.4005,0.32864,60.418,1095,-2.1037,0.70124,-1.6174,-2.8049,6.4056e-11,-0.80872,0,0,0.083333,7.8949e-16,0,0.66667
0.86222,0.77056,10.347,0.40584,19.825,44.827,-11.197,3.7325,-1.4148,-14.93,5.6929e-09,-0.70741,0,0,0.083333,-0,-0,0.66667
0.11697,0.99245,1.4037,0.73867,139.87,1283.1,-2.7649,0.92164,-0.055955,-3.6866,1.6337e-08,-0.027978,0,0,0.083333,-0,-0,0.66667
0.8247,0.20683,9.8964,-0.43975,-26.838,70.493,11.605,-3.8684,-1.3117,15.474,9.4502e-12,-0.65587,0,0,0.083333,-0,-0,0.66667
0.19309,0.65675,2.3171,0.23513,43.338,1110.4,-1.4528,0.48427,-1.8015,-1.9371,6.7379e-11,-0.90075,0,0,0.083333,-0,-0,0.66667
0.99555,0.84449,11.947,0.51673,0.72344,1.5392,-16.462,5.4872,-1.0499,-21.949,3.6361e-06,-0.52494,0,0,0.083333,-0,9.0921e-18,0.66667
0.47141,0.5506,5.6569,0.075894,11.29,539.32,-1.1449,0.38162,-1.9802,-1.5265,-5.5616e-12,-0.99012,0,0,0.083333,7.8949e-16,0,0.66667
0.54727,0.051508,6.5673,-0.67274,-90.403,409.99,11.781,-3.9271,-0.39708,15.709,-9.3436e-13,-0.19854,0,0,0.083333,7.8949e-16,0,0.66667
0.082274,0.82521,0.98729,0.48782,92.863,1362.6,-1.2843,0.42811,-1.152,-1.7124,-2.9565e-08,-0.57602,0,0,0.083333,-1.9737e-16,0,0.66667
0.051293,0.18006,0.61552,-0.47992,-91.736,1434.1,0.78772,-0.26257,-1.1793,1.0503,3.6268e-07,-0.58965,0,0,0.083333,-0,-0,0.66667
0.20742,0.92561,2.4891,0.63842,117.2,1078.9,-4.2376,1.4125,-0.54882,-5.6501,-2.5319e-10,-0.27441,0,0,0.083333,-0,-0,0.66667
0.16079,0.48158,1.9295,-0.027637,-5.1531,1183,0.1422,-0.047401,-1.9949,0.1896,1.2304e-10,-0.99746,0,0,0.083333,-0,-0,0.66667
0.45106,0.29321,5.4128,-0.31018,-47.287,576.79,4.4771,-1.4924,-1.6599,5.9695,3.4355e-12,-0.82994,0,0,0.083333,-7.8949e-16,0,0.66667
0.62995,0.83047,7.5594,0.49571,57.244,283.7,-9.9926,3.3309,-1.1234,-13.323,1.3705e-12,-0.56172,0,0,0.083333,-0,-0,0.66667
0.72633,0.68441,8.716,0.27661,24.952,161.77,-6.4292,2.1431,-1.7246,-8.5723,3.435e-12,-0.86229,0,0,0.083333,-9.8686e-16,0,0.66667
0.45605,0.7094,5.4726,0.3141,47.613,567.59,-4.5838,1.5279,-1.6496,-6.1118,-9.3014e-12,-0.8248,0,0,0.083333,-0,-0,0.66667
0.37693,0.88298,4.5232,0.57448,94.49,719.94,-6.9292,2.3097,-0.82916,-9.2389,6.0867e-12,-0.41458,0,0,0.083333,-0,-0,0.66667
0.064415,0.017369,0.77297,-0.72395,-138.39,1403.9,1.4922,-0.49742,-0.13877,1.9897,-2.1771e-06,-0.069385,0,0,0.083333,-1.9737e-16,0,0.66667
0.53834,0.38627,6.46,-0.17059,-23.167,423.42,2.9387,-0.97958,-1.8923,3.9183,-4.353e-12,-0.94614,0,0,0.083333,-0,-0,0.66667
0.45104,0.69432,5.4124,0.29148,44.435,576.82,-4.207,1.4023,-1.7003,-5.6093,-8.4031e-12,-0.85014,0,0,0.083333,-0,-0,0.66667
0.40236,0.24368,4.8283,-0.38448,-61.704,669.47,4.9504,-1.6501,-1.4735,6.6005,-2.1836e-12,-0.73674,0,0,0.083333,4.3562e-16,0,0.66667
0.073837,0.21207,0.88605,-0.43189,-82.303,1382,1.0205,-0.34016,-1.3352,1.3606,2.452e-07,-0.66762,0,0,0.083333,-9.8686e-17,0,0.66667
0.19382,0.35916,2.3258,-0.21126,-38.926,1108.8,1.3103,-0.43676,-1.8373,1.747,-4.1712e-11,-0.91863,0,0,0.083333,-0,-0,0.66667
0.60843,0.69692,7.3012,0.29538,35.573,314.09,-5.7511,1.917,-1.6946,-7.6681,-4.6172e-12,-0.84731,0,0,0.083333,1.579e-15,0,0.66667
0.91508,0.77214,10.981,0.40821,12.578,18.4,-11.953,3.9845,-1.4035,-15.938,2.6843e-08,-0.70177,0,0,0.083333,-7.8949e-16,0,0.66667
0.63152,0.47343,7.5782,-0.039862,-4.578,280.68,0.80556,-0.26852,-1.991,1.0741,5.5823e-12,-0.99552,0,0,0.083333,-1.579e-15,0,0.66667
0.57768,0.17616,6.9321,-0.48577,-61.978,360.99,8.9797,-2.9932,-1.1671,11.973,-1.3269e-12,-0.58353,0,0,0.083333,-0,-1.3003e-17,0.66667
0.34238,0.69081,4.1086,0.28622,48.37,789.31,-3.1359,1.0453,-1.7133,-4.1812,-9.0328e-12,-0.85664,0,0,0.083333,-0,-0,0.66667
0.13547,0.12426,1.6257,-0.56361,-106.08,1240.7,2.4433,-0.81443,-0.869,3.2577,-1.7285e-08,-0.4345,0,0,0.083333,2.3438e-16,0,0.66667
0.50839,0.27324,6.1006,-0.34014,-48.27,474.26,5.5335,-1.8445,-1.5846,7.378,2.5553e-12,-0.79232,0,0,0.083333,3.9475e-16,0,0.66667
0.64626,0.39138,7.7552,-0.16293,-18.126,260.41,3.3694,-1.1231,-1.9021,4.4926,-6.7546e-13,-0.95103,0,0,0.083333,-7.8949e-16,0,0.66667
0.96752,0.81559,11.61,0.47339,5.6429,4.1135,-14.656,4.8855,-1.2081,-19.542,-1.6082e-06,-0.60407,0,0,0.083333,-0,-0,0.66667
0.76195,0.85486,9.1434,0.53229,42.711,125.4,-12.979,4.3262,-0.99155,-17.305,8.5718e-12,-0.49577,0,0,0.083333,-0,-0,0.66667
0.183,0.64412,2.196,0.21618,40.001,1133,-1.2659,0.42198,-1.8315,-1.6879,1.0439e-10,-0.91577,0,0,0.083333,1.9737e-16,0,0.66667
0.23966,0.22336,2.8759,-0.41496,-74.928,1007.5,3.1824,-1.0608,-1.3854,4.2432,-7.0024e-12,-0.69268,0,0,0.083333,7.8949e-16,0,0.66667
0.95701,0.3396,11.484,-0.2406,-3.7609,5.2242,7.3681,-2.456,-1.7936,9.8241,-9.5697e-08,-0.8968,0,0,0.083333,3.9475e-16,0,0.66667
0.758,0.23111,9.096,-0.40333,-32.779,128.82,9.7833,-3.2611,-1.4172,13.044,1.0056e-11,-0.7086,0,0,0.083333,-0,-0,0.66667
0.19292,0.84703,2.315,0.52055,96.068,1111,-3.2136,1.0712,-1.0342,-4.2848,-1.5123e-10,-0.51712,0,0,0.083333,-0,-0,0.66667
0.70195,0.38441,8.4234,-0.17338,-16.791,189.52,3.8946,-1.2982,-1.8974,5.1928,-4.045e-12,-0.94869,0,0,0.083333,1.579e-15,0,0.66667
0.83347,0.60193,10.002,0.15289,8.877,63.28,-4.0777,1.3592,-1.914,-5.4369,-1.2623e-10,-0.95698,0,0,0.083333,-0,-0,0.66667
0.43625,0.13515,5.235,-0.54728,-84.93,604.92,7.64,-2.5467,-0.93907,10.187,-2.0584e-12,-0.46954,0,0,0.083333,-0,-0,0.66667
0.0094767,0.45364,0.11372,-0.069545,-13.311,1531,0.02109,-0.0070303,-1.9789,0.02812,-4.4087e-07,-0.98943,0,0,0.083333,1.2336e-17,0,0.66667
0.66811,0.47907,8.0173,-0.031388,-3.3182,231.36,0.67107,-0.22369,-1.9954,0.89475,-2.5531e-12,-0.99768,0,0,0.083333,-0,-0,0.66667
0.069735,0.47072,0.83682,-0.043927,-8.3675,1391.4,0.098025,-0.032675,-1.99,0.1307,-2.4378e-08,-0.99502,0,0,0.083333,1.9737e-16,0,0.66667
0.2378,0.35642,2.8536,-0.21538,-38.898,1011.4,1.6389,-0.54631,-1.8343,2.1853,-6.8293e-12,-0.91717,0,0,0.083333,-3.9475e-16,0,0.66667
0.097031,0.025205,1.1644,-0.71219,-135.41,1328.8,2.2114,-0.73712,-0.19667,2.9485,-3.4362e-07,-0.098334,0,0,0.083333,-0,-0,0.66667
0.87047,0.11661,10.446,-0.57508,-26.614,40.726,16.019,-5.3396,-0.82206,21.359,-2.6812e-09,-0.41103,0,0,0.083333,-0,-0,0.66667
0.83404,0.4647,10.008,-0.05295,-3.0637,62.783,1.4132,-0.47106,-1.9872,1.8843,5.6315e-10,-0.99359,0,0,0.083333,4.9385e-16,0,0.66667
0.23516,0.93252,2.8219,0.64878,117.58,1017.7,-4.8822,1.6274,-0.5092,-6.5096,2.312e-10,-0.2546,0,0,0.083333,4.9343e-16,0,0.66667
0.75438,0.78506,9.0526,0.4276,35.208,132.53,-10.322,3.4408,-1.3487,-13.763,-1.0596e-12,-0.67433,0,0,0.083333,-1.579e-15,0,0.66667
0.50836,0.37029,6.1004,-0.19457,-27.597,474.09,3.1652,-1.0551,-1.8618,4.2202,-1.0367e-12,-0.93091,0,0,0.083333,1.9737e-16,0,0.66667
0.42116,0.14188,5.0539,-0.53718,-84.691,633.52,7.2395,-2.4132,-0.97921,9.6527,-1.3382e-11,-0.48961,0,0,0.083333,7.8949e-16,-1.2685e-16,0.66667
0.21872,0.14525,2.6246,-0.53212,-97.126,1053.7,3.7243,-1.2414,-1.0005,4.9658,-8.9878e-11,-0.50027,0,0,0.083333,-1.9737e-16,1.3148e-16,0.66667
0.22166,0.93891,2.6599,0.65837,120.11,1047.4,-4.6699,1.5566,-0.46039,-6.2265,-3.3265e-10,-0.23019,0,0,0.083333,-0,-0,0.66667
0.090802,0.76097,1.0896,0.39146,74.374,1342.9,-1.1374,0.37915,-1.4554,-1.5166,-1.9081e-08,-0.72769,0,0,0.083333,-0,-0,0.66667
0.24882,0.026728,2.9858,-0.70991,-127.82,987.99,5.6524,-1.8841,-0.21293,7.5365,3.1312e-11,-0.10647,0,0,0.083333,-1.9737e-16,4.886e-17,0.66667
0.58965,0.62878,7.0758,0.19316,24.087,341.99,-3.6448,1.2149,-1.8665,-4.8597,5.8886e-13,-0.93324,0,0,0.083333,-0,-0,0.66667
0.88221,0.63154,10.587,0.19731,8.2916,32.895,-5.5703,1.8568,-1.8577,-7.427,8.0117e-09,-0.92887,0,0,0.083333,-0,-0,0.66667
0.15505,0.93265,1.8606,0.64898,121.51,1196.3,-3.2199,1.0733,-0.50723,-4.2932,-5.8897e-08,-0.25362,0,0,0.083333,9.1807e-17,0,0.66667
0.26188,0.66923,3.1426,0.25385,45.266,959.06,-2.1273,0.7091,-1.7696,-2.8364,-6.0685e-13,-0.88481,0,0,0.083333,-0,-0,0.66667
0.63358,0.49126,7.6029,-0.01311,-1.4991,277.79,0.2658,-0.088601,-1.9954,0.3544,2.1939e-12,-0.99768,0,0,0.083333,1.579e-15,0,0.66667
0.1012,0.7394,1.2144,0.35909,68.079,1319,-1.1628,0.38762,-1.5372,-1.5505,-5.2736e-08,-0.76862,0,0,0.083333,9.8686e-17,0,0.66667
0.51534,0.57134,6.1841,0.10701,15.027,462.03,-1.7646,0.58821,-1.966,-2.3528,1.1124e-12,-0.98301,0,0,0.083333,-0,-0,0.66667
0.44685,0.77241,5.3622,0.40861,62.62,584.78,-5.8428,1.9476,-1.4027,-7.7904,-6.7328e-12,-0.70133,0,0,0.083333,-3.9475e-16,0,0.66667
0.050434,0.58372,0.60521,0.12559,23.98,1436,-0.20268,0.067562,-1.9431,-0.27025,3.4097e-10,-0.97157,0,0,0.083333,-0,-0,0.66667
0.76578,0.93336,9.1893,0.65005,51.525,122.24,-15.929,5.3098,-0.50528,-21.239,-3.6396e-10,-0.25264,0,0,0.083333,3.9475e-16,0,0.66667
0.095195,0.17618,1.1423,-0.48573,-92.251,1332.8,1.4797,-0.49322,-1.1646,1.9729,6.0764e-08,-0.58228,0,0,0.083333,-0,-0,0.66667
0.33837,0.15823,4.0604,-0.51265,-87,797.87,5.5509,-1.8503,-1.0635,7.4012,1.7084e-12,-0.53176,0,0,0.083333,-0,-0,0.66667
0.57897,0.89137,6.9476,0.58705,74.8,359.33,-10.876,3.6254,-0.7795,-14.502,1.5978e-12,-0.38975,0,0,0.083333,-7.8949e-16,0,0.66667
0.85085,0.17392,10.21,-0.48912,-25.76,52.325,13.318,-4.4392,-1.145,17.757,4.276e-09,-0.57251,0,0,0.083333,-0,-0,0.66667
0.26085,0.13156,3.1302,-0.55266,-98.743,961.61,4.6133,-1.5378,-0.91188,6.151,-4.9929e-11,-0.45594,0,0,0.083333,-0,-0,0.66667
0.81028,0.34521,9.7234,-0.23218,-15.188,81.142,6.0203,-2.0068,-1.8113,8.027,6.5199e-11,-0.90563,0,0,0.083333,3.158e-15,0,0.66667
0.43666,0.88637,5.24,0.57956,89.922,604.23,-8.0984,2.6995,-0.81072,-10.798,3.5438e-13,-0.40536,0,0,0.083333,-7.8949e-16,0,0.66667
0.82762,0.9403,9.9314,0.66046,39.864,69.387,-17.491,5.8305,-0.45598,-23.322,-1.8725e-08,-0.22799,0,0,0.083333,-0,-3.2243e-17,0.66667
0.92159,0.2574,11.059,-0.36391,-10.365,15.778,10.732,-3.5773,-1.536,14.309,-1.4275e-07,-0.76801,0,0,0.083333,-0,-0,0.66667
0.4382,0.095884,5.2585,-0.60617,-93.914,601.41,8.5001,-2.8334,-0.70002,11.333,6.5059e-12,-0.35001,0,0,0.083333,-1.579e-15,0,0.66667
0.26206,0.77643,3.1447,0.41464,73.976,958.83,-3.4771,1.159,-1.3885,-4.6361,-1.8154e-11,-0.69425,0,0,0.083333,5.9212e-16,0,0.66667
0.46144,0.92486,5.5373,0.63729,96.203,558.45,-9.4104,3.1368,-0.55157,-12.547,-1.3722e-12,-0.27578,0,0,0.083333,-7.8949e-16,0,0.66667
0.094812,0.0021036,1.1377,-0.74684,-142.1,1333.9,2.2659,-0.7553,-0.022347,3.0212,3.9554e-07,-0.011174,0,0,0.083333,-0,-0,0.66667
0.65878,0.3059,7.9053,-0.29115,-31.496,243.85,6.1377,-2.0459,-1.7001,8.1836,-4.353e-12,-0.85003,0,0,0.083333,1.1842e-15,0,0.66667
0.63235,0.068554,7.5882,-0.64717,-74.475,280.93,13.096,-4.3652,-0.50704,17.461,-9.2104e-13,-0.25352,0,0,0.083333,-0,-0,0.66667
0.4968,0.75362,5.9616,0.38042,54.849,494.48,-6.0478,2.0159,-1.486,-8.0638,1.4744e-12,-0.74302,0,0,0.083333,-0,-0,0.66667
0.47016,0.6291,5.6419,0.19365,28.857,541.68,-2.9135,0.97118,-1.871,-3.8847,-7.0011e-13,-0.9355,0,0,0.083333,-1.579e-15,0,0.66667
0.12851,0.39432,1.5421,-0.15852,-29.845,1256.4,0.65187,-0.21729,-1.9098,0.86916,4.0106e-09,-0.95492,0,0,0.083333,-0,-0,0.66667
0.33439,0.65505,4.0127,0.23257,39.538,805.7,-2.4886,0.82954,-1.8051,-3.3182,-4.6292e-12,-0.90256,0,0,0.083333,4.9343e-16,0,0.66667
0.2686,0.044112,3.2232,-0.68383,-121.76,945.14,5.8776,-1.9592,-0.3374,7.8368,-1.599e-11,-0.1687,0,0,0.083333,-0,-0,0.66667
0.53581,0.33024,6.4297,-0.25463,-34.722,427.71,4.3659,-1.4553,-1.767,5.8212,-6.99e-13,-0.88352,0,0,0.083333,-0,-0,0.66667
0.41981,0.20545,5.0377,-0.44183,-69.712,635.88,5.9354,-1.9785,-1.3078,7.9139,-3.9342e-12,-0.65391,0,0,0.083333,-7.8949e-16,0,0.66667
0.83603,0.20952,10.032,-0.43572,-25.017,62.192,11.657,-3.8856,-1.3208,15.543,-2.0989e-10,-0.66039,0,0,0.083333,-0,-0,0.66667
0.70121,0.67707,8.4145,0.26561,25.787,190.55,-5.9599,1.9866,-1.7515,-7.9466,-1.4504e-12,-0.87577,0,0,0.083333,7.8949e-16,0,0.66667
0.4959,0.20641,5.9508,-0.44038,-63.592,496.19,6.9883,-2.3294,-1.3087,9.3177,-3.0167e-12,-0.65435,0,0,0.083333,7.8949e-16,0,0.66667
0.59952,0.74057,7.1943,0.36086,44.221,327.42,-6.923,2.3077,-1.5336,-9.2307,4.7269e-12,-0.76679,0,0,0.083333,-7.8949e-16,0,0.66667
0.39672,0.19321,4.7606,-0.46018,-74.281,680.62,5.842,-1.9473,-1.2438,7.7893,1.1671e-12,-0.62192,0,0,0.083333,-7.8949e-16,0,0.66667
0.21745,0.25738,2.6094,-0.36393,-66.408,1056.3,2.5324,-0.84412,-1.5332,3.3765,-5.6843e-12,-0.76662,0,0,0.083333,-0,-0,0.66667
0.74224,0.067516,8.9069,-0.64873,-55.84,145.98,15.408,-5.1361,-0.49997,20.544,4.8288e-11,-0.24999,0,0,0.083333,1.579e-15,0,0.66667
0.92264,0.03978,11.072,-0.69033,-19.653,17.094,20.382,-6.7939,-0.311,27.175,-5.1716e-06,-0.1555,0,0,0.083333,-0,-0,0.66667
0.26129,0.86916,3.1354,0.55373,98.912,960.68,-4.6299,1.5433,-0.9083,-6.1732,4.2876e-11,-0.45415,0,0,0.083333,-0,-0,0.66667
0.63229,0.85857,7.5875,0.53785,61.829,280.57,-10.882,3.6275,-0.96703,-14.51,1.6875e-14,-0.48351,0,0,0.083333,-0,-0,0.66667
0.70958,0.56351,8.5149,0.095258,9.026,180.49,-2.163,0.72099,-1.9651,-2.884,1.0867e-12,-0.98256,0,0,0.083333,-0,-0,0.66667
0.73708,0.73766,8.845,0.35649,31.099,150.28,-8.4083,2.8028,-1.5488,-11.211,-5.1514e-13,-0.77438,0,0,0.083333,-0,-0,0.66667
0.27022,0.14358,3.2426,-0.53463,-95,941.38,4.6229,-1.541,-0.9813,6.1639,-1.0534e-12,-0.49065,0,0,0.083333,3.9475e-16,0,0.66667
0.10234,0.55983,1.2281,0.089748,17,1316.3,-0.29393,0.097975,-1.9682,-0.3919,-2.2385e-08,-0.98409,0,0,0.083333,2.9606e-16,0,0.66667
0.71856,0.61273,8.6227,0.16909,15.609,170.27,-3.888,1.296,-1.9051,-5.1841,7.0211e-13,-0.95254,0,0,0.083333,-8.5094e-16,0,0.66667
0.44319,0.60296,5.3183,0.15443,23.741,591.26,-2.1902,0.73007,-1.9119,-2.9203,-1.03e-11,-0.95594,0,0,0.083333,-0,-0,0.66667
0.6827,0.5378,8.1925,0.056698,5.7793,212.83,-1.2387,0.41289,-1.9864,-1.6515,3.6761e-12,-0.99321,0,0,0.083333,-0,-0,0.66667
0.058429,0.079962,0.70115,-0.63006,-120.45,1417.7,1.178,-0.39268,-0.58678,1.5707,-6.5663e-06,-0.29339,0,0,0.083333,-0,1.9211e-17,0.66667
0.65428,0.65854,7.8514,0.23781,25.989,249.72,-4.9791,1.6597,-1.8022,-6.6388,-4.9933e-12,-0.90112,0,0,0.083333,-0,-0,0.66667
0.28838,0.50181,3.4605,0.0027126,0.47591,902.09,-0.025032,0.0083439,-1.9969,-0.033376,-3.847e-12,-0.99846,0,0,0.083333,-0,-0,0.66667
0.87785,0.94264,10.534,0.66396,29.158,37.12,-18.651,6.2171,-0.43359,-24.868,1.6011e-07,-0.2168,0,0,0.083333,-0,-0,0.66667
0.1653,0.16239,1.9836,-0.50642,-94.414,1173,2.6787,-0.89291,-1.0846,3.5716,3.0911e-09,-0.5423,0,0,0.083333,-0,-0,0.66667
0.44557,0.6772,5.3468,0.2658,40.766,586.94,-3.7899,1.2633,-1.7445,-5.0531,-6.1882e-12,-0.87227,0,0,0.083333,-3.9475e-16,0,0.66667
0.96915,0.79812,11.63,0.44718,5.047,3.7276,-13.868,4.6228,-1.2951,-18.491,-2.958e-06,-0.64753,0,0,0.083333,1.579e-15,0,0.66667
0.086128,0.09899,1.0335,-0.60151,-114.51,1353.8,1.6578,-0.55261,-0.70982,2.2104,1.9364e-08,-0.35491,0,0,0.083333,-1.9737e-16,0,0.66667
0.40046,0.55068,4.8056,0.076022,12.212,672.86,-0.97421,0.32474,-1.9759,-1.299,-1.0518e-12,-0.98793,0,0,0.083333,-0,-0,0.66667
0.28546,0.22438,3.4255,-0.41343,-72.743,908.57,3.7766,-1.2589,-1.391,5.0355,1.888e-12,-0.69549,0,0,0.083333,7.8949e-16,0,0.66667
0.082679,0.83941,0.99215,0.50912,96.923,1361.6,-1.347,0.449,-1.0768,-1.796,-1.8541e-08,-0.53842,0,0,0.083333,4.9343e-17,0,0.66667
0.70977,0.10768,8.5173,-0.58848,-55.935,181.54,13.366,-4.4553,-0.76448,17.821,-1.025e-11,-0.38224,0,0,0.083333,-0,-0,0.66667
0.56244,0.5588,6.7493,0.088205,11.527,384.24,-1.5875,0.52918,-1.9804,-2.1167,2.7798e-12,-0.9902,0,0,0.083333,1.9737e-16,0,0.66667
0.98804,0.26266,11.857,-0.35601,-1.464,1.1991,11.256,-3.7521,-1.5482,15.008,-7.8014e-07,-0.77412,0,0,0.083333,1.579e-15,0,0.66667
0.22761,0.11116,2.7313,-0.58326,-106.05,1034.2,4.2481,-1.416,-0.7862,5.6642,3.1032e-10,-0.3931,0,0,0.083333,-2.6954e-16,0,0.66667
0.10466,0.077583,1.2559,-0.63363,-120.22,1311.2,2.1221,-0.70738,-0.56988,2.8295,-2.3548e-07,-0.28494,0,0,0.083333,1.9737e-16,0,0.66667
0.46991,0.1978,5.6389,-0.4533,-67.648,542.55,6.8163,-2.2721,-1.2736,9.0884,-2.2422e-12,-0.63681,0,0,0.083333,-0,-0,0.66667
0.72526,0.37891,8.7031,-0.18163,-16.43,162.78,4.2153,-1.4051,-1.8795,5.6204,1.6294e-12,-0.93976,0,0,0.083333,-0,-0,0.66667
0.20312,0.70621,2.4374,0.30932,56.789,1088.1,-2.0105,0.67016,-1.6671,-2.6807,5.3931e-11,-0.83355,0,0,0.083333,-1.9737e-16,0,0.66667
0.19345,0.1337,2.3214,-0.54945,-101.4,1109.9,3.4013,-1.1338,-0.92312,4.5351,-8.8578e-12,-0.46156,0,0,0.083333,-0,-0,0.66667
0.01645,0.13756,0.19739,-0.54366,-104.2,1514.8,0.28617,-0.095388,-0.95403,0.38156,2.3813e-06,-0.47701,0,0,0.083333,-0,-0,0.66667
0.61338,0.56042,7.3605,0.090624,10.801,306.61,-1.7788,0.59293,-1.9704,-2.3717,3.6685e-12,-0.9852,0,0,0.083333,-0,-0,0.66667
0.58667,0.097704,7.04,-0.60344,-75.86,347.55,11.329,-3.7762,-0.70185,15.105,-4.837e-12,-0.35092,0,0,0.083333,1.579e-15,0,0.66667
0.46014,0.28463,5.5217,-0.32305,-48.74,560.09,4.7568,-1.5856,-1.6256,6.3424,4.408e-12,-0.81281,0,0,0.083333,-1.579e-15,0,0.66667
0.7062,0.97831,8.4744,0.71747,69.018,186.33,-16.214,5.4046,-0.16981,-21.618,1.4886e-12,-0.084904,0,0,0.083333,-1.579e-15,0,0.66667
0.059315,0.41156,0.71178,-0.13265,-25.305,1415.5,0.25178,-0.083928,-1.9378,0.33571,8.9215e-08,-0.96891,0,0,0.083333,-0,-0,0.66667
0.66498,0.37536,7.9798,-0.18695,-19.92,235.54,3.9783,-1.3261,-1.873,5.3043,-2.7249e-12,-0.93652,0,0,0.083333,1.579e-15,0,0.66667
0.18851,0.4474,2.2622,-0.078903,-14.565,1120.6,0.47597,-0.15866,-1.9825,0.63463,-7.6458e-11,-0.99125,0,0,0.083333,-0,-0,0.66667
0.13418,0.26542,1.6102,-0.35187,-66.182,1243.5,1.5109,-0.50363,-1.5557,2.0145,4.635e-09,-0.77783,0,0,0.083333,-0,-0,0.66667
0.89487,0.59422,10.738,0.14133,5.3259,26.453,-4.0471,1.349,-1.9286,-5.3961,1.5313e-08,-0.96428,0,0,0.083333,-3.158e-15,0,0.66667
0.68858,0.36354,8.2629,-0.20469,-20.556,205.7,4.5103,-1.5034,-1.8554,6.0137,-2.1196e-12,-0.92769,0,0,0.083333,-0,-0,0.66667
0.63478,0.56155,7.6174,0.092321,10.53,276.14,-1.8753,0.6251,-1.9675,-2.5004,-8.4832e-13,-0.98374,0,0,0.083333,-1.1349e-15,0,0.66667
0.062431,0.3765,0.74917,-0.18525,-35.328,1408.3,0.3701,-0.12337,-1.8864,0.49346,1.3014e-07,-0.94321,0,0,0.083333,1.9737e-16,0,0.66667
0.10037,0.94613,1.2044,0.66919,127.11,1321.1,-2.1493,0.71645,-0.4039,-2.8658,-1.3748e-07,-0.20195,0,0,0.083333,1.9737e-16,0,0.66667
0.41814,0.0010114,5.0177,-0.74848,-118.58,639.89,10.015,-3.3384,-0.0083001,13.354,-4.2295e-12,-0.0041501,0,0,0.083333,-0,-0,0.66667
0.77618,0.4522,9.3141,-0.071707,-5.4319,110.64,1.781,-0.59368,-1.9787,2.3747,9.3882e-12,-0.98934,0,0,0.083333,-0,-0,0.66667
0.0092608,0.82901,0.11113,0.49352,94.584,1531.5,-0.14625,0.048742,-1.13,-0.195,-1.0463e-05,-0.56498,0,0,0.083333,-0,-0,0.66667
0.46474,0.586,5.5769,0.12901,19.346,551.47,-1.9185,0.63951,-1.9396,-2.558,-4.8807e-12,-0.96978,0,0,0.083333,-1.1957e-16,0,0.66667
0.20022,0.36077,2.4027,-0.20884,-38.378,1094.5,1.3381,-0.44603,-1.8451,1.7841,-2.6985e-11,-0.92255,0,0,0.083333,-3.9475e-16,0,0.66667
0.89358,0.11128,10.723,-0.58308,-22.425,28.595,16.673,-5.5577,-0.79123,22.231,1.2707e-07,-0.39561,0,0,0.083333,1.579e-15,0,0.66667
0.59828,0.60656,7.1794,0.15984,19.616,328.93,-3.0602,1.0201,-1.9068,-4.0803,-1.7581e-12,-0.9534,0,0,0.083333,-0,-0,0.66667
0.68755,0.3002,8.2506,-0.2997,-30.194,207.14,6.594,-2.198,-1.6878,8.792,-3.9639e-12,-0.8439,0,0,0.083333,7.8949e-16,0,0.66667
0.80757,0.22143,9.6909,-0.41786,-27.737,83.863,10.798,-3.5995,-1.3775,14.398,9.8297e-11,-0.68874,0,0,0.083333,-3.158e-15,0,0.66667
0.5879,0.87413,7.0548,0.56119,70.364,345.53,-10.557,3.5192,-0.87802,-14.077,-1.7986e-12,-0.43901,0,0,0.083333,7.8949e-16,0,0.66667
0.84743,0.9362,10.169,0.6543,35.319,55.435,-17.743,5.9144,-0.47807,-23.658,8.6084e-08,-0.23904,0,0,0.083333,6.9081e-16,0,0.66667
0.47046,0.23204,5.6455,-0.40194,-59.925,541.44,6.051,-2.017,-1.4283,8.0681,3.9129e-12,-0.71415,0,0,0.083333,-7.8949e-16,0,0.66667
0.17437,0.54799,2.0925,0.07199,13.36,1152.4,-0.4017,0.1339,-1.9825,-0.53561,-2.5026e-11,-0.99126,0,0,0.083333,1.9737e-16,0,0.66667
0.64155,0.75616,7.6986,0.38425,43.245,267.26,-7.8884,2.6295,-1.4803,-10.518,1.5898e-13,-0.74015,0,0,0.083333,-0,-0,0.66667
0.97645,0.26735,11.717,-0.34897,-2.9597,2.3028,10.904,-3.6347,-1.5625,14.539,3.0727e-06,-0.78127,0,0,0.083333,1.579e-15,0,0.66667
0.35024,0.7531,4.2029,0.37965,63.786,773.35,-4.255,1.4183,-1.4845,-5.6733,5.6053e-12,-0.74224,0,0,0.083333,-7.8949e-16,0,0.66667
0.80271,0.2252,9.6325,-0.41221,-27.98,87.865,10.588,-3.5294,-1.3927,14.118,1.5033e-10,-0.69636,0,0,0.083333,1.579e-15,0,0.66667
0.67727,0.43628,8.1273,-0.095581,-9.8789,219.67,2.0715,-0.6905,-1.9656,2.762,-3.7408e-12,-0.98281,0,0,0.083333,7.8949e-16,0,0.66667
0.52046,0.0078146,6.2456,-0.73828,-103.34,454.79,12.296,-4.0986,-0.059676,16.395,1.0516e-12,-0.029838,0,0,0.083333,-0,-0,0.66667
0.14443,0.17836,1.7332,-0.48246,-90.534,1220.3,2.2299,-0.74328,-1.1713,2.9731,-1.4301e-10,-0.58565,0,0,0.083333,1.9737e-16,0,0.66667
0.83883,0.18186,10.066,-0.47721,-26.988,60.389,12.81,-4.2699,-1.1881,17.08,-3.0252e-10,-0.59406,0,0,0.083333,7.8949e-16,0,0.66667
0.42617,0.24512,5.1141,-0.38231,-59.907,623.63,5.2139,-1.738,-1.479,6.9518,-4.813e-12,-0.7395,0,0,0.083333,1.9737e-16,0,0.66667
0.78295,0.31725,9.3954,-0.27413,-20.23,104.69,6.8681,-2.2894,-1.7363,9.1575,3.8087e-11,-0.86817,0,0,0.083333,-0,-0,0.66667
0.59163,0.19987,7.0996,-0.45019,-56.013,339.51,8.5231,-2.841,-1.2812,11.364,-5.9686e-13,-0.6406,0,0,0.083333,-0,-0,0.66667
0.25054,0.27554,3.0065,-0.33669,-60.429,983.73,2.6993,-0.89977,-1.6033,3.5991,-6.2741e-12,-0.80166,0,0,0.083333,1.9737e-16,0,0.66667
0.17356,0.66649,2.0827,0.24973,46.375,1154.2,-1.387,0.46234,-1.7812,-1.8493,9.0334e-11,-0.89059,0,0,0.083333,-3.9475e-16,0,0.66667
0.73804,0.070876,8.8565,-0.64369,-56.17,150.38,15.202,-5.0674,-0.52601,20.27,2.2972e-11,-0.263,0,0,0.083333,1.579e-15,0,0.66667
0.11212,0.81803,1.3454,0.47704,90.275,1294,-1.7115,0.5705,-1.192,-2.282,-4.8513e-09,-0.59602,0,0,0.083333,-0,-0,0.66667
0.21762,0.74417,2.6115,0.36626,66.828,1056,-2.5506,0.8502,-1.5278,-3.4008,7.3643e-12,-0.76391,0,0,0.083333,-9.8686e-17,0,0.66667
0.86531,0.047775,10.384,-0.67834,-32.65,44.337,18.783,-6.261,-0.36015,25.044,-6.0625e-09,-0.18007,0,0,0.083333,-0,-0,0.66667
0.9046,0.7924,10.855,0.4386,15.132,22.851,-12.696,4.2321,-1.319,-16.928,4.8312e-08,-0.6595,0,0,0.083333,-0,-0,0.66667
0.093513,0.8345,1.1222,0.50175,95.333,1336.7,-1.5015,0.50048,-1.1117,-2.0019,-7.3258e-08,-0.55584,0,0,0.083333,-0,-4.8925e-17,0.66667
0.014555,0.89052,0.17466,0.58578,112.31,1519.2,-0.27283,0.090926,-0.78418,-0.36377,-2.3426e-05,-0.39209,0,0,0.083333,2.4672e-17,0,0.66667
0.30404,0.056843,3.6485,-0.66474,-115.75,869.63,6.4674,-2.1558,-0.4252,8.6231,-1.3161e-11,-0.2126,0,0,0.083333,5.9212e-16,0,0.66667
0.12829,0.83822,1.5395,0.50733,95.643,1257,-2.0827,0.69423,-1.085,-2.7769,-6.3664e-09,-0.54252,0,0,0.083333,-0,-0,0.66667
0.25704,0.59827,3.0845,0.1474,26.349,969.48,-1.2124,0.40415,-1.9192,-1.6166,6.0407e-13,-0.95962,0,0,0.083333,7.8949e-16,0,0.66667
0.50233,0.45725,6.028,-0.064124,-9.1679,484.45,1.0308,-0.34359,-1.9868,1.3744,1.8202e-12,-0.99339,0,0,0.083333,-0,-0,0.66667
0.56141,0.43258,6.7369,-0.10113,-13.239,385.89,1.8168,-0.60559,-1.9686,2.4224,-1.4166e-13,-0.98432,0,0,0.083333,-0,-0,0.66667
0.98057,0.62685,11.767,0.19027,1.3022,1.3843,-5.9703,1.9901,-1.8712,-7.9605,-7.9811e-07,-0.9356,0,0,0.083333,-0,-0,0.66667
0.42958,0.18921,5.1549,-0.46619,-72.824,617.33,6.4085,-2.1362,-1.2241,8.5446,-5.4206e-12,-0.61207,0,0,0.083333,-0,-0,0.66667
0.67931,0.31843,8.1517,-0.27236,-28.024,217.34,5.9205,-1.9735,-1.7325,7.894,-1.9824e-12,-0.86623,0,0,0.083333,-0,-0,0.66667
0.88941,0.93667,10.673,0.655,26.186,31.053,-18.642,6.2141,-0.47998,-24.856,-1.5367e-07,-0.23999,0,0,0.083333,-1.9737e-15,0,0.66667
0.15189,0.8952,1.8227,0.5928,111.06,1203.4,-2.8813,0.96044,-0.7485,-3.8417,-3.4472e-09,-0.37425,0,0,0.083333,1.9737e-16,0,0.66667
0.09317,0.76162,1.118,0.39243,74.525,1337.4,-1.17,0.39,-1.4581,-1.56,-3.3558e-08,-0.72907,0,0,0.083333,1.9737e-16,0,0.66667
0.29675,0.39727,3.561,-0.15409,-26.894,884.35,1.4633,-0.48775,-1.9227,1.951,3.176e-12,-0.96137,0,0,0.083333,-0,-0,0.66667
0.12968,0.40991,1.5561,-0.13513,-25.433,1253.7,0.56075,-0.18692,-1.9335,0.74766,3.2154e-09,-0.96674,0,0,0.083333,3.9475e-16,0,0.66667
0.16102,0.81612,1.9323,0.47418,88.516,1182.7,-2.4434,0.81446,-1.1988,-3.2578,-1.5219e-10,-0.59942,0,0,0.083333,3.9475e-16,0,0.66667
0.34358,0.97471,4.123,0.71206,120.54,787.63,-7.8288,2.6096,-0.20462,-10.438,9.2926e-12,-0.10231,0,0,0.083333,-7.8949e-16,0,0.66667
0.31134,0.46702,3.736,-0.049475,-8.5498,853.57,0.49291,-0.1643,-1.9967,0.65721,-4.2652e-12,-0.99833,0,0,0.083333,4.4409e-16,0,0.66667
0.76235,0.29486,9.1482,-0.30771,-24.595,124.24,7.5067,-2.5022,-1.6628,10.009,1.0347e-11,-0.83142,0,0,0.083333,-0,-0,0.66667
0.94892,0.56358,11.387,0.095363,1.7681,6.8244,-2.8957,0.96524,-1.9672,-3.861,-1.2731e-08,-0.98358,0,0,0.083333,-0,-0,0.66667
0.58072,0.58003,6.9686,0.12005,15.208,355.6,-2.2309,0.74362,-1.9495,-2.9745,3.8141e-12,-0.97477,0,0,0.083333,-7.8949e-16,0,0.66667
0.98347,0.50288,11.802,0.0043156,0.024643,0.90707,-0.13582,0.045276,-2.0058,-0.18109,5.1538e-06,-1.0029,0,0,0.083333,-0,-0,0.66667
0.95183,0.40946,11.422,-0.1358,-2.3749,6.1728,4.1364,-1.3788,-1.9392,5.5152,3.1831e-08,-0.96959,0,0,0.083333,-3.158e-15,0,0.66667
0.25764,0.23644,3.0917,-0.39533,-70.699,968.36,3.2594,-1.0865,-1.4399,4.3458,-2.7245e-13,-0.71993,0,0,0.083333,3.9475e-16,0,0.66667
0.30135,0.78665,3.6162,0.42998,74.891,874.87,-4.1465,1.3822,-1.341,-5.5286,-1.4458e-11,-0.67051,0,0,0.083333,7.8949e-16,0,0.66667
0.84189,0.8618,10.103,0.5427,30.193,58.569,-14.621,4.8736,-0.95518,-19.494,-8.5661e-10,-0.47759,0,0,0.083333,-0,-0,0.66667
0.58489,0.39145,7.0187,-0.16282,-20.477,349.22,3.0474,-1.0158,-1.9015,4.0632,1.2037e-12,-0.95074,0,0,0.083333,-0,-0,0.66667
0.17505,0.14134,2.1006,-0.53799,-99.977,1151.1,3.0136,-1.0045,-0.97055,4.0182,2.6077e-10,-0.48528,0,0,0.083333,-3.9475e-16,0,0.66667
0.052125,0.49578,0.6255,-0.0063334,-1.209,1432.1,0.010564,-0.0035215,-1.9976,0.014085,-2.2709e-07,-0.99878,0,0,0.083333,1.2336e-16,0,0.66667
0.54514,0.32836,6.5417,-0.25746,-34.609,412.34,4.4912,-1.4971,-1.7669,5.9882,-1.68e-12,-0.88347,0,0,0.083333,-0,-0,0.66667
0.14795,0.34725,1.7754,-0.22912,-42.907,1212.1,1.0847,-0.36158,-1.8099,1.4463,7.9344e-10,-0.90497,0,0,0.083333,-3.9475e-16,0,0.66667
0.77243,0.82979,9.2692,0.49468,38.146,115.14,-12.227,4.0758,-1.1257,-16.303,-1.8283e-11,-0.56284,0,0,0.083333,-1.579e-15,0,0.66667
0.60364,0.78353,7.2437,0.42529,51.734,321.46,-8.2151,2.7384,-1.3545,-10.953,1.4664e-12,-0.67725,0,0,0.083333,-0,-0,0.66667
0.2545,0.086973,3.0539,-0.61954,-111.13,975.49,5.0455,-1.6818,-0.63345,6.7273,1.5846e-11,-0.31673,0,0,0.083333,-0,-0,0.66667
0.0097104,0.56805,0.11653,0.10207,19.537,1530.5,-0.031717,0.010572,-1.9599,-0.04229,-6.064e-07,-0.97994,0,0,0.083333,-0,-0,0.66667
0.29272,0.16565,3.5126,-0.50153,-87.881,893.26,4.6978,-1.5659,-1.104,6.2637,-4.6891e-12,-0.55202,0,0,0.083333,7.8949e-16,0,0.66667
0.61384,0.18713,7.366,-0.46931,-55.989,306.64,9.2185,-3.0728,-1.2162,12.291,2.4105e-12,-0.6081,0,0,0.083333,9.8686e-16,0,0.66667
0.19308,0.60797,2.317,0.16195,29.846,1110.4,-1.0007,0.33356,-1.9032,-1.3342,5.326e-11,-0.95162,0,0,0.083333,3.9475e-16,0,0.66667
0.29108,0.9694,3.493,0.7041,123.68,897.11,-6.5584,2.1861,-0.23521,-8.7445,-8.0211e-12,-0.11761,0,0,0.083333,-0,-0,0.66667
0.98264,0.34097,11.792,-0.23854,-1.451,1.2835,7.5008,-2.5003,-1.8015,10.001,8.2317e-07,-0.90073,0,0,0.083333,-1.579e-15,0,0.66667
0.77969,0.5394,9.3563,0.059102,4.4149,107.37,-1.4746,0.49153,-1.991,-1.9661,-2.0384e-13,-0.9955,0,0,0.083333,-0,-0,0.66667
0.23048,0.27843,2.7657,-0.33235,-60.266,1027.6,2.4512,-0.81706,-1.6069,3.2682,-4.8037e-12,-0.80344,0,0,0.083333,9.8686e-17,0,0.66667
0.27348,0.64063,3.2817,0.21095,37.36,934.03,-1.8461,0.61537,-1.8373,-2.4615,-1.2013e-11,-0.91865,0,0,0.083333,3.9475e-16,0,0.66667
0.68583,0.59511,8.23,0.14266,14.427,209.01,-3.1309,1.0436,-1.9318,-4.1745,1.4668e-12,-0.96592,0,0,0.083333,-0,-0,0.66667
0.97299,0.56159,11.676,0.092385,0.89216,2.169,-2.8765,0.95882,-1.9691,-3.8353,-7.3333e-07,-0.98457,0,0,0.083333,-2.1711e-15,0,0.66667
0.36782,0.57037,4.4139,0.10556,17.465,737.52,-1.2425,0.41415,-1.9564,-1.6566,-1.4299e-12,-0.9782,0,0,0.083333,-0,-0,0.66667
0.02374,0.36914,0.28488,-0.19628,-37.559,1497.9,0.14911,-0.049705,-1.8592,0.19882,-1.11e-06,-0.92961,0,0,0.083333,-0,-0,0.66667
0.81142,0.74186,9.737,0.36279,23.632,80.561,-9.42,3.14,-1.5366,-12.56,-1.0412e-11,-0.76832,0,0,0.083333,-0,-0,0.66667
0.45963,0.17044,5.5155,-0.49434,-74.699,561.38,7.2708,-2.4236,-1.127,9.6944,4.1256e-12,-0.56349,0,0,0.083333,-0,-0,0.66667
0.58271,0.16764,6.9925,-0.49854,-63.056,353.26,9.2961,-3.0987,-1.114,12.395,-1.0605e-12,-0.55698,0,0,0.083333,-0,-0,0.66667
0.55146,0.5329,6.6175,0.049349,6.5649,401.86,-0.87085,0.29028,-1.9902,-1.1611,3.586e-14,-0.99512,0,0,0.083333,-0,-0,0.66667
0.63102,0.039716,7.5722,-0.69043,-79.716,282.98,13.942,-4.6472,-0.30161,18.589,-4.8583e-13,-0.15081,0,0,0.083333,-0,-0,0.66667
0.72115,0.65868,8.6537,0.23803,21.809,167.46,-5.4928,1.8309,-1.8009,-7.3238,2.2977e-12,-0.90047,0,0,0.083333,-0,-0,0.66667
0.37326,0.32717,4.4792,-0.25924,-42.706,726.73,3.0965,-1.0322,-1.7637,4.1286,1.0385e-12,-0.88183,0,0,0.083333,7.8949e-16,0,0.66667
0.86276,0.27615,10.353,-0.33578,-16.325,44.263,9.2703,-3.0901,-1.5992,12.36,-3.3909e-09,-0.79959,0,0,0.083333,7.8949e-16,0,0.66667
0.044935,0.49823,0.53922,-0.0026499,-0.5062,1448.8,0.0038103,-0.0012691,-2.0035,0.0050809,1.4737e-06,-1.0017,0,0,0.083333,-1.1719e-16,0,0.66667
0.63268,0.76952,7.5922,0.40429,46.384,279.59,-8.1851,2.7284,-1.4145,-10.914,2.2293e-12,-0.70724,0,0,0.083333,-7.8949e-16,0,0.66667
0.32943,0.69593,3.9531,0.29389,50.159,816,-3.0981,1.0327,-1.6969,-4.1308,-2.9303e-12,-0.84846,0,0,0.083333,-0,-0,0.66667
0.5372,0.78836,6.4464,0.43254,58.913,425.75,-7.4356,2.4785,-1.3315,-9.9141,-8.8907e-13,-0.66574,0,0,0.083333,-0,-0,0.66667
0.25122,0.80612,3.0147,0.45918,82.432,982.37,-3.6915,1.2305,-1.2548,-4.922,-1.5072e-11,-0.62738,0,0,0.083333,-0,-0,0.66667
0.30016,0.31266,3.6019,-0.28101,-48.953,877.23,2.6991,-0.89971,-1.7204,3.5988,-2.5979e-13,-0.86018,0,0,0.083333,-0,-0,0.66667
0.68492,0.93824,8.219,0.65737,66.917,211.65,-14.408,4.8026,-0.46587,-19.21,1.8225e-12,-0.23293,0,0,0.083333,-0,-0,0.66667
0.30867,0.061581,3.704,-0.65763,-114.15,859.88,6.4956,-2.1652,-0.46239,8.6608,-1.4186e-11,-0.23119,0,0,0.083333,-4.9343e-16,-1.0424e-16,0.66667
0.48557,0.87777,5.8269,0.56666,83.004,514.74,-8.8049,2.935,-0.86339,-11.74,1.0099e-12,-0.4317,0,0,0.083333,-0,-0,0.66667
0.72351,0.48597,8.6821,-0.021049,-1.9136,164.6,0.48733,-0.16244,-1.9958,0.64978,2.6724e-12,-0.99788,0,0,0.083333,-7.8949e-16,0,0.66667
0.93934,0.28048,11.272,-0.32929,-7.2822,9.88,9.898,-3.2993,-1.6184,13.197,-2.0868e-07,-0.80919,0,0,0.083333,2.1711e-15,0,0.66667
0.18872,0.52448,2.2647,0.036714,6.7767,1120.1,-0.22172,0.073906,-1.9996,-0.29563,-6.0644e-11,-0.99981,0,0,0.083333,1.9737e-16,0,0.66667
0.52997,0.4294,6.3596,-0.1059,-14.561,437.29,1.7959,-0.59863,-1.9642,2.3945,9.2171e-13,-0.98212,0,0,0.083333,3.9475e-16,0,0.66667
0.74163,0.24219,8.8996,-0.38671,-33.245,145.54,9.1775,-3.0592,-1.4643,12.237,-1.1191e-12,-0.73215,0,0,0.083333,7.8949e-16,0,0.66667
0.53447,0.5874,6.4137,0.1311,17.907,429.79,-2.2423,0.74742,-1.9391,-2.9897,1.583e-12,-0.96953,0,0,0.083333,-3.9475e-16,0,0.66667
0.78526,0.015055,9.4231,-0.72742,-53.518,104.51,18.279,-6.0929,-0.11693,24.372,2.9533e-10,-0.058467,0,0,0.083333,-3.158e-15,0,0.66667
0.74517,0.86547,8.9421,0.5482,46.659,142.43,-13.072,4.3574,-0.92897,-17.429,-2.4751e-11,-0.46449,0,0,0.083333,7.8949e-16,0,0.66667
0.76862,0.49539,9.2234,-0.0069182,-0.53953,117.77,0.17016,-0.056719,-2.0007,0.22688,-2.7912e-11,-1.0003,0,0,0.083333,1.1842e-15,0,0.66667
0.77155,0.9836,9.2586,0.72541,56.34,117.14,-17.91,5.97,-0.12523,-23.88,6.3388e-11,-0.062615,0,0,0.083333,2.4842e-16,0,0.66667
0.88414,0.19785,10.61,-0.45323,-18.828,32.671,12.823,-4.2743,-1.2657,17.097,2.9549e-09,-0.63285,0,0,0.083333,-0,-0,0.66667
0.45436,0.36201,5.4524,-0.20699,-31.426,570.57,3.0096,-1.0032,-1.8515,4.0128,3.4264e-12,-0.92577,0,0,0.083333,-7.8949e-16,0,0.66667
0.45973,0.72499,5.5168,0.33749,50.946,560.86,-4.965,1.655,-1.5914,-6.62,-1.013e-11,-0.79572,0,0,0.083333,-0,-0,0.66667
0.14676,0.58809,1.7612,0.13214,24.75,1214.8,-0.62059,0.20686,-1.9347,-0.82746,-7.6448e-10,-0.96734,0,0,0.083333,-1.9737e-16,0,0.66667
0.23564,0.030415,2.8277,-0.70438,-127.68,1016.8,5.3113,-1.7704,-0.24121,7.0818,-3.948e-13,-0.1206,0,0,0.083333,-0,-0,0.66667
0.26969,0.0085646,3.2363,-0.73715,-131.22,942.89,6.3617,-2.1206,-0.066499,8.4823,-4.7637e-12,-0.033249,0,0,0.083333,-0,-0,0.66667
0.73747,0.54593,8.8496,0.068902,5.9945,149.38,-1.626,0.542,-1.9829,-2.168,3.9635e-14,-0.99146,0,0,0.083333,-0,-0,0.66667
0.15702,0.43756,1.8842,-0.093663,-17.486,1191.5,0.47062,-0.15687,-1.9756,0.6275,-3.4871e-10,-0.98778,0,0,0.083333,-3.9475e-16,0,0.66667
0.72315,0.84583,8.6778,0.51875,47.356,166.04,-12.004,4.0014,-1.0423,-16.006,4.8876e-12,-0.52113,0,0,0.083333,-3.158e-15,0,0.66667
0.59594,0.15424,7.1513,-0.51863,-64.055,333.22,9.8904,-3.2968,-1.0465,13.187,-1.4833e-13,-0.52326,0,0,0.083333,-1.9737e-16,0,0.66667
0.9303,0.58654,11.164,0.12982,3.2801,12.203,-3.8646,1.2882,-1.9362,-5.1528,1.0146e-07,-0.96809,0,0,0.083333,7.8949e-16,0,0.66667
0.72528,0.87418,8.7033,0.56127,50.934,163.86,-13.026,4.3422,-0.87728,-17.369,3.7272e-11,-0.43864,0,0,0.083333,6.9081e-16,0,0.66667
0.69888,0.4145,8.3865,-0.12825,-12.525,193.13,2.8683,-0.9561,-1.9399,3.8244,4.1078e-14,-0.96993,0,0,0.083333,-0,-0,0.66667
0.075963,0.58761,0.91155,0.13141,25.011,1377,-0.31943,0.10648,-1.9409,-0.42591,-8.2355e-08,-0.97044,0,0,0.083333,9.8686e-17,0,0.66667
0.50651,0.51371,6.0782,0.020562,2.923,477.18,-0.33327,0.11109,-1.9944,-0.44437,5.3473e-12,-0.99719,0,0,0.083333,-1.579e-15,0,0.66667
0.76296,0.79402,9.1556,0.44103,35.218,124.05,-10.768,3.5892,-1.3091,-14.357,-1.3439e-11,-0.65454,0,0,0.083333,-0,-0,0.66667
0.29181,0.026241,3.5017,-0.71064,-124.78,895.58,6.6358,-2.2119,-0.20218,8.8478,-1.759e-11,-0.10109,0,0,0.083333,3.9475e-16,0,0.66667
0.49858,0.83079,5.9829,0.49618,71.423,491.64,-7.9163,2.6388,-1.128,-10.555,1.7768e-12,-0.56402,0,0,0.083333,-0,-0,0.66667
0.30177,0.7986,3.6212,0.44789,77.997,874.03,-4.3251,1.4417,-1.2839,-5.7668,-6.7981e-12,-0.64195,0,0,0.083333,-3.5736e-16,0,0.66667
0.4502,0.77404,5.4024,0.41105,62.759,578.57,-5.9218,1.9739,-1.3998,-7.8957,-6.1768e-12,-0.69992,0,0,0.083333,-3.9475e-16,0,0.66667
0.24377,0.95846,2.9252,0.68769,124.13,998.96,-5.3643,1.7881,-0.31474,-7.1524,-8.9834e-11,-0.15737,0,0,0.083333,-0,-0,0.66667
0.5657,0.12472,6.7884,-0.56292,-73.35,380,10.19,-3.3967,-0.87458,13.587,-1.5223e-12,-0.43729,0,0,0.083333,8.1416e-16,0,0.66667
0.94963,0.34226,11.396,-0.23662,-4.3369,6.8867,7.1904,-2.3968,-1.8014,9.5871,-7.7045e-08,-0.90072,0,0,0.083333,5.9212e-16,0,0.66667
0.2179,0.39203,2.6148,-0.16195,-29.528,1055.2,1.1292,-0.37641,-1.9116,1.5056,-1.7239e-11,-0.95579,0,0,0.083333,-0,-0,0.66667
0.4385,0.10384,5.262,-0.59423,-92.025,600.82,8.3383,-2.7794,-0.74913,11.118,6.2883e-13,-0.37457,0,0,0.083333,-7.8949e-16,0,0.66667
0.76894,0.080707,9.2273,-0.62894,-49.248,119.08,15.476,-5.1586,-0.593,20.634,-1.4337e-10,-0.2965,0,0,0.083333,-0,-0,0.66667
0.14093,0.63588,1.6912,0.20383,38.247,1228.1,-0.91923,0.30641,-1.8588,-1.2256,-1.7256e-09,-0.92939,0,0,0.083333,-0,-0,0.66667
0.9131,0.24378,10.957,-0.38434,-12.102,19.09,11.23,-3.7434,-1.4711,14.973,-2.3302e-08,-0.73556,0,0,0.083333,-7.8949e-16,0,0.66667
0.39416,0.29986,4.7299,-0.30021,-48.538,685.37,3.7865,-1.2622,-1.6787,5.0487,-3.0798e-12,-0.83933,0,0,0.083333,-3.9475e-16,0,0.66667
0.32525,0.83584,3.903,0.50377,86.33,824.96,-5.2432,1.7477,-1.0983,-6.9909,-6.5512e-12,-0.54914,0,0,0.083333,1.9737e-16,0,0.66667
0.57673,0.40088,6.9207,-0.14868,-18.968,361.8,2.7438,-0.91462,-1.9256,3.6585,-1.3893e-12,-0.96279,0,0,0.083333,3.9475e-16,0,0.66667
0.24807,0.98425,2.9768,0.72637,130.85,989.65,-5.7661,1.922,-0.12622,-7.6881,4.6541e-13,-0.063108,0,0,0.083333,3.9475e-16,9.868e-17,0.66667
0.81192,0.36376,9.7431,-0.20436,-13.261,79.768,5.3097,-1.7699,-1.8572,7.0796,9.1696e-11,-0.92861,0,0,0.083333,-7.8949e-16,0,0.66667
0.88291,0.59285,10.595,0.13928,5.8173,32.439,-3.9349,1.3116,-1.9281,-5.2466,9.3928e-09,-0.96404,0,0,0.083333,2.0724e-15,0,0.66667
0.83441,0.64376,10.013,0.21564,12.461,62.709,-5.7578,1.9193,-1.8307,-7.6771,9.1664e-11,-0.91535,0,0,0.083333,-0,-0,0.66667
0.35124,0.25397,4.2148,-0.36904,-61.952,771.31,4.1479,-1.3826,-1.5123,5.5305,4.6225e-12,-0.75613,0,0,0.083333,-7.8949e-16,0,0.66667
0.14604,0.26902,1.7525,-0.34647,-64.944,1216.5,1.6192,-0.53973,-1.5699,2.1589,8.9042e-10,-0.78494,0,0,0.083333,-0,-0,0.66667
0.60481,0.18451,7.2577,-0.47324,-57.459,319.87,9.1589,-3.053,-1.2024,12.212,5.7474e-12,-0.60119,0,0,0.083333,-7.8949e-16,0,0.66667
0.9963,0.96892,11.956,0.70338,0.94711,2.7233,-22.425,7.4749,-0.24142,-29.9,-1.3078e-05,-0.12071,0,0,0.083333,-0,-0,0.66667
0.80367,0.81149,9.6441,0.46724,31.6,87.269,-12.016,4.0054,-1.221,-16.021,-3.2091e-10,-0.6105,0,0,0.083333,7.8949e-16,0,0.66667
0.74154,0.58003,8.8985,0.12004,10.306,145.1,-2.8484,0.94948,-1.9444,-3.7979,-1.5301e-12,-0.9722,0,0,0.083333,7.8949e-16,0,0.66667
0.38666,0.13967,4.6399,-0.54049,-88.108,700.56,6.6876,-2.2292,-0.95968,8.9168,1.1124e-12,-0.47984,0,0,0.083333,-0,-0,0.66667
0.40617,0.50856,4.8741,0.01284,2.0511,661.74,-0.16689,0.05563,-2.0068,-0.22252,-7.7965e-12,-1.0034,0,0,0.083333,-0,-0,0.66667
0.29465,0.0027351,3.5357,-0.7459,-130.77,889.65,7.0328,-2.3443,-0.024493,9.3771,2.0667e-11,-0.012247,0,0,0.083333,-1.579e-15,0,0.66667
0.29924,0.72252,3.5908,0.33377,58.19,879.23,-3.1961,1.0654,-1.6061,-4.2614,-1.8348e-11,-0.80305,0,0,0.083333,-0,-0,0.66667
0.65307,0.7729,7.8368,0.40934,44.906,251.73,-8.5545,2.8515,-1.4042,-11.406,-2.5207e-12,-0.70212,0,0,0.083333,-0,-0,0.66667
0.042617,0.90375,0.51141,0.60563,115.95,1454.2,-0.82593,0.2753,-0.69501,-1.1012,-1.5536e-05,-0.34751,0,0,0.083333,6.1679e-17,0,0.66667
0.60103,0.23314,7.2124,-0.40028,-48.924,325.26,7.6987,-2.5662,-1.4259,10.265,5.0182e-14,-0.71295,0,0,0.083333,7.8949e-16,0,0.66667
0.45501,0.80477,5.4601,0.45715,69.433,569.78,-6.6562,2.2187,-1.2596,-8.875,-8.0624e-12,-0.62982,0,0,0.083333,-0,-0,0.66667
0.38402,0.73484,4.6083,0.35227,57.501,705.43,-4.3289,1.443,-1.5546,-5.7719,5.9401e-12,-0.7773,0,0,0.083333,-0,-0,0.66667
0.72104,0.75542,8.6525,0.38312,35.151,167.93,-8.84,2.9467,-1.4802,-11.787,-2.558e-13,-0.7401,0,0,0.083333,-0,-0,0.66667
0.090843,0.66278,1.0901,0.24417,46.366,1342.8,-0.70978,0.23659,-1.7888,-0.94638,-4.5093e-08,-0.89438,0,0,0.083333,1.9737e-16,0,0.66667
0.24894,0.2326,2.9873,-0.4011,-72.071,987.27,3.1952,-1.0651,-1.4323,4.2602,-4.6863e-12,-0.71614,0,0,0.083333,-0,-0,0.66667
0.16059,0.26301,1.9271,-0.35548,-66.331,1183.6,1.8268,-0.60892,-1.5486,2.4357,5.2709e-11,-0.77429,0,0,0.083333,-0,-0,0.66667
0.67252,0.43446,8.0703,-0.098317,-10.283,225.72,2.1159,-0.70529,-1.9721,2.8211,-3.1153e-13,-0.98606,0,0,0.083333,-7.8949e-16,0,0.66667
0.19789,0.31044,2.3747,-0.28435,-52.314,1099.7,1.8006,-0.60022,-1.7106,2.4009,-5.3322e-11,-0.85531,0,0,0.083333,-4.4409e-16,0,0.66667
0.47419,0.44472,5.6903,-0.082925,-12.294,534.31,1.2583,-0.41944,-1.9726,1.6777,-4.8083e-12,-0.98632,0,0,0.083333,-0,-0,0.66667
0.95248,0.16332,11.43,-0.50502,-8.8356,7.224,15.393,-5.1309,-1.0991,20.524,-1.7702e-06,-0.54953,0,0,0.083333,-0,-0,0.66667
0.79059,0.82106,9.4871,0.4816,34.506,98.519,-12.184,4.0613,-1.1717,-16.245,1.2436e-11,-0.58583,0,0,0.083333,-0,-0,0.66667
0.6679,0.30867,8.0148,-0.287,-30.38,231.92,6.134,-2.0447,-1.7065,8.1786,4.2766e-13,-0.85323,0,0,0.083333,-1.1842e-15,0,0.66667
0.85654,0.90607,10.278,0.60911,31.027,49.286,-16.695,5.565,-0.6828,-22.26,-8.7454e-09,-0.3414,0,0,0.083333,-1.6618e-15,-9.7556e-17,0.66667
0.28897,0.98897,3.4677,0.73346,129.05,901.65,-6.7824,2.2608,-0.082913,-9.0432,4.1167e-13,-0.041457,0,0,0.083333,-3.9475e-16,0,0.66667
0.77802,0.63128,9.3362,0.19692,14.815,109.07,-4.9026,1.6342,-1.8623,-6.5368,-2.2845e-11,-0.93115,0,0,0.083333,1.579e-15,0,0.66667
0.019068,0.51385,0.22882,0.02077,3.9743,1508.7,-0.012673,0.0042242,-1.9977,-0.016898,-5.136e-07,-0.99884,0,0,0.083333,-0,-0,0.66667
0.87353,0.51688,10.482,0.025323,1.1373,37.45,-0.70786,0.23595,-2.001,-0.94381,-2.0283e-10,-1.0005,0,0,0.083333,-0,-0,0.66667
0.24772,0.057296,2.9726,-0.66406,-119.59,990.3,5.264,-1.7547,-0.43426,7.0186,2.496e-10,-0.21713,0,0,0.083333,-2.9606e-16,0,0.66667
0.12308,0.25167,1.4769,-0.37249,-70.271,1268.9,1.4671,-0.48902,-1.5102,1.9561,7.9267e-10,-0.75511,0,0,0.083333,3.9475e-16,0,0.66667
0.12635,0.28386,1.5162,-0.3242,-61.1,1261.4,1.3108,-0.43694,-1.631,1.7478,5.3136e-09,-0.8155,0,0,0.083333,-3.9475e-16,0,0.66667
0.58781,0.20525,7.0537,-0.44212,-55.389,345.29,8.3162,-2.7721,-1.3012,11.088,-1.5294e-12,-0.65061,0,0,0.083333,-0,-0,0.66667
0.89189,0.26146,10.703,-0.35781,-13.89,28.404,10.212,-3.404,-1.5487,13.616,-3.4141e-08,-0.77433,0,0,0.083333,-0,-0,0.66667
0.092472,0.81384,1.1097,0.47077,89.448,1339.1,-1.393,0.46435,-1.2172,-1.8574,-4.3771e-08,-0.60858,0,0,0.083333,-3.9475e-16,0,0.66667
0.48349,0.19925,5.8018,-0.45113,-66.201,518.15,6.9796,-2.3265,-1.2812,9.3061,1.6316e-12,-0.64061,0,0,0.083333,-0,-0,0.66667
0.88532,0.85798,10.624,0.53698,22.139,32.455,-15.213,5.0709,-0.97152,-20.284,7.1785e-09,-0.48576,0,0,0.083333,-0,-0,0.66667
0.95716,0.88716,11.486,0.58073,9.2135,6.6182,-17.787,5.9291,-0.79924,-23.716,1.1207e-05,-0.39962,0,0,0.083333,-0,-0,0.66667
0.99077,0.98505,11.889,0.72757,2.5408,3.1495,-23.067,7.6891,-0.11418,-30.756,8.8431e-05,-0.057088,0,0,0.083333,1.579e-15,0,0.66667
0.36192,0.079453,4.343,-0.63082,-105.15,750.16,7.3058,-2.4353,-0.58599,9.741,-2.6512e-12,-0.293,0,0,0.083333,-3.9475e-16,0,0.66667
0.58532,0.88982,7.0238,0.58474,73.672,349.55,-10.952,3.6507,-0.77989,-14.603,-1.5339e-12,-0.38995,0,0,0.083333,-0,-0,0.66667
0.38493,0.55988,4.6191,0.089824,14.639,703.4,-1.1064,0.36881,-1.9689,-1.4752,1.0159e-11,-0.98444,0,0,0.083333,-1.9737e-16,0,0.66667
0.13587,0.62579,1.6304,0.18868,35.455,1239.6,-0.82035,0.27345,-1.8723,-1.0938,-3.1344e-09,-0.93614,0,0,0.083333,-3.9475e-16,0,0.66667
0.76152,0.28575,9.1383,-0.32138,-25.768,125.09,7.8316,-2.6105,-1.6318,10.442,1.1835e-11,-0.8159,0,0,0.083333,-0,-0,0.66667
0.22086,0.91893,2.6503,0.6284,114.66,1049.1,-4.4412,1.4804,-0.59781,-5.9216,1.3995e-10,-0.2989,0,0,0.083333,-0,-0,0.66667
0.6968,0.81949,8.3616,0.47924,47.173,196.41,-10.686,3.5619,-1.1799,-14.248,1.1946e-12,-0.58993,0,0,0.083333,-0,-0,0.66667
0.80946,0.14408,9.7135,-0.53388,-35.187,82.804,13.829,-4.6096,-0.98656,18.439,2.8136e-10,-0.49328,0,0,0.083333,-0,-0,0.66667
0.27256,0.92771,3.2707,0.64157,113.93,936.53,-5.5957,1.8652,-0.53241,-7.461,-1.3056e-13,-0.2662,0,0,0.083333,-0,-0,0.66667
0.5085,0.79705,6.102,0.44557,63.261,474.29,-7.2504,2.4168,-1.2897,-9.6672,9.3792e-13,-0.64486,0,0,0.083333,-7.8949e-16,0,0.66667
0.42229,0.85988,5.0675,0.53982,85.011,631.35,-7.2948,2.4316,-0.96991,-9.7264,1.0516e-12,-0.48495,0,0,0.083333,-7.8949e-16,0,0.66667
0.054664,0.58636,0.65597,0.12953,24.723,1426.3,-0.22659,0.075529,-1.9363,-0.30212,-4.5537e-08,-0.96817,0,0,0.083333,-4.9343e-17,0,0.66667
0.74161,0.59326,8.8993,0.13989,12.009,145.05,-3.3199,1.1066,-1.9276,-4.4265,-7.4296e-12,-0.9638,0,0,0.083333,2.0999e-15,0,0.66667
0.80872,0.17886,9.7046,-0.48171,-31.834,83.179,12.466,-4.1554,-1.1739,16.622,8.6012e-11,-0.58696,0,0,0.083333,-0,-0,0.66667
0.53813,0.90951,6.4576,0.61427,83.668,424.76,-10.578,3.5259,-0.65516,-14.104,-2.4389e-12,-0.32758,0,0,0.083333,-0,-0,0.66667
0.75933,0.96086,9.112,0.69129,56.138,128.77,-16.797,5.5992,-0.29724,-22.397,5.616e-11,-0.14862,0,0,0.083333,-7.8949e-16,0,0.66667
0.041085,0.10174,0.49302,-0.59739,-114.38,1457.8,0.78541,-0.26179,-0.72783,1.0472,1.4578e-05,-0.36391,0,0,0.083333,-9.8686e-17,0,0.66667
0.18226,0.92309,2.1871,0.63464,117.7,1135,-3.7014,1.2338,-0.56475,-4.9352,-7.3809e-09,-0.28238,0,0,0.083333,-0,-0,0.66667
0.5671,0.98912,6.8052,0.73368,95.545,378.46,-13.314,4.4381,-0.083759,-17.752,-3.717e-12,-0.04188,0,0,0.083333,1.579e-15,0,0.66667
0.62121,0.67436,7.4545,0.26155,30.704,295.51,-5.1991,1.733,-1.7554,-6.9322,1.3545e-13,-0.87772,0,0,0.083333,-0,-0,0.66667
0.78202,0.95959,9.3842,0.68938,51.353,107.21,-17.251,5.7505,-0.31559,-23.002,4.6466e-10,-0.15779,0,0,0.083333,-0,-0,0.66667
0.60149,0.78602,7.2179,0.42903,52.404,324.66,-8.2579,2.7526,-1.3419,-11.011,2.359e-12,-0.67094,0,0,0.083333,-0,-0,0.66667
0.56027,0.64982,6.7232,0.22473,29.484,387.84,-4.029,1.343,-1.8225,-5.372,-2.2391e-12,-0.91127,0,0,0.083333,1.1212e-15,0,0.66667
0.66962,0.97796,8.0355,0.71694,75.894,231.24,-15.363,5.1208,-0.17418,-20.483,1.8376e-12,-0.087089,0,0,0.083333,-0,8.2054e-17,0.66667
0.18539,0.29702,2.2247,-0.30447,-56.301,1127.7,1.8063,-0.6021,-1.6722,2.4084,-6.3927e-11,-0.83608,0,0,0.083333,-3.9475e-16,0,0.66667
0.14813,0.40063,1.7776,-0.14906,-27.907,1211.7,0.70655,-0.23552,-1.9172,0.94207,9.408e-10,-0.95862,0,0,0.083333,-1.0966e-16,0,0.66667
0.2334,0.74877,2.8008,0.37315,67.579,1021.2,-2.787,0.929,-1.5109,-3.716,1.2928e-11,-0.75543,0,0,0.083333,9.8686e-17,0,0.66667
0.88661,0.57757,10.639,0.11635,4.7129,30.497,-3.3012,1.1004,-1.9502,-4.4015,8.2426e-09,-0.97508,0,0,0.083333,-0,-0,0.66667
0.62684,0.65672,7.5221,0.23508,27.277,287.45,-4.7155,1.5718,-1.8075,-6.2874,-1.5721e-13,-0.90374,0,0,0.083333,-0,-0,0.66667
0.65717,0.14509,7.8861,-0.53236,-57.916,246.67,11.195,-3.7318,-0.9971,14.927,-1.136e-12,-0.49855,0,0,0.083333,-0,-0,0.66667
0.3064,0.70785,3.6768,0.31177,54.091,864.1,-3.0569,1.019,-1.6506,-4.0758,-1.3899e-11,-0.82532,0,0,0.083333,3.9475e-16,0,0.66667
0.25905,0.83032,3.1086,0.49548,88.585,965.44,-4.1073,1.3691,-1.123,-5.4764,-2.8924e-12,-0.56149,0,0,0.083333,-0,-0,0.66667
0.59709,0.85008,7.165,0.52512,64.722,331.52,-10.033,3.3444,-1.0195,-13.378,2.1672e-13,-0.50977,0,0,0.083333,-0,-0,0.66667
0.21493,0.16032,2.5791,-0.50952,-93.148,1062.1,3.5043,-1.1681,-1.0765,4.6724,-1.706e-10,-0.53823,0,0,0.083333,-0,-0,0.66667
0.93549,0.81204,11.226,0.46806,11.054,11.572,-14.012,4.6706,-1.2246,-18.682,2.8954e-07,-0.61232,0,0,0.083333,1.9244e-15,0,0.66667
0.80368,0.67108,9.6441,0.25662,17.315,86.612,-6.5996,2.1999,-1.7616,-8.7995,-6.2754e-11,-0.88079,0,0,0.083333,1.579e-15,0,0.66667
0.077647,0.31879,0.93177,-0.27182,-51.737,1373.2,0.67539,-0.22513,-1.7438,0.90053,1.4727e-07,-0.87188,0,0,0.083333,1.9737e-16,0,0.66667
0.17487,0.50876,2.0984,0.013146,2.4392,1151.2,-0.073563,0.024521,-1.9997,-0.098085,-7.4716e-11,-0.99985,0,0,0.083333,-0,-0,0.66667
0.48717,0.46685,5.846,-0.049732,-7.2535,511.09,0.7753,-0.25843,-1.9929,1.0337,-6.3224e-12,-0.99644,0,0,0.083333,9.8686e-16,0,0.66667
0.26934,0.37478,3.232,-0.18783,-33.345,942.92,1.6189,-0.53962,-1.875,2.1585,7.7209e-12,-0.93749,0,0,0.083333,-5.4894e-16,0,0.66667
0.2902,0.61015,3.4824,0.16523,28.961,898.26,-1.5344,0.51147,-1.8987,-2.0459,-2.6468e-11,-0.94935,0,0,0.083333,-0,-0,0.66667
0.96137,0.73957,11.536,0.35936,5.0664,4.713,-11.055,3.6851,-1.5366,-14.74,5.4819e-07,-0.7683,0,0,0.083333,7.8949e-16,0,0.66667
0.34206,0.85788,4.1047,0.53682,90.857,790.35,-5.8759,1.9586,-0.97812,-7.8345,4.3929e-12,-0.48906,0,0,0.083333,-0,2.017e-17,0.66667
0.8359,0.38975,10.031,-0.16538,-9.4745,61.564,4.4236,-1.4745,-1.8983,5.8981,-4.0946e-11,-0.94914,0,0,0.083333,-0,-0,0.66667
0.34459,0.88581,4.1351,0.57872,97.783,785.24,-6.3815,2.1272,-0.81422,-8.5086,3.6859e-12,-0.40711,0,0,0.083333,-0,-0,0.66667
0.72145,0.95561,8.6574,0.68341,62.851,168.7,-15.777,5.2591,-0.33998,-21.037,2.0575e-11,-0.16999,0,0,0.083333,-0,-0,0.66667
0.18399,0.30215,2.2079,-0.29678,-54.907,1130.8,1.7474,-0.58246,-1.6861,2.3298,-7.3592e-11,-0.84305,0,0,0.083333,-0,-0,0.66667
0.68595,0.46095,8.2314,-0.058575,-5.9207,208.8,1.2858,-0.42858,-1.9913,1.7143,-3.7059e-13,-0.99564,0,0,0.083333,-7.8949e-16,0,0.66667
0.57425,0.40398,6.891,-0.14402,-18.453,365.66,2.6466,-0.8822,-1.926,3.5288,2.5628e-12,-0.963,0,0,0.083333,2.687e-16,0,0.66667
0.72788,0.25412,8.7345,-0.36881,-33.132,160.29,8.5904,-2.8635,-1.5131,11.454,1.3678e-13,-0.75657,0,0,0.083333,-0,-0,0.66667
0.43689,0.28551,5.2427,-0.32173,-49.828,603.25,4.498,-1.4993,-1.6384,5.9973,1.5477e-12,-0.81918,0,0,0.083333,-1.579e-15,0,0.66667
0.94886,0.7014,11.386,0.3021,5.633,7.2538,-9.1728,3.0576,-1.6735,-12.23,1.6284e-07,-0.83674,0,0,0.083333,-0,-0,0.66667
0.98993,0.48451,11.879,-0.02324,-0.075836,0.40655,0.73621,-0.2454,-1.9946,0.98161,-2.8131e-06,-0.99729,0,0,0.083333,-1.1723e-15,0,0.66667
0.37841,0.39853,4.5409,-0.1522,-24.953,716.38,1.843,-0.61432,-1.9173,2.4573,3.6048e-12,-0.95866,0,0,0.083333,-3.9475e-16,0,0.66667
0.75586,0.011683,9.0704,-0.73248,-60.266,132.46,17.717,-5.9056,-0.088732,23.623,1.6335e-11,-0.044366,0,0,0.083333,-0,-0,0.66667
0.93393,0.78293,11.207,0.42439,10.244,11.858,-12.683,4.2277,-1.36,-16.911,3.2002e-07,-0.67998,0,0,0.083333,-0,-0,0.66667
0.81266,0.43779,9.752,-0.09331,-6.0301,79.031,2.4265,-0.80885,-1.9774,3.2354,1.9348e-10,-0.98872,0,0,0.083333,-0,-0,0.66667
0.44965,0.018959,5.3958,-0.72156,-110.5,580.43,10.382,-3.4608,-0.14801,13.843,-2.1947e-12,-0.074006,0,0,0.083333,-1.579e-15,9.4193e-17,0.66667
0.0019673,0.20045,0.023608,-0.44933,-86.102,1548.4,0.028284,-0.0094276,-1.2843,0.037712,3.5378e-07,-0.64215,0,0,0.083333,-0,-0,0.66667
0.94677,0.115,11.361,-0.5775,-11.353,9.0018,17.496,-5.8321,-0.81035,23.328,1.5456e-06,-0.40517,0,0,0.083333,-7.8949e-16,0,0.66667
0.34939,0.57471,4.1927,0.11206,18.826,774.84,-1.2529,0.41765,-1.9519,-1.6706,2.1622e-12,-0.97593,0,0,0.083333,7.8949e-16,0,0.66667
0.037035,0.09806,0.44442,-0.60291,-115.48,1467.2,0.71453,-0.23817,-0.70478,0.95271,1.0338e-05,-0.35239,0,0,0.083333,-9.8686e-17,0,0.66667
0.24443,0.3046,2.9332,-0.2931,-52.767,996.99,2.2926,-0.76419,-1.6915,3.0568,-2.3119e-12,-0.84573,0,0,0.083333,-0,-0,0.66667
0.96294,0.67631,11.555,0.26446,3.5586,4.1143,-8.1492,2.7164,-1.7478,-10.866,-1.5036e-07,-0.87388,0,0,0.083333,-0,-0,0.66667
0.46377,0.11732,5.5652,-0.57402,-86.368,554.01,8.5188,-2.8396,-0.82597,11.358,1.1475e-12,-0.41299,0,0,0.083333,-3.9475e-16,0,0.66667
0.12421,0.10987,1.4905,-0.5852,-110.49,1266.4,2.326,-0.77535,-0.78736,3.1014,5.611e-08,-0.39368,0,0,0.083333,1.9737e-16,9.8589e-17,0.66667
0.66748,0.057237,8.0098,-0.66414,-70.62,233.74,14.186,-4.7286,-0.43021,18.914,5.7732e-13,-0.2151,0,0,0.083333,-7.8949e-16,0,0.66667
0.013877,0.98545,0.16652,0.72818,139.76,1520.8,-0.3233,0.10774,-0.11761,-0.43109,-3.9808e-05,-0.058805,0,0,0.083333,-2.4672e-17,-9.8216e-17,0.66667
0.79892,0.42357,9.587,-0.11465,-7.8974,90.389,2.9311,-0.97703,-1.9552,3.9081,9.2639e-12,-0.9776,0,0,0.083333,-1.579e-15,0,0.66667
0.53493,0.28333,6.4192,-0.32501,-44.392,429.28,5.5635,-1.8545,-1.6245,7.418,-2.3297e-12,-0.81225,0,0,0.083333,-0,-0,0.66667
0.85021,0.49177,10.203,-0.012342,-0.64954,51.662,0.33579,-0.11193,-1.9957,0.44772,2.0804e-09,-0.99786,0,0,0.083333,-2.3685e-15,0,0.66667
0.2292,0.39748,2.7504,-0.15379,-27.89,1030.3,1.1279,-0.37598,-1.9131,1.5039,-9.7153e-12,-0.95655,0,0,0.083333,-1.9737e-16,0,0.66667
0.090134,0.75312,1.0816,0.37968,72.141,1344.4,-1.0951,0.36503,-1.4875,-1.4601,-1.988e-08,-0.74373,0,0,0.083333,-0,-0,0.66667
0.6928,0.87025,8.3136,0.55538,55.306,201.53,-12.312,4.1041,-0.90088,-16.417,6.1622e-12,-0.45044,0,0,0.083333,1.1842e-15,0,0.66667
0.81499,0.88573,9.7799,0.57859,37.166,78.598,-15.089,5.0298,-0.81085,-20.119,-1.6427e-09,-0.40542,0,0,0.083333,-0,-0,0.66667
0.63154,0.75341,7.5785,0.38012,43.709,281.12,-7.682,2.5607,-1.4831,-10.243,-3.2805e-12,-0.74157,0,0,0.083333,1.579e-15,0,0.66667
0.77283,0.25272,9.2739,-0.37091,-28.518,114.33,9.1729,-3.0576,-1.5076,12.23,1.9083e-11,-0.7538,0,0,0.083333,3.158e-15,0,0.66667
0.63111,0.69567,7.5733,0.2935,33.762,281.54,-5.9274,1.9758,-1.6902,-7.9032,-1.3296e-12,-0.84509,0,0,0.083333,-0,-0,0.66667
0.89066,0.21171,10.688,-0.43243,-16.995,29.288,12.325,-4.1082,-1.3428,16.433,-2.7541e-08,-0.67139,0,0,0.083333,7.8949e-16,0,0.66667
0.99276,0.68328,11.913,0.27491,0.62274,0.64376,-8.7336,2.9112,-1.7278,-11.645,1.2987e-06,-0.86389,0,0,0.083333,-7.8949e-16,0,0.66667
0.17377,0.15252,2.0852,-0.52122,-96.896,1154,2.8983,-0.96611,-1.0373,3.8644,9.2042e-10,-0.51865,0,0,0.083333,-0,-0,0.66667
0.54939,0.89922,6.5927,0.59883,80.146,406.27,-10.528,3.5092,-0.72642,-14.037,-3.0065e-12,-0.36321,0,0,0.083333,-7.8949e-16,0,0.66667
0.11999,0.51846,1.4399,0.027697,5.2252,1275.8,-0.10635,0.035451,-1.9944,-0.1418,2.256e-09,-0.99718,0,0,0.083333,-0,-0,0.66667
0.76715,0.62586,9.2058,0.18879,14.812,119.33,-4.6346,1.5449,-1.8779,-6.1794,-3.0558e-12,-0.93896,0,0,0.083333,-0,-0,0.66667
0.22811,0.13594,2.7373,-0.54608,-99.243,1033,3.9861,-1.3287,-0.93584,5.3148,-6.662e-11,-0.46792,0,0,0.083333,-3.9475e-16,0,0.66667
0.11092,0.93622,1.331,0.65434,124,1296.9,-2.3225,0.77418,-0.48218,-3.0967,1.2149e-07,-0.24109,0,0,0.083333,-2.7139e-16,0,0.66667
0.96882,0.67706,11.626,0.2656,2.9948,3.1109,-8.2341,2.7447,-1.7564,-10.979,-1.0152e-06,-0.8782,0,0,0.083333,7.8949e-16,0,0.66667
0.44753,0.59294,5.3703,0.13941,21.327,583.17,-1.9964,0.66547,-1.9289,-2.6619,-6.6678e-12,-0.96445,0,0,0.083333,9.213e-16,0,0.66667
0.82994,0.93803,9.9593,0.65705,39.169,67.655,-17.45,5.8167,-0.46904,-23.267,-3.4611e-08,-0.23452,0,0,0.083333,-0,-0,0.66667
0.025977,0.7558,0.31173,0.38369,73.454,1492.7,-0.31896,0.10632,-1.474,-0.42527,3.7677e-06,-0.73699,0,0,0.083333,-0,-0,0.66667
0.090511,0.88705,1.0861,0.58058,110.42,1343.7,-1.6816,0.56052,-0.80116,-2.2421,-1.5597e-07,-0.40058,0,0,0.083333,-0,-0,0.66667
0.81523,0.42493,9.7827,-0.1126,-7.187,77.013,2.9374,-0.97915,-1.9555,3.9166,1.3476e-10,-0.97774,0,0,0.083333,-7.8949e-16,0,0.66667
0.90936,0.78987,10.912,0.4348,14.279,20.813,-12.653,4.2175,-1.3279,-16.87,1.6476e-08,-0.66396,0,0,0.083333,-0,-0,0.66667
0.068241,0.54807,0.81889,0.072099,13.737,1394.9,-0.15744,0.05248,-1.9779,-0.20992,-3.8175e-08,-0.98894,0,0,0.083333,-9.8686e-17,0,0.66667
0.65027,0.57187,7.8033,0.1078,11.884,254.93,-2.2432,0.74775,-1.9551,-2.991,-3.0742e-12,-0.97756,0,0,0.083333,-0,-0,0.66667
0.55332,0.81868,6.6398,0.47802,63.514,399.53,-8.4638,2.8213,-1.1841,-11.285,-4.027e-12,-0.59203,0,0,0.083333,-0,-0,0.66667
0.20654,0.83462,2.4785,0.50193,92.098,1080.7,-3.3174,1.1058,-1.1038,-4.4232,2.0205e-11,-0.55188,0,0,0.083333,1.9737e-16,0,0.66667
0.4248,0.36788,5.0976,-0.19818,-31.077,626.01,2.694,-0.898,-1.861,3.592,8.6264e-13,-0.93049,0,0,0.083333,-3.9475e-16,0,0.66667
0.4726,0.24122,5.6712,-0.38816,-57.716,537.53,5.8703,-1.9568,-1.4631,7.8271,4.4547e-12,-0.73157,0,0,0.083333,-3.9475e-16,0,0.66667
0.011484,0.19768,0.13781,-0.45348,-86.888,1526.4,0.16665,-0.055545,-1.2671,0.2222,4.9257e-06,-0.63357,0,0,0.083333,-0,-0,0.66667
0.54494,0.030193,6.5393,-0.70471,-95.076,413.91,12.289,-4.0963,-0.2379,16.385,1.7923e-12,-0.11895,0,0,0.083333,-8.8818e-16,-1.2906e-17,0.66667
0.7824,0.56254,9.3888,0.093817,6.9324,104.92,-2.3489,0.78296,-1.9744,-3.1318,-5.8009e-11,-0.98722,0,0,0.083333,3.158e-15,0,0.66667
0.91446,0.69653,10.974,0.2948,9.1234,18.254,-8.6267,2.8756,-1.6869,-11.502,5.6406e-08,-0.84343,0,0,0.083333,-1.579e-15,0,0.66667
0.046043,0.5624,0.55252,0.093599,17.879,1446.2,-0.13791,0.045969,-1.9754,-0.18387,-8.6569e-08,-0.98771,0,0,0.083333,1.3685e-16,0,0.66667
0.79178,0.84718,9.5013,0.52077,37.147,97.646,-13.195,4.3982,-1.0337,-17.593,-7.4951e-11,-0.51686,0,0,0.083333,3.158e-15,0,0.66667
0.43939,0.49438,5.2727,-0.0084251,-1.3004,598.33,0.11846,-0.039487,-2.0027,0.15795,2.828e-12,-1.0014,0,0,0.083333,1.1842e-15,0,0.66667
0.70462,0.8257,8.4554,0.48855,47.066,187.15,-11.016,3.6719,-1.1546,-14.688,1.1644e-12,-0.57729,0,0,0.083333,-0,-0,0.66667
0.60938,0.72096,7.3126,0.33144,39.849,312.77,-6.4631,2.1544,-1.6179,-8.6174,4.1567e-13,-0.80895,0,0,0.083333,-0,-0,0.66667
0.91416,0.091372,10.97,-0.61294,-19.218,19.782,17.93,-5.9768,-0.66094,23.907,1.1543e-08,-0.33047,0,0,0.083333,3.9475e-16,0,0.66667
0.67954,0.21584,8.1545,-0.42624,-43.879,217.44,9.2687,-3.0896,-1.3507,12.358,-3.5456e-12,-0.67534,0,0,0.083333,9.8686e-16,0,0.66667
0.20458,0.61786,2.4549,0.17679,32.426,1084.8,-1.1574,0.38579,-1.8927,-1.5432,2.5182e-11,-0.94633,0,0,0.083333,-0,-0,0.66667
0.98969,0.11041,11.876,-0.58438,-2.1668,2.2215,18.508,-6.1692,-0.78248,24.677,-3.8081e-05,-0.39124,0,0,0.083333,-1.579e-15,0,0.66667
0.80836,0.96883,9.7003,0.70325,46.743,84.601,-18.191,6.0638,-0.24138,-24.255,-1.75e-10,-0.12069,0,0,0.083333,-0,-0,0.66667
0.05115,0.84838,0.6138,0.52257,99.915,1434.5,-0.85535,0.28512,-1.0278,-1.1405,-3.4229e-07,-0.5139,0,0,0.083333,-0,-0,0.66667
0.99025,0.55421,11.883,0.081317,0.2562,0.41912,-2.5768,0.85892,-1.9731,-3.4357,7.4731e-08,-0.98656,0,0,0.083333,-1.579e-15,0,0.66667
0.084374,0.42204,1.0125,-0.11695,-22.227,1357.6,0.31575,-0.10525,-1.9474,0.421,3.7757e-08,-0.97368,0,0,0.083333,-0,-0,0.66667
0.41597,0.6851,4.9917,0.27765,43.945,642.97,-3.6959,1.232,-1.7234,-4.9278,-5.0393e-12,-0.86168,0,0,0.083333,2.9606e-16,0,0.66667
0.88805,0.48665,10.657,-0.020019,-0.80075,29.703,0.56889,-0.18963,-1.9994,0.75852,-4.4732e-09,-0.9997,0,0,0.083333,1.579e-15,0,0.66667
0.76211,0.85011,9.1454,0.52516,42.111,125.21,-12.808,4.2692,-1.0191,-17.077,2.0197e-12,-0.50953,0,0,0.083333,-0,-0,0.66667
0.67305,0.223,8.0766,-0.4155,-43.47,225.63,8.9488,-2.9829,-1.3911,11.932,-1.2275e-12,-0.69553,0,0,0.083333,-0,-0,0.66667
0.53369,0.95804,6.4043,0.68706,94.278,432.39,-11.734,3.9112,-0.32283,-15.645,4.6469e-12,-0.16142,0,0,0.083333,-0,-0,0.66667
0.34698,0.67441,4.1637,0.26161,44.049,779.88,-2.9048,0.96826,-1.7563,-3.873,-4.146e-12,-0.87813,0,0,0.083333,-0,-0,0.66667
0.89994,0.24899,10.799,-0.37652,-13.578,24.678,10.843,-3.6143,-1.4934,14.457,-5.4993e-08,-0.7467,0,0,0.083333,-2.1711e-15,0,0.66667
0.81896,0.76853,9.8275,0.40279,25.3,74.746,-10.556,3.5186,-1.4191,-14.074,2.1795e-11,-0.70954,0,0,0.083333,-1.579e-15,0,0.66667
0.94589,0.56327,11.351,0.094906,1.8641,7.5889,-2.8727,0.95755,-1.9651,-3.8302,-3.8241e-08,-0.98255,0,0,0.083333,-0,-0,0.66667
0.39956,0.6123,4.7947,0.16845,27.087,674.68,-2.1538,0.71795,-1.8949,-2.8718,-5.9543e-12,-0.94746,0,0,0.083333,-0,-0,0.66667
0.23362,0.88896,2.8035,0.58343,105.77,1021,-4.3617,1.4539,-0.79481,-5.8156,-1.9287e-10,-0.39741,0,0,0.083333,-0,-0,0.66667
0.72322,0.45298,8.6786,-0.070529,-6.4179,164.94,1.6322,-0.54408,-1.98,2.1763,1.2361e-12,-0.98999,0,0,0.083333,-0,-0,0.66667
0.6891,0.71709,8.2692,0.32564,32.679,205.3,-7.1806,2.3935,-1.6273,-9.5742,-4.5208e-13,-0.81364,0,0,0.083333,-9.8686e-17,0,0.66667
0.54337,0.36183,6.5204,-0.20725,-27.932,415.18,3.6036,-1.2012,-1.8464,4.8049,-4.0643e-12,-0.9232,0,0,0.083333,7.8949e-16,0,0.66667
0.53711,0.91797,6.4453,0.62695,85.538,426.5,-10.776,3.5919,-0.5988,-14.368,-7.9403e-13,-0.2994,0,0,0.083333,-0,-0,0.66667
0.80969,0.85471,9.7163,0.53207,35.029,82.61,-13.786,4.5953,-0.99392,-18.381,-3.175e-10,-0.49696,0,0,0.083333,-0,-0,0.66667
0.79958,0.93922,9.595,0.65883,45.534,91.619,-16.857,5.6191,-0.45857,-22.476,-6.1105e-09,-0.22929,0,0,0.083333,3.158e-15,0,0.66667
0.84777,0.23007,10.173,-0.40489,-21.699,54.009,10.984,-3.6614,-1.4155,14.646,7.4046e-10,-0.70776,0,0,0.083333,-0,-0,0.66667
0.19036,0.017808,2.2843,-0.72329,-133.81,1117,4.406,-1.4687,-0.14019,5.8746,-4.4932e-10,-0.070096,0,0,0.083333,-0,-0,0.66667
0.20027,0.21397,2.4033,-0.42905,-78.905,1094.5,2.7497,-0.91657,-1.3465,3.6663,-1.708e-10,-0.67327,0,0,0.083333,-0,-0,0.66667
0.77366,0.37533,9.284,-0.18701,-14.312,113.12,4.6298,-1.5433,-1.8728,6.1731,6.279e-12,-0.93641,0,0,0.083333,-0,-0,0.66667
0.56553,0.59476,6.7864,0.14214,18.482,379.37,-2.5723,0.85744,-1.9296,-3.4298,5.4683e-12,-0.96478,0,0,0.083333,-1.579e-15,0,0.66667
0.2689,0.094748,3.2268,-0.60788,-108.15,944.34,5.2307,-1.7436,-0.68713,6.9743,4.6509e-12,-0.34357,0,0,0.083333,-7.8949e-16,0,0.66667
0.47936,0.47423,5.7523,-0.038656,-5.694,525.01,0.59295,-0.19765,-1.9924,0.7906,-9.503e-13,-0.99621,0,0,0.083333,-0,-0,0.66667
0.67466,0.39539,8.0959,-0.15692,-16.327,223.04,3.3877,-1.1292,-1.913,4.5169,-1.8419e-12,-0.9565,0,0,0.083333,-7.8949e-16,0,0.66667
0.68423,0.27147,8.2108,-0.34279,-34.845,211.35,7.5056,-2.5019,-1.5819,10.008,-1.1164e-12,-0.79096,0,0,0.083333,-7.8949e-16,0,0.66667
0.82139,0.41112,9.8567,-0.13332,-8.2518,72.238,3.5042,-1.1681,-1.9334,4.6722,1.0546e-11,-0.96668,0,0,0.083333,-0,-0,0.66667
0.36466,0.0047454,4.376,-0.74288,-123.66,744.93,8.6689,-2.8896,-0.035358,11.558,2.8226e-12,-0.017679,0,0,0.083333,-0,-0,0.66667
0.67275,0.24439,8.073,-0.38341,-40.132,225.92,8.2541,-2.7514,-1.4828,11.006,-1.4175e-12,-0.74139,0,0,0.083333,-3.9475e-16,0,0.66667
0.55308,0.35718,6.6369,-0.21423,-28.436,399.38,3.7916,-1.2639,-1.8329,5.0554,-1.5714e-12,-0.91644,0,0,0.083333,7.8949e-16,0,0.66667
0.40642,0.13019,4.877,-0.55471,-88.766,661.93,7.2142,-2.4047,-0.91346,9.6189,-6.4393e-12,-0.45673,0,0,0.083333,-0,-0,0.66667
0.39796,0.34808,4.7755,-0.22788,-36.703,677.85,2.9019,-0.96731,-1.8118,3.8692,4.3106e-12,-0.90591,0,0,0.083333,-0,-0,0.66667
0.61288,0.81187,7.3546,0.4678,55.913,308.02,-9.1745,3.0582,-1.2226,-12.233,-3.3111e-12,-0.61129,0,0,0.083333,1.4803e-16,0,0.66667
0.061349,0.072785,0.73619,-0.64082,-122.47,1410.9,1.2581,-0.41936,-0.54414,1.6774,-5.1123e-06,-0.27207,0,0,0.083333,-9.8686e-17,8.7158e-17,0.66667
0.7645,0.67763,9.174,0.26644,21.122,122.04,-6.5182,2.1727,-1.7519,-8.691,-8.8272e-12,-0.87596,0,0,0.083333,-7.8949e-16,0,0.66667
0.23365,0.93904,2.8038,0.65856,119.45,1021,-4.9239,1.6413,-0.46448,-6.5652,6.1138e-10,-0.23224,0,0,0.083333,-0,-0,0.66667
0.16594,0.55642,1.9913,0.084633,15.753,1171.4,-0.44941,0.1498,-1.9714,-0.59921,-3.2704e-10,-0.98569,0,0,0.083333,-9.9118e-17,0,0.66667
0.42348,0.15657,5.0818,-0.51515,-81.011,629.02,6.981,-2.327,-1.061,9.308,-9.1038e-12,-0.5305,0,0,0.083333,1.579e-15,0,0.66667
0.46845,0.72071,5.6214,0.33106,49.459,544.95,-4.9627,1.6542,-1.618,-6.6169,-4.0998e-12,-0.80898,0,0,0.083333,-1.579e-15,0,0.66667
0.27444,0.64514,3.2932,0.21771,38.536,931.98,-1.912,0.63732,-1.8273,-2.5493,-1.1742e-11,-0.91366,0,0,0.083333,-0,-0,0.66667
0.31013,0.37143,3.7216,-0.19285,-33.361,856.16,1.9139,-0.63796,-1.87,2.5519,2.9032e-13,-0.935,0,0,0.083333,-5.003e-16,0,0.66667
0.67315,0.48338,8.0778,-0.024926,-2.6027,224.88,0.53692,-0.17897,-2.0015,0.7159,-1.9802e-12,-1.0008,0,0,0.083333,-0,-0,0.66667
0.030054,0.92243,0.36065,0.63365,121.45,1483.3,-0.60941,0.20316,-0.57636,-0.81253,2.8815e-05,-0.28818,0,0,0.083333,-0,-9.8561e-17,0.66667
0.65518,0.84641,7.8622,0.51961,56.782,249.26,-10.894,3.6314,-1.0454,-14.526,-3.0154e-12,-0.52272,0,0,0.083333,-0,1.1334e-16,0.66667
0.52145,0.99389,6.2574,0.74083,103.55,453.13,-12.362,4.1206,-0.04552,-16.483,-7.45e-12,-0.02276,0,0,0.083333,1.1842e-15,0,0.66667
0.47871,0.60007,5.7445,0.15011,22.132,526.23,-2.2995,0.7665,-1.9169,-3.066,-6.9065e-12,-0.95845,0,0,0.083333,-0,-0,0.66667
0.72049,0.077973,8.6459,-0.63304,-58.344,169.52,14.595,-4.8651,-0.57775,19.46,1.6259e-11,-0.28888,0,0,0.083333,1.579e-15,0,0.66667
0.68825,0.062768,8.259,-0.65585,-66.184,207.53,14.444,-4.8148,-0.47737,19.259,-2.6654e-12,-0.23869,0,0,0.083333,-0,-0,0.66667
0.064811,0.85186,0.77773,0.52779,100.75,1402.9,-1.0946,0.36487,-1.0113,-1.4595,-1.1418e-07,-0.50564,0,0,0.083333,-0,-0,0.66667
0.80024,0.17718,9.6028,-0.48423,-33.27,90.217,12.4,-4.1333,-1.1658,16.533,3.7836e-11,-0.58291,0,0,0.083333,-0,-0,0.66667
0.039175,0.31591,0.4701,-0.27613,-52.796,1462.1,0.34616,-0.11539,-1.7255,0.46155,6.6976e-08,-0.86273,0,0,0.083333,-0,-0,0.66667
0.027013,0.73317,0.32415,0.34976,66.945,1490.3,-0.30233,0.10078,-1.563,-0.40311,2.8144e-06,-0.78152,0,0,0.083333,-0,-0,0.66667
0.52587,0.23344,6.3104,-0.39983,-55.372,444.6,6.7283,-2.2428,-1.4282,8.9711,-9.4547e-13,-0.71412,0,0,0.083333,-0,-0,0.66667
0.7348,0.49708,8.8176,-0.0043849,-0.38477,152.23,0.1031,-0.034368,-2.0071,0.13747,-2.212e-12,-1.0035,0,0,0.083333,-0,-0,0.66667
0.50557,0.70884,6.0669,0.31326,44.622,479.07,-5.0681,1.6894,-1.6478,-6.7575,-1.4793e-12,-0.8239,0,0,0.083333,-7.8949e-16,0,0.66667
0.29367,0.9591,3.524,0.68866,120.76,891.59,-6.4716,2.1572,-0.31363,-8.6288,-6.5019e-12,-0.15682,0,0,0.083333,-0,-8.4234e-17,0.66667
0.18618,0.37326,2.2342,-0.19011,-35.132,1125.9,1.1326,-0.37754,-1.8765,1.5102,-1.4231e-10,-0.93823,0,0,0.083333,-1.9737e-16,0,0.66667
0.66274,0.91465,7.9529,0.62198,66.854,239.7,-13.191,4.3969,-0.62073,-17.588,-1.5641e-12,-0.31037,0,0,0.083333,-0,-0,0.66667
0.94213,0.57844,11.306,0.11766,2.4722,8.6212,-3.5473,1.1824,-1.9482,-4.7297,3.4719e-08,-0.97412,0,0,0.083333,-0,-0,0.66667
0.15878,0.65999,1.9053,0.23998,44.789,1187.6,-1.2193,0.40644,-1.7971,-1.6257,-2.8729e-10,-0.89856,0,0,0.083333,-0,-0,0.66667
0.27586,0.95722,3.3104,0.68583,121.59,929.53,-6.0543,2.0181,-0.32435,-8.0724,-2.472e-11,-0.16218,0,0,0.083333,3.9475e-16,0,0.66667
0.99109,0.69236,11.893,0.28855,0.83907,0.77369,-9.1512,3.0504,-1.7005,-12.202,1.0287e-06,-0.85027,0,0,0.083333,-0,-0,0.66667
0.83374,0.1849,10.005,-0.47265,-27.501,63.979,12.61,-4.2034,-1.2033,16.813,-6.6566e-10,-0.60167,0,0,0.083333,-5.9212e-16,0,0.66667
0.75016,0.47517,9.0019,-0.037248,-3.1055,136.1,0.89415,-0.29805,-2.0024,1.1922,-3.2862e-12,-1.0012,0,0,0.083333,-0,-0,0.66667
0.042073,0.27303,0.50488,-0.34046,-65.095,1455.4,0.45838,-0.15279,-1.5855,0.61117,6.4032e-07,-0.79276,0,0,0.083333,-0,-0,0.66667
0.027017,0.59236,0.3242,0.13854,26.501,1490.3,-0.11977,0.039924,-1.9312,-0.15969,5.977e-07,-0.96558,0,0,0.083333,-6.1679e-17,0,0.66667
0.48721,0.38564,5.8465,-0.17154,-25.023,511.08,2.6745,-0.89149,-1.8958,3.566,1.3061e-12,-0.94791,0,0,0.083333,-0,-0,0.66667
0.032196,0.75526,0.38635,0.38289,73.273,1478.3,-0.39448,0.13149,-1.4841,-0.52598,1.2299e-06,-0.74204,0,0,0.083333,9.8686e-17,0,0.66667
0.10153,0.068736,1.2183,-0.6469,-122.83,1318.4,2.1016,-0.70055,-0.50823,2.8022,-2.6499e-07,-0.25412,0,0,0.083333,-0,-0,0.66667
0.56329,0.20885,6.7595,-0.43673,-57.078,383.43,7.8723,-2.6241,-1.327,10.496,-2.1645e-12,-0.66352,0,0,0.083333,-0,-0,0.66667
0.4278,0.23171,5.1336,-0.40244,-62.96,620.57,5.5093,-1.8364,-1.4204,7.3458,-1.4815e-12,-0.7102,0,0,0.083333,-7.8949e-16,0,0.66667
0.79087,0.71861,9.4904,0.32791,23.425,97.752,-8.2986,2.7662,-1.6155,-11.065,-5.14e-11,-0.80776,0,0,0.083333,-5.7978e-16,0,0.66667
0.27399,0.50562,3.2879,0.0084336,1.4928,932.87,-0.073943,0.024648,-1.996,-0.09859,-2.4253e-11,-0.99802,0,0,0.083333,-0,-0,0.66667
0.27245,0.50798,3.2694,0.011964,2.1195,936.18,-0.1043,0.034768,-1.9956,-0.13907,-2.1749e-11,-0.99781,0,0,0.083333,-0,-0,0.66667
0.40582,0.33431,4.8699,-0.24854,-39.731,662.55,3.2276,-1.0759,-1.7866,4.3034,-8.5154e-12,-0.89332,0,0,0.083333,3.9475e-16,0,0.66667
0.67323,0.63754,8.0788,0.20631,21.547,224.93,-4.4447,1.4816,-1.8523,-5.9262,1.2879e-13,-0.92613,0,0,0.083333,-0,-0,0.66667
0.9815,0.87609,11.778,0.56413,3.828,2.7644,-17.718,5.906,-0.87013,-23.624,-6.6767e-06,-0.43506,0,0,0.083333,-0,-1.1915e-19,0.66667
0.39748,0.70174,4.7698,0.30262,48.775,678.87,-3.8491,1.283,-1.6701,-5.1322,3.3098e-12,-0.83505,0,0,0.083333,-7.8949e-16,0,0.66667
0.74457,0.49309,8.9349,-0.010359,-0.88022,141.86,0.24681,-0.082271,-1.9968,0.32909,-2.7445e-12,-0.99838,0,0,0.083333,2.3685e-15,0,0.66667
0.85672,0.19742,10.281,-0.45388,-23.015,48.414,12.443,-4.1477,-1.2684,16.591,-1.6716e-09,-0.6342,0,0,0.083333,-0,-0,0.66667
0.67501,0.62333,8.1001,0.185,19.235,222.64,-3.9961,1.332,-1.8794,-5.3281,3.7303e-13,-0.9397,0,0,0.083333,1.9737e-16,0,0.66667
0.77949,0.11469,9.3538,-0.57797,-43.408,108.94,14.417,-4.8055,-0.81501,19.222,1.0997e-10,-0.40751,0,0,0.083333,-7.8949e-16,0,0.66667
0.81192,0.48144,9.7431,-0.027839,-1.8053,79.59,0.72331,-0.2411,-2.0029,0.96441,1.1489e-11,-1.0014,0,0,0.083333,-0,-0,0.66667
0.59693,0.29305,7.1631,-0.31043,-38.215,331.19,5.9297,-1.9766,-1.6571,7.9063,2.4696e-12,-0.82856,0,0,0.083333,-0,-0,0.66667
0.439,0.91189,5.2679,0.61784,95.648,599.96,-8.6793,2.8931,-0.64664,-11.572,-3.7303e-12,-0.32332,0,0,0.083333,-0,-0,0.66667
0.16875,0.6492,2.025,0.22381,41.628,1165.1,-1.2086,0.40285,-1.8222,-1.6114,2.154e-11,-0.91108,0,0,0.083333,-1.9614e-16,0,0.66667
0.78139,0.85571,9.3767,0.53357,39.741,106.99,-13.342,4.4472,-0.99468,-17.789,-8.308e-11,-0.49734,0,0,0.083333,-0,-0,0.66667
0.19409,0.21275,2.3291,-0.43088,-79.443,1108.3,2.6761,-0.89205,-1.3364,3.5682,-1.5444e-10,-0.66818,0,0,0.083333,-1.9737e-16,0,0.66667
0.99872,0.067145,11.985,-0.64928,-0.22378,2.2711,20.75,-6.9168,-0.50574,27.667,0.00010266,-0.25287,0,0,0.083333,-0,-0,0.66667
0.5426,0.83692,6.5112,0.50537,68.303,417.05,-8.775,2.925,-1.0904,-11.7,-2.629e-13,-0.54519,0,0,0.083333,-0,-0,0.66667
0.0093665,0.55067,0.1124,0.076006,14.548,1531.3,-0.022781,0.0075938,-1.9755,-0.030375,1.2229e-07,-0.98777,0,0,0.083333,1.2336e-17,0,0.66667
0.4188,0.72064,5.0256,0.33096,52.244,637.62,-4.4354,1.4785,-1.6117,-5.9139,-1.1069e-11,-0.80584,0,0,0.083333,-0,-0,0.66667
0.24105,0.44452,2.8926,-0.083227,-15.003,1004.3,0.64198,-0.21399,-1.9717,0.85598,-6.4443e-12,-0.98583,0,0,0.083333,-0,-0,0.66667
0.053138,0.55421,0.63765,0.081314,15.521,1429.8,-0.13827,0.046089,-1.9729,-0.18436,-2.2276e-08,-0.98643,0,0,0.083333,4.9343e-17,0,0.66667
0.71613,0.503,8.5936,0.0045025,0.4185,172.92,-0.10318,0.034393,-2.0018,-0.13757,-9.6025e-12,-1.0009,0,0,0.083333,3.158e-15,0,0.66667
0.31649,0.553,3.7979,0.079499,13.689,842.78,-0.80514,0.26838,-1.9761,-1.0735,-5.2021e-12,-0.98806,0,0,0.083333,-0,-0,0.66667
0.82107,0.47779,9.8528,-0.033312,-2.0647,72.412,0.87526,-0.29175,-1.992,1.167,-1.2421e-11,-0.996,0,0,0.083333,-0,-0,0.66667
0.76442,0.10543,9.173,-0.59186,-47.104,123.26,14.478,-4.8259,-0.75853,19.304,-1.5556e-10,-0.37926,0,0,0.083333,-0,-1.0618e-16,0.66667
0.065672,0.63317,0.78806,0.19975,38.078,1400.8,-0.41977,0.13992,-1.8582,-0.55969,-1.6057e-07,-0.92909,0,0,0.083333,-0,-0,0.66667
0.71272,0.63446,8.5527,0.20169,18.945,176.97,-4.6,1.5333,-1.8518,-6.1334,-3.6549e-13,-0.92588,0,0,0.083333,-0,-0,0.66667
0.19497,0.38152,2.3396,-0.17772,-32.728,1106.2,1.1088,-0.36961,-1.8838,1.4784,-3.0168e-11,-0.94191,0,0,0.083333,-0,-0,0.66667
0.77656,0.66816,9.3187,0.25223,19.094,110.53,-6.2679,2.0893,-1.7713,-8.3573,-2.1782e-11,-0.88564,0,0,0.083333,-0,-0,0.66667
0.25043,0.5076,3.0052,0.011397,2.0443,983.81,-0.091331,0.030444,-2.006,-0.12178,9.5656e-13,-1.003,0,0,0.083333,-0,-0,0.66667
0.40375,0.97453,4.8449,0.7118,114.35,667.54,-9.1963,3.0654,-0.20018,-12.262,1.1946e-11,-0.10009,0,0,0.083333,-0,-0,0.66667
0.8833,0.82686,10.6,0.49029,20.526,33.276,-13.858,4.6194,-1.1409,-18.478,-7.3714e-09,-0.57044,0,0,0.083333,-0,-0,0.66667
0.65698,0.97919,7.8837,0.71879,78.406,247.74,-15.111,5.0371,-0.16835,-20.148,-2.8413e-12,-0.084174,0,0,0.083333,-0,-0,0.66667
0.081501,0.95598,0.97801,0.68396,130.38,1364.5,-1.7838,0.5946,-0.33604,-2.3784,-2.1708e-07,-0.16802,0,0,0.083333,-0,-0,0.66667
0.13451,0.37497,1.6141,-0.18754,-35.255,1242.7,0.80723,-0.26908,-1.8727,1.0763,3.464e-09,-0.93636,0,0,0.083333,2.737e-16,0,0.66667
0.007682,0.092827,0.092184,-0.61076,-117.14,1535.2,0.15013,-0.050015,-0.67074,0.20018,4.1003e-05,-0.33537,0,0,0.083333,-1.8504e-17,0,0.66667
0.98219,0.018289,11.786,-0.72257,-4.8671,3.7642,22.71,-7.5701,-0.14528,30.281,1.8431e-05,-0.072642,0,0,0.083333,-0,-9.5817e-17,0.66667
0.047674,0.90892,0.57209,0.61338,117.38,1442.5,-0.93575,0.31191,-0.66839,-1.2477,-5.8611e-06,-0.33419,0,0,0.083333,-0,-0,0.66667
0.10538,0.80014,1.2645,0.45022,85.314,1309.4,-1.5182,0.50606,-1.2777,-2.0242,-4.3712e-08,-0.63885,0,0,0.083333,-9.8686e-17,0,0.66667
0.45747,0.79156,5.4896,0.43734,66.228,565.21,-6.4021,2.134,-1.318,-8.5362,-5.4681e-12,-0.65899,0,0,0.083333,-7.8949e-16,0,0.66667
0.054401,0.030179,0.65281,-0.70473,-134.86,1427,1.2268,-0.40895,-0.23116,1.6357,-1.8122e-05,-0.11558,0,0,0.083333,7.4015e-17,0,0.66667
0.28909,0.93075,3.469,0.64612,113.59,901.23,-5.9771,1.9924,-0.51174,-7.9695,-1.231e-11,-0.25587,0,0,0.083333,-2.62e-17,0,0.66667
0.67797,0.15526,8.1357,-0.5171,-53.49,219.72,11.219,-3.7396,-1.0468,14.958,-2.589e-12,-0.52342,0,0,0.083333,-9.8686e-17,0,0.66667
0.048629,0.10223,0.58355,-0.59665,-114.16,1440.3,0.92846,-0.30948,-0.73718,1.2379,3.125e-06,-0.36859,0,0,0.083333,-0,-0,0.66667
0.45797,0.27436,5.4957,-0.33847,-51.198,564.1,4.9603,-1.6534,-1.5904,6.6137,-5.2003e-13,-0.79521,0,0,0.083333,7.8949e-16,0,0.66667
0.57276,0.1317,6.8731,-0.55245,-71.126,368.86,10.125,-3.3751,-0.91208,13.501,3.8396e-12,-0.45604,0,0,0.083333,-1.579e-15,0,0.66667
0.19927,0.979,2.3912,0.7185,132.44,1097.1,-4.5816,1.5272,-0.16318,-6.1088,-1.208e-09,-0.081589,0,0,0.083333,-0,-0,0.66667
0.18617,0.27618,2.234,-0.33574,-62.07,1126,2.0001,-0.6667,-1.6036,2.6668,-2.9868e-11,-0.8018,0,0,0.083333,-8.7139e-17,0,0.66667
0.10269,0.15264,1.2323,-0.52104,-98.827,1315.6,1.7121,-0.57071,-1.0315,2.2828,1.2045e-08,-0.51576,0,0,0.083333,9.8686e-17,0,0.66667
0.0688,0.62323,0.8256,0.18485,35.221,1393.6,-0.40696,0.13565,-1.8758,-0.54261,-1.5251e-07,-0.93791,0,0,0.083333,1.2336e-16,0,0.66667
0.16898,0.44195,2.0278,-0.087082,-16.192,1164.5,0.4709,-0.15697,-1.9741,0.62786,3.7116e-10,-0.98704,0,0,0.083333,3.9475e-16,0,0.66667
0.060817,0.56416,0.7298,0.09624,18.355,1412,-0.1873,0.062432,-1.9712,-0.24973,6.1959e-09,-0.98558,0,0,0.083333,1.9737e-16,0,0.66667
0.55168,0.48582,6.6201,-0.02127,-2.8285,401.5,0.37549,-0.12516,-1.9957,0.50065,-3.4321e-12,-0.99783,0,0,0.083333,-0,-0,0.66667
0.80791,0.36717,9.6949,-0.19925,-13.178,83.011,5.1513,-1.7171,-1.8568,6.8684,4.96e-11,-0.92839,0,0,0.083333,-7.8949e-16,0,0.66667
0.80434,0.79191,9.6521,0.43787,29.511,86.598,-11.27,3.7567,-1.314,-15.027,-1.9859e-10,-0.65701,0,0,0.083333,-0,-0,0.66667
0.63118,0.95628,7.5742,0.68443,78.991,282.72,-13.824,4.608,-0.33054,-18.432,-5.0626e-13,-0.16527,0,0,0.083333,7.8949e-16,0,0.66667
0.54175,0.27632,6.501,-0.33551,-45.356,418.04,5.8164,-1.9388,-1.5975,7.7553,-4.5346e-12,-0.79873,0,0,0.083333,-0,-0,0.66667
0.46714,0.39516,5.6056,-0.15726,-23.518,547.13,2.3508,-0.7836,-1.9151,3.1344,-1.3904e-12,-0.95756,0,0,0.083333,3.9475e-16,0,0.66667
0.96014,0.44631,11.522,-0.080539,-1.1618,4.3233,2.4745,-0.82484,-1.9729,3.2993,1.1272e-07,-0.98645,0,0,0.083333,-0,-0,0.66667
0.2899,0.52914,3.4787,0.043714,7.6623,898.86,-0.40552,0.13517,-1.9901,-0.54069,-2.3044e-11,-0.99507,0,0,0.083333,-2.9606e-16,0,0.66667
0.36643,0.44034,4.3972,-0.089489,-14.823,740.31,1.0493,-0.34978,-1.9683,1.3991,3.242e-12,-0.98415,0,0,0.083333,-0,-0,0.66667
0.57534,0.97488,6.9041,0.71232,91.453,365.45,-13.114,4.3715,-0.19693,-17.486,3.6415e-13,-0.098466,0,0,0.083333,-0,-0,0.66667
0.51258,0.54727,6.151,0.07091,9.9966,466.74,-1.1631,0.3877,-1.982,-1.5508,3.2399e-12,-0.99101,0,0,0.083333,-0,-0,0.66667
0.67424,0.021483,8.0908,-0.71778,-75.128,225.34,15.486,-5.1621,-0.16964,20.649,-3.0198e-13,-0.08482,0,0,0.083333,-0,-0,0.66667
0.77467,0.9113,9.2961,0.61695,47.251,113.6,-15.294,5.0979,-0.64328,-20.392,3.4915e-10,-0.32164,0,0,0.083333,-0,-0,0.66667
0.18244,0.86178,2.1893,0.54267,100.57,1134.5,-3.1682,1.0561,-0.94993,-4.2242,1.0158e-09,-0.47496,0,0,0.083333,-0,-0,0.66667
0.6289,0.1619,7.5468,-0.50715,-58.7,285.22,10.206,-3.4021,-1.0847,13.608,1.8474e-13,-0.54234,0,0,0.083333,-0,-0,0.66667
0.69402,0.58745,8.3283,0.13118,12.981,198.97,-2.9133,0.97111,-1.9353,-3.8844,3.1841e-13,-0.96763,0,0,0.083333,-0,-0,0.66667
0.27231,0.79202,3.2677,0.43804,77.698,936.76,-3.817,1.2723,-1.3137,-5.0893,-1.0343e-11,-0.65685,0,0,0.083333,7.8949e-16,0,0.66667
0.92808,0.17284,11.137,-0.49073,-12.902,14.047,14.574,-4.858,-1.1398,19.432,-2.6216e-07,-0.56989,0,0,0.083333,-0,-0,0.66667
0.34525,0.51288,4.143,0.019322,3.2563,783.28,-0.21347,0.071156,-2.0019,-0.28462,6.4153e-12,-1.0009,0,0,0.083333,-0,-0,0.66667
0.63808,0.87711,7.657,0.56566,64.246,272.62,-11.55,3.85,-0.86445,-15.4,5.1692e-13,-0.43223,0,0,0.083333,-0,-0,0.66667
0.9258,0.6681,11.11,0.25216,6.7879,13.948,-7.4702,2.4901,-1.7725,-9.9603,1.7729e-07,-0.88623,0,0,0.083333,1.579e-15,0,0.66667
0.98063,0.70771,11.768,0.31157,2.1445,1.6959,-9.7772,3.2591,-1.6537,-13.036,-1.8881e-06,-0.82684,0,0,0.083333,-1.579e-15,0,0.66667
0.24873,0.16139,2.9847,-0.50792,-91.327,987.86,4.0427,-1.3476,-1.0872,5.3902,2.6965e-12,-0.54362,0,0,0.083333,-0,-0,0.66667
0.94195,0.0028303,11.303,-0.74575,-16.136,11.394,22.479,-7.493,-0.021388,29.972,-6.7513e-06,-0.010694,0,0,0.083333,-0,-0,0.66667
0.90908,0.0056606,10.909,-0.74151,-24.702,22.68,21.571,-7.1903,-0.046017,28.761,-4.0021e-07,-0.023008,0,0,0.083333,-0,-0,0.66667
0.25098,0.69021,3.0117,0.28532,51.188,982.73,-2.2915,0.76382,-1.7162,-3.0553,7.5651e-12,-0.85811,0,0,0.083333,-0,-0,0.66667
0.10105,0.12034,1.2126,-0.5695,-108.09,1319.4,1.8416,-0.61386,-0.84326,2.4554,-7.4603e-08,-0.42163,0,0,0.083333,-4.9343e-17,0,0.66667
0.36236,0.45733,4.3483,-0.064002,-10.638,748.52,0.74213,-0.24738,-1.9856,0.98951,-3.1069e-12,-0.99278,0,0,0.083333,3.9475e-16,0,0.66667
0.92363,0.63064,11.084,0.19596,5.4209,14.584,-5.7917,1.9306,-1.8667,-7.7223,1.2872e-07,-0.93337,0,0,0.083333,-0,-0,0.66667
0.84527,0.95444,10.143,0.68165,37.299,57.041,-18.438,6.1459,-0.35104,-24.584,9.2734e-09,-0.17552,0,0,0.083333,1.579e-15,0,0.66667
0.25812,0.29777,3.0974,-0.30335,-54.215,967.24,2.5056,-0.83521,-1.6684,3.3408,4.2699e-13,-0.83418,0,0,0.083333,-3.0568e-16,0,0.66667
0.27562,0.96631,3.3074,0.69947,124.04,930.09,-6.1691,2.0564,-0.25809,-8.2255,-1.9541e-11,-0.12905,0,0,0.083333,-0,-0,0.66667
0.29828,0.38595,3.5793,-0.17108,-29.83,881.12,1.6329,-0.54431,-1.8995,2.1772,2.9181e-12,-0.94975,0,0,0.083333,-7.8949e-16,0,0.66667
0.081417,0.65253,0.97701,0.22879,43.515,1364.5,-0.59608,0.19869,-1.8143,-0.79477,-9.0113e-08,-0.90716,0,0,0.083333,2.4672e-17,0,0.66667
0.16833,0.73778,2.02,0.35666,66.378,1166.1,-1.9212,0.64041,-1.5468,-2.5616,2.5591e-10,-0.77341,0,0,0.083333,-0,-0,0.66667
0.61444,0.93696,7.3732,0.65544,78.244,306.45,-12.887,4.2958,-0.47108,-17.183,2.0943e-12,-0.23554,0,0,0.083333,-8.8818e-16,0,0.66667
0.4924,0.90732,5.9088,0.61098,88.747,502.81,-9.6271,3.209,-0.66972,-12.836,5.1283e-12,-0.33486,0,0,0.083333,-0,-0,0.66667
0.41191,0.2003,4.9429,-0.44955,-71.5,651.08,5.9255,-1.9752,-1.2779,7.9006,-6.1138e-12,-0.63896,0,0,0.083333,-0,-0,0.66667
0.5157,0.56419,6.1885,0.096291,13.516,461.41,-1.589,0.52968,-1.9754,-2.1187,4.4137e-12,-0.9877,0,0,0.083333,-1.579e-15,0,0.66667
0.88736,0.49583,10.648,-0.0062554,-0.25167,30.048,0.17763,-0.059209,-2.0003,0.23684,-3.9282e-09,-1.0001,0,0,0.083333,-0,-0,0.66667
0.9551,0.1493,11.461,-0.52605,-8.7107,6.7484,16.078,-5.3593,-1.0187,21.437,-4.519e-06,-0.50933,0,0,0.083333,7.8949e-16,0,0.66667
0.25568,0.73144,3.0681,0.34715,62.137,972.57,-2.8403,0.94676,-1.568,-3.7871,1.0225e-12,-0.78398,0,0,0.083333,-0,-0,0.66667
0.23367,0.23431,2.804,-0.39854,-72.174,1020.7,2.98,-0.99332,-1.4405,3.9733,-1.5568e-11,-0.72024,0,0,0.083333,-3.9475e-16,0,0.66667
0.070154,0.19109,0.84185,-0.46336,-88.36,1390.5,1.0402,-0.34674,-1.2332,1.3869,2.8817e-07,-0.61658,0,0,0.083333,1.9737e-16,0,0.66667
0.2597,0.13872,3.1164,-0.54193,-96.881,964.09,4.5036,-1.5012,-0.95202,6.0048,-3.2254e-11,-0.47601,0,0,0.083333,-0,-0,0.66667
0.17421,0.29027,2.0906,-0.31459,-58.417,1152.8,1.7538,-0.58459,-1.6497,2.3384,-1.4268e-10,-0.82485,0,0,0.083333,-0,-0,0.66667
0.027562,0.31251,0.33075,-0.28124,-53.816,1489.1,0.24805,-0.082686,-1.7193,0.33074,-1.7432e-06,-0.85963,0,0,0.083333,9.8686e-17,0,0.66667
0.17447,0.00024811,2.0936,-0.74963,-139.55,1152.7,4.1852,-1.3951,-0.004392,5.5802,6.1693e-10,-0.002196,0,0,0.083333,-0,-0,0.66667
0.78046,0.34589,9.3655,-0.23116,-17.227,106.88,5.7731,-1.9244,-1.8163,7.6975,2.4718e-11,-0.90813,0,0,0.083333,-0,-0,0.66667
0.92026,0.96037,11.043,0.69055,20.239,17.955,-20.336,6.7785,-0.30777,-27.114,2.106e-06,-0.15389,0,0,0.083333,-7.8949e-16,0,0.66667
0.72159,0.58927,8.6591,0.1339,12.247,166.82,-3.0919,1.0306,-1.9374,-4.1226,7.8892e-13,-0.9687,0,0,0.083333,-1.1842e-15,0,0.66667
0.29842,0.88849,3.581,0.58273,101.79,881.32,-5.5647,1.8549,-0.79573,-7.4196,-7.8693e-13,-0.39786,0,0,0.083333,-0,-0,0.66667
0.63146,0.25681,7.5775,-0.36478,-41.949,281.21,7.3711,-2.457,-1.5233,9.8281,-1.9735e-12,-0.76165,0,0,0.083333,1.579e-15,0,0.66667
0.77018,0.0001895,9.2422,-0.74972,-58.559,118.58,18.477,-6.1591,-0.00073891,24.637,-1.1362e-10,-0.00036946,0,0,0.083333,-0,-0,0.66667
0.4425,0.25967,5.31,-0.3605,-55.501,592.8,5.1047,-1.7016,-1.5352,6.8062,-4.4196e-12,-0.76761,0,0,0.083333,-0,-0,0.66667
0.61945,0.28477,7.4333,-0.32285,-38.048,298.16,6.3995,-2.1332,-1.6269,8.5327,2.9927e-12,-0.81347,0,0,0.083333,-1.579e-15,0,0.66667
0.57375,0.57005,6.885,0.10507,13.473,366.42,-1.9291,0.64303,-1.959,-2.5721,3.9254e-12,-0.9795,0,0,0.083333,-0,-0,0.66667
0.90274,0.61167,10.833,0.16751,5.8588,22.876,-4.8389,1.613,-1.8994,-6.4518,3.3445e-08,-0.94968,0,0,0.083333,1.579e-15,0,0.66667
0.75239,0.17289,9.0287,-0.49067,-40.714,134.77,11.814,-3.9378,-1.1452,15.751,-1.6073e-11,-0.57258,0,0,0.083333,-0,-0,0.66667
0.26495,0.048723,3.1795,-0.67692,-120.77,952.97,5.7393,-1.9131,-0.37613,7.6523,-5.6445e-11,-0.18807,0,0,0.083333,3.9475e-16,0,0.66667
0.22937,0.136,2.7524,-0.546,-99.167,1030.3,4.0075,-1.3358,-0.93722,5.3433,-6.0274e-11,-0.46861,0,0,0.083333,-0,-0,0.66667
0.6936,0.33972,8.3232,-0.24042,-23.827,199.63,5.3361,-1.7787,-1.7915,7.1148,-1.0449e-12,-0.89576,0,0,0.083333,-0,-0,0.66667
0.23301,0.65629,2.7961,0.23443,42.443,1022,-1.748,0.58267,-1.8098,-2.3307,1.1784e-11,-0.9049,0,0,0.083333,-7.8949e-16,0,0.66667
0.62193,0.28459,7.4631,-0.32311,-37.888,294.6,6.4304,-2.1435,-1.6297,8.5738,-1.08e-12,-0.81485,0,0,0.083333,-0,-0,0.66667
0.25494,0.67987,3.0592,0.26981,48.3,974.11,-2.2011,0.7337,-1.7387,-2.9348,3.9397e-12,-0.86936,0,0,0.083333,-0,-0,0.66667
0.92042,0.50062,11.045,0.00092674,0.026652,15.557,-0.027296,0.0090986,-2.0049,-0.036394,1.0682e-07,-1.0024,0,0,0.083333,-0,-0,0.66667
0.30256,0.49417,3.6307,-0.0087448,-1.5202,872.04,0.084665,-0.028222,-1.9968,0.11289,6.1696e-12,-0.9984,0,0,0.083333,5.9212e-16,0,0.66667
0.84854,0.45807,10.183,-0.062901,-3.3448,52.776,1.708,-0.56933,-1.9834,2.2773,-9.4742e-10,-0.99169,0,0,0.083333,-0,-0,0.66667
0.22971,0.052843,2.7565,-0.67074,-121.91,1029.7,4.9304,-1.6435,-0.39808,6.5738,-6.4976e-10,-0.19904,0,0,0.083333,-0,-9.4239e-18,0.66667
0.5721,0.47714,6.8652,-0.034287,-4.4085,368.97,0.62769,-0.20923,-1.9923,0.83692,-1.5892e-12,-0.99616,0,0,0.083333,-0,-0,0.66667
0.1889,0.92066,2.2668,0.631,116.72,1120.1,-3.8143,1.2714,-0.58775,-5.0857,-9.7592e-10,-0.29388,0,0,0.083333,3.9475e-16,0,0.66667
0.42001,0.78668,5.0401,0.43001,67.83,635.48,-5.7795,1.9265,-1.3456,-7.706,-2.8302e-12,-0.67279,0,0,0.083333,-0,-0,0.66667
0.37624,0.11005,4.5149,-0.58493,-96.275,721.34,7.0424,-2.3475,-0.78731,9.3898,3.9626e-12,-0.39366,0,0,0.083333,-7.8949e-16,0,0.66667
0.039037,0.31379,0.46844,-0.27932,-53.407,1462.5,0.34892,-0.11631,-1.7196,0.46522,6.6185e-08,-0.85978,0,0,0.083333,-9.8686e-17,0,0.66667
0.12795,0.87577,1.5354,0.56366,106.31,1257.9,-2.3078,0.76928,-0.87196,-3.0771,-1.2466e-08,-0.43598,0,0,0.083333,3.9475e-16,0,0.66667
0.75376,0.24184,9.0451,-0.38724,-31.942,133.02,9.3403,-3.1134,-1.4659,12.454,5.258e-12,-0.73295,0,0,0.083333,-0,-0,0.66667
0.41261,0.29163,4.9513,-0.31256,-49.644,649.49,4.1269,-1.3756,-1.6488,5.5025,-4.2535e-12,-0.82438,0,0,0.083333,-0,-0,0.66667
0.80409,0.41005,9.649,-0.13493,-9.0802,86.066,3.4718,-1.1573,-1.9318,4.629,7.5238e-11,-0.96592,0,0,0.083333,3.158e-15,0,0.66667
0.6699,0.66664,8.0388,0.24996,26.325,229.27,-5.3583,1.7861,-1.7801,-7.1443,-8.793e-13,-0.89006,0,0,0.083333,-0,-0,0.66667
0.38282,0.14763,4.5939,-0.52855,-86.455,708.13,6.4749,-2.1583,-1.0026,8.6332,-3.868e-13,-0.50128,0,0,0.083333,-0,-0,0.66667
0.49483,0.50932,5.938,0.013973,2.0177,497.55,-0.22125,0.073751,-1.9965,-0.295,-3.6782e-12,-0.99823,0,0,0.083333,-0,-0,0.66667
0.95056,0.12666,11.407,-0.56,-10.225,7.9704,17.034,-5.678,-0.88713,22.712,-1.395e-06,-0.44356,0,0,0.083333,-0,-0,0.66667
0.94795,0.81977,11.375,0.47965,9.1726,8.1827,-14.55,4.85,-1.1793,-19.4,2.1564e-07,-0.58967,0,0,0.083333,-0,-0,0.66667
0.48498,0.57913,5.8198,0.1187,17.362,515,-1.8421,0.61404,-1.9554,-2.4561,-1.7505e-12,-0.9777,0,0,0.083333,-0,-0,0.66667
0.71243,0.94193,8.5492,0.66289,62.59,178.82,-15.113,5.0375,-0.43444,-20.15,-1.7257e-12,-0.21722,0,0,0.083333,-1.579e-15,0,0.66667
0.74983,0.30181,8.998,-0.29728,-24.84,136.78,7.1331,-2.3777,-1.6927,9.5108,7.5597e-12,-0.84634,0,0,0.083333,-7.8949e-16,0,0.66667
0.5106,0.31647,6.1272,-0.2753,-38.938,470.34,4.4981,-1.4994,-1.7285,5.9975,5.6e-12,-0.86425,0,0,0.083333,-1.579e-15,0,0.66667
0.44701,0.71743,5.3642,0.32615,49.954,584.34,-4.6654,1.5551,-1.6193,-6.2205,-3.2676e-12,-0.80965,0,0,0.083333,-8.8818e-16,0,0.66667
0.76902,0.19985,9.2283,-0.45023,-35.154,118.21,11.08,-3.6932,-1.2786,14.773,7.6218e-11,-0.6393,0,0,0.083333,-0,-0,0.66667
0.41563,0.8541,4.9875,0.53114,84.209,644.09,-7.0643,2.3548,-0.99311,-9.419,-4.1571e-12,-0.49656,0,0,0.083333,7.8949e-16,0,0.66667
0.50009,0.39768,6.0011,-0.15349,-22.014,488.41,2.4562,-0.81874,-1.9236,3.2749,1.521e-13,-0.96178,0,0,0.083333,7.8949e-16,0,0.66667
0.08748,0.21866,1.0498,-0.42201,-80.237,1350.6,1.1813,-0.39378,-1.3645,1.5751,7.3575e-09,-0.68223,0,0,0.083333,2.6137e-16,0,0.66667
0.90434,0.31461,10.852,-0.27809,-9.587,22.412,8.0476,-2.6825,-1.7285,10.73,-4.7425e-08,-0.86426,0,0,0.083333,-0,-0,0.66667
0.45473,0.95554,5.4567,0.68331,104,570.92,-9.943,3.3143,-0.34283,-13.257,-1.6627e-12,-0.17142,0,0,0.083333,-0,-0,0.66667
0.59906,0.65771,7.1887,0.23657,28.997,327.88,-4.535,1.5117,-1.7991,-6.0466,-3.94e-12,-0.89957,0,0,0.083333,-0,-0,0.66667
0.070556,0.64267,0.84667,0.21401,40.77,1389.5,-0.48318,0.16106,-1.8327,-0.64424,-1.7215e-07,-0.91636,0,0,0.083333,-0,-0,0.66667
0.52944,0.98419,6.3533,0.72629,100.33,439.63,-12.305,4.1016,-0.12691,-16.406,-3.3822e-12,-0.063456,0,0,0.083333,7.8949e-16,0,0.66667
0.22131,0.21307,2.6557,-0.43039,-78.42,1047.9,3.048,-1.016,-1.3429,4.064,-9.1509e-12,-0.67144,0,0,0.083333,1.9737e-16,0,0.66667
0.38519,0.50439,4.6223,0.0065848,1.0729,702.87,-0.081165,0.027055,-1.9973,-0.10822,2.4246e-11,-0.99867,0,0,0.083333,-0,-0,0.66667
0.56,0.28796,6.72,-0.31806,-41.765,388.42,5.6996,-1.8999,-1.6418,7.5995,-9.8144e-14,-0.8209,0,0,0.083333,-0,-0,0.66667
0.81503,0.43318,9.7804,-0.10022,-6.4028,77.154,2.6139,-0.8713,-1.9661,3.4852,2.2729e-10,-0.98303,0,0,0.083333,-7.8949e-16,0,0.66667
0.26284,0.84909,3.1541,0.52364,93.436,957.27,-4.4043,1.4681,-1.0262,-5.8724,1.2328e-12,-0.5131,0,0,0.083333,-0,-0,0.66667
0.72782,0.47373,8.7338,-0.039407,-3.5353,159.84,0.91779,-0.30593,-1.9911,1.2237,2.726e-12,-0.99555,0,0,0.083333,-0,-0,0.66667
0.49204,0.3654,5.9045,-0.2019,-29.271,502.56,3.179,-1.0597,-1.8508,4.2387,6.5761e-12,-0.92542,0,0,0.083333,-7.8949e-16,0,0.66667
0.30424,0.35736,3.6509,-0.21396,-37.163,868.55,2.0831,-0.69437,-1.8328,2.7775,-9.3792e-13,-0.91641,0,0,0.083333,-0,-0,0.66667
0.29041,0.19412,3.4849,-0.45881,-80.495,898.1,4.2638,-1.4213,-1.248,5.685,5.8353e-13,-0.62398,0,0,0.083333,-0,-0,0.66667
0.2411,0.039655,2.8932,-0.69052,-124.81,1004.8,5.3275,-1.7758,-0.30078,7.1034,8.5634e-11,-0.15039,0,0,0.083333,-0,-0,0.66667
0.073163,0.15515,0.87796,-0.51727,-98.626,1383.6,1.211,-0.40368,-1.0472,1.6147,2.4086e-07,-0.5236,0,0,0.083333,9.8686e-17,0,0.66667
0.58112,0.341,6.9734,-0.2385,-30.203,355.11,4.4351,-1.4784,-1.7989,5.9135,-6.7768e-13,-0.89945,0,0,0.083333,-0,-0,0.66667
0.62494,0.43467,7.4993,-0.097991,-11.41,289.99,1.9596,-0.65321,-1.9741,2.6128,-3.5296e-12,-0.98703,0,0,0.083333,1.9737e-16,0,0.66667
0.23524,0.52149,2.8229,0.03224,5.8288,1017,-0.24269,0.080898,-2.0013,-0.32359,3.6932e-12,-1.0007,0,0,0.083333,-0,-0,0.66667
0.56429,0.40065,6.7715,-0.14902,-19.417,381.34,2.6909,-0.89697,-1.9242,3.5879,-1.9853e-12,-0.96211,0,0,0.083333,1.1842e-15,0,0.66667
0.8726,0.7893,10.471,0.43395,19.709,38.851,-12.117,4.0391,-1.332,-16.156,2.9161e-09,-0.666,0,0,0.083333,-0,-0,0.66667
0.80766,0.36148,9.6919,-0.20778,-13.758,83.228,5.37,-1.79,-1.8438,7.16,4.9583e-11,-0.92188,0,0,0.083333,-0,-0,0.66667
0.40735,0.52843,4.8882,0.042652,6.8055,659.46,-0.55598,0.18533,-1.9989,-0.7413,1.1026e-12,-0.99943,0,0,0.083333,-3.9475e-16,0,0.66667
0.49622,0.41891,5.9547,-0.12163,-17.533,495.14,1.9314,-0.64379,-1.9461,2.5752,2.8808e-12,-0.97306,0,0,0.083333,-7.8949e-16,0,0.66667
0.70639,0.042664,8.4767,-0.686,-65.925,185.95,15.507,-5.1689,-0.32637,20.676,4.1895e-12,-0.16319,0,0,0.083333,-0,-0,0.66667
0.57792,0.82615,6.9351,0.48922,62.395,360.62,-9.0474,3.0158,-1.1557,-12.063,2.6983e-12,-0.57784,0,0,0.083333,-7.8949e-16,-1.8824e-17,0.66667
0.75469,0.004817,9.0563,-0.74277,-61.378,133.7,17.938,-5.9793,-0.036565,23.917,2.8599e-11,-0.018283,0,0,0.083333,-0,-0,0.66667
0.95016,0.2406,11.402,-0.3891,-7.0956,7.2431,11.831,-3.9436,-1.462,15.774,-3.8943e-07,-0.73099,0,0,0.083333,-7.8949e-16,0,0.66667
0.17702,0.42636,2.1243,-0.11047,-20.482,1146.4,0.62577,-0.20859,-1.9536,0.83436,-9.2872e-11,-0.97682,0,0,0.083333,-1.9737e-16,0,0.66667
0.78926,0.94083,9.4711,0.66124,47.786,100.56,-16.7,5.5668,-0.44197,-22.267,1.7749e-09,-0.22098,0,0,0.083333,-0,-0,0.66667
0.33497,0.19395,4.0196,-0.45907,-78.085,804.78,4.9208,-1.6403,-1.247,6.561,9.0505e-13,-0.62349,0,0,0.083333,-0,-0,0.66667
0.56378,0.40497,6.7654,-0.14254,-18.589,382.14,2.5716,-0.85719,-1.9329,3.4288,1.3141e-12,-0.96645,0,0,0.083333,-3.9475e-16,0,0.66667
0.20689,0.20808,2.4827,-0.43789,-80.307,1079.8,2.899,-0.96634,-1.3171,3.8654,-3.2722e-11,-0.65854,0,0,0.083333,-0,-0,0.66667
0.74097,0.045532,8.8917,-0.6817,-58.956,147.48,16.164,-5.388,-0.34349,21.552,5.155e-11,-0.17175,0,0,0.083333,1.579e-15,0,0.66667
0.98,0.51363,11.76,0.020449,0.14353,1.2574,-0.64129,0.21376,-1.9963,-0.85505,-4.6843e-08,-0.99817,0,0,0.083333,3.158e-15,0,0.66667
0.83333,0.19865,10,-0.45203,-26.352,64.187,12.054,-4.018,-1.2705,16.072,-3.1812e-10,-0.63523,0,0,0.083333,-0,-0,0.66667
0.62051,0.48939,7.4461,-0.015914,-1.8697,296.28,0.31599,-0.10533,-1.9969,0.42133,-7.1246e-13,-0.99846,0,0,0.083333,7.8949e-16,0,0.66667
0.49211,0.53688,5.9053,0.055317,8.0168,502.35,-0.87111,0.29037,-1.9853,-1.1615,-7.0303e-12,-0.99267,0,0,0.083333,-0,-0,0.66667
0.52358,0.46563,6.2829,-0.051553,-7.1548,448.02,0.86374,-0.28791,-1.9872,1.1517,-5.8953e-14,-0.99359,0,0,0.083333,9.8686e-16,0,0.66667
0.93153,0.69868,11.178,0.29802,7.4205,12.159,-8.8836,2.9612,-1.6805,-11.845,2.4825e-07,-0.84027,0,0,0.083333,1.579e-15,0,0.66667
0.15835,0.40239,1.9002,-0.14642,-27.326,1188.5,0.74194,-0.24731,-1.9265,0.98925,3.042e-10,-0.96327,0,0,0.083333,-0,-0,0.66667
0.59051,0.34256,7.0861,-0.23616,-29.408,340.74,4.4626,-1.4875,-1.8027,5.9502,6.5814e-13,-0.90134,0,0,0.083333,1.0856e-15,0,0.66667
0.63801,0.24598,7.6561,-0.38104,-43.215,272.13,7.7793,-2.5931,-1.4854,10.372,-1.0094e-12,-0.74271,0,0,0.083333,1.9737e-16,0,0.66667
0.90792,0.27379,10.895,-0.33932,-11.287,21.056,9.8584,-3.2861,-1.5939,13.144,-3.4555e-08,-0.79693,0,0,0.083333,7.8949e-16,0,0.66667
0.2694,0.3406,3.2328,-0.2391,-42.45,942.82,2.0612,-0.68707,-1.7965,2.7483,-2.4043e-12,-0.89824,0,0,0.083333,-0,-0,0.66667
0.71075,0.50843,8.529,0.012651,1.1946,179.1,-0.28774,0.095914,-1.9953,-0.38365,-7.1714e-12,-0.99766,0,0,0.083333,3.158e-15,0,0.66667
0.35033,0.7624,4.2039,0.3936,66.13,773.2,-4.4124,1.4708,-1.4451,-5.8832,6.2172e-13,-0.72253,0,0,0.083333,-0,-0,0.66667
0.36439,0.96919,4.3726,0.70378,117.14,745.38,-8.2063,2.7354,-0.23754,-10.942,-4.0075e-12,-0.11877,0,0,0.083333,-0,-0,0.66667
0.081405,0.23915,0.97686,-0.39128,-74.462,1364.5,1.0193,-0.33976,-1.4553,1.359,7.7349e-08,-0.72763,0,0,0.083333,-0,-0,0.66667
0.3283,0.55945,3.9397,0.08917,15.224,818.19,-0.93679,0.31226,-1.9795,-1.2491,-1.2652e-11,-0.98977,0,0,0.083333,-0,-0,0.66667
0.32443,0.42529,3.8932,-0.11206,-19.187,826.24,1.1634,-0.3878,-1.9542,1.5512,-1.1799e-11,-0.97711,0,0,0.083333,-0,-0,0.66667
0.029581,0.22891,0.35497,-0.40663,-77.837,1484.4,0.38491,-0.12831,-1.4151,0.51321,-3.0631e-06,-0.70754,0,0,0.083333,-4.9343e-17,0,0.66667
0.54957,0.33671,6.5948,-0.24494,-32.697,405.1,4.3076,-1.4359,-1.7878,5.7434,8.0691e-13,-0.89388,0,0,0.083333,-3.9475e-16,0,0.66667
0.70674,0.3877,8.4809,-0.16844,-16.094,183.86,3.8095,-1.2698,-1.8981,5.0793,-1.7759e-12,-0.94904,0,0,0.083333,-0,-0,0.66667
0.4985,0.88039,5.982,0.57059,82.188,491.98,-9.102,3.034,-0.84633,-12.136,3.1619e-12,-0.42316,0,0,0.083333,-0,-1.2393e-16,0.66667
0.5273,0.29545,6.3277,-0.30682,-42.381,441.99,5.1772,-1.7257,-1.6637,6.903,-3.3999e-12,-0.83185,0,0,0.083333,7.8949e-16,0,0.66667
0.10581,0.53832,1.2698,0.057485,10.88,1308.3,-0.19465,0.064883,-1.9878,-0.25953,5.5247e-09,-0.99388,0,0,0.083333,-0,-0,0.66667
0.68474,0.87934,8.2169,0.56901,57.885,211.46,-12.468,4.156,-0.85013,-16.624,-5.8886e-13,-0.42506,0,0,0.083333,1.579e-15,1.9045e-18,0.66667
0.47114,0.11289,5.6537,-0.58066,-86.604,540.64,8.7544,-2.9181,-0.80243,11.673,-7.7804e-13,-0.40122,0,0,0.083333,-7.8949e-16,0,0.66667
0.22927,0.8793,2.7512,0.56895,103.36,1030.5,-4.1742,1.3914,-0.84687,-5.5656,-1.1753e-11,-0.42343,0,0,0.083333,-7.8949e-16,0,0.66667
0.85572,0.85186,10.269,0.52778,26.976,49.378,-14.452,4.8175,-1.0088,-19.27,-5.0612e-10,-0.50441,0,0,0.083333,1.579e-15,0,0.66667
0.56519,0.76802,6.7823,0.40204,52.366,380.33,-7.2713,2.4238,-1.4259,-9.6951,1.2106e-12,-0.71295,0,0,0.083333,-7.8949e-16,0,0.66667
0.99916,0.89649,11.99,0.59473,0.062333,1.9007,-19.015,6.3384,-0.74757,-25.354,-5.9747e-05,-0.37379,0,0,0.083333,1.579e-15,0,0.66667
0.077097,0.31797,0.92516,-0.27304,-51.974,1374.4,0.67362,-0.22454,-1.74,0.89816,1.5612e-07,-0.87001,0,0,0.083333,-0,-0,0.66667
0.515,0.17398,6.18,-0.48903,-68.827,463.24,8.0593,-2.6864,-1.1552,10.746,-1.9718e-13,-0.57758,0,0,0.083333,-7.8949e-16,1.8479e-17,0.66667
0.30396,0.20562,3.6475,-0.44158,-76.781,869.4,4.295,-1.4317,-1.3024,5.7267,5.2807e-12,-0.65119,0,0,0.083333,-0,-0,0.66667
0.86161,0.78636,10.339,0.42953,21.078,45.29,-11.843,3.9476,-1.3463,-15.791,6.35e-09,-0.67314,0,0,0.083333,-0,-0,0.66667
0.16178,0.44413,1.9413,-0.083803,-15.621,1180.8,0.43383,-0.14461,-1.9721,0.57844,1.6783e-10,-0.98606,0,0,0.083333,-0,-0,0.66667
0.0013843,0.43984,0.016611,-0.090236,-17.273,1549.8,0.0039969,-0.0013331,-1.9757,0.0053288,-1.1975e-06,-0.98787,0,0,0.083333,-0,-0,0.66667
0.44299,0.16485,5.3158,-0.50272,-77.42,592.19,7.1264,-2.3755,-1.0983,9.5018,-3.1601e-12,-0.54916,0,0,0.083333,-0,-0,0.66667
0.67716,0.99973,8.1259,0.7496,77.928,221.82,-16.243,5.4144,-0.00053819,-21.657,4.3343e-12,-0.00026909,0,0,0.083333,-2.5412e-15,0,0.66667
0.96791,0.35873,11.615,-0.2119,-2.4557,3.1249,6.5632,-2.1877,-1.8452,8.751,6.6775e-07,-0.9226,0,0,0.083333,1.579e-15,0,0.66667
0.62011,0.12849,7.4413,-0.55726,-65.705,297.88,11.058,-3.686,-0.89406,14.744,6.275e-12,-0.44703,0,0,0.083333,-1.579e-15,0,0.66667
0.19035,0.92635,2.2843,0.63953,118.24,1116.9,-3.8956,1.2985,-0.54616,-5.1941,-6.8666e-10,-0.27308,0,0,0.083333,-0,-0,0.66667
0.36217,0.29186,4.3461,-0.31221,-51.931,749.07,3.6184,-1.2061,-1.6539,4.8245,3.8529e-12,-0.82697,0,0,0.083333,-7.8949e-16,0,0.66667
0.78006,0.16497,9.3607,-0.50254,-37.615,108.07,12.544,-4.1815,-1.1063,16.726,2.6298e-11,-0.55316,0,0,0.083333,-0,-0,0.66667
0.32974,0.15921,3.9569,-0.51119,-87.317,815.66,5.3939,-1.798,-1.0749,7.1919,4.3294e-12,-0.53745,0,0,0.083333,-0,-0,0.66667
0.16424,0.31847,1.9709,-0.27229,-50.732,1175.3,1.4311,-0.47704,-1.7326,1.9081,4.5177e-11,-0.86628,0,0,0.083333,-0,-0,0.66667
0.28507,0.99317,3.4208,0.73975,130.48,909.97,-6.7482,2.2494,-0.053424,-8.9976,6.418e-12,-0.026712,0,0,0.083333,-3.9475e-16,0,0.66667
0.04034,0.82931,0.48409,0.49397,94.525,1459.5,-0.63767,0.21255,-1.1283,-0.85022,-3.9465e-06,-0.56413,0,0,0.083333,-4.9343e-17,0,0.66667
0.75512,0.97231,9.0614,0.70847,58.419,133.07,-17.119,5.7064,-0.2133,-22.826,2.1274e-11,-0.10665,0,0,0.083333,-0,-0,0.66667
0.28529,0.94636,3.4234,0.66953,118.01,909.36,-6.1123,2.0374,-0.40471,-8.1497,-1.9685e-11,-0.20236,0,0,0.083333,-0,-0,0.66667
0.7645,0.31156,9.174,-0.28265,-22.41,122.08,6.9148,-2.3049,-1.7215,9.2198,1.0991e-11,-0.86077,0,0,0.083333,-1.9737e-15,0,0.66667
0.84257,0.63037,10.111,0.19556,10.785,56.954,-5.2728,1.7576,-1.8687,-7.0303,2.1833e-10,-0.93436,0,0,0.083333,3.158e-15,0,0.66667
0.45502,0.68833,5.4602,0.28249,42.867,569.45,-4.1132,1.3711,-1.72,-5.4843,-6.8678e-12,-0.86002,0,0,0.083333,-0,-0,0.66667
0.85839,0.65863,10.301,0.23794,11.898,46.689,-6.5359,2.1786,-1.8044,-8.7145,1.4919e-09,-0.9022,0,0,0.083333,-0,-0,0.66667
0.99143,0.94876,11.897,0.67314,2.1291,2.7102,-21.356,7.1186,-0.38474,-28.474,9.0141e-05,-0.19237,0,0,0.083333,-0,-0,0.66667
0.94175,0.82043,11.301,0.48064,10.272,9.8157,-14.485,4.8282,-1.177,-19.313,-2.5662e-07,-0.5885,0,0,0.083333,-0,-0,0.66667
0.97927,0.49542,11.751,-0.0068697,-0.050096,1.3356,0.21528,-0.071758,-1.9976,0.28703,6.3363e-07,-0.99881,0,0,0.083333,2.3685e-15,0,0.66667
0.95065,0.89175,11.408,0.58762,10.727,8.1075,-17.876,5.9587,-0.77327,-23.835,1.8282e-06,-0.38664,0,0,0.083333,-1.579e-15,0,0.66667
0.96389,0.84945,11.567,0.52417,6.9813,4.9951,-16.168,5.3893,-1.021,-21.557,2.808e-06,-0.51049,0,0,0.083333,-0,-0,0.66667
0.69794,0.65299,8.3752,0.22948,22.477,194.39,-5.1252,1.7084,-1.8107,-6.8336,-3.1029e-12,-0.90534,0,0,0.083333,1.1842e-15,0,0.66667
0.15618,0.43843,1.8742,-0.092353,-17.246,1193.4,0.46157,-0.15386,-1.9782,0.61543,-5.1314e-10,-0.98912,0,0,0.083333,-0,-0,0.66667
0.64676,0.28654,7.7611,-0.32019,-35.608,260,6.6267,-2.2089,-1.6323,8.8357,-5.9819e-13,-0.81615,0,0,0.083333,-0,-0,0.66667
0.99073,0.98547,11.889,0.7282,2.5568,3.157,-23.086,7.6954,-0.11095,-30.781,8.8236e-05,-0.055476,0,0,0.083333,1.579e-15,0,0.66667
0.24429,0.35672,2.9315,-0.21492,-38.686,997.26,1.6801,-0.56002,-1.8322,2.2401,-2.1431e-12,-0.9161,0,0,0.083333,-0,-0,0.66667
0.68176,0.52694,8.1812,0.040405,4.1284,214,-0.88149,0.29383,-1.9914,-1.1753,5.0837e-12,-0.99572,0,0,0.083333,-0,-0,0.66667
0.12926,0.94433,1.5511,0.66649,125.75,1254.9,-2.7569,0.91895,-0.41907,-3.6758,1.0672e-08,-0.20954,0,0,0.083333,3.9475e-16,0,0.66667
0.99818,0.4018,11.978,-0.1473,-0.020015,0.1541,4.705,-1.5683,-1.9262,6.2733,-1.6414e-06,-0.96308,0,0,0.083333,3.9475e-16,0,0.66667
0.41986,0.3835,5.0383,-0.17476,-27.542,635.42,2.3479,-0.78265,-1.8937,3.1306,-5.449e-13,-0.94687,0,0,0.083333,-7.8949e-16,0,0.66667
0.35068,0.69955,4.2082,0.29933,50.256,772.36,-3.359,1.1197,-1.6772,-4.4786,-4.3547e-12,-0.8386,0,0,0.083333,-0,-0,0.66667
0.20659,0.19178,2.4791,-0.46233,-84.811,1080.5,3.0564,-1.0188,-1.2401,4.0752,-2.8946e-11,-0.62003,0,0,0.083333,-0,-0,0.66667
0.85016,0.0082616,10.202,-0.73761,-39.248,54.161,20.067,-6.6889,-0.061829,26.756,1.5021e-08,-0.030915,0,0,0.083333,3.158e-15,0,0.66667
0.6124,0.82578,7.3488,0.48866,58.472,308.78,-9.5763,3.1921,-1.1509,-12.768,-4.4578e-12,-0.57546,0,0,0.083333,1.579e-15,0,0.66667
0.57534,0.67458,6.904,0.26187,33.502,364.12,-4.8212,1.6071,-1.7566,-6.4283,1.561e-12,-0.8783,0,0,0.083333,-0,-0,0.66667
0.24805,0.19061,2.9766,-0.46409,-83.456,989.29,3.6837,-1.2279,-1.2374,4.9116,3.8103e-11,-0.61871,0,0,0.083333,-0,-0,0.66667
0.13351,0.054195,1.6021,-0.66871,-126.02,1245.3,2.8569,-0.95229,-0.40605,3.8092,-6.3336e-08,-0.20303,0,0,0.083333,-0,-0,0.66667
0.064967,0.69842,0.7796,0.29763,56.757,1402.5,-0.61874,0.20625,-1.6862,-0.82499,-2.4505e-07,-0.84311,0,0,0.083333,-0,-0,0.66667
0.60725,0.31245,7.287,-0.28132,-33.955,315.8,5.4667,-1.8222,-1.722,7.2889,2.1436e-12,-0.86102,0,0,0.083333,-9.5877e-17,0,0.66667
0.72959,0.57936,8.7551,0.11904,10.622,157.93,-2.7793,0.92642,-1.9469,-3.7057,-1.6052e-12,-0.97346,0,0,0.083333,-0,-0,0.66667
0.4249,0.43766,5.0988,-0.093517,-14.66,625.74,1.2715,-0.42384,-1.9705,1.6954,2.4494e-12,-0.98525,0,0,0.083333,-1.579e-15,0,0.66667
0.099,0.91922,1.188,0.62883,119.44,1324.2,-1.9921,0.66405,-0.59085,-2.6562,1.1475e-07,-0.29543,0,0,0.083333,-0,-0,0.66667
0.089276,0.6007,1.0713,0.15104,28.685,1346.3,-0.4315,0.14383,-1.9171,-0.57534,-4.5261e-08,-0.95854,0,0,0.083333,-0,-0,0.66667
0.52952,0.48026,6.3542,-0.029606,-4.0733,438.01,0.50166,-0.16722,-1.9996,0.66888,8.607e-13,-0.99981,0,0,0.083333,-0,-0,0.66667
0.33597,0.25846,4.0316,-0.36231,-61.549,802.57,3.8952,-1.2984,-1.5292,5.1936,3.332e-12,-0.76458,0,0,0.083333,-7.8949e-16,0,0.66667
0.6614,0.58679,7.9368,0.13019,13.988,240.16,-2.7555,0.91849,-1.9371,-3.674,-2.4405e-12,-0.96857,0,0,0.083333,7.8949e-16,0,0.66667
0.9539,0.7147,11.447,0.32206,5.4169,6.1333,-9.8306,3.2769,-1.6372,-13.108,3.7031e-07,-0.8186,0,0,0.083333,7.8949e-16,0,0.66667
0.048989,0.1339,0.58787,-0.54915,-105.03,1439.5,0.86087,-0.28695,-0.92985,1.1478,1.6387e-06,-0.46493,0,0,0.083333,-0,-0,0.66667
0.12125,0.59496,1.455,0.14244,26.867,1273,-0.55268,0.18423,-1.928,-0.73691,-7.8982e-09,-0.964,0,0,0.083333,-0,-0,0.66667
0.60823,0.069076,7.2988,-0.64639,-78.097,315.46,12.581,-4.1936,-0.51907,16.775,1.6813e-12,-0.25954,0,0,0.083333,1.579e-15,-6.5587e-17,0.66667
0.29619,0.84512,3.5543,0.51768,90.516,885.91,-4.9066,1.6355,-1.0539,-6.5422,-3.5776e-12,-0.52693,0,0,0.083333,-0,1.0675e-16,0.66667
0.71874,0.77776,8.6249,0.41664,38.503,170.62,-9.5827,3.1942,-1.391,-12.777,-3.2623e-12,-0.69552,0,0,0.083333,7.8949e-16,0,0.66667
0.48481,0.8088,5.8178,0.4632,67.863,515.82,-7.186,2.3953,-1.2441,-9.5814,2.1685e-12,-0.62206,0,0,0.083333,-0,-0,0.66667
0.95416,0.90269,11.45,0.60404,10.265,7.4029,-18.443,6.1477,-0.70807,-24.591,9.917e-06,-0.35403,0,0,0.083333,-1.579e-15,0,0.66667
0.35878,0.25036,4.3053,-0.37446,-62.478,756.01,4.2991,-1.433,-1.5086,5.7322,1.5709e-11,-0.75429,0,0,0.083333,-1.579e-15,0,0.66667
0.72512,0.76654,8.7015,0.39981,36.234,163.42,-9.2771,3.0924,-1.4276,-12.369,-1.9504e-12,-0.71379,0,0,0.083333,-0,-0,0.66667
0.59297,0.27261,7.1156,-0.34108,-42.303,337.22,6.4719,-2.1573,-1.5917,8.6292,6.4571e-13,-0.79586,0,0,0.083333,-0,-0,0.66667
0.70173,0.86943,8.4207,0.55415,53.858,190.82,-12.444,4.1479,-0.91229,-16.591,-4.0057e-12,-0.45614,0,0,0.083333,-3.9475e-16,0,0.66667
0.28609,0.64282,3.433,0.21423,37.652,907.04,-1.9613,0.65375,-1.8341,-2.615,-1.512e-11,-0.91704,0,0,0.083333,-3.9475e-16,0,0.66667
0.55036,0.0073181,6.6044,-0.73902,-98.9,405.24,13.015,-4.3385,-0.057712,17.354,-4.3698e-12,-0.028856,0,0,0.083333,-0,-0,0.66667
0.0072068,0.9965,0.086481,0.74475,142.98,1536.3,-0.17226,0.057352,-0.024981,-0.22971,-0.00010143,-0.012491,0,0,0.083333,4.0091e-17,0,0.66667
0.95089,0.73424,11.411,0.35136,6.3035,6.9271,-10.691,3.5638,-1.5625,-14.255,3.2192e-07,-0.78127,0,0,0.083333,-0,-0,0.66667
0.43824,0.37122,5.2588,-0.19317,-29.86,600.58,2.7089,-0.90295,-1.8735,3.6118,-2.9778e-12,-0.93673,0,0,0.083333,7.8949e-16,0,0.66667
0.35615,0.7316,4.2737,0.34739,58.08,761.31,-3.9591,1.3197,-1.5705,-5.2788,4.3385e-12,-0.78526,0,0,0.083333,-0,-0,0.66667
0.10194,0.58169,1.2233,0.12254,23.214,1317.2,-0.39974,0.13325,-1.9422,-0.53298,-2.2191e-08,-0.97112,0,0,0.083333,9.8686e-17,0,0.66667
0.23738,0.33081,2.8486,-0.25378,-45.849,1012.4,1.9278,-0.64258,-1.771,2.5703,-2.0249e-12,-0.88551,0,0,0.083333,-0,-0,0.66667
0.29709,0.17858,3.565,-0.48213,-84.234,883.97,4.5835,-1.5278,-1.1804,6.1113,-2.0055e-12,-0.59022,0,0,0.083333,-3.9475e-16,0,0.66667
0.47856,0.18239,5.7428,-0.47641,-70.356,527.01,7.2958,-2.4319,-1.1901,9.7277,-1.1964e-12,-0.59503,0,0,0.083333,-1.9737e-16,0,0.66667
0.41502,0.63324,4.9802,0.19986,31.655,644.73,-2.6542,0.88475,-1.8541,-3.539,-1.6973e-12,-0.92703,0,0,0.083333,-0,-0,0.66667
0.056184,0.26058,0.67421,-0.35913,-68.574,1422.8,0.64568,-0.21523,-1.5376,0.86091,1.4265e-07,-0.76878,0,0,0.083333,-0,-0,0.66667
0.58894,0.62004,7.0672,0.18006,22.481,343.06,-3.3934,1.1311,-1.8828,-4.5245,3.9846e-12,-0.94139,0,0,0.083333,-1.1842e-15,0,0.66667
0.067005,0.13597,0.80406,-0.54605,-104.22,1397.8,1.1708,-0.39027,-0.93761,1.5611,1.473e-07,-0.46881,0,0,0.083333,-0,-0,0.66667
0.27883,0.90532,3.346,0.60798,107.53,923.03,-5.4247,1.8082,-0.68836,-7.2329,5.8729e-11,-0.34418,0,0,0.083333,-1.0272e-16,0,0.66667
0.93135,0.66958,11.176,0.25437,6.3443,12.099,-7.5812,2.5271,-1.766,-10.108,2.0924e-07,-0.88301,0,0,0.083333,-0,-0,0.66667
0.70165,0.30499,8.4198,-0.29252,-28.368,190.08,6.5678,-2.1893,-1.6995,8.7571,-1.9886e-12,-0.84974,0,0,0.083333,-0,-0,0.66667
0.68369,0.22207,8.2043,-0.41689,-42.46,212.22,9.1209,-3.0403,-1.3817,12.161,9.8233e-13,-0.69085,0,0,0.083333,-1.579e-15,0,0.66667
0.35623,0.23193,4.2747,-0.4021,-67.239,761.22,4.5837,-1.5279,-1.4249,6.1116,1.0374e-11,-0.71243,0,0,0.083333,-0,-0,0.66667
0.59594,0.52362,7.1512,0.035423,4.3652,332.37,-0.67551,0.22517,-1.9976,-0.90068,-1.0927e-12,-0.99879,0,0,0.083333,-0,-0,0.66667
0.82071,0.68626,9.8485,0.27939,17.371,73.025,-7.3376,2.4459,-1.7195,-9.7834,-1.046e-10,-0.85973,0,0,0.083333,-2.2698e-15,0,0.66667
0.77901,0.60893,9.3482,0.16339,12.243,108.1,-4.0731,1.3577,-1.9066,-5.4308,-2.1336e-11,-0.95328,0,0,0.083333,1.579e-15,0,0.66667
0.75092,0.77838,9.011,0.41756,34.797,136.01,-10.034,3.3446,-1.3859,-13.378,-7.8533e-12,-0.69293,0,0,0.083333,-1.9737e-16,0,0.66667
0.53154,0.056081,6.3785,-0.66588,-91.645,435.89,11.326,-3.7754,-0.43047,15.101,-1.6849e-12,-0.21524,0,0,0.083333,-3.9475e-16,0,0.66667
0.74519,0.8227,8.9423,0.48404,41.163,142.15,-11.543,3.8475,-1.1644,-15.39,-4.273e-12,-0.5822,0,0,0.083333,-0,-0,0.66667
0.21772,0.41978,2.6126,-0.12033,-21.939,1055.6,0.83831,-0.27944,-1.9529,1.1178,-1.1483e-11,-0.97645,0,0,0.083333,-3.9475e-16,0,0.66667
0.51855,0.57939,6.2226,0.11908,16.648,456.57,-1.976,0.65865,-1.9497,-2.6346,1.4753e-12,-0.97485,0,0,0.083333,-7.8949e-16,0,0.66667
0.81265,0.86599,9.7518,0.54898,35.647,80.314,-14.276,4.7587,-0.93554,-19.035,-7.1442e-10,-0.46777,0,0,0.083333,-7.8949e-16,0,0.66667
0.27694,0.25652,3.3233,-0.36522,-64.581,926.73,3.2366,-1.0789,-1.5242,4.3154,-2.305e-12,-0.76211,0,0,0.083333,-0,-0,0.66667
0.50368,0.54304,6.0441,0.064559,9.2134,482.11,-1.0405,0.34684,-1.9841,-1.3874,3.112e-12,-0.99205,0,0,0.083333,-7.8949e-16,0,0.66667
0.65239,0.09754,7.8287,-0.60369,-66.453,253.32,12.603,-4.201,-0.70371,16.804,-2.7285e-12,-0.35185,0,0,0.083333,-0,-0,0.66667
0.08124,0.28293,0.97487,-0.32561,-61.95,1364.9,0.84647,-0.28216,-1.6242,1.1286,9.7834e-08,-0.81208,0,0,0.083333,-0,-0,0.66667
0.14553,0.27324,1.7463,-0.34014,-63.766,1217.7,1.584,-0.52798,-1.5862,2.1119,9.8376e-10,-0.7931,0,0,0.083333,-0,-0,0.66667
0.59348,0.93421,7.1218,0.65132,80.913,337.41,-12.369,4.1231,-0.4992,-16.493,1.0569e-13,-0.2496,0,0,0.083333,-7.8949e-16,-3.7173e-17,0.66667
0.41393,0.024229,4.9671,-0.71366,-113.51,647.87,9.4528,-3.1509,-0.18518,12.604,-2.0187e-11,-0.092591,0,0,0.083333,-0,-0,0.66667
0.13115,0.39261,1.5737,-0.16109,-30.307,1250.4,0.67602,-0.22534,-1.9038,0.90137,3.0793e-09,-0.95191,0,0,0.083333,-0,-0,0.66667
0.80877,0.86814,9.7053,0.55221,36.525,83.449,-14.292,4.7638,-0.91505,-19.055,-2.1655e-10,-0.45753,0,0,0.083333,-0,-0,0.66667
0.71564,0.28785,8.5877,-0.31823,-29.656,173.87,7.2876,-2.4292,-1.6403,9.7168,3.0869e-12,-0.82013,0,0,0.083333,-1.579e-15,0,0.66667
0.97583,0.28545,11.71,-0.32183,-2.7976,2.2849,10.05,-3.3498,-1.6283,13.399,2.5423e-06,-0.81414,0,0,0.083333,3.158e-15,0,0.66667
0.040034,0.77323,0.4804,0.40984,78.395,1460.2,-0.52503,0.17501,-1.3989,-0.70005,-1.4008e-06,-0.69945,0,0,0.083333,-2.4672e-17,0,0.66667
0.80309,0.78713,9.6371,0.43069,29.191,87.611,-11.068,3.6895,-1.3371,-14.758,-1.8155e-10,-0.66856,0,0,0.083333,1.579e-15,0,0.66667
0.49155,0.76403,5.8986,0.39604,57.5,503.73,-6.2296,2.0765,-1.4379,-8.3061,-2.3812e-12,-0.71897,0,0,0.083333,7.8949e-16,0,0.66667
0.19478,0.51431,2.3373,0.02147,3.9533,1106.6,-0.13382,0.044606,-1.994,-0.17842,-5.0593e-11,-0.99698,0,0,0.083333,-0,-0,0.66667
0.14213,0.99615,1.7056,0.74423,140,1225.7,-3.3849,1.1283,-0.034803,-4.5132,-9.1119e-09,-0.017401,0,0,0.083333,-2.9606e-16,0,0.66667
0.19893,0.33177,2.3872,-0.25234,-46.402,1097.4,1.6064,-0.53546,-1.7717,2.1418,-5.7742e-11,-0.88586,0,0,0.083333,-0,-0,0.66667
0.0073553,0.33649,0.088264,-0.24526,-46.96,1535.9,0.057727,-0.019242,-1.7822,0.076969,1.0859e-06,-0.89109,0,0,0.083333,-6.1679e-18,0,0.66667
0.12102,0.53567,1.4523,0.053511,10.093,1273.5,-0.20723,0.069077,-1.989,-0.27631,-9.6625e-09,-0.99452,0,0,0.083333,3.9475e-16,0,0.66667
0.69054,0.31819,8.2865,-0.27271,-27.255,203.42,6.0262,-2.0087,-1.7362,8.0349,-2.6166e-12,-0.86808,0,0,0.083333,-0,-0,0.66667
0.2922,0.89439,3.5064,0.59159,103.76,894.52,-5.5315,1.8438,-0.75315,-7.3754,-2.0417e-11,-0.37657,0,0,0.083333,-0,-0,0.66667
0.49257,0.89587,5.9108,0.5938,86.218,502.46,-9.3596,3.1199,-0.74207,-12.479,2.6912e-12,-0.37104,0,0,0.083333,-0,-0,0.66667
0.88095,0.81143,10.571,0.46714,19.918,34.41,-13.169,4.3896,-1.2218,-17.558,-8.0178e-09,-0.61089,0,0,0.083333,-1.7764e-15,0,0.66667
0.5238,0.641,6.2856,0.2115,29.353,447.76,-3.545,1.1817,-1.8365,-4.7267,-5.5487e-12,-0.91825,0,0,0.083333,-7.8949e-16,0,0.66667
0.70601,0.66852,8.4722,0.25279,24.212,184.85,-5.711,1.9037,-1.7731,-7.6147,2.6832e-12,-0.88653,0,0,0.083333,-1.579e-15,0,0.66667
0.15105,0.79881,1.8126,0.44821,83.925,1205.2,-2.1665,0.72218,-1.2826,-2.8887,1.855e-09,-0.64128,0,0,0.083333,-0,-0,0.66667
0.43644,0.12165,5.2373,-0.56753,-88.068,604.62,7.9261,-2.642,-0.86013,10.568,2.1534e-12,-0.43007,0,0,0.083333,-0,3.7796e-17,0.66667
0.89086,0.94844,10.69,0.67266,26.575,30.449,-19.176,6.3919,-0.39792,-25.568,7.8263e-08,-0.19896,0,0,0.083333,-0,-0,0.66667
0.15977,0.19566,1.9172,-0.45651,-85.245,1185.5,2.334,-0.77799,-1.2585,3.112,-2.4781e-10,-0.62923,0,0,0.083333,-0,-0,0.66667
0.11866,0.40741,1.4239,-0.13889,-26.213,1278.9,0.52735,-0.17578,-1.9288,0.70313,8.7047e-09,-0.96441,0,0,0.083333,-0,-0,0.66667
0.82221,0.86054,9.8665,0.54081,33.488,72.819,-14.229,4.743,-0.95632,-18.972,-4.6775e-10,-0.47816,0,0,0.083333,-1.579e-15,0,0.66667
0.058073,0.36444,0.69688,-0.20334,-38.799,1418.4,0.37787,-0.12596,-1.8509,0.50383,1.098e-07,-0.92545,0,0,0.083333,-0,-0,0.66667
0.23225,0.68184,2.787,0.27276,49.407,1023.7,-2.0271,0.6757,-1.7379,-2.7028,4.1682e-12,-0.86895,0,0,0.083333,-1.9737e-16,0,0.66667
0.59496,0.98912,7.1395,0.73367,90.984,335.55,-13.968,4.656,-0.090193,-18.624,1.6787e-12,-0.045096,0,0,0.083333,-0,-0,0.66667
0.71146,0.41434,8.5375,-0.12848,-12.11,178.34,2.9252,-0.97506,-1.9373,3.9002,-2.5682e-12,-0.96864,0,0,0.083333,-0,-0,0.66667
0.43296,0.072959,5.1955,-0.64056,-99.832,611.39,8.8747,-2.9582,-0.53885,11.833,-2.8759e-12,-0.26943,0,0,0.083333,-0,-0,0.66667
0.47992,0.005084,5.759,-0.74237,-109.7,525.41,11.401,-3.8003,-0.038932,15.201,-6.9216e-12,-0.019466,0,0,0.083333,-0,-5.6384e-17,0.66667
0.086929,0.78992,1.0431,0.43489,82.699,1351.8,-1.2097,0.40325,-1.3236,-1.613,-1.3136e-08,-0.6618,0,0,0.083333,-0,-0,0.66667
0.61004,0.94796,7.3204,0.67194,80.924,312.92,-13.117,4.3724,-0.40018,-17.489,-1.6787e-12,-0.20009,0,0,0.083333,-0,-0,0.66667
0.28032,0.88183,3.3638,0.57274,101.19,919.78,-5.1376,1.7125,-0.83882,-6.8502,-1.7611e-11,-0.41941,0,0,0.083333,7.8949e-16,6.7407e-17,0.66667
0.91892,0.34558,11.027,-0.23163,-6.7975,16.38,6.8112,-2.2704,-1.8106,9.0816,-9.4067e-08,-0.90531,0,0,0.083333,3.158e-15,0,0.66667
0.23822,0.098807,2.8586,-0.60179,-108.86,1010.9,4.5874,-1.5291,-0.71168,6.1166,-2.0553e-11,-0.35584,0,0,0.083333,-0,-0,0.66667
0.75065,0.098175,9.0078,-0.60274,-50.392,137.03,14.478,-4.8261,-0.71453,19.304,2.3619e-10,-0.35727,0,0,0.083333,-0,-0,0.66667
0.70514,0.74125,8.4617,0.36188,34.771,186.13,-8.1656,2.7219,-1.5367,-10.887,6.8301e-13,-0.76834,0,0,0.083333,-0,-0,0.66667
0.12278,0.10137,1.4734,-0.59794,-112.95,1269.7,2.3493,-0.78311,-0.73075,3.1324,7.2559e-08,-0.36538,0,0,0.083333,-0,-0,0.66667
0.20873,0.73491,2.5047,0.35236,64.546,1075.7,-2.3535,0.78451,-1.555,-3.138,2.9861e-11,-0.7775,0,0,0.083333,-0,-0,0.66667
0.19717,0.33817,2.366,-0.24274,-44.668,1101.3,1.5316,-0.51053,-1.7874,2.0421,-5.3331e-11,-0.89369,0,0,0.083333,-0,-0,0.66667
0.78433,0.68777,9.412,0.28165,20.669,103.46,-7.069,2.3563,-1.7194,-9.4253,-4.3596e-11,-0.85971,0,0,0.083333,-0,-0,0.66667
0.55115,0.047646,6.6138,-0.67853,-90.632,403.71,11.967,-3.989,-0.36094,15.956,-1.1777e-12,-0.18047,0,0,0.083333,-0,-0,0.66667
0.50799,0.84727,6.0958,0.5209,74.047,475.37,-8.4675,2.8225,-1.0318,-11.29,6.6169e-13,-0.5159,0,0,0.083333,-0,-0,0.66667
0.74258,0.32315,8.9109,-0.26527,-22.712,144.23,6.3034,-2.1011,-1.7455,8.4046,3.0118e-12,-0.87276,0,0,0.083333,-0,-0,0.66667
0.87749,0.77433,10.53,0.41149,18.005,36.044,-11.555,3.8515,-1.3995,-15.406,-4.6171e-09,-0.69973,0,0,0.083333,7.8949e-16,0,0.66667
0.070046,0.20967,0.84055,-0.4355,-83.037,1390.8,0.97615,-0.32538,-1.3215,1.3015,3.0085e-07,-0.66075,0,0,0.083333,-0,-0,0.66667
0.37632,0.79928,4.5159,0.44891,73.817,720.89,-5.406,1.802,-1.2871,-7.208,4.6256e-12,-0.64356,0,0,0.083333,-0,-0,0.66667
0.34177,0.35177,4.1013,-0.22235,-37.585,790.49,2.4317,-0.81058,-1.8267,3.2423,9.976e-12,-0.91335,0,0,0.083333,7.8949e-16,0,0.66667
0.84428,0.24471,10.131,-0.38294,-20.95,56.276,10.346,-3.4486,-1.4851,13.794,-2.0412e-10,-0.74253,0,0,0.083333,-1.1842e-15,0,0.66667
0.76885,0.67753,9.2262,0.2663,20.769,117.84,-6.5518,2.1839,-1.7476,-8.7358,-1.0267e-11,-0.87382,0,0,0.083333,-7.8949e-16,0,0.66667
0.5325,0.78639,6.39,0.42958,58.924,433.56,-7.3201,2.44,-1.3484,-9.7601,-1.1493e-12,-0.67421,0,0,0.083333,-0,-0,0.66667
0.089548,0.037124,1.0746,-0.69431,-132.18,1345.9,1.9896,-0.6632,-0.28466,2.6528,-3.36e-06,-0.14233,0,0,0.083333,1.9737e-16,0,0.66667
0.92511,0.70405,11.101,0.30607,8.3237,14.335,-9.0607,3.0202,-1.6665,-12.081,2.021e-07,-0.83324,0,0,0.083333,-0,-0,0.66667
0.55794,0.054578,6.6953,-0.66813,-88.267,392.73,11.929,-3.9763,-0.41077,15.905,-2.8422e-13,-0.20538,0,0,0.083333,-3.9475e-16,-6.3418e-18,0.66667
0.023909,0.61852,0.28691,0.17778,34.016,1497.5,-0.13602,0.04534,-1.8838,-0.18136,9.5399e-07,-0.94189,0,0,0.083333,1.4157e-17,0,0.66667
0.64606,0.72693,7.7528,0.34039,37.918,260.99,-7.0373,2.3458,-1.585,-9.383,-1.5765e-12,-0.79251,0,0,0.083333,-0,-0,0.66667
0.27371,0.95235,3.2845,0.67852,120.44,934.14,-5.943,1.981,-0.3586,-7.9239,-2.4414e-11,-0.1793,0,0,0.083333,-0,-0,0.66667
0.45368,0.64093,5.4441,0.21139,32.12,571.84,-3.0689,1.023,-1.8468,-4.0919,-1.2351e-11,-0.92338,0,0,0.083333,7.8949e-16,0,0.66667
0.89562,0.55546,10.747,0.083191,3.1126,26.038,-2.3842,0.79474,-1.973,-3.179,1.6159e-08,-0.98648,0,0,0.083333,-1.579e-15,0,0.66667
0.20404,0.24962,2.4485,-0.37557,-68.943,1086.1,2.4522,-0.81742,-1.5048,3.2697,-1.0496e-10,-0.75238,0,0,0.083333,-5.181e-16,0,0.66667
0.11364,0.12572,1.3637,-0.56142,-106.26,1290.6,2.0416,-0.68052,-0.87882,2.7221,2.4384e-09,-0.43941,0,0,0.083333,3.9475e-16,0,0.66667
0.61817,0.82868,7.418,0.49303,58.325,300.45,-9.7528,3.2509,-1.1314,-13.004,-4.7784e-13,-0.56572,0,0,0.083333,-0,-0,0.66667
0.67549,0.37953,8.1058,-0.1807,-18.765,222.02,3.906,-1.302,-1.8837,5.208,-5.8966e-12,-0.94184,0,0,0.083333,1.579e-15,0,0.66667
0.98885,0.48398,11.866,-0.024031,-0.088301,0.47776,0.76041,-0.25347,-1.9956,1.0139,-3.2993e-06,-0.9978,0,0,0.083333,-0,-0,0.66667
0.32157,0.57126,3.8588,0.10689,18.339,832.2,-1.0999,0.36663,-1.9555,-1.4665,-4.8933e-12,-0.97777,0,0,0.083333,-0,-0,0.66667
0.90723,0.6197,10.887,0.17955,6.0012,20.951,-5.2126,1.7375,-1.8906,-6.9502,3.9057e-08,-0.94531,0,0,0.083333,-1.579e-15,0,0.66667
0.59047,0.84133,7.0857,0.512,63.87,341.45,-9.6743,3.2248,-1.0686,-12.899,2.1316e-13,-0.53431,0,0,0.083333,1.9737e-16,0,0.66667
0.076837,0.81593,0.92204,0.47389,90.284,1375.1,-1.1652,0.3884,-1.2062,-1.5536,-1.1794e-07,-0.60312,0,0,0.083333,-0,-0,0.66667
0.93059,0.025954,11.167,-0.71107,-18.253,14.533,21.175,-7.0583,-0.19867,28.233,-5.2427e-06,-0.099337,0,0,0.083333,7.8949e-16,0,0.66667
0.54246,0.74558,6.5096,0.36837,49.751,416.93,-6.3945,2.1315,-1.5161,-8.526,-1.0889e-12,-0.75807,0,0,0.083333,-9.8686e-16,0,0.66667
0.47386,0.94375,5.6863,0.66563,99.021,536,-10.093,3.3644,-0.42221,-13.458,4.1558e-12,-0.2111,0,0,0.083333,-0,-0,0.66667
0.54448,0.051543,6.5337,-0.67268,-90.79,414.55,11.72,-3.9068,-0.3924,15.627,3.2445e-12,-0.1962,0,0,0.083333,-0,-0,0.66667
0.52734,0.99163,6.3281,0.73745,102.2,443.2,-12.444,4.1481,-0.06518,-16.593,-4.5075e-12,-0.03259,0,0,0.083333,7.8949e-16,-7.7384e-17,0.66667
0.66148,0.11325,7.9377,-0.58013,-62.512,241.18,12.28,-4.0933,-0.80029,16.373,-1.763e-12,-0.40014,0,0,0.083333,7.8949e-16,0,0.66667
0.64445,0.93366,7.7334,0.65049,72.93,264.24,-13.415,4.4716,-0.49506,-17.886,-8.0744e-12,-0.24753,0,0,0.083333,9.8686e-16,0,0.66667
0.17293,0.29964,2.0752,-0.30054,-55.831,1155.7,1.6631,-0.55438,-1.6832,2.2175,-1.3951e-10,-0.84159,0,0,0.083333,-1.9737e-16,0,0.66667
0.50754,0.067573,6.0904,-0.64864,-92.363,476.55,10.535,-3.5116,-0.50038,14.046,5.8336e-12,-0.25019,0,0,0.083333,-0,-0,0.66667
0.17819,0.88408,2.1382,0.57612,106.97,1144.1,-3.2851,1.095,-0.8161,-4.3801,1.1933e-09,-0.40805,0,0,0.083333,-0,-0,0.66667
0.46566,0.75635,5.588,0.38453,57.655,550.11,-5.73,1.91,-1.4747,-7.64,-4.9392e-12,-0.73734,0,0,0.083333,-0,-0,0.66667
0.095605,0.1393,1.1473,-0.54106,-102.78,1331.9,1.6553,-0.55176,-0.96149,2.2071,8.5697e-08,-0.48074,0,0,0.083333,-0,-0,0.66667
0.90893,0.29188,10.907,-0.31218,-10.269,20.548,9.0801,-3.0267,-1.6542,12.107,-3.6612e-08,-0.82712,0,0,0.083333,-0,-0,0.66667
0.84302,0.68888,10.116,0.28332,15.597,56.839,-7.643,2.5477,-1.7212,-10.191,3.8174e-10,-0.86058,0,0,0.083333,-0,-0,0.66667
0.20466,0.17407,2.4559,-0.48889,-89.772,1084.8,3.2018,-1.0673,-1.1533,4.2691,-4.4114e-11,-0.57664,0,0,0.083333,-0,-0,0.66667
0.22201,0.42071,2.6641,-0.11894,-21.643,1046.1,0.84496,-0.28165,-1.9492,1.1266,4.3854e-13,-0.97461,0,0,0.083333,-3.9475e-16,0,0.66667
0.56481,0.059662,6.7777,-0.66051,-86.275,381.77,11.938,-3.9793,-0.4513,15.917,1.4948e-12,-0.22565,0,0,0.083333,-0,-0,0.66667
0.041276,0.55519,0.49531,0.082792,15.821,1457.3,-0.10935,0.036451,-1.9726,-0.14581,6.0911e-08,-0.98629,0,0,0.083333,-2.4672e-17,0,0.66667
0.97916,0.80337,11.75,0.45505,3.4359,2.4295,-14.258,4.7527,-1.2609,-19.011,-5.8997e-06,-0.63043,0,0,0.083333,-0,-0,0.66667
0.34441,0.22292,4.133,-0.41563,-70.166,785.31,4.5807,-1.5269,-1.3921,6.1076,-6.8301e-13,-0.69603,0,0,0.083333,7.8949e-16,0,0.66667
0.29624,0.012106,3.5549,-0.73184,-128.16,886.23,6.9377,-2.3126,-0.10119,9.2503,4.8552e-12,-0.050593,0,0,0.083333,-0,-0,0.66667
0.92794,0.47992,11.135,-0.030121,-0.78587,12.904,0.89443,-0.29814,-1.993,1.1926,-6.7675e-08,-0.99651,0,0,0.083333,-1.579e-15,0,0.66667
0.24446,0.30123,2.9335,-0.29816,-53.678,996.95,2.3324,-0.77746,-1.6806,3.1098,-1.0691e-12,-0.84028,0,0,0.083333,-0,-0,0.66667
0.40519,0.92071,4.8622,0.63107,101.17,664.51,-8.1824,2.7275,-0.58828,-10.91,6.9491e-12,-0.29414,0,0,0.083333,-0,-0,0.66667
0.1838,0.8968,2.2056,0.59519,110.29,1131.5,-3.5007,1.1669,-0.73946,-4.6676,3.2559e-09,-0.36973,0,0,0.083333,-0,-0,0.66667
0.086017,0.79136,1.0322,0.43704,83.123,1353.9,-1.203,0.40099,-1.3166,-1.604,-1.6938e-08,-0.6583,0,0,0.083333,-0,-0,0.66667
0.91325,0.62485,10.959,0.18727,5.8651,18.481,-5.4729,1.8243,-1.8726,-7.2972,4.8686e-08,-0.93631,0,0,0.083333,1.6653e-15,0,0.66667
0.27731,0.32441,3.3277,-0.26338,-46.545,925.84,2.3372,-0.77907,-1.7519,3.1163,8.9753e-12,-0.87593,0,0,0.083333,-0,-0,0.66667
0.7783,0.62723,9.3396,0.19084,14.341,108.79,-4.753,1.5843,-1.8718,-6.3373,-2.1371e-11,-0.93592,0,0,0.083333,-0,-0,0.66667
0.16216,0.50909,1.9459,0.013641,2.5423,1179.9,-0.070784,0.023595,-1.9959,-0.094379,-4.4684e-10,-0.99793,0,0,0.083333,-0,-0,0.66667
0.66577,0.30113,7.9892,-0.2983,-31.741,234.71,6.3551,-2.1184,-1.6798,8.4735,-1.6245e-12,-0.83991,0,0,0.083333,-0,-0,0.66667
0.27436,0.80006,3.2923,0.45009,79.743,932.36,-3.9515,1.3172,-1.2755,-5.2687,-1.1623e-11,-0.63774,0,0,0.083333,3.9475e-16,0,0.66667
0.72525,0.54699,8.7031,0.070492,6.3747,162.68,-1.636,0.54533,-1.9782,-2.1813,-9.7411e-13,-0.98909,0,0,0.083333,-0,-0,0.66667
0.057234,0.30616,0.68681,-0.29077,-55.5,1420.3,0.53254,-0.17751,-1.6968,0.71005,1.5105e-07,-0.84839,0,0,0.083333,-9.8686e-17,0,0.66667
0.66212,0.32105,7.9454,-0.26843,-28.807,239.41,5.6874,-1.8958,-1.7404,7.5832,-9.5302e-13,-0.8702,0,0,0.083333,-0,-0,0.66667
0.056097,0.61804,0.67316,0.17707,33.792,1422.9,-0.31785,0.10595,-1.885,-0.4238,-8.1441e-08,-0.94248,0,0,0.083333,-0,-0,0.66667
0.65752,0.77573,7.8903,0.41359,44.91,245.81,-8.7022,2.9007,-1.3963,-11.603,-2.208e-12,-0.69813,0,0,0.083333,-3.9475e-16,0,0.66667
0.34971,0.85953,4.1965,0.53929,90.729,774.71,-6.0351,2.0117,-0.9621,-8.0468,7.494e-12,-0.48105,0,0,0.083333,-7.8949e-16,0,0.66667
0.73581,0.79016,8.8298,0.43524,38.153,151.88,-10.248,3.416,-1.3301,-13.664,-2.8697e-12,-0.66505,0,0,0.083333,-0,-0,0.66667
0.41791,0.029688,5.0149,-0.70547,-111.75,640.2,9.4343,-3.1448,-0.2302,12.579,-2.0115e-11,-0.1151,0,0,0.083333,-7.8949e-16,-1.8741e-17,0.66667
0.55544,0.54425,6.6652,0.066382,8.7749,395.45,-1.1799,0.39329,-1.98,-1.5732,5.3724e-13,-0.99001,0,0,0.083333,-0,-0,0.66667
0.18966,0.79106,2.2759,0.43659,80.641,1118.2,-2.6497,0.88322,-1.3242,-3.5329,5.3416e-11,-0.66209,0,0,0.083333,-0,-0,0.66667
0.27767,0.57146,3.3321,0.1072,18.934,924.98,-0.95251,0.3175,-1.9584,-1.27,-2.0335e-11,-0.97921,0,0,0.083333,-0,-0,0.66667
0.48609,0.32394,5.8331,-0.26408,-38.589,513.17,4.1078,-1.3693,-1.7548,5.4771,-2.0117e-13,-0.87741,0,0,0.083333,-0,-0,0.66667
0.04653,0.67694,0.55837,0.26541,50.714,1445.1,-0.39519,0.13173,-1.7559,-0.52692,-1.3895e-07,-0.87797,0,0,0.083333,4.9343e-17,0,0.66667
0.84893,0.83095,10.187,0.49643,26.46,53.616,-13.486,4.4953,-1.1207,-17.981,-5.5414e-09,-0.56033,0,0,0.083333,-1.579e-15,0,0.66667
0.43861,0.11627,5.2634,-0.57559,-89.115,600.56,8.0788,-2.6929,-0.82649,10.772,-2.3874e-12,-0.41325,0,0,0.083333,3.9475e-16,0,0.66667
0.1903,0.8332,2.2836,0.4998,92.325,1116.9,-3.0436,1.0145,-1.1123,-4.0581,1.6416e-10,-0.55617,0,0,0.083333,-0,-0,0.66667
0.1496,0.48883,1.7952,-0.016748,-3.1339,1208.4,0.080173,-0.026724,-1.9949,0.1069,-1.5647e-09,-0.99746,0,0,0.083333,-1.9737e-16,0,0.66667
0.12624,0.20331,1.5149,-0.44503,-83.916,1261.7,1.7978,-0.59925,-1.2996,2.397,8.6511e-10,-0.64982,0,0,0.083333,-1.9737e-16,0,0.66667
0.48221,0.23428,5.7865,-0.39858,-58.566,520.31,6.1504,-2.0501,-1.4368,8.2005,2.7156e-12,-0.7184,0,0,0.083333,-7.8949e-16,0,0.66667
0.99442,0.70979,11.933,0.31468,0.52119,0.69177,-10.014,3.3379,-1.6447,-13.352,2.0513e-06,-0.82235,0,0,0.083333,-0,-0,0.66667
0.83565,0.99353,10.028,0.7403,42.87,64.061,-19.796,6.5987,-0.047549,-26.395,4.9439e-09,-0.023774,0,0,0.083333,-7.8949e-16,0,0.66667
0.87993,0.21715,10.559,-0.42427,-18.219,34.771,11.947,-3.9822,-1.3585,15.929,7.3942e-09,-0.67924,0,0,0.083333,1.579e-15,0,0.66667
0.51326,0.48015,6.1592,-0.029782,-4.1944,465.56,0.48915,-0.16305,-1.9982,0.6522,6.5459e-12,-0.9991,0,0,0.083333,-7.8949e-16,0,0.66667
0.013105,0.87556,0.15726,0.56333,108,1522.6,-0.23623,0.078729,-0.87413,-0.31498,-2.2215e-05,-0.43707,0,0,0.083333,-0,-0,0.66667
0.78924,0.063982,9.4709,-0.65403,-47.262,100.53,16.518,-5.506,-0.47604,22.024,-1.9159e-09,-0.23802,0,0,0.083333,-0,-0,0.66667
0.91445,0.39321,10.973,-0.16019,-4.9484,17.963,4.6875,-1.5625,-1.9044,6.2501,-5.405e-08,-0.95218,0,0,0.083333,-1.0829e-15,0,0.66667
0.063162,0.50324,0.75795,0.0048624,0.92701,1406.6,-0.0098278,0.0032761,-2.0063,-0.013104,3.0319e-07,-1.0032,0,0,0.083333,3.9475e-16,0,0.66667
0.17499,0.31232,2.0999,-0.28153,-52.257,1151,1.5765,-0.52549,-1.7196,2.102,-1.0769e-10,-0.85981,0,0,0.083333,-5.3352e-16,0,0.66667
0.50956,0.72985,6.1147,0.34477,48.85,472.25,-5.6218,1.8739,-1.5736,-7.4957,-2.4665e-12,-0.78681,0,0,0.083333,-7.8949e-16,0,0.66667
0.43088,0.94451,5.1705,0.66676,104.17,615.39,-9.1933,3.0644,-0.41562,-12.258,1.4095e-12,-0.20781,0,0,0.083333,-0,-0,0.66667
0.95888,0.52057,11.507,0.030855,0.45927,4.5468,-0.94677,0.31559,-1.9931,-1.2624,2.3932e-07,-0.99656,0,0,0.083333,-0,-0,0.66667
0.98461,0.16511,11.815,-0.50233,-2.7841,2.1295,15.827,-5.2758,-1.1096,21.103,-2.9874e-06,-0.55482,0,0,0.083333,-0,-0,0.66667
0.15433,0.54281,1.852,0.064213,11.998,1197.6,-0.31712,0.10571,-1.9876,-0.42283,-6.6837e-10,-0.99382,0,0,0.083333,-3.9475e-16,0,0.66667
0.3531,0.004495,4.2373,-0.74326,-124.9,768.3,8.3983,-2.7994,-0.032647,11.198,-9.6012e-12,-0.016323,0,0,0.083333,-0,-0,0.66667
0.57686,0.067872,6.9223,-0.64819,-82.944,362.83,11.965,-3.9884,-0.5106,15.954,4.686e-12,-0.2553,0,0,0.083333,-1.579e-15,-5.6191e-17,0.66667
0.42223,0.36136,5.0667,-0.20796,-32.698,630.92,2.8097,-0.93658,-1.8525,3.7463,8.7597e-13,-0.92624,0,0,0.083333,-7.8949e-16,0,0.66667
0.5079,0.84339,6.0948,0.51509,73.226,475.51,-8.3716,2.7905,-1.0538,-11.162,-2.7436e-12,-0.52691,0,0,0.083333,3.9475e-16,0,0.66667
0.87702,0.051475,10.524,-0.67279,-29.741,37.625,18.882,-6.2938,-0.39272,25.175,-1.7225e-08,-0.19636,0,0,0.083333,-0,-0,0.66667
0.060464,0.9197,0.72557,0.62954,120.32,1413,-1.2181,0.40603,-0.59281,-1.6241,5.2729e-06,-0.29641,0,0,0.083333,-0,-0,0.66667
0.91535,0.011289,10.984,-0.73307,-22.8,20.104,21.473,-7.1575,-0.085266,28.63,2.2569e-07,-0.042633,0,0,0.083333,-0,-0,0.66667
0.31256,0.86811,3.7507,0.55217,95.512,851.51,-5.5227,1.8409,-0.92354,-7.3637,-6.4406e-12,-0.46177,0,0,0.083333,3.9475e-16,0,0.66667
0.72914,0.59123,8.7496,0.13685,12.229,158.45,-3.193,1.0643,-1.9314,-4.2574,-2.6883e-12,-0.96571,0,0,0.083333,-0,-0,0.66667
0.27511,0.53398,3.3013,0.050977,9.0171,930.46,-0.44877,0.14959,-1.988,-0.59837,-1.8414e-11,-0.99399,0,0,0.083333,7.8949e-16,0,0.66667
0.72986,0.26527,8.7584,-0.35209,-31.43,158.07,8.2233,-2.7411,-1.5568,10.964,4.0856e-14,-0.77842,0,0,0.083333,-0,-0,0.66667
0.78436,0.72778,9.4123,0.34168,25.085,103.59,-8.5759,2.8586,-1.585,-11.434,-2.6263e-11,-0.7925,0,0,0.083333,-0,-0,0.66667
0.56721,0.29885,6.8065,-0.30172,-39.145,376.94,5.4764,-1.8255,-1.6737,7.3019,6.8123e-13,-0.83686,0,0,0.083333,-0,-0,0.66667
0.11097,0.68494,1.3316,0.27741,52.467,1296.5,-0.98508,0.32836,-1.7305,-1.3134,-2.0291e-08,-0.86526,0,0,0.083333,-2.4672e-17,0,0.66667
0.1247,0.32071,1.4964,-0.26894,-50.697,1265.1,1.0732,-0.35773,-1.7496,1.4309,6.2485e-09,-0.87479,0,0,0.083333,-0,-0,0.66667
0.85571,0.090777,10.268,-0.61383,-31.439,49.835,16.808,-5.6028,-0.66024,22.411,4.008e-09,-0.33012,0,0,0.083333,4.5071e-16,-8.9316e-19,0.66667
0.93388,0.010177,11.207,-0.73474,-18.02,13.662,21.957,-7.319,-0.079703,29.276,-4.0592e-07,-0.039851,0,0,0.083333,-0,-0,0.66667
0.64865,0.4219,7.7839,-0.11715,-12.962,257.13,2.4317,-0.81056,-1.9467,3.2423,-1.3105e-12,-0.97337,0,0,0.083333,2.1331e-17,0,0.66667
0.18497,0.72501,2.2197,0.33751,62.428,1128.6,-1.9978,0.66593,-1.5965,-2.6637,-3.4575e-12,-0.79824,0,0,0.083333,-3.9475e-16,0,0.66667
0.72233,0.58377,8.6679,0.12566,11.467,165.98,-2.9045,0.96816,-1.9431,-3.8726,-7.0988e-13,-0.97153,0,0,0.083333,-0,-0,0.66667
0.22405,0.94462,2.6886,0.66693,121.54,1042.2,-4.7815,1.5938,-0.41576,-6.3754,2.1991e-10,-0.20788,0,0,0.083333,-0,-0,0.66667
0.75275,0.83358,9.0329,0.50037,41.473,134.45,-12.053,4.0176,-1.1104,-16.071,1.1466e-12,-0.55522,0,0,0.083333,7.8949e-16,0,0.66667
0.99863,0.73645,11.984,0.35467,0.026216,0.69774,-11.334,3.778,-1.5563,-15.112,2.9385e-06,-0.77813,0,0,0.083333,-0,-0,0.66667
0.92131,0.72646,11.056,0.33969,9.7032,15.798,-10.015,3.3382,-1.5958,-13.353,1.3956e-07,-0.79789,0,0,0.083333,-0,-0,0.66667
0.52727,0.85522,6.3272,0.53282,73.707,442.59,-8.9901,2.9967,-0.98903,-11.987,-1.2434e-13,-0.49452,0,0,0.083333,-0,-0,0.66667
0.62264,0.69028,7.4717,0.28543,33.414,293.5,-5.687,1.8957,-1.7127,-7.5827,-1.7053e-12,-0.85637,0,0,0.083333,-0,-0,0.66667
0.31542,0.25648,3.785,-0.36528,-62.993,845.24,3.6869,-1.229,-1.5263,4.9158,1.3944e-12,-0.76315,0,0,0.083333,-0,-0,0.66667
0.88054,0.50339,10.566,0.0050788,0.2161,33.603,-0.14311,0.047702,-1.9975,-0.19081,-1.8367e-08,-0.99874,0,0,0.083333,-0,-0,0.66667
0.86029,0.74133,10.323,0.36199,17.902,45.853,-9.9653,3.3218,-1.5391,-13.287,2.6771e-09,-0.76954,0,0,0.083333,7.8949e-16,0,0.66667
0.060565,0.46919,0.72677,-0.04621,-8.813,1412.6,0.089559,-0.029853,-1.9962,0.11941,2.2634e-07,-0.99809,0,0,0.083333,-1.9737e-16,0,0.66667
0.54964,0.49547,6.5957,-0.006794,-0.9064,404.81,0.1195,-0.039832,-2.0011,0.15933,-2.5778e-13,-1.0006,0,0,0.083333,-1.1842e-15,0,0.66667
0.38057,0.38521,4.5668,-0.17219,-28.177,712.1,2.0969,-0.69897,-1.8913,2.7959,-4.5497e-13,-0.94564,0,0,0.083333,-0,-0,0.66667
0.55684,0.59003,6.6821,0.13504,17.812,393.23,-2.4062,0.80208,-1.9326,-3.2083,4.5306e-12,-0.96629,0,0,0.083333,1.6486e-16,0,0.66667
0.18217,0.57512,2.1861,0.11268,20.852,1134.8,-0.65685,0.21895,-1.9516,-0.87581,1.4842e-10,-0.97582,0,0,0.083333,-0,-0,0.66667
0.79219,0.59841,9.5063,0.14761,10.473,96.231,-3.742,1.2473,-1.9208,-4.9893,-1.9457e-11,-0.96038,0,0,0.083333,-3.158e-15,0,0.66667
0.11789,0.92298,1.4147,0.63447,120.02,1280.9,-2.3936,0.79786,-0.56435,-3.1914,-1.8044e-07,-0.28218,0,0,0.083333,-1.3961e-16,0,0.66667
0.20303,0.13783,2.4364,-0.54325,-99.854,1088.5,3.5295,-1.1765,-0.95769,4.706,2.1342e-10,-0.47885,0,0,0.083333,-3.9475e-16,-1.1217e-16,0.66667
0.02395,0.25079,0.2874,-0.37382,-71.568,1497.4,0.28649,-0.0955,-1.5003,0.38199,-3.6184e-06,-0.75013,0,0,0.083333,-0,-0,0.66667
0.058498,0.37725,0.70198,-0.18413,-35.131,1417.4,0.34468,-0.11489,-1.879,0.45957,9.8868e-08,-0.93951,0,0,0.083333,-0,-0,0.66667
0.11918,0.33199,1.4301,-0.25201,-47.569,1277.7,0.9611,-0.32037,-1.7706,1.2815,7.9428e-09,-0.88529,0,0,0.083333,-1.9737e-16,0,0.66667
0.45136,0.15015,5.4164,-0.52478,-80.073,576.67,7.5797,-2.5266,-1.024,10.106,3.3209e-12,-0.51202,0,0,0.083333,3.9475e-16,0,0.66667
0.89569,0.94915,10.748,0.67372,25.503,28.14,-19.31,6.4367,-0.38323,-25.747,3.8198e-07,-0.19162,0,0,0.083333,-0,-0,0.66667
0.10377,0.30876,1.2452,-0.28686,-54.34,1313.1,0.95253,-0.31751,-1.7049,1.27,4.0038e-08,-0.85244,0,0,0.083333,2.4672e-16,0,0.66667
0.99739,0.48015,11.969,-0.029776,-0.012499,0.064995,0.95033,-0.31677,-1.9977,1.2671,5.7338e-06,-0.99884,0,0,0.083333,3.158e-15,0,0.66667
0.92242,0.27988,11.069,-0.33017,-9.2995,15.364,9.7459,-3.2486,-1.6195,12.995,-1.6369e-07,-0.80974,0,0,0.083333,-1.7764e-15,0,0.66667
0.12597,0.54934,1.5116,0.074016,13.943,1262.2,-0.29836,0.099454,-1.9851,-0.39782,-2.4046e-09,-0.99254,0,0,0.083333,1.9737e-16,0,0.66667
0.56161,0.92168,6.7393,0.63252,83.033,386.74,-11.367,3.7891,-0.58222,-15.156,-3.2667e-12,-0.29111,0,0,0.083333,-0,9.8671e-17,0.66667
0.57872,0.79049,6.9447,0.43574,55.474,359.23,-8.0695,2.6898,-1.3307,-10.759,-3.5634e-12,-0.66536,0,0,0.083333,1.579e-15,0,0.66667
0.78149,0.63883,9.3778,0.20824,15.452,105.89,-5.2076,1.7359,-1.8524,-6.9435,-3.1216e-11,-0.92619,0,0,0.083333,-0,-0,0.66667
0.099377,0.19821,1.1925,-0.45268,-85.889,1323.2,1.4396,-0.47986,-1.268,1.9194,5.5036e-08,-0.634,0,0,0.083333,-0,-0,0.66667
0.089059,0.7685,1.0687,0.40274,76.546,1346.9,-1.1478,0.38259,-1.4207,-1.5304,-1.2554e-08,-0.71037,0,0,0.083333,9.8686e-17,0,0.66667
0.94471,0.51726,11.337,0.025891,0.51942,7.8565,-0.78271,0.2609,-1.9932,-1.0436,-1.8226e-07,-0.99661,0,0,0.083333,-0,-0,0.66667
0.42548,0.32683,5.1058,-0.25975,-40.711,624.77,3.5366,-1.1789,-1.759,4.7155,8.4155e-14,-0.87952,0,0,0.083333,-0,-0,0.66667
0.81916,0.75611,9.8299,0.38416,24.1,74.526,-10.07,3.3567,-1.4717,-13.427,5.9172e-11,-0.73585,0,0,0.083333,1.579e-15,0,0.66667
0.78299,0.12535,9.3959,-0.56198,-41.605,105.66,14.081,-4.6936,-0.88132,18.774,-3.8949e-11,-0.44066,0,0,0.083333,3.158e-15,0,0.66667
0.8379,0.22923,10.055,-0.40616,-23.065,60.762,10.89,-3.6301,-1.4099,14.52,-5.9342e-11,-0.70496,0,0,0.083333,-0,-0,0.66667
0.13975,0.37112,1.677,-0.19332,-36.287,1230.8,0.86454,-0.28818,-1.8729,1.1527,2.0989e-09,-0.93643,0,0,0.083333,4.9343e-17,0,0.66667
0.091732,0.80778,1.1008,0.46167,87.728,1340.8,-1.3552,0.45174,-1.245,-1.8069,-3.388e-08,-0.62248,0,0,0.083333,4.9343e-17,0,0.66667
0.44285,0.43537,5.3142,-0.096951,-14.908,591.86,1.3739,-0.45797,-1.9645,1.8319,-8.018e-13,-0.98227,0,0,0.083333,1.1842e-15,0,0.66667
0.8081,0.926,9.6972,0.63901,42.467,84.438,-16.524,5.5081,-0.54605,-22.032,-8.2116e-10,-0.27303,0,0,0.083333,-7.8949e-16,0,0.66667
0.14031,0.93136,1.6838,0.64705,121.69,1229.8,-2.9053,0.96842,-0.51835,-3.8737,9.655e-08,-0.25918,0,0,0.083333,-2.9606e-16,0,0.66667
0.17975,0.85749,2.1569,0.53624,99.478,1140.5,-3.0844,1.0281,-0.97315,-4.1125,9.4073e-10,-0.48657,0,0,0.083333,-0,-0,0.66667
0.1606,0.044473,1.9272,-0.68329,-127.74,1183.8,3.5115,-1.1705,-0.33783,4.682,1.0634e-09,-0.16891,0,0,0.083333,3.9475e-16,0,0.66667
0.23062,0.062793,2.7674,-0.65581,-119.13,1027.7,4.8398,-1.6133,-0.47113,6.453,-9.1526e-10,-0.23557,0,0,0.083333,-7.8949e-16,0,0.66667
0.32804,0.40405,3.9365,-0.14392,-24.579,818.76,1.5108,-0.50361,-1.9346,2.0145,1.1637e-12,-0.96731,0,0,0.083333,-4.9343e-16,0,0.66667
0.06778,0.081351,0.81336,-0.62797,-119.91,1396.1,1.362,-0.45401,-0.5947,1.8161,5.7157e-07,-0.29735,0,0,0.083333,1.8419e-17,0,0.66667
0.38652,0.61918,4.6383,0.17877,29.097,700.29,-2.2112,0.73706,-1.8852,-2.9482,4.2832e-12,-0.94261,0,0,0.083333,-0,-0,0.66667
0.28048,0.76723,3.3658,0.40084,70.74,919.18,-3.5978,1.1993,-1.4338,-4.797,-8.6529e-12,-0.71689,0,0,0.083333,-0,-0,0.66667
0.15318,0.87575,1.8382,0.56363,105.53,1200.5,-2.7628,0.92095,-0.87189,-3.6838,-3.2043e-09,-0.43594,0,0,0.083333,3.9475e-16,5.706e-20,0.66667
0.31327,0.55583,3.7593,0.083742,14.452,849.51,-0.8395,0.27983,-1.9807,-1.1193,-4.0298e-12,-0.99033,0,0,0.083333,-3.9475e-16,0,0.66667
0.49926,0.70099,5.9911,0.30148,43.309,490.04,-4.8166,1.6055,-1.682,-6.4221,-2.7747e-12,-0.84099,0,0,0.083333,7.8949e-16,0,0.66667
0.67091,0.26949,8.0509,-0.34577,-36.347,228.17,7.4234,-2.4745,-1.5795,9.8979,-1.2474e-12,-0.78977,0,0,0.083333,-0,-0,0.66667
0.29158,0.70152,3.4989,0.30228,52.955,895.43,-2.8204,0.94013,-1.6719,-3.7605,-1.0348e-11,-0.83594,0,0,0.083333,-3.9475e-16,0,0.66667
0.48683,0.93705,5.842,0.65557,95.948,512.79,-10.213,3.4043,-0.47456,-13.617,3.0864e-12,-0.23728,0,0,0.083333,8.1416e-16,0,0.66667
0.69406,0.034591,8.3287,-0.69811,-69.415,200.66,15.505,-5.1684,-0.26404,20.673,7.3008e-13,-0.13202,0,0,0.083333,-1.579e-15,0,0.66667
0.94232,0.17582,11.308,-0.48626,-10.296,9.6874,14.663,-4.8876,-1.1566,19.551,3.344e-07,-0.57832,0,0,0.083333,-0,-0,0.66667
0.11331,0.60785,1.3598,0.16178,30.573,1291.1,-0.58662,0.19554,-1.9054,-0.78215,-1.2036e-08,-0.95268,0,0,0.083333,-0,-0,0.66667
0.37705,0.53276,4.5246,0.049137,8.0645,719.03,-0.59287,0.19762,-1.9947,-0.79049,-3.8434e-12,-0.99735,0,0,0.083333,-0,-0,0.66667
0.86667,0.21037,10.4,-0.43445,-20.591,42.275,12.049,-4.0162,-1.3249,16.065,-8.0647e-09,-0.66243,0,0,0.083333,-0,-0,0.66667
0.76793,0.81183,9.2151,0.46774,36.68,119.33,-11.494,3.8314,-1.225,-15.326,-1.0703e-10,-0.61251,0,0,0.083333,4.9343e-17,0,0.66667
0.82594,0.12599,9.9113,-0.56102,-34.09,70.098,14.828,-4.9426,-0.88402,19.77,-3.4033e-10,-0.44201,0,0,0.083333,-0,-0,0.66667
0.036904,0.38288,0.44285,-0.17568,-33.587,1467.4,0.20746,-0.069154,-1.8871,0.27662,-2.3029e-07,-0.94355,0,0,0.083333,-0,-0,0.66667
0.80406,0.38067,9.6487,-0.17899,-12.05,86.149,4.6053,-1.5351,-1.8824,6.1404,2.8187e-11,-0.94119,0,0,0.083333,-0,-0,0.66667
0.095263,0.42336,1.1432,-0.11496,-21.806,1332.6,0.35044,-0.11681,-1.9562,0.46726,2.5881e-08,-0.97808,0,0,0.083333,-0,-0,0.66667
0.35271,0.098327,4.2325,-0.60251,-101.17,768.74,6.8003,-2.2668,-0.7059,9.0671,-2.0113e-12,-0.35295,0,0,0.083333,-7.8949e-16,0,0.66667
0.23302,0.85235,2.7963,0.52852,95.81,1022.2,-3.9411,1.3137,-1.0107,-5.2548,-4.8417e-12,-0.50535,0,0,0.083333,-0,7.4684e-18,0.66667
0.98438,0.12663,11.813,-0.56006,-3.1885,2.4715,17.642,-5.8806,-0.89332,23.522,-8.3858e-06,-0.44666,0,0,0.083333,-3.158e-15,0,0.66667
0.48234,0.089524,5.7881,-0.61571,-90.596,520.64,9.5035,-3.1678,-0.65492,12.671,-3.3387e-12,-0.32746,0,0,0.083333,-0,-0,0.66667
0.28033,0.85604,3.3639,0.53407,94.329,919.7,-4.7909,1.597,-0.99058,-6.3878,-1.5171e-11,-0.49529,0,0,0.083333,-0,1.3051e-16,0.66667
0.42077,0.1314,5.0493,-0.5529,-87.214,634.28,7.4446,-2.4815,-0.91785,9.9262,-2.9634e-12,-0.45892,0,0,0.083333,-1.579e-15,0,0.66667
0.13901,0.42191,1.6681,-0.11714,-21.989,1232.4,0.52105,-0.17368,-1.9541,0.69474,1.7563e-09,-0.97705,0,0,0.083333,-1.6462e-16,0,0.66667
0.78121,0.59495,9.3746,0.14243,10.577,106.05,-3.5605,1.1868,-1.9365,-4.7474,-5.4294e-12,-0.96823,0,0,0.083333,3.158e-15,0,0.66667
0.82105,0.86609,9.8527,0.54913,34.209,73.739,-14.428,4.8092,-0.92379,-19.237,-5.0406e-10,-0.4619,0,0,0.083333,-0,-0,0.66667
0.0059699,0.80743,0.071639,0.46114,88.368,1539.1,-0.088091,0.02936,-1.2409,-0.11746,-5.1315e-06,-0.62044,0,0,0.083333,-0,-0,0.66667
0.35861,0.90751,4.3033,0.61127,102.15,756.8,-7.0146,2.3382,-0.67796,-9.3529,1.1289e-12,-0.33898,0,0,0.083333,-0,-0,0.66667
0.92793,0.57732,11.135,0.11597,3.0278,12.971,-3.4437,1.1479,-1.9483,-4.5916,1.0369e-07,-0.97415,0,0,0.083333,-0,-0,0.66667
0.55859,0.34121,6.7031,-0.23818,-31.337,390.54,4.2574,-1.4191,-1.7979,5.6766,-4.4253e-12,-0.89897,0,0,0.083333,5.6012e-16,0,0.66667
0.17029,0.65394,2.0435,0.23091,42.928,1161.6,-1.2584,0.41945,-1.8146,-1.6778,7.5258e-11,-0.90732,0,0,0.083333,2.4672e-16,0,0.66667
0.39769,0.27575,4.7722,-0.33638,-54.213,678.51,4.2807,-1.4269,-1.594,5.7076,-1.2034e-11,-0.79702,0,0,0.083333,3.9475e-16,0,0.66667
0.63071,0.012783,7.5685,-0.73083,-84.479,283.6,14.75,-4.9167,-0.097386,19.667,-1.2701e-12,-0.048693,0,0,0.083333,-0,-0,0.66667
0.7635,0.13408,9.162,-0.54888,-43.803,123.95,13.41,-4.4701,-0.93087,17.88,3.8733e-12,-0.46544,0,0,0.083333,-0,-4.9658e-17,0.66667
0.98548,0.12831,11.826,-0.55753,-2.9405,2.3639,17.582,-5.8607,-0.89998,23.443,-1.4566e-05,-0.44999,0,0,0.083333,3.158e-15,0,0.66667
0.97769,0.7979,11.732,0.44685,3.618,2.5592,-13.98,4.66,-1.2858,-18.64,-6.2427e-06,-0.64291,0,0,0.083333,-0,-0,0.66667
0.44414,0.81817,5.3296,0.47725,73.391,589.98,-6.7828,2.2609,-1.1867,-9.0438,-2.5802e-12,-0.59333,0,0,0.083333,1.579e-15,0,0.66667
0.91798,0.25069,11.016,-0.37396,-11.131,17.155,10.985,-3.6617,-1.5028,14.647,-7.4938e-08,-0.7514,0,0,0.083333,-0,-0,0.66667
0.72376,0.76704,8.6851,0.40056,36.454,164.94,-9.2772,3.0924,-1.4266,-12.37,-2.4016e-12,-0.71328,0,0,0.083333,-0,-0,0.66667
0.15494,0.29825,1.8593,-0.30262,-56.56,1196.3,1.5004,-0.50013,-1.678,2.0005,4.2614e-10,-0.83902,0,0,0.083333,1.3888e-17,0,0.66667
0.56932,0.47383,6.8318,-0.039254,-5.0711,373.33,0.71514,-0.23838,-1.991,0.95352,-2.4877e-12,-0.99551,0,0,0.083333,-0,-0,0.66667
0.52955,0.08678,6.3547,-0.61983,-85.52,439.04,10.503,-3.5012,-0.63723,14.005,-1.6938e-12,-0.31861,0,0,0.083333,-3.9475e-16,-6.8407e-17,0.66667
0.93954,0.47528,11.275,-0.037087,-0.81339,9.2863,1.115,-0.37167,-1.9976,1.4867,-5.7556e-08,-0.9988,0,0,0.083333,-0,-0,0.66667
0.69262,0.80615,8.3115,0.45922,45.705,201.38,-10.178,3.3927,-1.2477,-13.571,8.2068e-13,-0.62385,0,0,0.083333,3.9475e-16,0,0.66667
0.53942,0.84989,6.4731,0.52484,71.292,422.34,-9.0595,3.0198,-1.0168,-12.079,-1.7923e-12,-0.50839,0,0,0.083333,-0,-0,0.66667
0.91872,0.2421,11.025,-0.38684,-11.417,16.923,11.373,-3.791,-1.468,15.164,-8.144e-08,-0.73402,0,0,0.083333,-7.8949e-16,0,0.66667
0.080916,0.2071,0.971,-0.43935,-83.635,1365.7,1.1376,-0.37921,-1.3141,1.5168,6.3327e-08,-0.65707,0,0,0.083333,-9.8686e-17,0,0.66667
0.30942,0.1449,3.7131,-0.53265,-92.322,858.05,5.274,-1.758,-0.99121,7.032,-3.8756e-12,-0.4956,0,0,0.083333,3.9475e-16,0,0.66667
0.36636,0.72165,4.3963,0.33247,55.11,740.66,-3.8977,1.2992,-1.6038,-5.1969,7.4274e-12,-0.80189,0,0,0.083333,-0,-0,0.66667
0.011747,0.3301,0.14096,-0.25485,-48.792,1525.7,0.095798,-0.031933,-1.7676,0.12773,2.6549e-07,-0.8838,0,0,0.083333,-1.2336e-17,0,0.66667
0.54516,0.50094,6.5419,0.0014064,0.18896,412.12,-0.024535,0.0081783,-2.0042,-0.032713,5.1052e-12,-1.0021,0,0,0.083333,-0,-0,0.66667
0.38558,0.59638,4.6269,0.14457,23.55,702.15,-1.7838,0.59459,-1.9239,-2.3784,3.3926e-12,-0.96193,0,0,0.083333,-0,-0,0.66667
0.46514,0.19373,5.5817,-0.4594,-68.954,551.21,6.838,-2.2793,-1.2491,9.1173,1.1284e-12,-0.62457,0,0,0.083333,-0,-0,0.66667
0.052614,0.35369,0.63137,-0.21947,-41.905,1431,0.36951,-0.12317,-1.8253,0.49268,7.8067e-08,-0.91266,0,0,0.083333,-0,-0,0.66667
0.98055,0.26454,11.767,-0.35319,-2.452,1.8492,11.082,-3.694,-1.5551,14.776,2.4981e-06,-0.77753,0,0,0.083333,-1.579e-15,0,0.66667
0.87537,0.80673,10.504,0.4601,20.48,37.406,-12.888,4.2961,-1.2541,-17.184,-2.9363e-09,-0.62707,0,0,0.083333,1.9737e-15,0,0.66667
0.31262,0.25213,3.7514,-0.37181,-64.248,851.11,3.7195,-1.2398,-1.5166,4.9593,5.7649e-12,-0.75832,0,0,0.083333,-7.8949e-16,0,0.66667
0.081769,0.19176,0.98123,-0.46237,-88.013,1363.7,1.2098,-0.40328,-1.2397,1.6131,3.937e-08,-0.61983,0,0,0.083333,1.9737e-16,0,0.66667
0.1066,0.10151,1.2792,-0.59774,-113.34,1306.7,2.039,-0.67968,-0.73045,2.7187,-1.3067e-07,-0.36522,0,0,0.083333,-0,-5.5783e-17,0.66667
0.11128,0.15852,1.3353,-0.51222,-96.969,1295.9,1.824,-0.60799,-1.0706,2.432,-2.6667e-09,-0.5353,0,0,0.083333,3.9475e-16,0,0.66667
0.31416,0.97084,3.77,0.70625,122.17,848.47,-7.1001,2.3667,-0.23058,-9.4668,-9.9618e-12,-0.11529,0,0,0.083333,-0,-0,0.66667
0.74672,0.34448,8.9607,-0.23328,-19.693,139.85,5.5743,-1.8581,-1.8075,7.4324,-1.6742e-12,-0.90376,0,0,0.083333,3.158e-15,0,0.66667
0.86782,0.0019669,10.414,-0.74705,-35.408,43.309,20.746,-6.9153,-0.012611,27.661,1.133e-08,-0.0063057,0,0,0.083333,-0,-0,0.66667
0.45038,0.92507,5.4046,0.6376,97.485,578.8,-9.1892,3.0631,-0.55506,-12.252,-2.0508e-12,-0.27753,0,0,0.083333,-0,-1.1018e-16,0.66667
0.7354,0.7774,8.8248,0.41609,36.516,152.26,-9.7919,3.264,-1.3898,-13.056,5.2403e-13,-0.69488,0,0,0.083333,7.8949e-16,0,0.66667
0.19541,0.90556,2.3449,0.60834,112.22,1105.6,-3.8041,1.268,-0.68125,-5.0721,-2.5838e-09,-0.34063,0,0,0.083333,-6.1679e-17,0,0.66667
0.1939,0.052008,2.3269,-0.67199,-124.09,1109,4.1697,-1.3899,-0.39052,5.5595,-2.1824e-09,-0.19526,0,0,0.083333,-0,-0,0.66667
0.36744,0.091851,4.4093,-0.61222,-101.56,739,7.1986,-2.3995,-0.66417,9.5982,-7.4838e-12,-0.33209,0,0,0.083333,8.8818e-16,0,0.66667
0.34924,0.47648,4.1909,-0.035287,-5.9281,775.13,0.39435,-0.13145,-1.9926,0.5258,-3.7378e-12,-0.99628,0,0,0.083333,-0,-0,0.66667
0.30208,0.6383,3.6249,0.20745,36.083,873.11,-2.0053,0.66843,-1.8439,-2.6737,-1.4311e-11,-0.92193,0,0,0.083333,-0,-0,0.66667
0.54976,0.12317,6.5971,-0.56524,-75.583,405.55,9.9439,-3.3146,-0.86554,13.258,-2.6557e-13,-0.43277,0,0,0.083333,-9.8686e-16,0,0.66667
0.012695,0.45907,0.15234,-0.061393,-11.75,1523.5,0.024941,-0.0083147,-1.9869,0.033254,-1.6435e-06,-0.99347,0,0,0.083333,-0,-0,0.66667
0.35923,0.86273,4.3108,0.54409,90.834,755.39,-6.2545,2.0848,-0.95433,-8.3393,2.8693e-12,-0.47717,0,0,0.083333,-0,-1.0937e-16,0.66667
0.68499,0.67585,8.2199,0.26377,26.746,210.23,-5.7818,1.9273,-1.7537,-7.7091,-5.1159e-13,-0.87683,0,0,0.083333,7.8949e-16,0,0.66667
0.20754,0.64976,2.4905,0.22464,41.153,1078.2,-1.4919,0.4973,-1.8189,-1.9892,3.8866e-11,-0.90945,0,0,0.083333,1.9737e-16,0,0.66667
0.18084,0.94673,2.1701,0.6701,124.37,1138.2,-3.8777,1.2926,-0.3995,-5.1703,-9.4297e-09,-0.19975,0,0,0.083333,-0,-0,0.66667
0.29412,0.78172,3.5294,0.42259,73.95,890.18,-3.9772,1.3257,-1.3671,-5.303,-8.9695e-12,-0.68354,0,0,0.083333,-0,-0,0.66667
0.0056085,0.85954,0.067302,0.53931,103.39,1540,-0.096784,0.032255,-0.96231,-0.12905,-9.1681e-06,-0.48115,0,0,0.083333,-0,-5.0404e-17,0.66667
0.34478,0.093471,4.1374,-0.60979,-103.04,784.92,6.7279,-2.2426,-0.68387,8.9706,-5.0271e-13,-0.34193,0,0,0.083333,-9.2519e-16,0,0.66667
0.8284,0.54598,9.9409,0.068969,4.1147,66.899,-1.8283,0.60943,-1.9895,-2.4377,-4.44e-11,-0.99476,0,0,0.083333,-0,-0,0.66667
0.022289,0.46279,0.26747,-0.055819,-10.68,1501.3,0.039813,-0.013271,-1.9854,0.053085,2.8359e-07,-0.99268,0,0,0.083333,1.2336e-17,0,0.66667
0.030319,0.51366,0.36383,0.020497,3.9199,1482.6,-0.019887,0.0066299,-2.0031,-0.026515,1.4644e-06,-1.0016,0,0,0.083333,-9.8686e-17,0,0.66667
0.37436,0.48691,4.4923,-0.019641,-3.2312,724.41,0.23529,-0.07843,-2.0041,0.31372,2.375e-12,-1.002,0,0,0.083333,-0,-0,0.66667
0.06536,0.46196,0.78432,-0.057059,-10.875,1401.5,0.11934,-0.03978,-1.9892,0.15912,5.6476e-08,-0.9946,0,0,0.083333,4.9343e-17,0,0.66667
0.85305,0.87188,10.237,0.55782,29.019,51.232,-15.227,5.0757,-0.89068,-20.303,1.2109e-09,-0.44534,0,0,0.083333,3.9475e-16,0,0.66667
0.36355,0.95926,4.3626,0.68889,114.72,747.02,-8.0143,2.6714,-0.31099,-10.686,8.1446e-13,-0.1555,0,0,0.083333,-0,-0,0.66667
0.70869,0.054388,8.5042,-0.66842,-63.801,183.18,15.158,-5.0528,-0.40833,20.211,5.0973e-12,-0.20417,0,0,0.083333,7.8949e-16,0,0.66667
0.34251,0.84271,4.1101,0.51407,86.963,789.38,-5.6343,1.8781,-1.0657,-7.5124,6.8558e-12,-0.53284,0,0,0.083333,4.9343e-17,0,0.66667
0.28541,0.31991,3.425,-0.27014,-47.504,908.52,2.4672,-0.8224,-1.7391,3.2896,2.6199e-12,-0.86955,0,0,0.083333,-0,-0,0.66667
0.0054914,0.54289,0.065897,0.064328,12.313,1540.3,-0.011304,0.0037668,-1.982,-0.015073,-1.8084e-06,-0.99098,0,0,0.083333,-0,-0,0.66667
0.27003,0.96627,3.2404,0.69941,124.44,942.08,-6.0437,2.0146,-0.25966,-8.0582,-6.4819e-12,-0.12983,0,0,0.083333,9.8686e-17,0,0.66667
0.55821,0.31488,6.6985,-0.27767,-36.561,391.21,4.96,-1.6533,-1.725,6.6133,-3.3591e-12,-0.86249,0,0,0.083333,-0,-0,0.66667
0.39521,0.10285,4.7425,-0.59572,-96.385,683.87,7.5339,-2.5113,-0.73601,10.045,-1.0685e-12,-0.36801,0,0,0.083333,7.8949e-16,0,0.66667
0.84515,0.74048,10.142,0.36073,19.627,55.613,-9.7558,3.2519,-1.541,-13.008,3.1515e-10,-0.77051,0,0,0.083333,-0,-0,0.66667
0.25356,0.77002,3.0428,0.40503,72.598,977.22,-3.2864,1.0955,-1.4158,-4.3819,-4.0203e-12,-0.70792,0,0,0.083333,3.9475e-16,0,0.66667
0.92019,0.55431,11.042,0.081458,2.3499,15.675,-2.3986,0.79954,-1.9795,-3.1982,4.7686e-08,-0.98976,0,0,0.083333,7.8949e-16,0,0.66667
0.14496,0.19467,1.7395,-0.458,-85.92,1219.1,2.1245,-0.70817,-1.2525,2.8327,3.407e-10,-0.62626,0,0,0.083333,-0,-0,0.66667
0.48392,0.9817,5.807,0.72256,106.21,518.21,-11.189,3.7297,-0.14965,-14.919,-2.1361e-12,-0.074825,0,0,0.083333,1.579e-15,0,0.66667
0.20199,0.34741,2.4238,-0.22888,-42.032,1090.6,1.4794,-0.49314,-1.8188,1.9725,-5.0241e-11,-0.9094,0,0,0.083333,7.8949e-16,0,0.66667
0.11218,0.70238,1.3462,0.30357,57.404,1293.8,-1.0898,0.36326,-1.6727,-1.453,-1.7481e-08,-0.83634,0,0,0.083333,-0,-0,0.66667
0.078936,0.89002,0.94723,0.58504,111.49,1370.3,-1.4778,0.49259,-0.78799,-1.9704,-4.544e-08,-0.39399,0,0,0.083333,9.8686e-17,0,0.66667
0.097961,0.085307,1.1755,-0.62204,-118.17,1326.6,1.9499,-0.64998,-0.62261,2.5999,-5.1471e-08,-0.31131,0,0,0.083333,-0,-0,0.66667
0.44342,0.31687,5.3211,-0.27469,-42.232,590.95,3.8978,-1.2993,-1.7288,5.1971,1.2228e-12,-0.8644,0,0,0.083333,-0,-0,0.66667
0.49394,0.86576,5.9272,0.54864,79.489,499.92,-8.6717,2.8906,-0.92617,-11.562,5.5627e-12,-0.46309,0,0,0.083333,-7.8949e-16,0,0.66667
0.29445,0.90543,3.5334,0.60815,106.52,889.77,-5.7302,1.9101,-0.68763,-7.6403,-3.3328e-11,-0.34381,0,0,0.083333,-4.9343e-17,0,0.66667
0.71033,0.70738,8.524,0.31106,29.439,179.95,-7.0707,2.3569,-1.6517,-9.4276,1.4873e-12,-0.82584,0,0,0.083333,-7.8949e-16,0,0.66667
0.0215,0.4948,0.258,-0.007805,-1.4933,1503.1,0.0053699,-0.0017908,-1.9968,0.0071594,-1.291e-06,-0.99839,0,0,0.083333,4.9738e-17,0,0.66667
0.30959,0.66677,3.7151,0.25015,43.296,857.33,-2.4783,0.82609,-1.7778,-3.3043,-3.9477e-12,-0.88891,0,0,0.083333,-7.8949e-16,0,0.66667
0.84278,0.99771,10.113,0.74657,41.524,59.141,-20.134,6.7114,-0.024032,-26.846,-4.2356e-09,-0.012016,0,0,0.083333,-4.737e-15,2.6789e-17,0.66667
0.54746,0.3655,6.5695,-0.20176,-27.018,408.48,3.5345,-1.1782,-1.8611,4.7126,1.2557e-12,-0.93055,0,0,0.083333,-7.8949e-16,0,0.66667
0.05517,0.16096,0.66204,-0.50857,-97.187,1425.2,0.89784,-0.29928,-1.0768,1.1971,-4.7679e-07,-0.5384,0,0,0.083333,-0,-0,0.66667
0.51017,0.8193,6.122,0.47895,67.859,471.5,-7.819,2.6063,-1.1815,-10.425,-3.5625e-12,-0.59075,0,0,0.083333,-0,-0,0.66667
0.29425,0.90758,3.5311,0.61137,107.1,890.19,-5.7568,1.9189,-0.67314,-7.6757,-3.6205e-11,-0.33657,0,0,0.083333,7.8949e-16,1.0657e-16,0.66667
0.16633,0.020615,1.9959,-0.71908,-134.21,1170.9,3.8273,-1.2758,-0.1582,5.103,1.4168e-08,-0.079101,0,0,0.083333,-0,-0,0.66667
0.67928,0.38913,8.1514,-0.1663,-17.105,217.2,3.615,-1.205,-1.8972,4.82,-4.0348e-12,-0.94862,0,0,0.083333,-0,-0,0.66667
0.19682,0.54707,2.3618,0.070602,12.99,1102,-0.44466,0.14822,-1.9782,-0.59289,2.9314e-11,-0.98912,0,0,0.083333,3.9475e-16,0,0.66667
0.39589,0.89271,4.7507,0.58907,95.243,682.52,-7.4626,2.4875,-0.76302,-9.9502,6.3478e-12,-0.38151,0,0,0.083333,-7.8949e-16,0,0.66667
0.72776,0.28688,8.7332,-0.31969,-28.718,160.28,7.445,-2.4817,-1.6331,9.9267,3.1974e-14,-0.81656,0,0,0.083333,-0,-0,0.66667
0.80994,0.72485,9.7192,0.33727,22.119,81.68,-8.7413,2.9138,-1.597,-11.655,-5.9483e-11,-0.7985,0,0,0.083333,-0,-0,0.66667
0.60148,0.7141,7.2178,0.32115,39.2,324.41,-6.1814,2.0605,-1.6297,-8.2419,-7.1143e-13,-0.81483,0,0,0.083333,7.8949e-16,0,0.66667
0.13081,0.80871,1.5697,0.46306,87.219,1251.3,-1.9383,0.6461,-1.2349,-2.5844,-6.9834e-09,-0.61744,0,0,0.083333,-0,-0,0.66667
0.01089,0.87638,0.13069,0.56457,108.24,1527.7,-0.19674,0.065562,-0.86545,-0.26233,-2.7519e-05,-0.43272,0,0,0.083333,-0,-0,0.66667
0.29257,0.67485,3.5109,0.26227,45.911,893.28,-2.4555,0.81849,-1.7534,-3.274,-1.3462e-11,-0.87669,0,0,0.083333,-3.9475e-16,0,0.66667
0.48388,0.98115,5.8066,0.72172,106.09,518.26,-11.175,3.7251,-0.15386,-14.901,2.5757e-14,-0.076928,0,0,0.083333,-0,9.4479e-17,0.66667
0.075671,0.54659,0.90805,0.069881,13.3,1377.7,-0.16921,0.056404,-1.9837,-0.22562,-2.0173e-08,-0.99184,0,0,0.083333,9.8686e-17,0,0.66667
0.083491,0.55471,1.0019,0.082062,15.599,1359.7,-0.21925,0.073082,-1.9732,-0.29233,-3.3247e-08,-0.98658,0,0,0.083333,-0,-0,0.66667
0.97949,0.95961,11.754,0.68942,5.3106,3.7938,-21.609,7.203,-0.30745,-28.812,-5.1429e-05,-0.15373,0,0,0.083333,-0,-0,0.66667
0.62427,0.98317,7.4913,0.72475,84.895,292.66,-14.478,4.826,-0.13755,-19.304,7.6383e-13,-0.068777,0,0,0.083333,-0,-9.8098e-17,0.66667
0.82291,0.23267,9.8749,-0.401,-24.688,71.708,10.56,-3.5199,-1.4251,14.079,5.4735e-11,-0.71255,0,0,0.083333,-1.579e-15,0,0.66667
0.78101,0.77624,9.3721,0.41436,30.861,106.86,-10.356,3.4519,-1.3969,-13.808,-2.931e-14,-0.69843,0,0,0.083333,4.6245e-16,0,0.66667
0.51024,0.88808,6.1229,0.58212,82.535,471.68,-9.5047,3.1682,-0.79184,-12.673,-2.6121e-12,-0.39592,0,0,0.083333,-0,-0,0.66667
0.60696,0.87777,7.2835,0.56665,68.574,317.01,-11.006,3.6687,-0.86061,-14.675,1.247e-12,-0.4303,0,0,0.083333,-1.579e-15,0,0.66667
0.28245,0.58043,3.3894,0.12065,21.248,914.76,-1.0905,0.3635,-1.9522,-1.454,-2.4859e-11,-0.9761,0,0,0.083333,3.9475e-16,0,0.66667
0.936,0.6952,11.232,0.2928,6.8211,10.753,-8.7698,2.9233,-1.6988,-11.693,2.3724e-07,-0.84939,0,0,0.083333,-0,-0,0.66667
0.61687,0.87202,7.4024,0.55803,66.227,302.55,-11.015,3.6718,-0.88945,-14.687,-3.519e-12,-0.44473,0,0,0.083333,3.9475e-16,0,0.66667
0.40685,0.23849,4.8822,-0.39227,-62.682,660.76,5.107,-1.7023,-1.4585,6.8093,-4.5612e-12,-0.72926,0,0,0.083333,-0,-0,0.66667
0.050178,0.86192,0.60214,0.54289,103.82,1436.7,-0.87171,0.29057,-0.95156,-1.1623,-8.3014e-07,-0.47578,0,0,0.083333,-0,-0,0.66667
0.10484,0.33565,1.2581,-0.24652,-46.683,1310.6,0.82709,-0.2757,-1.7819,1.1028,3.2272e-08,-0.89095,0,0,0.083333,-9.8686e-17,0,0.66667
0.44394,0.88971,5.3273,0.58457,89.984,590.62,-8.3045,2.7682,-0.78087,-11.073,-1.1075e-11,-0.39044,0,0,0.083333,-0,-0,0.66667
0.023763,0.31514,0.28515,-0.2773,-53.071,1497.9,0.21086,-0.070287,-1.7233,0.28114,-1.8923e-06,-0.86166,0,0,0.083333,-0,-0,0.66667
0.28857,0.67346,3.4629,0.26019,45.662,901.79,-2.4026,0.80088,-1.7549,-3.2035,-1.4731e-11,-0.87744,0,0,0.083333,3.9475e-16,0,0.66667
0.2149,0.54192,2.5787,0.062874,11.478,1061.9,-0.43236,0.14412,-1.9846,-0.57649,-1.8342e-11,-0.99232,0,0,0.083333,-3.9475e-16,0,0.66667
0.22151,0.077142,2.6581,-0.63429,-115.7,1047.7,4.496,-1.4987,-0.56996,5.9947,-3.3419e-11,-0.28498,0,0,0.083333,3.9475e-16,0,0.66667
0.19268,0.10631,2.3122,-0.59054,-109.04,1111.6,3.6412,-1.2137,-0.75698,4.8549,9.2388e-10,-0.37849,0,0,0.083333,-0,-0,0.66667
0.83915,0.32154,10.07,-0.26769,-15.068,59.468,7.1883,-2.3961,-1.743,9.5844,-1.7572e-10,-0.87151,0,0,0.083333,1.579e-15,0,0.66667
0.46604,0.14617,5.5925,-0.53074,-79.615,549.75,7.9152,-2.6384,-0.99918,10.554,1.7253e-12,-0.49959,0,0,0.083333,-0,-0,0.66667
0.54314,0.98238,6.5177,0.72357,97.913,416.94,-12.576,4.192,-0.13724,-16.768,2.1316e-12,-0.06862,0,0,0.083333,7.8949e-16,9.7073e-17,0.66667
0.58082,0.14268,6.9698,-0.53598,-68.039,356.29,9.9617,-3.3206,-0.97918,13.282,2.3093e-12,-0.48959,0,0,0.083333,-7.8949e-16,0,0.66667
0.094346,0.70767,1.1322,0.31151,59.127,1334.7,-0.94047,0.31349,-1.6606,-1.254,-4.6445e-08,-0.83032,0,0,0.083333,-0,-0,0.66667
0.064011,0.39216,0.76813,-0.16175,-30.839,1404.6,0.33133,-0.11044,-1.9101,0.44177,1.23e-07,-0.95507,0,0,0.083333,-9.8686e-17,0,0.66667
0.98681,0.23433,11.842,-0.39851,-1.8382,1.459,12.584,-4.1947,-1.4364,16.779,-1.0023e-06,-0.71821,0,0,0.083333,-1.579e-15,0,0.66667
0.28383,0.89667,3.406,0.595,104.91,912.32,-5.4042,1.8014,-0.74226,-7.2056,-8.2663e-12,-0.37113,0,0,0.083333,3.9475e-16,0,0.66667
0.1419,0.27554,1.7028,-0.33669,-63.186,1225.9,1.5289,-0.50962,-1.6014,2.0385,1.6415e-09,-0.80068,0,0,0.083333,2.9606e-16,0,0.66667
0.018779,0.25641,0.22535,-0.36538,-69.966,1509.4,0.21957,-0.073191,-1.5256,0.29276,-2.4658e-06,-0.7628,0,0,0.083333,-4.9343e-17,0,0.66667
0.87071,0.11263,10.448,-0.58105,-26.848,40.621,16.19,-5.3965,-0.79755,21.586,-4.8341e-09,-0.39877,0,0,0.083333,-1.579e-15,0,0.66667
0.17375,0.67566,2.0849,0.26349,48.929,1153.8,-1.465,0.48833,-1.7555,-1.9533,9.7745e-11,-0.87777,0,0,0.083333,1.9737e-16,0,0.66667
0.17154,0.66201,2.0584,0.24301,45.158,1158.8,-1.3339,0.44464,-1.797,-1.7786,8.6347e-11,-0.89848,0,0,0.083333,3.9475e-16,0,0.66667
0.3727,0.75567,4.4724,0.38351,63.241,728.02,-4.5738,1.5246,-1.4791,-6.0984,1.7892e-12,-0.73955,0,0,0.083333,-0,-0,0.66667
0.18251,0.071959,2.1901,-0.64206,-119.07,1134.5,3.7498,-1.2499,-0.53157,4.9998,1.0888e-08,-0.26578,0,0,0.083333,-0,-0,0.66667
0.44101,0.26331,5.2921,-0.35503,-54.748,595.59,5.0103,-1.6701,-1.551,6.6804,-4.5941e-12,-0.77548,0,0,0.083333,-0,-0,0.66667
0.57868,0.74507,6.9441,0.36761,46.782,359.13,-6.8072,2.2691,-1.526,-9.0763,1.2443e-12,-0.76299,0,0,0.083333,-0,-0,0.66667
0.83616,0.99925,10.034,0.74887,43.254,63.756,-20.038,6.6792,-0.0030914,-26.717,2.126e-09,-0.0015457,0,0,0.083333,-4.9343e-15,0,0.66667
0.58829,0.88145,7.0595,0.57217,71.697,344.96,-10.771,3.5905,-0.83317,-14.362,-6.0227e-12,-0.41658,0,0,0.083333,1.579e-15,0,0.66667
0.92403,0.29377,11.088,-0.30934,-8.5314,14.723,9.1469,-3.049,-1.6615,12.196,-1.8735e-07,-0.83075,0,0,0.083333,-0,-0,0.66667
0.48128,0.086455,5.7754,-0.62032,-91.399,522.55,9.5536,-3.1845,-0.63213,12.738,-4.345e-12,-0.31607,0,0,0.083333,7.8949e-16,0,0.66667
0.62184,0.13831,7.4621,-0.54254,-63.736,295.35,10.796,-3.5987,-0.95315,14.395,6.33e-12,-0.47657,0,0,0.083333,-1.579e-15,0,0.66667
0.44171,0.99171,5.3005,0.73757,113.97,595.27,-10.425,3.4751,-0.064143,-13.9,-4.4196e-12,-0.032072,0,0,0.083333,7.8949e-16,0,0.66667
0.91251,0.81749,10.95,0.47623,15.134,19.712,-13.906,4.6354,-1.1904,-18.541,2.4237e-08,-0.5952,0,0,0.083333,-0,-0,0.66667
0.71041,0.32137,8.5249,-0.26794,-25.346,179.76,6.0912,-2.0304,-1.7406,8.1216,-7.0877e-13,-0.87031,0,0,0.083333,-0,-0,0.66667
0.6028,0.34505,7.2336,-0.23242,-28.287,322.3,4.4833,-1.4944,-1.8052,5.9777,2.9936e-12,-0.90259,0,0,0.083333,-1.579e-15,0,0.66667
0.84339,0.48622,10.121,-0.020668,-1.1336,56.224,0.55779,-0.18593,-2.0047,0.74372,4.8564e-10,-1.0023,0,0,0.083333,-0,-0,0.66667
0.9065,0.013038,10.878,-0.73044,-24.979,23.685,21.189,-7.0629,-0.10951,28.251,7.2437e-07,-0.054753,0,0,0.083333,-3.158e-15,0,0.66667
0.57799,0.65976,6.9358,0.23964,30.514,359.96,-4.4322,1.4774,-1.8037,-5.9097,1.9318e-12,-0.90184,0,0,0.083333,-0,-0,0.66667
0.2076,0.6129,2.4911,0.16935,31.02,1078.1,-1.125,0.375,-1.8958,-1.5,2.3257e-11,-0.94789,0,0,0.083333,-0,-0,0.66667
0.33309,0.014867,3.9971,-0.7277,-124.19,809.22,7.7565,-2.5855,-0.11425,10.342,-1.9886e-12,-0.057126,0,0,0.083333,-0,-0,0.66667
0.92001,0.49872,11.04,-0.0019155,-0.055363,15.708,0.056393,-0.018798,-2.0037,0.075191,-8.4526e-08,-1.0019,0,0,0.083333,-4.737e-15,0,0.66667
0.49116,0.22704,5.8939,-0.40944,-59.481,504.46,6.4352,-2.1451,-1.4,8.5803,4.7207e-13,-0.70002,0,0,0.083333,-0,-0,0.66667
0.84515,0.33226,10.142,-0.25161,-13.672,55.312,6.8046,-2.2682,-1.7785,9.0728,-4.4043e-10,-0.88923,0,0,0.083333,-0,-0,0.66667
0.49158,0.99983,5.8989,0.74975,109.17,504.75,-11.794,3.9313,0.0014052,-15.725,-3.8964e-12,0.00070261,0,0,0.083333,1.4803e-15,0,0.66667
0.048249,0.91957,0.57898,0.62936,120.45,1441.2,-0.97169,0.32389,-0.59519,-1.2956,-5.4764e-06,-0.29759,0,0,0.083333,-0,-0,0.66667
0.58842,0.035467,7.0611,-0.6968,-87.408,345.26,13.12,-4.3735,-0.27129,17.494,-3.8751e-12,-0.13565,0,0,0.083333,-0,-0,0.66667
0.97989,0.095195,11.759,-0.60721,-4.5201,3.1945,19.04,-6.3466,-0.68808,25.387,2.0309e-05,-0.34404,0,0,0.083333,3.158e-15,0,0.66667
0.15147,0.91791,1.8176,0.62686,117.49,1204.4,-3.0383,1.0128,-0.60021,-4.0511,-3.5416e-08,-0.30011,0,0,0.083333,-0,-0,0.66667
0.62692,0.7816,7.5231,0.4224,49.057,287.74,-8.474,2.8247,-1.3694,-11.299,9.8055e-13,-0.68472,0,0,0.083333,-0,-0,0.66667
0.64441,0.94021,7.733,0.66032,74.046,264.33,-13.617,4.5389,-0.44951,-18.155,-1.057e-11,-0.22476,0,0,0.083333,1.579e-15,0,0.66667
0.10623,0.51827,1.2747,0.027401,5.1856,1307.4,-0.093142,0.031047,-1.9971,-0.12419,-1.2931e-08,-0.99854,0,0,0.083333,-0,-0,0.66667
0.29898,0.936,3.5877,0.654,114.25,880.28,-6.257,2.0857,-0.48241,-8.3426,-7.2342e-13,-0.24121,0,0,0.083333,1.4803e-16,0,0.66667
0.38954,0.42618,4.6744,-0.11073,-17.971,694.3,1.3803,-0.4601,-1.9607,1.8404,-2.823e-12,-0.98037,0,0,0.083333,-0,-0,0.66667
0.95436,0.18962,11.452,-0.46557,-7.8058,6.6047,14.218,-4.7394,-1.2344,18.958,-1.9561e-06,-0.61721,0,0,0.083333,3.158e-15,0,0.66667
0.57675,0.84837,6.9211,0.52255,66.798,362.54,-9.6442,3.2147,-1.0335,-12.859,2.9496e-12,-0.51673,0,0,0.083333,-0,-0,0.66667
0.087358,0.64723,1.0483,0.22084,41.96,1350.8,-0.61735,0.20578,-1.8228,-0.82314,-5.173e-08,-0.91141,0,0,0.083333,-0,-0,0.66667
0.10716,0.037267,1.2859,-0.6941,-131.68,1305.5,2.3801,-0.79338,-0.28921,3.1735,1.0576e-06,-0.14461,0,0,0.083333,-0,6.1374e-17,0.66667
0.95368,0.43728,11.444,-0.094083,-1.5806,5.6987,2.8712,-0.95707,-1.9758,3.8283,-8.0179e-08,-0.98791,0,0,0.083333,-1.2336e-16,0,0.66667
0.80534,0.53954,9.6641,0.059309,3.9674,84.96,-1.5285,0.50949,-1.9835,-2.0379,-7.8823e-11,-0.99174,0,0,0.083333,-0,-0,0.66667
0.4283,0.67811,5.1396,0.26717,41.751,619.41,-3.6617,1.2206,-1.7424,-4.8823,-5.6954e-12,-0.87118,0,0,0.083333,-3.9475e-16,0,0.66667
0.67249,0.83457,8.0699,0.50186,52.618,226.62,-10.8,3.6,-1.1102,-14.4,2.1281e-12,-0.55512,0,0,0.083333,-7.8949e-16,0,0.66667
0.21193,0.078488,2.5431,-0.63227,-115.84,1068.9,4.2879,-1.4293,-0.57434,5.7172,4.2672e-10,-0.28717,0,0,0.083333,1.4377e-16,0,0.66667
0.52016,0.56299,6.242,0.09449,13.179,453.81,-1.5728,0.52427,-1.9674,-2.0971,8.7685e-13,-0.98372,0,0,0.083333,-1.579e-15,0,0.66667
0.97554,0.0057962,11.706,-0.74131,-6.8673,4.642,23.142,-7.7139,-0.042249,30.856,1.6904e-05,-0.021125,0,0,0.083333,-0,-0,0.66667
0.83042,0.74754,9.9651,0.37132,21.965,66.002,-9.8672,3.2891,-1.5123,-13.156,-3.3336e-10,-0.75617,0,0,0.083333,-0,-0,0.66667
0.21598,0.68595,2.5918,0.27893,50.916,1059.5,-1.9278,0.64259,-1.7252,-2.5704,4.3719e-11,-0.86258,0,0,0.083333,-4.9343e-17,0,0.66667
0.44842,0.3499,5.3811,-0.22516,-34.418,581.58,3.2309,-1.077,-1.8178,4.3079,-6.2677e-12,-0.90888,0,0,0.083333,-0,-0,0.66667
0.57268,0.07627,6.8722,-0.63559,-81.907,369.28,11.648,-3.8826,-0.56025,15.53,2.7116e-12,-0.28013,0,0,0.083333,-0,-0,0.66667
0.5708,0.13038,6.8496,-0.55443,-71.621,371.93,10.127,-3.3757,-0.90334,13.503,1.1546e-13,-0.45167,0,0,0.083333,-0,-0,0.66667
0.93053,0.94964,11.166,0.67447,17.293,14.302,-20.083,6.6945,-0.37831,-26.778,3.9767e-06,-0.18916,0,0,0.083333,-1.579e-15,0,0.66667
0.2551,0.60925,3.0612,0.16388,29.326,973.71,-1.3378,0.44592,-1.9015,-1.7837,1.0959e-12,-0.95073,0,0,0.083333,-0,-0,0.66667
0.65634,0.52892,7.8761,0.04338,4.7158,246.79,-0.91111,0.3037,-2.0015,-1.2148,-3.647e-12,-1.0008,0,0,0.083333,3.9475e-16,0,0.66667
0.78125,0.10612,9.375,-0.59082,-44.07,107.39,14.77,-4.9235,-0.76619,19.694,5.6381e-10,-0.3831,0,0,0.083333,-0,-0,0.66667
0.11597,0.14207,1.3917,-0.53689,-101.54,1285.2,1.9925,-0.66415,-0.97092,2.6566,1.3255e-08,-0.48546,0,0,0.083333,-1.9737e-16,0,0.66667
0.52639,0.76906,6.3167,0.40359,55.851,443.72,-6.7983,2.2661,-1.4181,-9.0644,1.3736e-12,-0.70906,0,0,0.083333,-7.8949e-16,0,0.66667
0.41234,0.50357,4.9481,0.0053589,0.85083,649.79,-0.07071,0.02357,-1.997,-0.09428,1.9802e-12,-0.9985,0,0,0.083333,-0,-0,0.66667
0.50229,0.04608,6.0275,-0.68088,-97.676,485.75,10.944,-3.648,-0.35303,14.592,1.8048e-12,-0.17652,0,0,0.083333,-7.8949e-16,0,0.66667
0.065315,0.70099,0.78378,0.30149,57.491,1401.6,-0.63013,0.21004,-1.6772,-0.84018,-2.4939e-07,-0.83859,0,0,0.083333,-0,-0,0.66667
0.26954,0.92971,3.2344,0.64456,114.67,943.04,-5.5595,1.8532,-0.52167,-7.4126,-8.9893e-12,-0.26084,0,0,0.083333,3.9475e-16,0,0.66667
0.25,0.74757,3,0.37135,66.68,984.93,-2.9708,0.99028,-1.5181,-3.9611,1.0134e-11,-0.75907,0,0,0.083333,-4.4409e-16,0,0.66667
0.66868,0.45537,8.0241,-0.066951,-7.0682,230.64,1.4326,-0.47753,-1.9837,1.9101,-7.2842e-13,-0.99186,0,0,0.083333,-0,-0,0.66667
0.050074,0.06621,0.60089,-0.65069,-124.52,1437,1.0426,-0.34754,-0.4952,1.3902,1.3142e-06,-0.2476,0,0,0.083333,-0,-0,0.66667
0.97313,0.305,11.678,-0.2925,-2.8323,2.5486,9.1086,-3.0362,-1.694,12.145,1.9627e-06,-0.84702,0,0,0.083333,-7.8949e-16,0,0.66667
0.37569,0.52209,4.5082,0.033132,5.4442,721.75,-0.39831,0.13277,-2.0017,-0.53108,3.7737e-12,-1.0008,0,0,0.083333,-0,-0,0.66667
0.87187,0.85284,10.462,0.52926,24.217,39.691,-14.766,4.9221,-1.004,-19.689,6.0436e-09,-0.50202,0,0,0.083333,-0,-0,0.66667
0.69429,0.93895,8.3315,0.65843,65.391,200.19,-14.629,4.8762,-0.4557,-19.505,5.9339e-12,-0.22785,0,0,0.083333,-1.579e-15,0,0.66667
0.029579,0.41966,0.35495,-0.1205,-23.048,1484.4,0.11406,-0.03802,-1.9512,0.15208,-5.6399e-07,-0.97559,0,0,0.083333,4.9343e-17,0,0.66667
0.087271,0.76168,1.0472,0.39252,74.623,1351,-1.0962,0.36539,-1.4482,-1.4616,-1.8845e-08,-0.72409,0,0,0.083333,-0,-0,0.66667
0.094963,0.37423,1.1396,-0.18865,-35.791,1333.3,0.57327,-0.19109,-1.8789,0.76436,3.9585e-08,-0.93945,0,0,0.083333,-2.5288e-16,0,0.66667
0.56423,0.50795,6.7707,0.011919,1.553,381.38,-0.2152,0.071734,-2.0025,-0.28694,-5.0566e-12,-1.0013,0,0,0.083333,-0,-0,0.66667
0.56604,0.2336,6.7925,-0.39961,-51.974,378.98,7.2382,-2.4127,-1.4313,9.6509,5.0093e-13,-0.71563,0,0,0.083333,-7.8949e-16,0,0.66667
0.31061,0.384,3.7273,-0.174,-30.089,855.14,1.7295,-0.57648,-1.8949,2.3059,-3.4566e-12,-0.94746,0,0,0.083333,-0,-0,0.66667
0.11319,0.87245,1.3583,0.55867,105.75,1291.6,-2.0236,0.67454,-0.89004,-2.6982,4.1889e-09,-0.44502,0,0,0.083333,-4.9343e-17,0,0.66667
0.76861,0.52494,9.2233,0.037417,2.9183,117.79,-0.92029,0.30676,-1.9956,-1.2271,-1.5588e-11,-0.99782,0,0,0.083333,-0,-0,0.66667
0.1382,0.84383,1.6584,0.51574,96.972,1234.5,-2.2808,0.76026,-1.057,-3.0411,-1.2167e-08,-0.52852,0,0,0.083333,-3.9475e-16,0,0.66667
0.58503,0.095523,7.0204,-0.60672,-76.497,350.07,11.358,-3.7861,-0.68821,15.144,-3.6984e-12,-0.34411,0,0,0.083333,-0,-0,0.66667
0.50868,0.97428,6.1041,0.71142,101.21,474.82,-11.58,3.8601,-0.19684,-15.44,6.974e-12,-0.09842,0,0,0.083333,-0,-0,0.66667
0.51012,0.013825,6.1215,-0.72926,-103.56,472.4,11.904,-3.9681,-0.10564,15.873,1.0353e-11,-0.052822,0,0,0.083333,-1.579e-15,0,0.66667
0.35934,0.72806,4.312,0.34209,57.042,754.84,-3.9336,1.3112,-1.5913,-5.2448,4.6452e-13,-0.79566,0,0,0.083333,-0,-0,0.66667
0.055479,0.14494,0.66575,-0.53259,-101.79,1424.4,0.94553,-0.31518,-0.98721,1.2607,-8.9404e-07,-0.49361,0,0,0.083333,-0,-0,0.66667
0.33619,0.049735,4.0343,-0.6754,-114.94,802.69,7.2661,-2.422,-0.37369,9.6881,3.2085e-12,-0.18684,0,0,0.083333,-0,-0,0.66667
0.94985,0.013907,11.398,-0.72914,-13.665,9.2432,22.162,-7.3875,-0.10919,29.55,1.8102e-06,-0.054597,0,0,0.083333,-0,-0,0.66667
0.94833,0.78205,11.38,0.42308,8.0089,7.8283,-12.839,4.2797,-1.3624,-17.119,2.9002e-07,-0.68119,0,0,0.083333,3.158e-15,0,0.66667
0.42932,0.44979,5.1518,-0.075315,-11.752,617.33,1.0347,-0.3449,-1.9755,1.3796,6.0866e-12,-0.98773,0,0,0.083333,-0,-0,0.66667
0.74205,0.14857,8.9046,-0.52714,-45.325,145.61,12.517,-4.1724,-1.008,16.69,1.1212e-11,-0.50398,0,0,0.083333,-7.8949e-16,0,0.66667
0.55762,0.17284,6.6914,-0.49073,-64.761,392.65,8.7565,-2.9188,-1.1409,11.675,-1.8954e-12,-0.57046,0,0,0.083333,-0,-0,0.66667
0.914,0.87556,10.968,0.56334,17.66,19.559,-16.477,5.4922,-0.86875,-21.969,1.7211e-07,-0.43438,0,0,0.083333,-0,-0,0.66667
0.73641,0.39326,8.8369,-0.16011,-13.981,150.6,3.7731,-1.2577,-1.9108,5.0308,3.7237e-12,-0.95541,0,0,0.083333,-7.8949e-16,0,0.66667
0.39393,0.63678,4.7272,0.20517,33.169,685.72,-2.5863,0.86211,-1.8499,-3.4484,1.3736e-12,-0.92493,0,0,0.083333,-7.8949e-16,0,0.66667
0.060535,0.75189,0.72642,0.37783,72.114,1412.7,-0.73191,0.24397,-1.4958,-0.97588,-1.9586e-07,-0.74791,0,0,0.083333,-0,-0,0.66667
0.81061,0.58738,9.7274,0.13107,8.5553,80.715,-3.3999,1.1333,-1.9418,-4.5332,-2.5549e-11,-0.97089,0,0,0.083333,-0,-0,0.66667
0.31642,0.97422,3.797,0.71133,122.86,843.77,-7.2025,2.4008,-0.2001,-9.6033,-1.4641e-11,-0.10005,0,0,0.083333,-0,-0,0.66667
0.49421,0.68121,5.9305,0.27181,39.304,498.84,-4.2986,1.4329,-1.7342,-5.7314,-5.5467e-13,-0.86711,0,0,0.083333,3.9475e-16,0,0.66667
0.54153,0.6435,6.4984,0.21525,29.093,418.21,-3.73,1.2433,-1.832,-4.9734,-1.154e-12,-0.91601,0,0,0.083333,7.8949e-16,0,0.66667
0.51753,0.78627,6.2103,0.42941,60.196,458.78,-7.1114,2.3705,-1.3474,-9.4819,4.8317e-12,-0.6737,0,0,0.083333,-1.579e-15,0,0.66667
0.14619,0.13214,1.7543,-0.5518,-103.53,1216.3,2.5814,-0.86046,-0.91441,3.4418,1.4864e-10,-0.4572,0,0,0.083333,3.9475e-16,0,0.66667
0.35934,0.096238,4.3121,-0.60564,-101.14,755.3,6.9643,-2.3214,-0.70417,9.2858,-4.8814e-12,-0.35208,0,0,0.083333,-7.8949e-16,2.8924e-17,0.66667
0.36131,0.63708,4.3357,0.20562,34.214,750.71,-2.3773,0.79244,-1.8519,-3.1698,-1.2097e-12,-0.92596,0,0,0.083333,-0,-0,0.66667
0.2158,0.83074,2.5895,0.49611,90.655,1060.1,-3.4259,1.142,-1.125,-4.5678,5.0218e-11,-0.56249,0,0,0.083333,-0,-0,0.66667
0.036849,0.61652,0.44219,0.17478,33.416,1467.5,-0.2061,0.068699,-1.8882,-0.2748,2.3346e-07,-0.9441,0,0,0.083333,2.4672e-17,0,0.66667
0.92418,0.69037,11.09,0.28556,7.8566,14.602,-8.4451,2.815,-1.7126,-11.26,1.8039e-07,-0.85628,0,0,0.083333,-0,-0,0.66667
0.35432,0.80691,4.2518,0.46037,77.127,765.19,-5.2198,1.7399,-1.2441,-6.9597,3.8232e-12,-0.62206,0,0,0.083333,-5.9212e-16,0,0.66667
0.1958,0.54138,2.3496,0.062064,11.423,1104.3,-0.38886,0.12962,-1.9821,-0.51849,6.6448e-11,-0.99104,0,0,0.083333,-0,-0,0.66667
0.86409,0.83363,10.369,0.50044,24.18,44.094,-13.838,4.6125,-1.1071,-18.45,1.2085e-08,-0.55356,0,0,0.083333,7.8949e-16,0,0.66667
0.49805,0.99137,5.9766,0.73706,106.4,493.34,-11.747,3.9157,-0.070913,-15.663,2.5979e-12,-0.035457,0,0,0.083333,-0,-7.8905e-17,0.66667
0.81993,0.12919,9.8391,-0.55622,-34.853,74.641,14.594,-4.8646,-0.89645,19.458,4.5608e-10,-0.44823,0,0,0.083333,3.158e-15,0,0.66667
0.76332,0.76385,9.1598,0.39578,31.547,123.54,-9.6675,3.2225,-1.4444,-12.89,-1.6839e-11,-0.72221,0,0,0.083333,1.579e-15,0,0.66667
0.11672,0.11806,1.4007,-0.57291,-108.36,1283.5,2.1399,-0.71331,-0.82906,2.8532,4.5406e-08,-0.41453,0,0,0.083333,-0,-0,0.66667
0.51608,0.038475,6.1929,-0.69229,-97.458,462.06,11.433,-3.8109,-0.30237,15.244,-3.1362e-12,-0.15119,0,0,0.083333,-0,-0,0.66667
0.33424,0.051297,4.0109,-0.67305,-114.71,806.71,7.1988,-2.3996,-0.38554,9.5984,6.3638e-12,-0.19277,0,0,0.083333,-3.9475e-16,0,0.66667
0.68594,0.59465,8.2313,0.14198,14.354,208.87,-3.1165,1.0388,-1.9329,-4.1553,4.432e-13,-0.96644,0,0,0.083333,-0,-0,0.66667
0.78722,0.7192,9.4466,0.3288,23.853,100.99,-8.2829,2.761,-1.6134,-11.044,-4.3031e-11,-0.8067,0,0,0.083333,-0,-0,0.66667
0.28471,0.056333,3.4165,-0.6655,-117.34,910.58,6.0632,-2.0211,-0.42506,8.0842,9.6274e-12,-0.21253,0,0,0.083333,-3.9475e-16,0,0.66667
0.42001,0.21253,5.0401,-0.4312,-68.018,635.48,5.7954,-1.9318,-1.3418,7.7273,-1.072e-11,-0.67091,0,0,0.083333,-1.4605e-16,0,0.66667
0.88235,0.1231,10.588,-0.56535,-23.895,34.142,15.963,-5.3209,-0.86046,21.284,-5.102e-08,-0.43023,0,0,0.083333,-2.1711e-15,0,0.66667
0.764,0.17385,9.168,-0.48922,-38.939,123.21,11.961,-3.9869,-1.1519,15.947,3.1949e-11,-0.57596,0,0,0.083333,-2.4837e-15,0,0.66667
0.2849,0.58467,3.4188,0.127,22.333,909.53,-1.1578,0.38595,-1.9418,-1.5438,-1.9839e-11,-0.9709,0,0,0.083333,-3.9475e-16,0,0.66667
0.72388,0.24783,8.6866,-0.37826,-34.405,164.74,8.762,-2.9207,-1.4894,11.683,-1.1475e-12,-0.74472,0,0,0.083333,7.8949e-16,0,0.66667
0.02714,0.88026,0.32568,0.57039,109.29,1490.1,-0.49538,0.16514,-0.84214,-0.6605,2.1561e-05,-0.42107,0,0,0.083333,9.8686e-17,0,0.66667
0.5633,0.13067,6.7595,-0.554,-72.47,383.78,9.9861,-3.3287,-0.91441,13.315,-5.0626e-13,-0.45721,0,0,0.083333,-0,-0,0.66667
0.041077,0.30632,0.49293,-0.29052,-55.542,1457.7,0.38188,-0.12729,-1.6968,0.50918,2.5453e-07,-0.84841,0,0,0.083333,4.9343e-17,0,0.66667
0.12608,0.92068,1.513,0.63102,119.12,1262.2,-2.5459,0.84863,-0.58848,-3.3945,-7.0975e-08,-0.29424,0,0,0.083333,1.9737e-16,0,0.66667
0.8206,0.68309,9.8472,0.27464,17.084,73.099,-7.2117,2.4039,-1.7282,-9.6156,-1.0368e-10,-0.86412,0,0,0.083333,7.8949e-16,0,0.66667
0.68161,0.36204,8.1793,-0.20694,-21.162,214.34,4.5137,-1.5046,-1.844,6.0182,-3.495e-12,-0.92201,0,0,0.083333,-0,-0,0.66667
0.43883,0.27458,5.266,-0.33813,-52.261,599.64,4.7482,-1.5827,-1.5976,6.3309,-3.3173e-12,-0.79882,0,0,0.083333,-0,-0,0.66667
0.39571,0.61688,4.7485,0.17532,28.294,682.21,-2.22,0.74002,-1.8881,-2.9601,-5.2769e-12,-0.94403,0,0,0.083333,-0,-0,0.66667
0.8758,0.4865,10.51,-0.02025,-0.89401,36.185,0.56751,-0.18917,-2.0036,0.75667,4.7329e-09,-1.0018,0,0,0.083333,-0,-0,0.66667
0.23877,0.5567,2.8652,0.085047,15.349,1009.3,-0.64981,0.2166,-1.9727,-0.86641,-1.0666e-12,-0.98636,0,0,0.083333,-1.9737e-16,0,0.66667
0.39398,0.001837,4.7278,-0.74724,-121.2,686.7,9.4209,-3.1403,-0.015333,12.561,-1.4147e-11,-0.0076663,0,0,0.083333,-0,-0,0.66667
0.14348,0.50665,1.7217,0.0099806,1.871,1222.3,-0.045824,0.015275,-2.0005,-0.061099,-8.2953e-10,-1.0002,0,0,0.083333,7.8949e-16,0,0.66667
0.67243,0.68583,8.0691,0.27874,29.179,226.08,-5.9978,1.9993,-1.7308,-7.9971,-1.3554e-12,-0.86538,0,0,0.083333,2.9606e-16,0,0.66667
0.17561,0.1644,2.1073,-0.5034,-93.511,1149.8,2.8289,-0.94295,-1.0981,3.7718,-1.3103e-10,-0.54904,0,0,0.083333,-0,-0,0.66667
0.99975,0.58791,11.997,0.13187,-0.06209,0.09707,-4.2188,1.4063,-1.9454,-5.6251,1.196e-06,-0.97268,0,0,0.083333,-7.8949e-16,0,0.66667
0.96443,0.061345,11.573,-0.65798,-8.7384,5.7118,20.307,-6.7689,-0.46002,27.075,-1.0473e-05,-0.23001,0,0,0.083333,1.8204e-15,1.3488e-19,0.66667
0.067754,0.62595,0.81304,0.18893,36.004,1396,-0.40961,0.13654,-1.8714,-0.54615,-1.5617e-07,-0.93569,0,0,0.083333,-1.9737e-16,0,0.66667
0.070849,0.68179,0.85019,0.27268,51.954,1388.9,-0.61822,0.20607,-1.7319,-0.82429,-2.1843e-07,-0.86594,0,0,0.083333,-7.3922e-18,0,0.66667
0.24709,0.98977,2.9651,0.73466,132.42,991.8,-5.8089,1.9363,-0.081332,-7.7452,1.0316e-11,-0.040666,0,0,0.083333,1.9737e-16,0,0.66667
0.31125,0.94493,3.735,0.66739,115.64,854.48,-6.6472,2.2157,-0.42058,-8.863,1.5086e-12,-0.21029,0,0,0.083333,-0,-7.1522e-17,0.66667
0.79794,0.47305,9.5752,-0.040429,-2.7965,91.176,1.0323,-0.3441,-1.9994,1.3764,8.2532e-11,-0.99968,0,0,0.083333,-0,-0,0.66667
0.75286,0.039929,9.0344,-0.69011,-57.337,135.24,16.626,-5.5419,-0.30724,22.168,-1.0104e-10,-0.15362,0,0,0.083333,-0,-0,0.66667
0.1789,0.62924,2.1469,0.19387,35.926,1142.2,-1.1099,0.36996,-1.8629,-1.4798,1.4097e-10,-0.93146,0,0,0.083333,-0,-0,0.66667
0.74052,0.97561,8.8863,0.71342,61.823,148.13,-16.906,5.6352,-0.18693,-22.541,-1.3996e-11,-0.093465,0,0,0.083333,-0,-0,0.66667
0.37683,0.39631,4.522,-0.15553,-25.535,719.52,1.8755,-0.62517,-1.9166,2.5007,-3.9132e-12,-0.9583,0,0,0.083333,3.9475e-16,0,0.66667
0.31534,0.70013,3.7841,0.30019,51.758,845.33,-3.0292,1.0097,-1.6799,-4.0389,-2.1332e-12,-0.83996,0,0,0.083333,-0,-0,0.66667
0.20011,0.44566,2.4013,-0.081505,-14.975,1094.7,0.52192,-0.17397,-1.9767,0.69589,2.3826e-11,-0.98836,0,0,0.083333,3.9475e-16,0,0.66667
0.55685,0.91835,6.6822,0.62753,83.015,394.33,-11.182,3.7273,-0.59636,-14.909,-6.0076e-12,-0.29818,0,0,0.083333,-0,-0,0.66667
0.50796,0.50437,6.0955,0.0065619,0.93098,474.69,-0.10666,0.035554,-1.9963,-0.14222,-1.9966e-12,-0.99813,0,0,0.083333,-0,-0,0.66667
0.90452,0.70466,10.854,0.30699,10.569,22.414,-8.8857,2.9619,-1.6676,-11.848,4.7734e-08,-0.83378,0,0,0.083333,-0,-0,0.66667
0.16445,0.34793,1.9734,-0.22811,-42.492,1174.8,1.2004,-0.40013,-1.8115,1.6005,6.5278e-11,-0.90573,0,0,0.083333,-0,-0,0.66667
0.026083,0.59446,0.31299,0.14169,27.106,1492.5,-0.11826,0.039421,-1.927,-0.15768,6.1621e-07,-0.96352,0,0,0.083333,-9.8686e-17,0,0.66667
0.13921,0.95529,1.6705,0.68293,128.51,1232.3,-3.0422,1.0141,-0.34512,-4.0562,-1.743e-08,-0.17256,0,0,0.083333,-0,-0,0.66667
0.036355,0.54886,0.43626,0.073286,14.01,1468.7,-0.085258,0.028419,-1.9779,-0.11368,1.9515e-07,-0.98893,0,0,0.083333,4.9343e-17,0,0.66667
0.56867,0.14428,6.8241,-0.53358,-69.163,375.21,9.7098,-3.2366,-0.98385,12.946,-4.6274e-13,-0.49192,0,0,0.083333,-0,-0,0.66667
0.77158,0.8076,9.2589,0.4614,35.682,115.82,-11.392,3.7974,-1.24,-15.19,-1.0638e-10,-0.62002,0,0,0.083333,1.2464e-15,0,0.66667
0.98718,0.43122,11.846,-0.10317,-0.44571,0.65114,3.2591,-1.0864,-1.9631,4.3454,-5.9945e-07,-0.98156,0,0,0.083333,1.579e-15,0,0.66667
0.84725,0.28018,10.167,-0.32974,-17.709,54.111,8.9398,-2.9799,-1.614,11.92,-4.3008e-10,-0.807,0,0,0.083333,2.0724e-15,0,0.66667
0.16958,0.98056,2.0349,0.72084,134.39,1163.6,-3.9116,1.3039,-0.15396,-5.2155,-1.2157e-08,-0.076981,0,0,0.083333,-0,-0,0.66667
0.97796,0.71129,11.736,0.31693,2.5009,2.0097,-9.9182,3.306,-1.6392,-13.224,-2.3739e-06,-0.81962,0,0,0.083333,1.579e-15,0,0.66667
0.57851,0.90904,6.9421,0.61356,78.26,360.14,-11.358,3.7861,-0.66875,-15.145,8.4821e-13,-0.33437,0,0,0.083333,-0,-0,0.66667
0.81024,0.79035,9.7229,0.43552,28.556,81.763,-11.292,3.764,-1.3273,-15.056,-5.8055e-11,-0.66367,0,0,0.083333,-0,-0,0.66667
0.011419,0.15292,0.13703,-0.52062,-99.788,1526.5,0.19023,-0.063402,-1.0354,0.25365,1.4394e-05,-0.51769,0,0,0.083333,-1.8504e-17,0,0.66667
0.19796,0.603,2.3755,0.15449,28.414,1099.5,-0.97866,0.32622,-1.9123,-1.3049,7.0091e-11,-0.95614,0,0,0.083333,-0,-0,0.66667
0.92504,0.52199,11.1,0.032981,0.89457,13.902,-0.97628,0.32543,-1.9961,-1.3017,3.8434e-08,-0.99804,0,0,0.083333,1.579e-15,0,0.66667
0.24256,0.74135,2.9107,0.36202,65.257,1001.1,-2.81,0.93667,-1.5299,-3.7467,4.5093e-12,-0.76495,0,0,0.083333,-1.9737e-16,0,0.66667
0.53957,0.25709,6.4748,-0.36437,-49.429,421.68,6.2913,-2.0971,-1.524,8.3884,-2.6752e-12,-0.76202,0,0,0.083333,-0,-0,0.66667
0.72603,0.70667,8.7124,0.31001,27.996,162.17,-7.2025,2.4008,-1.654,-9.6033,-1.0165e-12,-0.82698,0,0,0.083333,-0,-0,0.66667
0.10091,0.60359,1.2109,0.15539,29.444,1319.6,-0.50177,0.16726,-1.91,-0.66902,-2.4906e-08,-0.955,0,0,0.083333,-0,-0,0.66667
0.57273,0.81592,6.8728,0.47388,60.974,368.66,-8.685,2.895,-1.1992,-11.58,3.9115e-12,-0.59962,0,0,0.083333,-0,-0,0.66667
0.21267,0.59838,2.552,0.14757,26.97,1066.8,-1.0043,0.33477,-1.9195,-1.3391,3.8511e-12,-0.95976,0,0,0.083333,-0,-0,0.66667
0.35815,0.26562,4.2978,-0.35157,-58.684,757.26,4.0293,-1.3431,-1.5644,5.3724,2.2546e-12,-0.78218,0,0,0.083333,7.8949e-16,0,0.66667
0.44382,0.0011254,5.3259,-0.74831,-115.37,591.36,10.628,-3.5426,-0.0064155,14.17,-1.7174e-11,-0.0032077,0,0,0.083333,-0,-0,0.66667
0.74936,0.8214,8.9923,0.48211,40.421,137.84,-11.561,3.8535,-1.1793,-15.414,1.5421e-11,-0.58965,0,0,0.083333,-0,-0,0.66667
0.91396,0.3715,10.968,-0.19275,-5.9891,18.209,5.6374,-1.8791,-1.8645,7.5166,-5.236e-08,-0.93223,0,0,0.083333,3.9475e-16,0,0.66667
0.96955,0.19833,11.635,-0.4525,-5.0433,3.6916,14.039,-4.6797,-1.2771,18.719,3.5115e-06,-0.63856,0,0,0.083333,-0,-0,0.66667
0.38163,0.5754,4.5796,0.1131,18.488,709.95,-1.3812,0.4604,-1.9504,-1.8416,3.2918e-12,-0.97518,0,0,0.083333,7.8949e-16,0,0.66667
0.2518,0.72976,3.0216,0.34464,61.816,981,-2.7769,0.92563,-1.5803,-3.7025,3.7665e-12,-0.79016,0,0,0.083333,-0,-0,0.66667
0.27102,0.27498,3.2522,-0.33753,-59.889,939.42,2.9273,-0.97575,-1.5922,3.903,-4.5737e-12,-0.79609,0,0,0.083333,-0,-0,0.66667
0.76456,0.37618,9.1748,-0.18573,-14.713,121.83,4.5441,-1.5147,-1.8831,6.0588,3.8103e-13,-0.94154,0,0,0.083333,3.158e-15,0,0.66667
0.84258,0.21958,10.111,-0.42063,-23.258,57.573,11.341,-3.7804,-1.3764,15.122,2.6842e-10,-0.68822,0,0,0.083333,-3.158e-15,0,0.66667
0.16474,0.29683,1.9769,-0.30476,-56.778,1174.1,1.6067,-0.53555,-1.6654,2.1422,-1.6896e-11,-0.83269,0,0,0.083333,-0,-0,0.66667
0.029941,0.43297,0.35929,-0.10055,-19.23,1483.5,0.096335,-0.032112,-1.9686,0.12845,-6.1702e-07,-0.98428,0,0,0.083333,-7.4015e-17,0,0.66667
0.84738,0.81486,10.169,0.4723,25.401,54.539,-12.807,4.2689,-1.207,-17.076,-2.6338e-09,-0.6035,0,0,0.083333,-0,-0,0.66667
0.15971,0.19924,1.9165,-0.45114,-84.241,1185.6,2.3056,-0.76853,-1.2756,3.0741,-2.1343e-10,-0.63781,0,0,0.083333,-0,-0,0.66667
0.94524,0.14806,11.343,-0.5279,-10.641,9.118,15.968,-5.3226,-1.005,21.291,7.0276e-07,-0.50252,0,0,0.083333,-7.8949e-16,0,0.66667
0.96751,0.35581,11.61,-0.21629,-2.5387,3.1992,6.6963,-2.2321,-1.8376,8.9284,6.3487e-07,-0.91879,0,0,0.083333,-1.579e-15,0,0.66667
0.57819,0.83392,6.9382,0.50088,63.858,360.25,-9.2673,3.0891,-1.1153,-12.356,2.859e-12,-0.55763,0,0,0.083333,-0,-0,0.66667
0.48604,0.63591,5.8324,0.20386,29.785,513.2,-3.1707,1.0569,-1.8552,-4.2276,-2.0748e-12,-0.92759,0,0,0.083333,-0,-0,0.66667
0.35393,0.35613,4.2471,-0.21581,-36.129,765.67,2.4442,-0.81473,-1.8311,3.2589,1.4748e-12,-0.91554,0,0,0.083333,-0,-0,0.66667
0.6594,0.29794,7.9128,-0.30309,-32.742,243.05,6.3954,-2.1318,-1.6731,8.5272,-3.9568e-12,-0.83654,0,0,0.083333,7.8949e-16,0,0.66667
0.38436,0.38127,4.6123,-0.1781,-29.045,704.57,2.1905,-0.73018,-1.8838,2.9207,1.5385e-12,-0.94191,0,0,0.083333,-7.8949e-16,0,0.66667
0.4349,0.90146,5.2187,0.60219,93.629,607.62,-8.3805,2.7935,-0.71217,-11.174,-1.3323e-12,-0.35609,0,0,0.083333,-5.3198e-16,0,0.66667
0.6133,0.52098,7.3596,0.031468,3.751,306.7,-0.61758,0.20586,-1.9951,-0.82344,3.7118e-12,-0.99755,0,0,0.083333,-0,-0,0.66667
0.034635,0.203,0.41562,-0.4455,-85.266,1472.7,0.49376,-0.16459,-1.2936,0.65834,1.0492e-07,-0.64681,0,0,0.083333,4.9343e-17,0,0.66667
0.2188,0.11224,2.6257,-0.58163,-106.19,1053.6,4.0724,-1.3575,-0.8043,5.4299,-3.3454e-10,-0.40215,0,0,0.083333,3.9475e-16,0,0.66667
0.020192,0.93538,0.2423,0.65307,125.25,1506.2,-0.42197,0.14068,-0.48231,-0.56262,3.0108e-05,-0.24116,0,0,0.083333,2.4672e-17,0,0.66667
0.76313,0.32398,9.1576,-0.26403,-21.036,123.37,6.4476,-2.1492,-1.7532,8.5968,9.361e-12,-0.87661,0,0,0.083333,-0,-0,0.66667
0.38987,0.84046,4.6784,0.51069,82.989,694.17,-6.3713,2.1238,-1.0788,-8.495,7.3324e-12,-0.53942,0,0,0.083333,-1.9737e-16,0,0.66667
0.42267,0.73317,5.072,0.34975,54.996,630.25,-4.7305,1.5768,-1.5701,-6.3074,-7.967e-12,-0.78503,0,0,0.083333,-0,-0,0.66667
0.54968,0.94503,6.5962,0.66754,89.361,406.05,-11.742,3.914,-0.41638,-15.656,-4.0981e-12,-0.20819,0,0,0.083333,-0,-0,0.66667
0.38846,0.4312,4.6615,-0.1032,-16.766,696.43,1.2829,-0.42764,-1.9644,1.7105,-4.86e-12,-0.98219,0,0,0.083333,2.3001e-16,0,0.66667
0.81063,0.04767,9.7276,-0.67849,-44.595,82.615,17.6,-5.8668,-0.3655,23.467,-2.4115e-09,-0.18275,0,0,0.083333,-0,9.8431e-17,0.66667
0.4359,0.39591,5.2309,-0.15614,-24.195,604.93,2.1779,-0.72598,-1.9165,2.9039,4.2444e-12,-0.95823,0,0,0.083333,-3.9475e-16,0,0.66667
0.58016,0.32005,6.9619,-0.26993,-34.245,356.65,5.0112,-1.6704,-1.7433,6.6816,-5.3531e-12,-0.87167,0,0,0.083333,1.579e-15,0,0.66667
0.97117,0.91384,11.654,0.62076,6.6588,4.3823,-19.292,6.4305,-0.63146,-25.722,-3.2446e-05,-0.31573,0,0,0.083333,-3.158e-15,0,0.66667
0.9921,0.033589,11.905,-0.69962,-2.061,2.8676,22.211,-7.4037,-0.25652,29.614,-0.0001152,-0.12826,0,0,0.083333,3.158e-15,0,0.66667
0.20287,0.55308,2.4345,0.079624,14.613,1088.5,-0.51692,0.17231,-1.9842,-0.68922,-1.1261e-11,-0.99211,0,0,0.083333,-1.9737e-16,0,0.66667
0.44452,0.55972,5.3342,0.089585,13.75,588.75,-1.2743,0.42477,-1.9683,-1.6991,-5.5682e-12,-0.98413,0,0,0.083333,1.1842e-15,0,0.66667
0.47475,0.43021,5.697,-0.10468,-15.508,533.31,1.5903,-0.53009,-1.9577,2.1204,-3.8857e-12,-0.97884,0,0,0.083333,-0,-0,0.66667
0.29764,0.31278,3.5717,-0.28082,-49.001,882.56,2.6747,-0.89156,-1.7263,3.5662,-1.9937e-12,-0.86316,0,0,0.083333,-7.8949e-16,0,0.66667
0.2835,0.33054,3.4021,-0.25418,-44.75,912.58,2.306,-0.76867,-1.7718,3.0747,6.0543e-12,-0.88589,0,0,0.083333,-3.9475e-16,0,0.66667
0.83962,0.2301,10.075,-0.40485,-22.766,59.554,10.877,-3.6258,-1.4155,14.503,-3.5294e-11,-0.70775,0,0,0.083333,-0,-0,0.66667
0.96209,0.37044,11.545,-0.19434,-2.6694,4.1069,5.9831,-1.9944,-1.8624,7.9775,1.6431e-07,-0.93118,0,0,0.083333,-3.9475e-16,0,0.66667
0.21069,0.41499,2.5283,-0.12752,-23.324,1071.2,0.85972,-0.28657,-1.9381,1.1463,-1.5673e-11,-0.96903,0,0,0.083333,-3.9475e-16,0,0.66667
0.89173,0.15768,10.701,-0.51348,-20.033,29.126,14.652,-4.8841,-1.0681,19.536,-5.1597e-09,-0.53405,0,0,0.083333,3.158e-15,0,0.66667
0.39198,0.69947,4.7037,0.2992,48.473,689.66,-3.7529,1.251,-1.6853,-5.0039,1.7526e-12,-0.84267,0,0,0.083333,-0,-0,0.66667
0.65143,0.76837,7.8171,0.40255,44.324,253.91,-8.3914,2.7971,-1.4211,-11.189,-2.6716e-12,-0.71056,0,0,0.083333,-0,-0,0.66667
0.28386,0.45812,3.4063,-0.062823,-11.054,911.73,0.57066,-0.19022,-1.9869,0.76088,4.8736e-12,-0.99343,0,0,0.083333,-0,-0,0.66667
0.94108,0.78644,11.293,0.42966,9.2661,9.7689,-12.939,4.313,-1.3433,-17.252,4.3961e-08,-0.67167,0,0,0.083333,-0,-0,0.66667
0.78682,0.96331,9.4418,0.69497,50.77,102.92,-17.498,5.8327,-0.27996,-23.331,1.958e-10,-0.13998,0,0,0.083333,3.9475e-16,0,0.66667
0.19277,0.17672,2.3133,-0.48492,-89.479,1111.3,2.9913,-0.99711,-1.1609,3.9884,-4.2804e-11,-0.58043,0,0,0.083333,1.9737e-16,0,0.66667
0.61504,0.38579,7.3805,-0.17132,-20.356,304.27,3.3718,-1.1239,-1.8922,4.4957,-2.1436e-12,-0.94611,0,0,0.083333,-0,-0,0.66667
0.9688,0.42481,11.626,-0.11279,-1.2661,2.8162,3.4967,-1.1656,-1.9619,4.6622,4.6835e-07,-0.98097,0,0,0.083333,-1.579e-15,0,0.66667
0.28459,0.53069,3.415,0.046028,8.0949,910.18,-0.41916,0.13972,-1.9934,-0.55888,-2.1059e-11,-0.99671,0,0,0.083333,-2.4672e-16,0,0.66667
0.36153,0.84654,4.3384,0.51981,86.601,750.69,-6.0137,2.0046,-1.0421,-8.0183,4.0004e-12,-0.52105,0,0,0.083333,-0,-0,0.66667
0.20361,0.49983,2.4433,-0.00025463,-0.046713,1086.9,0.001659,-0.00055301,-2.0075,0.0022121,1.1566e-10,-1.0037,0,0,0.083333,2.0971e-16,0,0.66667
0.63877,0.44604,7.6652,-0.080933,-9.1521,270.61,1.6543,-0.55144,-1.9794,2.2058,-2.728e-12,-0.9897,0,0,0.083333,1.579e-15,0,0.66667
0.89282,0.80222,10.714,0.45332,17.49,28.322,-12.952,4.3172,-1.2711,-17.269,3.5047e-08,-0.63555,0,0,0.083333,7.8949e-16,0,0.66667
0.3417,0.99116,4.1004,0.73675,124.92,791.55,-8.0558,2.6853,-0.072283,-10.741,3.6993e-12,-0.036141,0,0,0.083333,-3.8484e-16,8.0059e-17,0.66667
0.1244,0.22631,1.4928,-0.41054,-77.436,1265.9,1.6343,-0.54475,-1.4067,2.179,-1.3762e-09,-0.70335,0,0,0.083333,-0,-0,0.66667
0.34768,0.83832,4.1721,0.50749,85.499,778.8,-5.6461,1.882,-1.0834,-7.5282,3.3773e-12,-0.54172,0,0,0.083333,-0,-0,0.66667
0.62672,0.4387,7.5207,-0.091952,-10.668,287.46,1.8441,-0.61471,-1.974,2.4588,-2.7837e-12,-0.98702,0,0,0.083333,-0,-0,0.66667
0.73484,0.11031,8.8181,-0.58453,-51.493,153.52,13.745,-4.5817,-0.79104,18.327,-2.1143e-11,-0.39552,0,0,0.083333,-1.579e-15,0,0.66667
0.60653,0.35974,7.2784,-0.21039,-25.421,316.75,4.0834,-1.3611,-1.8429,5.4445,-4.6896e-13,-0.92144,0,0,0.083333,7.8949e-16,0,0.66667
0.076207,0.20659,0.91448,-0.44012,-83.844,1376.5,1.0733,-0.35776,-1.3135,1.431,1.7502e-07,-0.65677,0,0,0.083333,-0,-0,0.66667
0.93982,0.37668,11.278,-0.18498,-4.0447,9.3709,5.5632,-1.8544,-1.881,7.4176,-1.125e-07,-0.9405,0,0,0.083333,-0,-0,0.66667
0.18939,0.16917,2.2727,-0.49625,-91.699,1118.9,3.0075,-1.0025,-1.1267,4.01,-2.3222e-10,-0.56335,0,0,0.083333,-0,-0,0.66667
0.57409,0.40738,6.889,-0.13893,-17.805,365.91,2.5522,-0.85073,-1.9311,3.4029,3.527e-12,-0.96555,0,0,0.083333,-0,-0,0.66667
0.90683,0.96701,10.882,0.70051,23.841,23.334,-20.328,6.7759,-0.26215,-27.104,-2.6011e-06,-0.13108,0,0,0.083333,-1.9737e-16,0,0.66667
0.97339,0.91148,11.681,0.61722,6.1076,4.0474,-19.225,6.4084,-0.64371,-25.634,-3.8615e-05,-0.32185,0,0,0.083333,-0,-0,0.66667
0.85777,0.33699,10.293,-0.24451,-12.277,47.089,6.7116,-2.2372,-1.7909,8.9487,-1.441e-09,-0.89545,0,0,0.083333,7.8949e-16,0,0.66667
0.12909,0.67561,1.5491,0.26341,49.597,1255.1,-1.0881,0.36271,-1.7516,-1.4508,-5.0656e-09,-0.87579,0,0,0.083333,-1.9737e-16,0,0.66667
0.90702,0.55242,10.884,0.078634,2.6317,20.913,-2.2823,0.76078,-1.9833,-3.0431,1.8753e-08,-0.99164,0,0,0.083333,7.8949e-16,0,0.66667
0.32751,0.93172,3.9302,0.64759,110.9,820.55,-6.787,2.2623,-0.51507,-9.0493,-3.6149e-12,-0.25754,0,0,0.083333,1.9737e-16,5.9473e-17,0.66667
0.58239,0.57344,6.9886,0.11016,13.914,353.02,-2.053,0.68432,-1.955,-2.7373,1.5865e-12,-0.97748,0,0,0.083333,-0,-0,0.66667
0.14046,0.33923,1.6855,-0.24115,-45.262,1229.2,1.0839,-0.3613,-1.8008,1.4452,1.6862e-09,-0.90042,0,0,0.083333,-2.4672e-16,0,0.66667
0.51272,0.75428,6.1527,0.38142,53.816,466.88,-6.2581,2.086,-1.4838,-8.3441,-1.2461e-12,-0.74189,0,0,0.083333,-0,-0,0.66667
0.46733,0.73781,5.608,0.35671,53.37,547.03,-5.3344,1.7781,-1.551,-7.1126,-9.0807e-12,-0.77552,0,0,0.083333,-0,-0,0.66667
0.005313,0.8455,0.063756,0.51825,99.343,1540.7,-0.088104,0.029364,-1.0431,-0.11747,-6.6976e-06,-0.52157,0,0,0.083333,-0,-2.176e-16,0.66667
0.28621,0.26495,3.4345,-0.35258,-61.99,906.9,3.2292,-1.0764,-1.5551,4.3055,1.696e-12,-0.77755,0,0,0.083333,-3.9475e-16,0,0.66667
0.14345,0.76977,1.7214,0.40465,75.927,1222.4,-1.8575,0.61916,-1.4182,-2.4766,-1.3853e-09,-0.70912,0,0,0.083333,-1.9737e-16,0,0.66667
0.35352,0.5611,4.2423,0.091657,15.346,766.42,-1.0369,0.34563,-1.9678,-1.3825,6.0836e-12,-0.98391,0,0,0.083333,-1.4803e-16,0,0.66667
0.27167,0.78087,3.2601,0.42131,74.753,938.11,-3.6626,1.2209,-1.3666,-4.8835,-4.7444e-12,-0.68332,0,0,0.083333,4.9343e-16,0,0.66667
0.47113,0.40292,5.6535,-0.14562,-21.672,539.88,2.1954,-0.7318,-1.9269,2.9272,3.1262e-12,-0.96343,0,0,0.083333,-1.9737e-16,0,0.66667
0.77155,0.78178,9.2586,0.42266,32.674,115.7,-10.435,3.4785,-1.3626,-13.914,-1.8294e-11,-0.68131,0,0,0.083333,-3.158e-15,0,0.66667
0.020636,0.78947,0.24764,0.43421,83.164,1505.1,-0.28674,0.095583,-1.327,-0.38232,4.9397e-06,-0.66352,0,0,0.083333,-0,-0,0.66667
0.22758,0.69633,2.731,0.29449,53.468,1033.9,-2.1446,0.71488,-1.6877,-2.8595,4.2684e-12,-0.84385,0,0,0.083333,-0,-0,0.66667
0.98353,0.72375,11.802,0.33562,1.9484,1.4924,-10.563,3.521,-1.6051,-14.084,-1.2364e-06,-0.80257,0,0,0.083333,3.158e-15,0,0.66667
0.059609,0.94837,0.71531,0.67256,128.6,1415,-1.2829,0.42764,-0.39202,-1.7105,1.2325e-05,-0.19601,0,0,0.083333,-0,-0,0.66667
0.59551,0.4806,7.1461,-0.029103,-3.5893,333.02,0.5546,-0.18487,-1.9997,0.73946,5.671e-13,-0.99983,0,0,0.083333,-0,-0,0.66667
0.99828,0.55498,11.979,0.082467,0.0068386,0.072328,-2.6344,0.87814,-1.9789,-3.5126,9.5529e-07,-0.98947,0,0,0.083333,-0,-0,0.66667
0.60079,0.1093,7.2094,-0.58606,-71.775,326.21,11.267,-3.7557,-0.77444,15.023,4.1505e-12,-0.38722,0,0,0.083333,-0,-0,0.66667
0.052634,0.76507,0.6316,0.3976,75.961,1431,-0.66967,0.22322,-1.4343,-0.89289,-2.1435e-07,-0.71713,0,0,0.083333,-0,-0,0.66667
0.12467,0.73391,1.4961,0.35087,66.159,1265.2,-1.3998,0.4666,-1.5686,-1.8664,-3.7813e-09,-0.78429,0,0,0.083333,-0,-0,0.66667
0.89515,0.24952,10.742,-0.37573,-14.171,26.902,10.763,-3.5875,-1.4973,14.35,-4.854e-08,-0.74863,0,0,0.083333,3.454e-16,0,0.66667
0.86842,0.58992,10.421,0.13488,6.2908,40.463,-3.7483,1.2494,-1.9321,-4.9977,2.4308e-09,-0.96605,0,0,0.083333,7.8949e-16,0,0.66667
0.54878,0.017173,6.5853,-0.72424,-97.148,407.75,12.718,-4.2394,-0.13727,16.958,-2.4984e-12,-0.068634,0,0,0.083333,-0,-0,0.66667
0.26258,0.71088,3.151,0.31632,56.395,957.59,-2.6579,0.88598,-1.6445,-3.5439,-8.0056e-12,-0.82227,0,0,0.083333,1.9737e-16,0,0.66667
0.51035,0.25884,6.1242,-0.36175,-51.203,470.92,5.9077,-1.9692,-1.5318,7.877,-4.1211e-13,-0.7659,0,0,0.083333,-0,-0,0.66667
0.25377,0.88673,3.0453,0.58009,104.07,977,-4.7108,1.5703,-0.80231,-6.281,-9.6643e-12,-0.40115,0,0,0.083333,-3.9475e-16,0,0.66667
0.69013,0.83257,8.2816,0.49885,49.998,204.56,-11.017,3.6722,-1.116,-14.689,-2.3999e-12,-0.55801,0,0,0.083333,7.8949e-16,0,0.66667
0.60412,0.32563,7.2495,-0.26155,-31.756,320.38,5.0562,-1.6854,-1.7536,6.7417,1.9424e-12,-0.8768,0,0,0.083333,-0,-0,0.66667
0.78798,0.0058695,9.4558,-0.7412,-53.937,102.16,18.69,-6.2299,-0.043095,24.919,3.1754e-10,-0.021548,0,0,0.083333,-0,-0,0.66667
0.48764,0.90576,5.8517,0.60864,88.95,511.21,-9.4975,3.1658,-0.68396,-12.663,7.0273e-12,-0.34198,0,0,0.083333,-1.0115e-15,0,0.66667
0.038361,0.48819,0.46033,-0.01771,-3.3849,1464,0.02174,-0.0072461,-1.9946,0.028986,6.5261e-07,-0.9973,0,0,0.083333,-4.5428e-17,0,0.66667
0.79002,0.70615,9.4803,0.30923,22.166,98.448,-7.8174,2.6058,-1.6558,-10.423,-4.9519e-11,-0.82789,0,0,0.083333,-7.8949e-16,0,0.66667
0.20938,0.27453,2.5125,-0.33821,-61.932,1074.2,2.266,-0.75533,-1.5898,3.0213,-3.6249e-11,-0.79492,0,0,0.083333,-0,-0,0.66667
0.22664,0.40856,2.7197,-0.13716,-24.905,1035.9,0.99475,-0.33158,-1.9299,1.3263,-1.2848e-11,-0.96494,0,0,0.083333,7.8949e-16,0,0.66667
0.54164,0.76662,6.4997,0.39992,54.092,418.36,-6.9316,2.3105,-1.4281,-9.2422,-1.8208e-13,-0.71407,0,0,0.083333,-7.8949e-16,0,0.66667
0.82259,0.0084223,9.8711,-0.73737,-45.762,73.626,19.41,-6.4699,-0.063698,25.88,1.1431e-09,-0.031849,0,0,0.083333,-3.158e-15,0,0.66667
0.94909,0.71515,11.389,0.32272,5.9945,7.262,-9.8013,3.2671,-1.629,-13.068,1.9444e-07,-0.81449,0,0,0.083333,-3.9475e-16,0,0.66667
0.24077,0.50711,2.8893,0.010662,1.9222,1004.9,-0.082148,0.027383,-1.996,-0.10953,1.2717e-11,-0.99801,0,0,0.083333,-0,-0,0.66667
0.8962,0.13221,10.754,-0.55168,-20.701,27.186,15.821,-5.2738,-0.91484,21.095,8.5434e-08,-0.45742,0,0,0.083333,-0,-0,0.66667
0.91103,0.70208,10.932,0.30312,9.747,19.655,-8.8368,2.9456,-1.6706,-11.782,3.916e-08,-0.83531,0,0,0.083333,-1.579e-15,0,0.66667
0.74442,0.56573,8.933,0.0986,8.3837,142.06,-2.3488,0.78293,-1.963,-3.1317,1.2421e-12,-0.98149,0,0,0.083333,-0,-0,0.66667
0.37426,0.45901,4.4911,-0.061478,-10.115,724.61,0.73629,-0.24543,-1.9919,0.98172,-1.9618e-13,-0.99597,0,0,0.083333,3.9475e-16,0,0.66667
0.54785,0.78507,6.5742,0.42761,57.29,408.25,-7.4965,2.4988,-1.3553,-9.9954,3.396e-12,-0.67767,0,0,0.083333,-1.579e-15,0,0.66667
0.13763,0.7112,1.6516,0.31681,59.523,1235.6,-1.3953,0.4651,-1.6436,-1.8604,-3.0017e-09,-0.82179,0,0,0.083333,-9.8686e-17,0,0.66667
0.57527,0.60766,6.9033,0.16149,20.655,364.08,-2.9728,0.99092,-1.9075,-3.9637,8.1535e-13,-0.95377,0,0,0.083333,-0,-0,0.66667
0.57561,0.7919,6.9074,0.43786,56.046,364.06,-8.0652,2.6884,-1.3194,-10.754,-2.9665e-13,-0.65971,0,0,0.083333,-0,-0,0.66667
0.58347,0.96086,7.0017,0.69129,87.481,352.8,-12.907,4.3024,-0.29798,-17.21,3.0909e-12,-0.14899,0,0,0.083333,-0,-0,0.66667
0.92023,0.62228,11.043,0.18341,5.2935,15.792,-5.401,1.8003,-1.8844,-7.2014,9.1547e-08,-0.94219,0,0,0.083333,-3.9475e-16,0,0.66667
0.5331,0.60474,6.3972,0.15711,21.504,432.1,-2.6801,0.89338,-1.9147,-3.5735,2.3295e-12,-0.95737,0,0,0.083333,-1.579e-15,0,0.66667
0.24089,0.49877,2.8907,-0.0018469,-0.33295,1004.6,0.014237,-0.0047458,-1.9973,0.018983,-7.0852e-12,-0.99864,0,0,0.083333,6.5245e-16,0,0.66667
0.54523,0.50459,6.5428,0.0068881,0.92533,411.99,-0.12018,0.04006,-2.0035,-0.16024,-2.8001e-13,-1.0018,0,0,0.083333,-0,-0,0.66667
0.12737,0.98434,1.5285,0.72651,137.2,1259.3,-2.9612,0.98708,-0.12452,-3.9483,6.9513e-08,-0.06226,0,0,0.083333,-1.9737e-16,0,0.66667
0.074781,0.44489,0.89737,-0.082665,-15.735,1379.8,0.19781,-0.065938,-1.9755,0.26375,6.7534e-08,-0.98777,0,0,0.083333,-0,-0,0.66667
0.83061,0.94063,9.9673,0.66094,39.264,67.19,-17.567,5.8558,-0.44886,-23.423,-3.2716e-08,-0.22443,0,0,0.083333,-3.158e-15,0,0.66667
0.72316,0.23692,8.6779,-0.39463,-35.979,165.6,9.1321,-3.044,-1.4441,12.176,3.9231e-12,-0.72204,0,0,0.083333,-7.8949e-16,0,0.66667
0.083912,0.90251,1.0069,0.60377,114.98,1358.9,-1.6212,0.54041,-0.70117,-2.1616,-2.5062e-08,-0.35059,0,0,0.083333,-0,-0,0.66667
0.55758,0.55523,6.691,0.082841,10.913,392.01,-1.4781,0.4927,-1.9732,-1.9708,3.5387e-12,-0.98661,0,0,0.083333,3.3015e-16,0,0.66667
0.52511,0.32076,6.3013,-0.26886,-37.251,445.63,4.5178,-1.5059,-1.7394,6.0238,-1.565e-12,-0.86971,0,0,0.083333,-0,-0,0.66667
0.50731,0.95254,6.0877,0.67881,96.717,477.05,-11.02,3.6732,-0.35725,-14.693,7.7733e-12,-0.17863,0,0,0.083333,-7.8949e-16,0,0.66667
0.032405,0.61453,0.38886,0.1718,32.856,1477.8,-0.17815,0.059383,-1.8993,-0.23753,5.1292e-07,-0.94964,0,0,0.083333,4.9343e-17,0,0.66667
0.96037,0.12888,11.524,-0.55668,-8.1576,5.8315,17.108,-5.7026,-0.89473,22.81,-7.7135e-06,-0.44736,0,0,0.083333,-3.158e-15,0,0.66667
0.92765,0.54602,11.132,0.069027,1.8084,13.023,-2.0491,0.68302,-1.9794,-2.7321,1.5681e-08,-0.98969,0,0,0.083333,-0,-0,0.66667
0.96441,0.47711,11.573,-0.03433,-0.44078,3.4941,1.0595,-0.35315,-1.994,1.4126,3.4046e-08,-0.99701,0,0,0.083333,-0,-0,0.66667
0.53338,0.30599,6.4006,-0.29102,-39.834,431.8,4.9671,-1.6557,-1.7012,6.6228,-5.4046e-13,-0.85059,0,0,0.083333,-3.9475e-16,0,0.66667
0.12664,0.59951,1.5197,0.14926,28.115,1260.6,-0.60487,0.20162,-1.9243,-0.80649,-4.9422e-09,-0.96215,0,0,0.083333,-0,-0,0.66667
0.73229,0.44414,8.7875,-0.083789,-7.4123,154.97,1.9634,-0.65448,-1.9774,2.6179,-2.0395e-13,-0.98871,0,0,0.083333,-0,-0,0.66667
0.94973,0.71303,11.397,0.31954,5.8604,7.096,-9.7114,3.2371,-1.6369,-12.948,2.0233e-07,-0.81846,0,0,0.083333,-0,-0,0.66667
0.25927,0.054636,3.1112,-0.66805,-119.56,965.24,5.5424,-1.8475,-0.40956,7.3899,-8.4493e-11,-0.20478,0,0,0.083333,-1.9737e-16,0,0.66667
0.28377,0.82477,3.4052,0.48716,85.839,912.28,-4.4237,1.4746,-1.1572,-5.8983,-1.013e-11,-0.57858,0,0,0.083333,-0,-0,0.66667
0.44706,0.55404,5.3647,0.081064,12.407,584.02,-1.1597,0.38656,-1.9731,-1.5462,-6.4548e-12,-0.98655,0,0,0.083333,-0,-0,0.66667
0.15862,0.62229,1.9034,0.18343,34.232,1187.9,-0.93106,0.31035,-1.8827,-1.2414,-2.2002e-10,-0.94137,0,0,0.083333,-2.4672e-16,0,0.66667
0.56858,0.50253,6.823,0.0037911,0.49036,374.49,-0.068978,0.022993,-1.9972,-0.09197,-1.2228e-12,-0.99862,0,0,0.083333,-0,-0,0.66667
0.44953,0.50934,5.3944,0.014017,2.1393,579.4,-0.20164,0.067213,-1.9985,-0.26885,3.1684e-12,-0.99926,0,0,0.083333,-0,-0,0.66667
0.88742,0.349,10.649,-0.2265,-9.1201,30.261,6.4319,-2.144,-1.818,8.5759,-1.547e-08,-0.90898,0,0,0.083333,-0,-0,0.66667
0.21483,0.29622,2.578,-0.30566,-55.83,1062.1,2.1013,-0.70044,-1.6662,2.8018,-4.6956e-11,-0.83312,0,0,0.083333,-0,-0,0.66667
0.16795,0.5515,2.0154,0.077251,14.369,1166.8,-0.41518,0.13839,-1.9774,-0.55357,-1.2963e-10,-0.98868,0,0,0.083333,-0,-0,0.66667
0.49563,0.8242,5.9476,0.4863,70.269,496.77,-7.7129,2.571,-1.1571,-10.284,2.1356e-12,-0.57853,0,0,0.083333,-0,-0,0.66667
0.51663,0.25116,6.1995,-0.37326,-52.374,460.19,6.1707,-2.0569,-1.5105,8.2276,-1.9917e-12,-0.75527,0,0,0.083333,-0,-0,0.66667
0.4062,0.61194,4.8744,0.16791,26.826,661.75,-2.1825,0.72751,-1.9069,-2.91,-2.7036e-12,-0.95344,0,0,0.083333,7.8949e-16,0,0.66667
0.2368,0.32077,2.8416,-0.26885,-48.587,1013.7,2.0372,-0.67906,-1.7445,2.7162,-4.1076e-12,-0.87225,0,0,0.083333,-0,-0,0.66667
0.53636,0.87708,6.4364,0.56562,77.214,427.52,-9.7081,3.236,-0.8607,-12.944,-3.2374e-12,-0.43035,0,0,0.083333,1.579e-15,0,0.66667
0.96214,0.73626,11.546,0.35439,4.8939,4.5488,-10.911,3.637,-1.5493,-14.548,3.8687e-07,-0.77464,0,0,0.083333,-1.579e-15,0,0.66667
0.25644,0.95506,3.0772,0.68259,122.37,971.4,-5.6013,1.8671,-0.33926,-7.4684,4.2362e-11,-0.16963,0,0,0.083333,-3.9475e-16,0,0.66667
0.28319,0.24158,3.3983,-0.38763,-68.291,913.38,3.5128,-1.1709,-1.4683,4.6837,3.787e-12,-0.73413,0,0,0.083333,-1.9737e-16,0,0.66667
0.031465,0.052704,0.37758,-0.67094,-128.62,1480.1,0.67557,-0.22521,-0.4063,0.90075,-2.3823e-05,-0.20315,0,0,0.083333,4.9343e-17,0,0.66667
0.87611,0.46468,10.513,-0.052978,-2.3336,36.025,1.4853,-0.49509,-1.9951,1.9804,-7.5894e-09,-0.99756,0,0,0.083333,-0,-0,0.66667
0.27438,0.46598,3.2926,-0.051032,-9.0309,932.02,0.44808,-0.14936,-1.9876,0.59744,1.5783e-11,-0.9938,0,0,0.083333,-9.8686e-17,0,0.66667
0.059762,0.85756,0.71715,0.53633,102.46,1414.5,-1.0257,0.3419,-0.97772,-1.3676,8.7408e-07,-0.48886,0,0,0.083333,9.8686e-17,0,0.66667
0.75205,0.16012,9.0246,-0.50983,-42.364,135.2,12.269,-4.0898,-1.0787,16.359,8.5194e-12,-0.53935,0,0,0.083333,-0,-0,0.66667
0.92919,0.20933,11.15,-0.436,-11.267,13.426,12.964,-4.3214,-1.3199,17.285,-2.9299e-07,-0.65997,0,0,0.083333,7.8949e-16,0,0.66667
0.42393,0.7859,5.0872,0.42884,67.372,627.98,-5.8176,1.9392,-1.3488,-7.7568,-4.0572e-12,-0.67442,0,0,0.083333,-0,-0,0.66667
0.32511,0.2952,3.9013,-0.30719,-52.598,824.98,3.1959,-1.0653,-1.6644,4.2611,4.2255e-12,-0.83221,0,0,0.083333,-0,-0,0.66667
0.68882,0.61071,8.2659,0.16606,16.664,205.35,-3.6604,1.2201,-1.9056,-4.8806,-1.6782e-12,-0.95278,0,0,0.083333,7.8949e-16,0,0.66667
0.20706,0.41949,2.4847,-0.12076,-22.124,1079.2,0.80018,-0.26673,-1.9466,1.0669,-3.1525e-11,-0.9733,0,0,0.083333,-3.9475e-16,0,0.66667
0.55152,0.052301,6.6182,-0.67155,-89.64,403.09,11.852,-3.9506,-0.39418,15.802,-1.3918e-12,-0.19709,0,0,0.083333,-0,-0,0.66667
0.49453,0.83767,5.9344,0.50651,73.305,498.75,-8.0156,2.6719,-1.085,-10.687,-8.7841e-13,-0.54251,0,0,0.083333,3.9475e-16,0,0.66667
0.58736,0.97762,7.0483,0.71643,90.063,346.97,-13.466,4.4886,-0.17126,-17.954,1.1378e-12,-0.08563,0,0,0.083333,-1.579e-15,0,0.66667
0.83524,0.090806,10.023,-0.61379,-35.516,63.588,16.405,-5.4684,-0.65723,21.874,-1.0069e-10,-0.32861,0,0,0.083333,-2.1711e-15,0,0.66667
0.68413,0.90375,8.2095,0.60562,61.734,212.38,-13.258,4.4194,-0.69642,-17.678,2.9754e-13,-0.34821,0,0,0.083333,-7.8949e-16,0,0.66667
0.88239,0.43633,10.589,-0.095512,-4.0052,32.663,2.6969,-0.89897,-1.9646,3.5959,-9.354e-10,-0.98229,0,0,0.083333,-3.9475e-16,0,0.66667
0.27936,0.75831,3.3523,0.38746,68.421,921.58,-3.4637,1.1546,-1.4688,-4.6182,-1.4817e-11,-0.73442,0,0,0.083333,-0,-0,0.66667
0.24996,0.66143,2.9995,0.24215,43.461,984.92,-1.9368,0.64561,-1.7994,-2.5824,-1.7846e-12,-0.8997,0,0,0.083333,-0,-0,0.66667
0.18811,0.33757,2.2573,-0.24365,-44.998,1121.6,1.4667,-0.48889,-1.795,1.9555,-7.5122e-11,-0.89752,0,0,0.083333,-1.9737e-16,0,0.66667
0.008355,0.78295,0.10026,0.42443,81.317,1533.6,-0.11347,0.037822,-1.3564,-0.1513,-3.9468e-06,-0.67822,0,0,0.083333,-0,-0,0.66667
0.65746,0.6255,7.8895,0.18826,20.419,245.42,-3.9606,1.3202,-1.8795,-5.2809,1.265e-12,-0.93975,0,0,0.083333,-1.579e-15,0,0.66667
0.37182,0.28747,4.4618,-0.3188,-52.595,729.69,3.7931,-1.2644,-1.6389,5.0575,1.7266e-12,-0.81945,0,0,0.083333,-0,-0,0.66667
0.16613,0.63802,1.9935,0.20704,38.542,1171,-1.1006,0.36687,-1.844,-1.4675,-1.2455e-10,-0.92199,0,0,0.083333,-3.9475e-16,0,0.66667
0.25918,0.63243,3.1101,0.19865,35.47,964.87,-1.6475,0.54917,-1.856,-2.1967,-5.6111e-13,-0.92802,0,0,0.083333,-0,-0,0.66667
0.1825,0.91907,2.19,0.62861,116.56,1134.5,-3.6711,1.2237,-0.59212,-4.8948,-4.4976e-09,-0.29606,0,0,0.083333,-0,-0,0.66667
0.17807,0.60414,2.1369,0.15621,28.954,1144.1,-0.89012,0.29671,-1.9095,-1.1868,2.0039e-11,-0.95473,0,0,0.083333,-0,-0,0.66667
0.22777,0.66862,2.7332,0.25292,45.911,1033.5,-1.8435,0.61449,-1.7684,-2.4579,1.5383e-11,-0.88421,0,0,0.083333,-0,-0,0.66667
0.096411,0.63322,1.1569,0.19983,37.903,1329.9,-0.61651,0.2055,-1.859,-0.82202,-3.985e-08,-0.92951,0,0,0.083333,-0,-0,0.66667
0.54411,0.1649,6.5293,-0.50265,-67.776,414.58,8.7519,-2.9173,-1.1024,11.669,-2.5784e-12,-0.5512,0,0,0.083333,-0,-0,0.66667
0.8362,0.28579,10.034,-0.32132,-18.403,61.69,8.5979,-2.866,-1.6293,11.464,2.3118e-11,-0.81465,0,0,0.083333,-0,-0,0.66667
0.34664,0.87965,4.1597,0.56948,96.061,781.04,-6.317,2.1057,-0.84792,-8.4226,6.1386e-12,-0.42396,0,0,0.083333,-0,-0,0.66667
0.9126,0.72889,10.951,0.34334,10.861,19.146,-10.027,3.3422,-1.577,-13.369,3.4221e-08,-0.78851,0,0,0.083333,1.579e-15,0,0.66667
0.68392,0.50132,8.207,0.0019736,0.20053,211.31,-0.043193,0.014398,-2.0004,-0.05759,-4.2735e-12,-1.0002,0,0,0.083333,-0,-0,0.66667
0.82604,0.59318,9.9124,0.13978,8.4464,68.726,-3.6947,1.2316,-1.9339,-4.9263,-1.0014e-10,-0.96697,0,0,0.083333,2.0231e-15,0,0.66667
0.92485,0.033422,11.098,-0.69987,-19.384,16.378,20.713,-6.9043,-0.25971,27.617,-8.9533e-06,-0.12986,0,0,0.083333,-3.158e-15,0,0.66667
0.71895,0.17543,8.6273,-0.48685,-44.995,170.63,11.201,-3.7336,-1.164,14.934,-2.7764e-12,-0.582,0,0,0.083333,-7.8949e-16,0,0.66667
0.77043,0.47319,9.2451,-0.040215,-3.1149,116.05,0.99145,-0.33048,-1.9924,1.3219,2.165e-11,-0.99619,0,0,0.083333,-1.8247e-15,0,0.66667
0.074018,0.61092,0.88821,0.16638,31.678,1381.5,-0.39409,0.13136,-1.8997,-0.52545,-1.1654e-07,-0.94987,0,0,0.083333,-0,-0,0.66667
0.18869,0.72992,2.2642,0.34488,63.701,1120.3,-2.0824,0.69412,-1.5812,-2.7765,2.9507e-11,-0.79059,0,0,0.083333,-0,-0,0.66667
0.31405,0.81501,3.7686,0.47252,81.609,848.25,-4.7486,1.5829,-1.2104,-6.3315,-1.0012e-11,-0.6052,0,0,0.083333,-0,-0,0.66667
0.33439,0.44806,4.0127,-0.077912,-13.241,805.61,0.8337,-0.2779,-1.9746,1.1116,1.2911e-11,-0.98729,0,0,0.083333,-0,-0,0.66667
0.4653,0.025686,5.5837,-0.71147,-106.99,551.65,10.594,-3.5312,-0.2001,14.125,-1.3642e-12,-0.10005,0,0,0.083333,3.9475e-16,5.7773e-17,0.66667
0.095259,0.88944,1.1431,0.58416,111.01,1332.7,-1.7807,0.59356,-0.78986,-2.3742,-1.1725e-07,-0.39493,0,0,0.083333,1.9737e-16,0,0.66667
0.34423,0.71265,4.1307,0.31898,53.835,785.56,-3.5136,1.1712,-1.6447,-4.6849,-3.4817e-12,-0.82236,0,0,0.083333,-0,-0,0.66667
0.073158,0.40136,0.8779,-0.14797,-28.174,1383.5,0.3464,-0.11547,-1.92,0.46186,9.721e-08,-0.96002,0,0,0.083333,-0,-0,0.66667
0.32341,0.54665,3.881,0.06998,11.99,828.34,-0.72424,0.24141,-1.98,-0.96565,1.1657e-13,-0.98998,0,0,0.083333,-3.9475e-16,0,0.66667
0.6615,0.7247,7.938,0.33706,36.24,240.36,-7.1348,2.3783,-1.5935,-9.5131,-1.4784e-12,-0.79675,0,0,0.083333,-0,-0,0.66667
0.0029211,0.10146,0.035053,-0.59781,-114.65,1546.2,0.055872,-0.018638,-0.72992,0.074489,-2.1146e-05,-0.36496,0,0,0.083333,-0,-0,0.66667
0.28436,0.25204,3.4124,-0.37194,-65.475,910.86,3.3846,-1.1282,-1.5092,4.5127,-3.8938e-12,-0.75459,0,0,0.083333,-0,-0,0.66667
0.072846,0.45065,0.87416,-0.074032,-14.096,1384.2,0.17258,-0.057525,-1.9773,0.2301,3.5066e-08,-0.98866,0,0,0.083333,-0,-0,0.66667
0.71076,0.6475,8.5291,0.22125,20.902,179.27,-5.0322,1.6774,-1.8218,-6.7096,-1.0347e-12,-0.91091,0,0,0.083333,7.8949e-16,0,0.66667
0.84127,0.39577,10.095,-0.15634,-8.6858,57.788,4.2087,-1.4029,-1.9143,5.6116,-2.2698e-10,-0.95713,0,0,0.083333,-0,-0,0.66667
0.97833,0.89073,11.74,0.5861,4.691,3.2349,-18.349,6.1162,-0.77472,-24.465,-2.3088e-05,-0.38736,0,0,0.083333,1.579e-15,0,0.66667
0.61717,0.25578,7.406,-0.36634,-43.383,301.53,7.2349,-2.4116,-1.519,9.6465,5.8322e-12,-0.75952,0,0,0.083333,-1.579e-15,0,0.66667
0.2249,0.6899,2.6988,0.28486,51.784,1039.8,-2.0501,0.68335,-1.7088,-2.7334,1.2443e-11,-0.85438,0,0,0.083333,-0,-0,0.66667
0.22831,0.26414,2.7397,-0.35379,-64.226,1032.4,2.5848,-0.86159,-1.5511,3.4463,-1.5102e-11,-0.77555,0,0,0.083333,-0,-0,0.66667
0.49353,0.036673,5.9223,-0.69499,-100.88,501.11,10.976,-3.6586,-0.27922,14.635,8.5736e-12,-0.13961,0,0,0.083333,-0,-0,0.66667
0.93135,0.709,11.176,0.31351,7.8303,12.266,-9.3434,3.1145,-1.6468,-12.458,2.6072e-07,-0.82342,0,0,0.083333,7.8949e-16,0,0.66667
0.62806,0.62162,7.5367,0.18244,21.111,285.66,-3.6666,1.2222,-1.8826,-4.8888,-4.4318e-12,-0.94129,0,0,0.083333,7.8949e-16,0,0.66667
0.1814,0.49029,2.1768,-0.01456,-2.695,1136.6,0.084517,-0.028172,-1.9956,0.11269,-2.8284e-10,-0.99779,0,0,0.083333,-0,-0,0.66667
0.51601,0.12173,6.1921,-0.5674,-79.792,461.75,9.3691,-3.123,-0.86249,12.492,-3.0917e-12,-0.43124,0,0,0.083333,-1.9737e-16,0,0.66667
0.40912,0.8039,4.9095,0.45585,72.706,656.47,-5.968,1.9893,-1.2617,-7.9573,1.8359e-12,-0.63085,0,0,0.083333,-0,-0,0.66667
0.86907,0.3015,10.429,-0.29776,-13.844,40.41,8.2807,-2.7602,-1.6811,11.041,-4.7497e-09,-0.84056,0,0,0.083333,-0,-0,0.66667
0.10442,0.9808,1.253,0.7212,136.93,1311.8,-2.4097,0.80325,-0.14784,-3.213,-7.925e-07,-0.073918,0,0,0.083333,-1.9737e-16,0,0.66667
0.21763,0.476,2.6115,-0.035993,-6.5625,1055.8,0.25066,-0.083553,-2,0.33421,2.968e-11,-1,0,0,0.083333,-0,-0,0.66667
0.75933,0.064672,9.1119,-0.65299,-52.994,128.57,15.867,-5.2889,-0.48115,21.156,-1.5222e-10,-0.24058,0,0,0.083333,-0,-0,0.66667
0.97325,0.54082,11.679,0.061235,0.58519,2.1085,-1.9071,0.6357,-1.9846,-2.5428,4.5285e-07,-0.99228,0,0,0.083333,-0,-0,0.66667
0.80883,0.11109,9.706,-0.58336,-38.596,83.553,15.099,-5.033,-0.78885,20.132,-2.3752e-10,-0.39442,0,0,0.083333,6.2114e-16,0,0.66667
0.57043,0.53734,6.8452,0.056008,7.2219,371.59,-1.0224,0.34079,-1.985,-1.3631,2.0418e-12,-0.99251,0,0,0.083333,-0,-0,0.66667
0.80961,0.67375,9.7153,0.26062,17.107,81.749,-6.7519,2.2506,-1.7587,-9.0026,-7.2418e-11,-0.87935,0,0,0.083333,-0,-0,0.66667
0.37864,0.82315,4.5437,0.48473,79.561,716.34,-5.8732,1.9577,-1.1636,-7.8309,5.0284e-12,-0.58181,0,0,0.083333,-0,-0,0.66667
0.23981,0.65583,2.8777,0.23375,42.176,1007.1,-1.7938,0.59792,-1.804,-2.3917,4.0575e-12,-0.90198,0,0,0.083333,5.5511e-16,0,0.66667
0.44234,0.028268,5.308,-0.7076,-109.23,593.99,10.016,-3.3386,-0.2181,13.354,-6.5983e-12,-0.10905,0,0,0.083333,3.9475e-16,0,0.66667
0.29305,0.53837,3.5165,0.05755,10.067,892.17,-0.53968,0.17989,-1.9873,-0.71957,-2.5774e-11,-0.99365,0,0,0.083333,-0,-0,0.66667
0.64436,0.15151,7.7323,-0.52273,-58.536,263.85,10.778,-3.5928,-1.028,14.371,-3.6522e-12,-0.514,0,0,0.083333,1.1842e-15,0,0.66667
0.91612,0.28807,10.993,-0.3179,-9.6575,17.675,9.3196,-3.1065,-1.6376,12.426,-6.6295e-08,-0.81878,0,0,0.083333,-0,-0,0.66667
0.6714,0.85817,8.0568,0.53725,56.501,228.16,-11.543,3.8476,-0.97959,-15.39,-3.6238e-13,-0.4898,0,0,0.083333,-0,-0,0.66667
0.78373,0.73189,9.4048,0.34784,25.604,104.18,-8.7236,2.9079,-1.5708,-11.631,-2.067e-11,-0.78542,0,0,0.083333,-0,-0,0.66667
0.9199,0.35328,11.039,-0.22009,-6.3809,15.986,6.4787,-2.1596,-1.8301,8.6382,-9.9532e-08,-0.91505,0,0,0.083333,-0,-0,0.66667
0.73198,0.51299,8.7837,0.019487,1.7255,155.28,-0.45645,0.15215,-1.9999,-0.60859,-1.5302e-12,-0.99993,0,0,0.083333,-0,-0,0.66667
0.45633,0.46793,5.476,-0.048108,-7.2853,566.84,0.7025,-0.23417,-1.9929,0.93667,-3.8858e-13,-0.99645,0,0,0.083333,-1.0856e-15,0,0.66667
0.7422,0.56875,8.9063,0.10312,8.834,144.4,-2.4492,0.81641,-1.9583,-3.2656,2.0501e-12,-0.97916,0,0,0.083333,-0,-0,0.66667
0.99059,0.28398,11.887,-0.32403,-1.0117,0.91805,10.272,-3.4238,-1.6238,13.695,-1.1788e-06,-0.81192,0,0,0.083333,-0,-0,0.66667
0.67386,0.21786,8.0863,-0.42322,-44.192,224.62,9.126,-3.042,-1.3667,12.168,-4.5111e-12,-0.68336,0,0,0.083333,1.0856e-15,0,0.66667
0.72714,0.38533,8.7256,-0.17201,-15.469,160.69,4.0024,-1.3341,-1.8906,5.3365,1.4615e-12,-0.94529,0,0,0.083333,-0,-0,0.66667
0.13533,0.76684,1.624,0.40027,75.276,1240.9,-1.7334,0.5778,-1.4271,-2.3112,-6.456e-09,-0.71355,0,0,0.083333,1.9737e-16,0,0.66667
0.81734,0.63433,9.8081,0.20149,12.733,75.47,-5.2701,1.7567,-1.8531,-7.0267,-1.4508e-10,-0.92657,0,0,0.083333,-0,-0,0.66667
0.92918,0.5976,11.15,0.14641,3.7584,12.593,-4.3532,1.4511,-1.9203,-5.8043,1.0207e-07,-0.96017,0,0,0.083333,-0,-0,0.66667
0.082941,0.033855,0.99529,-0.69922,-133.27,1361.1,1.8558,-0.6186,-0.2601,2.4744,-1.0214e-06,-0.13005,0,0,0.083333,1.9737e-16,0,0.66667
0.92221,0.87325,11.067,0.55988,15.928,16.443,-16.522,5.5075,-0.89307,-22.03,-9.2202e-08,-0.44653,0,0,0.083333,-1.7764e-15,0,0.66667
0.76001,0.14426,9.1202,-0.53361,-43.12,127.31,12.978,-4.3259,-0.98414,17.303,-1.3543e-11,-0.49207,0,0,0.083333,-1.6895e-15,0,0.66667
0.25267,0.75756,3.0321,0.38634,69.276,979.13,-3.1238,1.0413,-1.4704,-4.165,7.004e-12,-0.73518,0,0,0.083333,-0,-0,0.66667
0.03478,0.67228,0.41736,0.25841,49.423,1472.3,-0.2876,0.095868,-1.7616,-0.38347,4.2138e-07,-0.88081,0,0,0.083333,-0,-0,0.66667
0.59333,0.70625,7.12,0.30937,38.339,336.6,-5.8739,1.958,-1.6658,-7.8319,4.4587e-13,-0.83289,0,0,0.083333,8.6848e-17,0,0.66667
0.14,0.62224,1.68,0.18336,34.415,1230.2,-0.82143,0.27381,-1.8871,-1.0952,-2.0034e-09,-0.94353,0,0,0.083333,-4.9343e-17,0,0.66667
0.88064,0.77223,10.568,0.40835,17.432,34.331,-11.507,3.8358,-1.4039,-15.343,-4.9067e-09,-0.70193,0,0,0.083333,-0,-0,0.66667
0.64348,0.1922,7.7218,-0.4617,-51.773,264.84,9.507,-3.169,-1.2432,12.676,-7.9314e-13,-0.62158,0,0,0.083333,-0,-0,0.66667
0.041189,0.84822,0.49427,0.52233,99.96,1457.5,-0.68846,0.22948,-1.0272,-0.91794,-5.5515e-06,-0.51361,0,0,0.083333,-0,-0,0.66667
0.19441,0.39428,2.3329,-0.15858,-29.208,1107.4,0.98656,-0.32885,-1.9064,1.3154,-6.682e-11,-0.95318,0,0,0.083333,1.9737e-16,0,0.66667
0.62451,0.53799,7.4942,0.056992,6.6417,290.58,-1.139,0.37965,-1.9948,-1.5186,-6.9467e-13,-0.99742,0,0,0.083333,-0,-0,0.66667
0.52665,0.45775,6.3198,-0.063379,-8.7569,442.84,1.0681,-0.35604,-1.9834,1.4242,4.1687e-12,-0.99169,0,0,0.083333,-7.8949e-16,0,0.66667
0.29026,0.019888,3.4831,-0.72017,-126.59,898.9,6.6891,-2.2297,-0.15187,8.9188,-1.0797e-11,-0.075934,0,0,0.083333,-0,-0,0.66667
0.39512,0.075653,4.7414,-0.63652,-103.03,684.16,8.048,-2.6827,-0.55712,10.731,-3.519e-12,-0.27856,0,0,0.083333,-0,-0,0.66667
0.24657,0.21184,2.9588,-0.43224,-77.776,992.47,3.4104,-1.1368,-1.3355,4.5472,4.811e-12,-0.66773,0,0,0.083333,3.9475e-16,0,0.66667
0.99839,0.95592,11.981,0.68388,0.35538,2.5238,-21.849,7.2829,-0.34007,-29.132,-0.00012174,-0.17003,0,0,0.083333,-0,-0,0.66667
0.88329,0.29313,10.6,-0.3103,-12.944,32.597,8.7707,-2.9236,-1.6533,11.694,-8.3529e-09,-0.82666,0,0,0.083333,1.579e-15,0,0.66667
0.74097,0.82559,8.8916,0.48839,42.123,146.59,-11.58,3.8601,-1.1478,-15.44,-1.1021e-11,-0.57389,0,0,0.083333,-0,-0,0.66667
0.24654,0.84546,2.9585,0.51818,93.286,992.65,-4.0881,1.3627,-1.0458,-5.4508,1.874e-11,-0.5229,0,0,0.083333,-0,-0,0.66667
0.088881,0.35991,1.0666,-0.21013,-39.913,1347.3,0.59765,-0.19922,-1.8402,0.79687,4.5478e-08,-0.9201,0,0,0.083333,-1.9737e-16,0,0.66667
0.096131,0.070874,1.1536,-0.64369,-122.35,1330.8,1.9801,-0.66004,-0.52837,2.6402,-3.4351e-08,-0.26418,0,0,0.083333,-1.9737e-16,0,0.66667
0.88147,0.090076,10.578,-0.61489,-26.21,34.881,17.344,-5.7814,-0.65256,23.126,-9.7379e-08,-0.32628,0,0,0.083333,-1.579e-15,0,0.66667
0.22391,0.4644,2.6869,-0.053407,-9.709,1041.9,0.38267,-0.12756,-1.9876,0.51023,-4.0192e-12,-0.99381,0,0,0.083333,-0,-0,0.66667
0.055036,0.94558,0.66043,0.66836,127.86,1425.5,-1.1771,0.39237,-0.40764,-1.5694,1.1289e-05,-0.20382,0,0,0.083333,9.8686e-17,0,0.66667
0.60875,0.47549,7.305,-0.036769,-4.4221,313.35,0.71626,-0.23875,-2.0012,0.95501,-3.1586e-12,-1.0006,0,0,0.083333,-0,-0,0.66667
0.75404,0.80218,9.0485,0.45328,37.378,132.96,-10.937,3.6457,-1.2679,-14.583,2.9136e-11,-0.63397,0,0,0.083333,-0,-0,0.66667
0.90554,0.18437,10.866,-0.47345,-16.196,22.6,13.719,-4.573,-1.2093,18.292,-5.6488e-08,-0.60466,0,0,0.083333,3.9475e-16,-9.904e-19,0.66667
0.48403,0.70618,5.8083,0.30927,45.318,516.91,-4.7902,1.5967,-1.6662,-6.3869,-2.2711e-12,-0.83311,0,0,0.083333,-0,-0,0.66667
0.71854,0.10451,8.6225,-0.59323,-54.963,171.53,13.64,-4.5468,-0.75553,18.187,1.325e-11,-0.37776,0,0,0.083333,-0,-0,0.66667
0.046842,0.66656,0.56211,0.24983,47.733,1444.4,-0.37449,0.12483,-1.7854,-0.49931,-8.8523e-08,-0.89271,0,0,0.083333,-0,-0,0.66667
0.30454,0.83813,3.6545,0.50719,88.189,868.27,-4.9428,1.6476,-1.0816,-6.5904,-3.6726e-13,-0.54079,0,0,0.083333,5.9212e-16,0,0.66667
0.087153,0.047862,1.0458,-0.67821,-129.15,1351.4,1.8914,-0.63048,-0.36039,2.5219,-1.8936e-06,-0.18019,0,0,0.083333,-4.5229e-18,0,0.66667
0.40034,0.78815,4.804,0.43223,69.519,673.49,-5.5372,1.8457,-1.3325,-7.3829,1.942e-12,-0.66625,0,0,0.083333,-0,-0,0.66667
0.19936,0.032605,2.3923,-0.70109,-129.21,1096.9,4.4725,-1.4908,-0.25243,5.9634,1.0615e-09,-0.12621,0,0,0.083333,-0,-0,0.66667
0.49854,0.11921,5.9824,-0.57118,-82.27,491.92,9.1121,-3.0374,-0.84396,12.15,1.5339e-12,-0.42198,0,0,0.083333,3.9475e-16,-1.2508e-16,0.66667
0.24179,0.37391,2.9015,-0.18913,-34.087,1002.7,1.4634,-0.48779,-1.8698,1.9512,-4.8803e-12,-0.93492,0,0,0.083333,-1.4803e-16,0,0.66667
0.19127,0.6201,2.2953,0.18014,33.223,1114.5,-1.1026,0.36754,-1.8841,-1.4702,4.6013e-11,-0.94204,0,0,0.083333,1.9737e-16,0,0.66667
0.60179,0.17706,7.2214,-0.48441,-59.16,324.38,9.3284,-3.1095,-1.1614,12.438,3.3511e-12,-0.5807,0,0,0.083333,-0,-0,0.66667
0.48061,0.05945,5.7673,-0.66083,-97.486,523.89,10.163,-3.3877,-0.44709,13.551,-3.9888e-12,-0.22355,0,0,0.083333,7.8949e-16,0,0.66667
0.38153,0.7681,4.5783,0.40215,65.806,710.45,-4.9098,1.6366,-1.4209,-6.5464,8.7503e-12,-0.71044,0,0,0.083333,-0,-0,0.66667
0.41901,0.46244,5.0281,-0.056342,-8.8856,636.98,0.75545,-0.25182,-1.9895,1.0073,-5.1456e-12,-0.99477,0,0,0.083333,-0,-0,0.66667
0.94696,0.10093,11.363,-0.5986,-11.742,9.0792,18.139,-6.0464,-0.72249,24.186,2.3854e-06,-0.36125,0,0,0.083333,-0,-0,0.66667
0.61125,0.60044,7.335,0.15066,18.035,309.76,-2.947,0.98232,-1.9221,-3.9293,5.014e-12,-0.96107,0,0,0.083333,-1.579e-15,0,0.66667
0.2018,0.14639,2.4216,-0.53041,-97.537,1091.2,3.4251,-1.1417,-1.0035,4.5668,3.5922e-10,-0.50177,0,0,0.083333,-1.9737e-16,0,0.66667
0.26679,0.73983,3.2014,0.35975,63.994,948.55,-3.0712,1.0237,-1.5441,-4.095,-1.147e-11,-0.77204,0,0,0.083333,-3.9475e-16,0,0.66667
0.29971,0.4323,3.5965,-0.10155,-17.688,878.07,0.9739,-0.32463,-1.9644,1.2985,7.7467e-12,-0.98219,0,0,0.083333,-0,-0,0.66667
0.71146,0.17728,8.5375,-0.48407,-45.732,179.16,11.021,-3.6736,-1.1626,14.694,1.779e-12,-0.58131,0,0,0.083333,-7.8949e-16,0,0.66667
0.50952,0.084347,6.1142,-0.62348,-88.519,473.05,10.166,-3.3885,-0.61421,13.554,-1.1458e-13,-0.30711,0,0,0.083333,-3.9475e-16,0,0.66667
0.21262,0.44045,2.5514,-0.089324,-16.324,1066.9,0.60774,-0.20258,-1.9688,0.81032,-3.9556e-11,-0.98441,0,0,0.083333,-7.8949e-16,0,0.66667
0.58056,0.6026,6.9667,0.15389,19.503,355.87,-2.859,0.95301,-1.9172,-3.8121,2.5331e-12,-0.95859,0,0,0.083333,-0,-0,0.66667
0.87572,0.12346,10.509,-0.5648,-25.137,37.715,15.828,-5.2759,-0.87233,21.103,-4.5384e-08,-0.43617,0,0,0.083333,1.7764e-15,0,0.66667
0.12633,0.85927,1.5159,0.5389,101.67,1261.5,-2.1785,0.72618,-0.971,-2.9047,-1.0904e-08,-0.4855,0,0,0.083333,-0,-0,0.66667
0.99245,0.1879,11.909,-0.46814,-1.1847,1.4192,14.868,-4.9559,-1.2179,19.823,-6.4562e-06,-0.60897,0,0,0.083333,3.158e-15,0,0.66667
0.57331,0.26331,6.8797,-0.35504,-45.601,367.45,6.5135,-2.1712,-1.5491,8.6846,-2.7622e-13,-0.77455,0,0,0.083333,-0,-0,0.66667
0.075515,0.74022,0.90618,0.36033,68.626,1378.1,-0.87072,0.29024,-1.5393,-1.161,-2.1006e-07,-0.76966,0,0,0.083333,-9.8686e-17,0,0.66667
0.9247,0.52843,11.096,0.04264,1.1617,14.025,-1.2617,0.42058,-1.995,-1.6823,-3.7425e-08,-0.99749,0,0,0.083333,1.579e-15,0,0.66667
0.6613,0.52629,7.9356,0.039431,4.2369,240.23,-0.83442,0.27814,-1.9923,-1.1126,-4.2181e-12,-0.99613,0,0,0.083333,-0,-0,0.66667
0.25836,0.64804,3.1004,0.22205,39.67,966.65,-1.8359,0.61195,-1.8206,-2.4478,1.3781e-12,-0.91032,0,0,0.083333,-1.9737e-16,0,0.66667
0.011312,0.80925,0.13574,0.46387,88.885,1526.8,-0.16791,0.055965,-1.2339,-0.22388,-5.745e-06,-0.61694,0,0,0.083333,1.8769e-17,0,0.66667
0.82783,0.24416,9.934,-0.38376,-23.022,67.954,10.166,-3.3886,-1.4834,13.555,2.8755e-10,-0.74171,0,0,0.083333,1.9737e-15,0,0.66667
0.19681,0.63224,2.3617,0.19836,36.503,1102.1,-1.2493,0.41643,-1.8565,-1.6657,9.734e-12,-0.92827,0,0,0.083333,-0,-0,0.66667
0.91039,0.78621,10.925,0.42932,13.943,20.366,-12.507,4.1691,-1.3436,-16.676,1.0616e-08,-0.67178,0,0,0.083333,-0,-0,0.66667
0.26207,0.64751,3.1448,0.22127,39.448,958.64,-1.8556,0.61853,-1.8252,-2.4741,-8.975e-13,-0.91262,0,0,0.083333,-1.9737e-16,0,0.66667
0.30754,0.49221,3.6904,-0.011683,-2.0241,861.54,0.11497,-0.038324,-1.997,0.1533,1.3408e-11,-0.99851,0,0,0.083333,-3.9475e-16,0,0.66667
0.429,0.64334,5.148,0.21501,33.569,618.03,-2.9517,0.9839,-1.8313,-3.9356,-5.4803e-12,-0.91565,0,0,0.083333,-7.8949e-16,0,0.66667
0.84952,0.52675,10.194,0.04013,2.1211,52.121,-1.0909,0.36364,-1.9915,-1.4546,1.0975e-09,-0.99573,0,0,0.083333,-1.579e-15,0,0.66667
0.37631,0.37417,4.5157,-0.18875,-31.005,720.58,2.2729,-0.75763,-1.8785,3.0305,-6.013e-13,-0.93925,0,0,0.083333,-4.9343e-17,0,0.66667
0.66908,0.8686,8.029,0.5529,58.486,231.19,-11.838,3.946,-0.91403,-15.784,-3.5527e-13,-0.45702,0,0,0.083333,1.4307e-18,0,0.66667
0.73119,0.59031,8.7742,0.13547,12.028,156.21,-3.1696,1.0565,-1.9354,-4.2262,-3.7184e-12,-0.96771,0,0,0.083333,7.8949e-16,0,0.66667
0.89467,0.62265,10.736,0.18397,6.9484,26.616,-5.267,1.7557,-1.8791,-7.0227,2.6257e-08,-0.93957,0,0,0.083333,-1.9737e-15,0,0.66667
0.93853,0.92277,11.262,0.63416,14.404,11.586,-19.046,6.3485,-0.57448,-25.394,-4.5055e-06,-0.28724,0,0,0.083333,-0,-0,0.66667
0.87235,0.034354,10.468,-0.69847,-31.998,40.384,19.498,-6.4993,-0.26713,25.997,7.9623e-08,-0.13357,0,0,0.083333,-0,-0,0.66667
0.45255,0.87015,5.4306,0.55523,84.625,574.56,-8.0406,2.6802,-0.9103,-10.721,-9.1038e-12,-0.45515,0,0,0.083333,-1.9737e-16,0,0.66667
0.55083,0.5097,6.61,0.014555,1.9382,402.87,-0.25656,0.085521,-1.9979,-0.34209,-5.0608e-12,-0.99893,0,0,0.083333,-0,-0,0.66667
0.57742,0.59246,6.9291,0.13869,17.671,360.72,-2.5626,0.85419,-1.9383,-3.4168,4.5932e-12,-0.96914,0,0,0.083333,-9.0139e-16,0,0.66667
0.48558,0.16027,5.827,-0.5096,-74.613,514.57,7.9185,-2.6395,-1.0815,10.558,2.7027e-12,-0.54075,0,0,0.083333,-1.579e-15,0,0.66667
0.91406,0.59597,10.969,0.14395,4.4658,18.092,-4.2106,1.4035,-1.9231,-5.6142,5.3124e-08,-0.96155,0,0,0.083333,-0,-0,0.66667
0.78635,0.18571,9.4361,-0.47144,-34.38,102.25,11.863,-3.9543,-1.208,15.817,-1.4923e-10,-0.60402,0,0,0.083333,3.9475e-16,0,0.66667
0.093327,0.43908,1.1199,-0.091375,-17.339,1337,0.27289,-0.090963,-1.9777,0.36385,1.1101e-08,-0.98885,0,0,0.083333,3.9475e-16,0,0.66667
0.99093,0.33241,11.891,-0.25138,-0.74112,0.67691,7.9713,-2.6571,-1.7713,10.628,-7.8919e-07,-0.88563,0,0,0.083333,-1.579e-15,0,0.66667
0.19126,0.7397,2.2951,0.35955,66.348,1114.6,-2.2006,0.73353,-1.5392,-2.9341,7.1767e-11,-0.76961,0,0,0.083333,-0,-0,0.66667
0.26939,0.24188,3.2327,-0.38717,-68.777,942.97,3.3376,-1.1125,-1.4661,4.4502,-2.254e-12,-0.73304,0,0,0.083333,-0,-0,0.66667
0.15118,0.96321,1.8142,0.69481,130.3,1205.1,-3.3614,1.1205,-0.28118,-4.4819,4.0038e-08,-0.14059,0,0,0.083333,-0,-0,0.66667
0.26352,0.17172,3.1622,-0.49243,-87.817,955.77,4.1524,-1.3841,-1.1396,5.5366,-1.2664e-11,-0.5698,0,0,0.083333,3.9475e-16,0,0.66667
0.37276,0.77219,4.4732,0.40828,67.33,727.93,-4.8702,1.6234,-1.4091,-6.4936,8.4182e-12,-0.70455,0,0,0.083333,-3.9475e-16,0,0.66667
0.97389,0.51343,11.687,0.02015,0.18766,2.0033,-0.62796,0.20932,-1.9955,-0.83729,-2.0225e-06,-0.99774,0,0,0.083333,3.158e-15,0,0.66667
0.16693,0.92485,2.0031,0.63728,118.84,1169.5,-3.4041,1.1347,-0.55318,-4.5389,2.3004e-08,-0.27659,0,0,0.083333,-1.9737e-16,0,0.66667
0.61018,0.0055709,7.3222,-0.74164,-89.369,313.03,14.481,-4.8271,-0.04997,19.308,9.7611e-13,-0.024985,0,0,0.083333,-0,-0,0.66667
0.44789,0.90494,5.3746,0.6074,93.105,583.34,-8.7055,2.9018,-0.68644,-11.607,-7.9101e-12,-0.34322,0,0,0.083333,-4.9343e-17,0,0.66667
0.58703,0.91303,7.0443,0.61954,77.846,347.07,-11.638,3.8793,-0.63157,-15.517,-3.2658e-12,-0.31579,0,0,0.083333,-0,-0,0.66667
0.053649,0.45305,0.64379,-0.070432,-13.443,1428.6,0.12092,-0.040305,-1.9781,0.16122,7.5408e-08,-0.98905,0,0,0.083333,-0,-0,0.66667
0.30933,0.17926,3.712,-0.48111,-83.37,858.16,4.7623,-1.5874,-1.177,6.3498,5.4845e-13,-0.58852,0,0,0.083333,-3.9475e-16,0,0.66667
0.090911,0.37388,1.0909,-0.18918,-35.918,1342.6,0.55035,-0.18345,-1.8745,0.7338,3.9452e-08,-0.93725,0,0,0.083333,-2.8372e-16,0,0.66667
0.46345,0.02857,5.5614,-0.70715,-106.56,555.02,10.487,-3.4957,-0.21994,13.983,-2.5757e-13,-0.10997,0,0,0.083333,5.9212e-16,0,0.66667
0.89199,0.63494,10.704,0.20241,7.8326,27.944,-5.7776,1.9259,-1.8581,-7.7034,2.2933e-08,-0.92903,0,0,0.083333,1.579e-15,0,0.66667
0.82138,0.32526,9.8566,-0.2621,-16.237,72.466,6.8892,-2.2964,-1.7515,9.1856,9.7044e-11,-0.87577,0,0,0.083333,-1.579e-15,0,0.66667
0.87215,0.678,10.466,0.267,12.134,38.558,-7.4517,2.4839,-1.7471,-9.9355,5.4686e-09,-0.87353,0,0,0.083333,7.8949e-16,0,0.66667
0.3996,0.87241,4.7952,0.55862,89.983,675.2,-7.1431,2.381,-0.88745,-9.5241,-3.0411e-12,-0.44373,0,0,0.083333,9.8686e-16,0,0.66667
0.50934,0.78161,6.1121,0.42241,59.895,472.79,-6.8848,2.2949,-1.3632,-9.1797,3.9893e-12,-0.68159,0,0,0.083333,-1.579e-15,0,0.66667
0.25721,0.7528,3.0865,0.3792,67.826,969.29,-3.1211,1.0404,-1.4855,-4.1614,7.9514e-12,-0.74274,0,0,0.083333,-0,-0,0.66667
0.60699,0.23631,7.2839,-0.39554,-47.796,316.44,7.6827,-2.5609,-1.4449,10.244,1.4242e-12,-0.72247,0,0,0.083333,7.8949e-16,0,0.66667
0.44631,0.86443,5.3557,0.54665,83.901,586.1,-7.8072,2.6024,-0.9334,-10.41,-6.8185e-12,-0.4667,0,0,0.083333,3.9475e-16,0,0.66667
0.49641,0.1338,5.9569,-0.5493,-79.329,495.58,8.7257,-2.9086,-0.92644,11.634,-3.8725e-13,-0.46322,0,0,0.083333,-0,-0,0.66667
0.54096,0.077607,6.4916,-0.63359,-85.944,420.16,10.968,-3.656,-0.56889,14.624,2.2746e-12,-0.28445,0,0,0.083333,-0,-0,0.66667
0.58046,0.78111,6.9655,0.42167,53.514,356.5,-7.8324,2.6108,-1.3708,-10.443,1.2137e-12,-0.68538,0,0,0.083333,-3.0223e-16,0,0.66667
0.46466,0.17761,5.5759,-0.48359,-72.637,552.15,7.1905,-2.3968,-1.1669,9.5873,6.2279e-12,-0.58347,0,0,0.083333,-3.9475e-16,0,0.66667
0.79849,0.22844,9.5818,-0.40735,-28.177,91.407,10.408,-3.4694,-1.4132,13.878,1.4434e-10,-0.70659,0,0,0.083333,-0,-0,0.66667
0.40923,0.14912,4.9108,-0.52633,-83.975,656.41,6.8925,-2.2975,-1.0155,9.19,-1.6201e-11,-0.50777,0,0,0.083333,3.9475e-16,0,0.66667
0.043632,0.37543,0.52358,-0.18685,-35.704,1451.8,0.26088,-0.086961,-1.877,0.34784,6.4436e-09,-0.93851,0,0,0.083333,1.9737e-16,0,0.66667
0.83341,0.74806,10.001,0.3721,21.657,63.836,-9.9235,3.3078,-1.5058,-13.231,-2.8799e-10,-0.75289,0,0,0.083333,2.3685e-15,0,0.66667
0.48479,0.98389,5.8175,0.72583,106.58,516.66,-11.26,3.7534,-0.13285,-15.013,-1.4158e-12,-0.066424,0,0,0.083333,7.8949e-16,0,0.66667
0.47847,0.9387,5.7417,0.65805,97.331,527.69,-10.075,3.3585,-0.45804,-13.434,1.2871e-11,-0.22902,0,0,0.083333,-1.579e-15,0,0.66667
0.17683,0.54051,2.122,0.060764,11.267,1146.8,-0.34385,0.11462,-1.9842,-0.45846,-5.2892e-11,-0.99212,0,0,0.083333,-0,-0,0.66667
0.443,0.81566,5.316,0.47349,72.902,592.09,-6.7122,2.2374,-1.2005,-8.9496,-1.6742e-12,-0.60026,0,0,0.083333,-0,-0,0.66667
0.14347,0.67351,1.7217,0.26027,48.81,1222.3,-1.1949,0.39831,-1.7594,-1.5932,-1.3145e-09,-0.87971,0,0,0.083333,1.9737e-16,0,0.66667
0.041238,0.90283,0.49485,0.60425,115.69,1457.4,-0.79737,0.26578,-0.69929,-1.0632,-1.5775e-05,-0.34964,0,0,0.083333,4.9343e-17,0,0.66667
0.96316,0.75195,11.558,0.37792,5.0829,4.4481,-11.648,3.8827,-1.49,-15.531,3.6883e-07,-0.74498,0,0,0.083333,-0,-0,0.66667
0.26195,0.74864,3.1434,0.37295,66.53,959.01,-3.1263,1.0421,-1.5057,-4.1683,-6.2399e-12,-0.75284,0,0,0.083333,5.9212e-16,0,0.66667
0.1361,0.86276,1.6332,0.54413,102.39,1239.3,-2.3698,0.78993,-0.94494,-3.1597,5.1183e-09,-0.47247,0,0,0.083333,-1.9737e-16,0,0.66667
0.68806,0.48984,8.2567,-0.015242,-1.5321,206.19,0.3356,-0.11187,-2.005,0.44746,6.8365e-12,-1.0025,0,0,0.083333,-2.3685e-15,0,0.66667
0.37393,0.092253,4.4872,-0.61162,-100.89,726.01,7.3185,-2.4395,-0.67559,9.758,3.2472e-12,-0.3378,0,0,0.083333,-9.8686e-16,0,0.66667
0.62308,0.2787,7.477,-0.33195,-38.836,292.97,6.6187,-2.2062,-1.6116,8.8249,-1.5055e-13,-0.80579,0,0,0.083333,3.9475e-16,0,0.66667
0.70645,0.33904,8.4774,-0.24144,-23.095,184.33,5.458,-1.8193,-1.793,7.2773,-8.4688e-13,-0.89649,0,0,0.083333,-1.1842e-15,0,0.66667
0.66211,0.47136,7.9453,-0.042962,-4.6076,239.17,0.91026,-0.30342,-1.9909,1.2137,-2.2022e-12,-0.99544,0,0,0.083333,-0,-0,0.66667
0.22691,0.73541,2.723,0.35312,64.147,1035.5,-2.5641,0.85469,-1.5522,-3.4188,1.3399e-11,-0.7761,0,0,0.083333,-0,-0,0.66667
0.78337,0.81728,9.4005,0.47591,35.135,104.94,-11.93,3.9767,-1.1973,-15.907,1.0452e-10,-0.59863,0,0,0.083333,-0,-0,0.66667
0.07097,0.90321,0.85164,0.60482,115.42,1388.7,-1.3736,0.45786,-0.69606,-1.8314,-9.93e-07,-0.34803,0,0,0.083333,-4.9343e-17,0,0.66667
0.78814,0.58143,9.4577,0.12214,8.8148,99.773,-3.0805,1.0268,-1.9427,-4.1074,-2.398e-11,-0.97136,0,0,0.083333,-0,-0,0.66667
0.16235,0.17138,1.9481,-0.49294,-91.986,1179.7,2.5608,-0.85361,-1.1321,3.4144,1.386e-09,-0.56607,0,0,0.083333,-0,-0,0.66667
0.40501,0.55042,4.8601,0.075625,12.095,664.01,-0.98013,0.32671,-1.9836,-1.3068,-1.6221e-12,-0.99179,0,0,0.083333,-0,-0,0.66667
0.0061978,0.37221,0.074374,-0.19169,-36.698,1538.6,0.038017,-0.012672,-1.8665,0.05069,9.1466e-07,-0.93327,0,0,0.083333,-4.333e-18,0,0.66667
0.16285,0.26133,1.9542,-0.358,-66.753,1178.4,1.8657,-0.62189,-1.5402,2.4875,-9.1148e-11,-0.77011,0,0,0.083333,-0,-0,0.66667
0.67786,0.57348,8.1343,0.11022,11.375,218.94,-2.3908,0.79695,-1.9531,-3.1878,-5.0626e-13,-0.97656,0,0,0.083333,-0,-0,0.66667
0.75014,0.64889,9.0017,0.22334,18.632,136.3,-5.3611,1.787,-1.8299,-7.1481,-6.1444e-12,-0.91497,0,0,0.083333,7.8949e-16,0,0.66667
0.91019,0.70456,10.922,0.30684,9.9576,20.01,-8.9371,2.979,-1.6637,-11.916,3.724e-08,-0.83183,0,0,0.083333,-1.579e-15,0,0.66667
0.42023,0.48293,5.0427,-0.025606,-4.0332,634.65,0.34433,-0.11478,-2.0005,0.4591,3.3168e-14,-1.0003,0,0,0.083333,-0,-0,0.66667
0.61033,0.52186,7.3239,0.032795,3.9321,311.03,-0.64051,0.2135,-2.001,-0.85401,3.4301e-12,-1.0005,0,0,0.083333,-0,-0,0.66667
0.49204,0.39577,5.9045,-0.15634,-22.663,502.52,2.4617,-0.82057,-1.9088,3.2823,1.821e-12,-0.9544,0,0,0.083333,-0,-0,0.66667
0.025408,0.65798,0.3049,0.23697,45.345,1494,-0.19268,0.064227,-1.798,-0.2569,1.4328e-06,-0.89898,0,0,0.083333,-0,-0,0.66667
0.44827,0.95793,5.3793,0.6869,105.32,582.86,-9.8534,3.2845,-0.31975,-13.138,-5.0813e-12,-0.15987,0,0,0.083333,-0,-4.2193e-17,0.66667
0.68945,0.66929,8.2734,0.25393,25.449,204.72,-5.6024,1.8675,-1.7729,-7.4699,1.4744e-13,-0.88645,0,0,0.083333,-0,-0,0.66667
0.67687,0.89353,8.1225,0.59029,61.279,221.4,-12.786,4.2619,-0.7582,-17.048,8.4732e-13,-0.3791,0,0,0.083333,-0,-0,0.66667
0.29344,0.72719,3.5212,0.34079,59.64,891.52,-3.2,1.0667,-1.5866,-4.2666,-1.0763e-11,-0.79331,0,0,0.083333,-0,-0,0.66667
0.87748,0.2359,10.53,-0.39615,-17.33,35.993,11.124,-3.7079,-1.443,14.832,2.4803e-09,-0.72151,0,0,0.083333,-0,-0,0.66667
0.77122,0.94106,9.2547,0.66159,51.386,117.08,-16.327,5.4425,-0.44123,-21.77,-8.2406e-10,-0.22061,0,0,0.083333,-3.158e-15,0,0.66667
0.85372,0.43231,10.245,-0.10153,-5.2278,49.429,2.7737,-0.92458,-1.9605,3.6983,-4.862e-11,-0.98026,0,0,0.083333,3.9475e-16,0,0.66667
0.93715,0.13402,11.246,-0.54897,-12.684,11.485,16.463,-5.4877,-0.93498,21.951,1.556e-07,-0.46749,0,0,0.083333,-0,-8.9259e-17,0.66667
0.235,0.6695,2.82,0.25426,45.99,1017.6,-1.912,0.63735,-1.7756,-2.5494,7.7089e-12,-0.88781,0,0,0.083333,-3.9475e-16,0,0.66667
0.71728,0.81253,8.6074,0.4688,43.533,172.45,-10.76,3.5868,-1.2236,-14.347,4.0368e-12,-0.61178,0,0,0.083333,-0,-0,0.66667
0.043952,0.86911,0.52743,0.55367,105.95,1451.1,-0.77872,0.25957,-0.91082,-1.0383,-6.9294e-06,-0.45541,0,0,0.083333,4.9343e-17,0,0.66667
0.30362,0.79505,3.6435,0.44257,76.971,870.1,-4.3,1.4333,-1.2993,-5.7333,-9.1775e-12,-0.64967,0,0,0.083333,-0,-0,0.66667
0.48305,0.92466,5.7966,0.63698,93.66,519.45,-9.8462,3.2821,-0.56099,-13.128,6.4322e-12,-0.2805,0,0,0.083333,-1.3615e-15,0,0.66667
0.36442,0.80167,4.373,0.4525,75.175,744.75,-5.2769,1.759,-1.2691,-7.0358,1.0623e-11,-0.63456,0,0,0.083333,-3.9475e-16,0,0.66667
0.19847,0.22597,2.3817,-0.41105,-75.644,1098.5,2.6106,-0.8702,-1.3972,3.4808,-1.7287e-10,-0.6986,0,0,0.083333,-0,-0,0.66667
0.69868,0.42282,8.3842,-0.11577,-11.311,193.34,2.5884,-0.86281,-1.9501,3.4512,-1.1247e-12,-0.97503,0,0,0.083333,7.8949e-16,0,0.66667
0.9253,0.78752,11.104,0.43128,11.74,14.723,-12.77,4.2567,-1.3385,-17.027,2.2542e-07,-0.66924,0,0,0.083333,-0,-0,0.66667
0.099858,0.00096794,1.1983,-0.74855,-142.29,1322.3,2.392,-0.79732,-0.0053221,3.1893,-1.9193e-07,-0.002661,0,0,0.083333,-0,-0,0.66667
0.23014,0.6117,2.7617,0.16755,30.372,1028.2,-1.2339,0.4113,-1.8982,-1.6452,6.0975e-12,-0.9491,0,0,0.083333,-0,-0,0.66667
0.28485,0.40123,3.4182,-0.14815,-26.053,909.65,1.3504,-0.45013,-1.9217,1.8005,6.8747e-12,-0.96084,0,0,0.083333,5.9212e-16,0,0.66667
0.66797,0.87084,8.0157,0.55626,59.002,232.63,-11.89,3.9634,-0.89919,-15.854,-2.7622e-12,-0.4496,0,0,0.083333,1.1842e-15,0,0.66667
0.38662,0.087595,4.6394,-0.61861,-100.9,700.83,7.6532,-2.5511,-0.63831,10.204,8.1744e-12,-0.31916,0,0,0.083333,-1.9737e-16,-3.8278e-18,0.66667
0.7656,0.041936,9.1872,-0.6871,-54.533,122.61,16.833,-5.6111,-0.32875,22.444,1.9119e-10,-0.16438,0,0,0.083333,1.579e-15,0,0.66667
0.095646,0.59141,1.1478,0.13712,26.008,1331.7,-0.41967,0.13989,-1.9366,-0.55956,-3.2905e-08,-0.96832,0,0,0.083333,2.2204e-16,0,0.66667
0.46018,0.46724,5.5222,-0.049146,-7.4093,559.77,0.72372,-0.24124,-1.9884,0.96495,-4.4142e-13,-0.99422,0,0,0.083333,3.9475e-16,0,0.66667
0.29262,0.89562,3.5114,0.59343,104.05,893.63,-5.5567,1.8522,-0.74599,-7.4089,-2.7898e-11,-0.373,0,0,0.083333,3.9475e-16,0,0.66667
0.51342,0.20598,6.161,-0.44103,-62.189,465.83,7.2459,-2.4153,-1.31,9.6612,2.0517e-13,-0.65501,0,0,0.083333,-6.0801e-16,0,0.66667
0.13575,0.89206,1.6289,0.58809,110.7,1240.1,-2.5546,0.85152,-0.76751,-3.4061,2.2791e-08,-0.38376,0,0,0.083333,-0,-0,0.66667
0.446,0.69126,5.352,0.28688,43.982,586.17,-4.0944,1.3648,-1.704,-5.4592,-3.5687e-12,-0.85198,0,0,0.083333,-0,-0,0.66667
0.51639,0.36523,6.1967,-0.20216,-28.355,460.33,3.3406,-1.1135,-1.86,4.4541,-1.5645e-12,-0.93,0,0,0.083333,3.9475e-16,0,0.66667
0.34421,0.82876,4.1305,0.49314,83.302,785.86,-5.4317,1.8106,-1.1413,-7.2423,1.1666e-12,-0.57063,0,0,0.083333,-0,-0,0.66667
0.55465,0.76869,6.6558,0.40304,53.41,397.18,-7.1535,2.3845,-1.418,-9.538,3.2596e-13,-0.70901,0,0,0.083333,-0,-0,0.66667
0.71429,0.66933,8.5715,0.25399,23.754,175.27,-5.8055,1.9352,-1.7684,-7.7407,2.0384e-13,-0.88418,0,0,0.083333,-0,-0,0.66667
0.66388,0.75389,7.9666,0.38083,40.728,237.36,-8.0905,2.6968,-1.4808,-10.787,-3.0562e-12,-0.74041,0,0,0.083333,1.579e-15,0,0.66667
0.35567,0.59937,4.2681,0.14906,24.916,762.08,-1.6965,0.56551,-1.9205,-2.2621,7.816e-14,-0.96023,0,0,0.083333,-0,-0,0.66667
0.076579,0.96099,0.91895,0.69149,131.93,1375.8,-1.6945,0.56483,-0.30337,-2.2594,-6.2857e-06,-0.15169,0,0,0.083333,4.9343e-17,0,0.66667
0.83367,0.51761,10.004,0.026408,1.531,63.037,-0.70449,0.23483,-1.9941,-0.93932,2.3375e-10,-0.99703,0,0,0.083333,-0,-0,0.66667
0.92624,0.11474,11.115,-0.57789,-15.626,15.129,17.129,-5.7095,-0.8106,22.838,-4.768e-07,-0.4053,0,0,0.083333,-0,-0,0.66667
0.23416,0.23332,2.81,-0.40003,-72.427,1019.6,2.9975,-0.99916,-1.4377,3.9966,-1.562e-11,-0.71883,0,0,0.083333,-3.9475e-16,0,0.66667
0.0015237,0.90798,0.018285,0.61196,117.38,1549.5,-0.02983,0.0099817,-0.67299,-0.039754,5.7592e-05,-0.3365,0,0,0.083333,-0,-0,0.66667
0.47964,0.20775,5.7556,-0.43837,-64.636,525,6.7282,-2.2427,-1.3142,8.971,-1.6445e-12,-0.65711,0,0,0.083333,-0,-0,0.66667
0.61534,0.84279,7.3841,0.51418,61.183,304.6,-10.125,3.3749,-1.0576,-13.5,-1.3509e-12,-0.52882,0,0,0.083333,-1.4803e-16,0,0.66667
0.65285,0.19172,7.8342,-0.46241,-50.776,252.18,9.6603,-3.2201,-1.2399,12.88,-1.8918e-12,-0.61995,0,0,0.083333,-0,-0,0.66667
0.60356,0.52104,7.2427,0.031566,3.8345,321,-0.60967,0.20322,-1.993,-0.81289,6.3727e-13,-0.99648,0,0,0.083333,-0,-0,0.66667
0.67867,0.19472,8.144,-0.45792,-47.258,218.64,9.9447,-3.3149,-1.2507,13.26,-5.8753e-12,-0.62533,0,0,0.083333,1.579e-15,0,0.66667
0.73325,0.6589,8.7989,0.23835,21.034,154.13,-5.5926,1.8642,-1.8033,-7.4568,4.7686e-12,-0.90164,0,0,0.083333,-3.158e-15,0,0.66667
0.84341,0.81726,10.121,0.47589,26.209,57.226,-12.844,4.2813,-1.2018,-17.125,-1.3782e-09,-0.60092,0,0,0.083333,3.158e-15,0,0.66667
0.57512,0.82441,6.9015,0.48662,62.363,364.97,-8.9557,2.9852,-1.1581,-11.941,7.1854e-13,-0.57905,0,0,0.083333,-0,-0,0.66667
0.033325,0.7909,0.3999,0.43635,83.517,1475.7,-0.46532,0.15511,-1.3251,-0.62043,7.6292e-07,-0.66257,0,0,0.083333,-9.8686e-17,0,0.66667
0.93264,0.028532,11.192,-0.7072,-17.632,13.853,21.106,-7.0353,-0.22011,28.141,-2.6909e-06,-0.11005,0,0,0.083333,-1.579e-15,1.1361e-16,0.66667
0.41723,0.58885,5.0067,0.13327,21.058,640.43,-1.7793,0.59311,-1.9351,-2.3724,2.6906e-12,-0.96755,0,0,0.083333,-9.8686e-16,0,0.66667
0.46721,0.33871,5.6065,-0.24194,-36.186,547.08,3.6172,-1.2057,-1.7957,4.8229,1.7855e-12,-0.89787,0,0,0.083333,9.8686e-16,0,0.66667
0.61906,0.97474,7.4288,0.7121,84.285,300.03,-14.107,4.7023,-0.19385,-18.809,-5.4072e-12,-0.096927,0,0,0.083333,1.579e-15,0,0.66667
0.27646,0.49105,3.3175,-0.013427,-2.3732,927.57,0.11879,-0.039595,-1.9969,0.15838,-1.4223e-11,-0.99847,0,0,0.083333,3.9475e-16,0,0.66667
0.90942,0.73548,10.913,0.35323,11.569,20.477,-10.279,3.4265,-1.556,-13.706,2.7237e-08,-0.77802,0,0,0.083333,1.579e-15,0,0.66667
0.6579,0.68892,7.8948,0.28338,30.717,244.99,-5.966,1.9887,-1.7187,-7.9547,2.8955e-13,-0.85934,0,0,0.083333,-1.579e-15,0,0.66667
0.13349,0.75606,1.6019,0.38408,72.264,1245.1,-1.6407,0.54689,-1.4717,-2.1876,-5.7113e-09,-0.73587,0,0,0.083333,-0,-0,0.66667
0.37351,0.26203,4.4822,-0.35696,-58.813,726.35,4.2665,-1.4222,-1.5503,5.6887,1.5214e-12,-0.77513,0,0,0.083333,-0,-0,0.66667
0.21324,0.5171,2.5589,0.025649,4.6858,1065.5,-0.17502,0.058341,-1.9942,-0.23337,1.7918e-11,-0.99711,0,0,0.083333,-5.0506e-16,0,0.66667
0.44333,0.22543,5.3199,-0.41186,-63.368,591.36,5.8428,-1.9476,-1.3937,7.7904,-7.7893e-12,-0.69686,0,0,0.083333,-0,-0,0.66667
0.20627,0.73535,2.4753,0.35302,64.736,1081.1,-2.3302,0.77674,-1.5566,-3.1069,5.3194e-11,-0.7783,0,0,0.083333,-0,-0,0.66667
0.097915,0.20319,1.175,-0.44521,-84.493,1326.6,1.395,-0.46499,-1.2933,1.86,5.4681e-08,-0.64666,0,0,0.083333,-1.9737e-16,0,0.66667
0.32046,0.4094,3.8455,-0.13589,-23.336,834.52,1.3936,-0.46452,-1.931,1.8581,-1.066e-11,-0.96548,0,0,0.083333,-0,-0,0.66667
0.13448,0.34687,1.6138,-0.22969,-43.182,1242.8,0.98848,-0.32949,-1.8096,1.318,3.1195e-09,-0.90478,0,0,0.083333,-3.9475e-16,0,0.66667
0.035025,0.019489,0.4203,-0.72077,-138.19,1471.8,0.80785,-0.26928,-0.15166,1.0771,1.022e-05,-0.075832,0,0,0.083333,-0,-0,0.66667
0.49839,0.64258,5.9807,0.21388,30.749,491.43,-3.411,1.137,-1.8403,-4.548,5.4357e-13,-0.92015,0,0,0.083333,-7.8949e-16,0,0.66667
0.60463,0.69489,7.2556,0.29233,35.464,319.68,-5.6561,1.8854,-1.694,-7.5415,4.7518e-14,-0.84698,0,0,0.083333,-0,-0,0.66667
0.19647,0.84492,2.3576,0.51738,95.345,1103.1,-3.2528,1.0843,-1.0455,-4.3371,-5.4002e-10,-0.52274,0,0,0.083333,-0,-0,0.66667
0.35053,0.25142,4.2063,-0.37287,-62.632,772.77,4.1824,-1.3941,-1.5028,5.5766,5.5498e-12,-0.7514,0,0,0.083333,-0,-0,0.66667
0.45356,0.39422,5.4428,-0.15867,-24.108,572,2.3029,-0.76763,-1.9165,3.0705,2.041e-12,-0.95827,0,0,0.083333,-7.8949e-16,0,0.66667
0.25284,0.94633,3.0341,0.66949,120.25,979.18,-5.4167,1.8056,-0.40693,-7.2223,-2.5957e-11,-0.20346,0,0,0.083333,-0,-0,0.66667
0.33803,0.19921,4.0563,-0.45119,-76.562,798.46,4.8805,-1.6268,-1.2727,6.5073,5.1248e-13,-0.63633,0,0,0.083333,-0,-0,0.66667
0.26085,0.77415,3.1302,0.41122,73.415,961.44,-3.4325,1.1442,-1.3965,-4.5767,-7.9756e-12,-0.69827,0,0,0.083333,1.9737e-16,0,0.66667
0.66262,0.034337,7.9514,-0.69849,-75.174,240.22,14.811,-4.9369,-0.26229,19.748,8.1979e-13,-0.13114,0,0,0.083333,-0,-0,0.66667
0.38944,0.52973,4.6732,0.04459,7.237,694.48,-0.55568,0.18523,-1.9983,-0.74091,-6.9885e-12,-0.99913,0,0,0.083333,8.8818e-16,0,0.66667
0.46579,0.52334,5.5894,0.035004,5.2423,549.52,-0.52174,0.17391,-1.9961,-0.69565,-7.0612e-12,-0.99805,0,0,0.083333,-0,-0,0.66667
0.25898,0.74408,3.1077,0.36611,65.417,965.44,-3.0341,1.0114,-1.5199,-4.0454,5.1248e-13,-0.75993,0,0,0.083333,-2.414e-16,0,0.66667
0.57889,0.11708,6.9467,-0.57438,-73.185,359.39,10.64,-3.5467,-0.83243,14.187,-3.4968e-12,-0.41622,0,0,0.083333,7.8949e-16,0,0.66667
0.41565,0.79434,4.9878,0.44151,69.956,643.85,-5.8725,1.9575,-1.303,-7.83,-7.0388e-13,-0.65148,0,0,0.083333,-0,-0,0.66667
0.45718,0.89451,5.4862,0.59177,89.741,566.12,-8.6575,2.8858,-0.75322,-11.543,1.5428e-12,-0.37661,0,0,0.083333,-7.8949e-16,0,0.66667
0.20956,0.98251,2.5148,0.72377,132.83,1074.3,-4.8536,1.6179,-0.13336,-6.4715,2.0426e-10,-0.066679,0,0,0.083333,8.9109e-16,0,0.66667
0.51169,0.50405,6.1403,0.006078,0.85788,468.26,-0.099522,0.033174,-1.9992,-0.1327,1.9385e-12,-0.99961,0,0,0.083333,-3.158e-15,0,0.66667
0.42103,0.47639,5.0524,-0.035419,-5.5744,633.1,0.47721,-0.15907,-2.0008,0.63627,4.8159e-13,-1.0004,0,0,0.083333,-0,-0,0.66667
0.53816,0.18836,6.458,-0.46746,-63.592,424.25,8.0503,-2.6834,-1.2202,10.734,1.7017e-12,-0.61012,0,0,0.083333,-1.579e-15,0,0.66667
0.51553,0.88346,6.1863,0.5752,80.948,462.59,-9.4889,3.163,-0.83096,-12.652,-1.8616e-12,-0.41548,0,0,0.083333,-0,-0,0.66667
0.71232,0.1739,8.5478,-0.48915,-46.1,178.2,11.15,-3.7166,-1.1452,14.866,-1.4255e-12,-0.57259,0,0,0.083333,-5.406e-17,0,0.66667
0.34543,0.73174,4.1452,0.34762,58.619,783.13,-3.8425,1.2808,-1.5731,-5.1233,2.0095e-13,-0.78657,0,0,0.083333,-0,-0,0.66667
0.22924,0.70296,2.7509,0.30444,55.233,1030.3,-2.2333,0.74444,-1.6674,-2.9778,1.2032e-11,-0.83368,0,0,0.083333,-3.9475e-16,0,0.66667
0.91895,0.74021,11.027,0.36031,10.598,16.742,-10.595,3.5318,-1.5387,-14.127,9.3416e-08,-0.76937,0,0,0.083333,-0,-0,0.66667
0.39408,0.018967,4.729,-0.72155,-116.99,686.43,9.0992,-3.0331,-0.1481,12.132,-1.1955e-12,-0.07405,0,0,0.083333,-0,-0,0.66667
0.81515,0.54034,9.7817,0.060503,3.8627,77.037,-1.5782,0.52607,-1.9879,-2.1043,1.1129e-10,-0.99397,0,0,0.083333,-0,-0,0.66667
0.88049,0.10059,10.566,-0.59911,-25.725,35.313,16.88,-5.6268,-0.72088,22.507,-7.4147e-08,-0.36044,0,0,0.083333,-0,-0,0.66667
0.65189,0.73021,7.8227,0.34532,37.966,253.13,-7.2035,2.4012,-1.574,-9.6046,-2.5153e-12,-0.78698,0,0,0.083333,-0,-0,0.66667
0.76748,0.18938,9.2097,-0.46592,-36.598,119.76,11.443,-3.8142,-1.2318,15.257,9.3428e-11,-0.61591,0,0,0.083333,3.158e-15,0,0.66667
0.89753,0.70632,10.77,0.30949,11.404,25.565,-8.8888,2.9629,-1.6552,-11.852,4.5217e-08,-0.8276,0,0,0.083333,-0,-0,0.66667
0.49849,0.80594,5.9818,0.45891,66.049,491.7,-7.3203,2.4401,-1.2549,-9.7604,-2.7001e-13,-0.62746,0,0,0.083333,3.9475e-16,0,0.66667
0.42176,0.59375,5.0611,0.14062,22.118,631.76,-1.8979,0.63263,-1.9383,-2.5305,-5.9832e-12,-0.96915,0,0,0.083333,-2.0214e-16,0,0.66667
0.72854,0.76544,8.7425,0.39816,35.704,159.65,-9.2824,3.0941,-1.4326,-12.377,-1.2825e-12,-0.71631,0,0,0.083333,-0,-0,0.66667
0.57844,0.42862,6.9413,-0.10707,-13.617,359.11,1.9818,-0.66061,-1.9659,2.6425,-2.442e-12,-0.98293,0,0,0.083333,-0,-0,0.66667
0.070112,0.92544,0.84135,0.63816,121.82,1390.7,-1.4318,0.47726,-0.54763,-1.909,-1.4868e-06,-0.27381,0,0,0.083333,-0,-0,0.66667
0.80706,0.25358,9.6847,-0.36963,-24.58,84.12,9.5461,-3.182,-1.5118,12.728,1.1243e-10,-0.75592,0,0,0.083333,-0,-0,0.66667
0.20204,0.24198,2.4245,-0.38703,-71.11,1090.5,2.5023,-0.8341,-1.472,3.3364,-1.4132e-10,-0.73602,0,0,0.083333,-0,-0,0.66667
0.21501,0.11833,2.5801,-0.57251,-104.7,1062,3.939,-1.313,-0.83388,5.252,-3.1464e-10,-0.41694,0,0,0.083333,-1.9737e-16,0,0.66667
0.87429,0.12618,10.491,-0.56072,-25.222,38.487,15.688,-5.2292,-0.88877,20.917,-2.9041e-08,-0.44438,0,0,0.083333,-0,-1.4537e-17,0.66667
0.81023,0.13172,9.7228,-0.55242,-36.288,82.267,14.323,-4.7743,-0.91695,19.097,3.7293e-10,-0.45847,0,0,0.083333,-0,-0,0.66667
0.78716,0.30499,9.4459,-0.29251,-21.219,100.95,7.3681,-2.456,-1.6925,9.8242,4.7809e-11,-0.84623,0,0,0.083333,-7.8949e-16,0,0.66667
0.97848,0.71176,11.742,0.31764,2.4449,1.9521,-9.9456,3.3152,-1.638,-13.261,-2.3292e-06,-0.81901,0,0,0.083333,7.8949e-16,0,0.66667
0.93575,0.91383,11.229,0.62074,14.71,12.324,-18.587,6.1958,-0.63302,-24.783,-1.1769e-06,-0.31651,0,0,0.083333,-3.158e-15,0,0.66667
0.12932,0.10887,1.5518,-0.5867,-110.63,1254.8,2.4278,-0.80927,-0.77401,3.2371,5.1691e-09,-0.38701,0,0,0.083333,1.9737e-16,0,0.66667
0.46825,0.41579,5.619,-0.12631,-18.863,545.08,1.8927,-0.63089,-1.9493,2.5236,3.4767e-12,-0.97466,0,0,0.083333,-0,-0,0.66667
0.30416,0.10865,3.65,-0.58702,-102.15,869.2,5.7137,-1.9046,-0.77034,7.6182,-7.8555e-12,-0.38517,0,0,0.083333,-0,-0,0.66667
0.89049,0.0028373,10.686,-0.74574,-29.638,31.126,21.25,-7.0835,-0.030613,28.334,8.237e-08,-0.015306,0,0,0.083333,6.3159e-15,0,0.66667
0.13731,0.18525,1.6478,-0.47213,-88.773,1236.4,2.0745,-0.69151,-1.2081,2.7661,8.2945e-09,-0.60406,0,0,0.083333,-2.2204e-16,0,0.66667
0.047972,0.52968,0.57567,0.04452,8.5023,1441.7,-0.068343,0.022781,-1.9985,-0.091124,1.8979e-07,-0.99926,0,0,0.083333,7.4015e-17,0,0.66667
0.97746,0.31795,11.73,-0.27307,-2.1987,1.9336,8.5414,-2.8471,-1.7313,11.389,1.799e-06,-0.86563,0,0,0.083333,3.158e-15,0,0.66667
0.56486,0.76435,6.7784,0.39653,51.675,380.84,-7.1675,2.3892,-1.4422,-9.5566,1.787e-12,-0.72109,0,0,0.083333,-7.8949e-16,0,0.66667
0.28488,0.94533,3.4186,0.668,117.77,910.22,-6.0897,2.0299,-0.41273,-8.1196,-1.1355e-11,-0.20637,0,0,0.083333,-0,-0,0.66667
0.33181,0.20233,3.9817,-0.44651,-76.123,811.29,4.7409,-1.5803,-1.2899,6.3212,7.474e-13,-0.64497,0,0,0.083333,-0,-0,0.66667
0.13838,0.077767,1.6606,-0.63335,-119.17,1234.1,2.8046,-0.93488,-0.57524,3.7395,-9.0308e-08,-0.28762,0,0,0.083333,-0,-9.8635e-17,0.66667
0.99127,0.13503,11.895,-0.54745,-1.6787,1.9081,17.365,-5.7885,-0.9303,23.154,-2.0949e-05,-0.46515,0,0,0.083333,-0,-0,0.66667
0.87071,0.91708,10.449,0.62562,28.94,40.867,-17.432,5.8105,-0.60643,-23.242,-1.597e-08,-0.30321,0,0,0.083333,-1.579e-15,0,0.66667
0.24165,0.65454,2.8998,0.23181,41.787,1003,-1.7925,0.59751,-1.8059,-2.3901,1.501e-13,-0.90293,0,0,0.083333,4.4409e-16,0,0.66667
0.33244,0.2656,3.9893,-0.3516,-59.887,809.84,3.7404,-1.2468,-1.5583,4.9872,2.0923e-12,-0.77916,0,0,0.083333,-3.9475e-16,0,0.66667
0.16541,0.25694,1.985,-0.36459,-67.924,1172.7,1.9299,-0.64329,-1.5238,2.5732,-2.2715e-10,-0.76189,0,0,0.083333,-3.9475e-16,0,0.66667
0.51303,0.97731,6.1564,0.71596,101.25,467.36,-11.754,3.918,-0.17851,-15.672,3.1068e-12,-0.089257,0,0,0.083333,-0,-0,0.66667
0.97972,0.097678,11.757,-0.60348,-4.5281,3.1892,18.92,-6.3066,-0.70345,25.226,2.0699e-05,-0.35173,0,0,0.083333,-3.158e-15,0,0.66667
0.59628,0.15725,7.1553,-0.51412,-63.456,332.7,9.8099,-3.27,-1.0626,13.08,7.1942e-13,-0.53128,0,0,0.083333,-1.579e-15,0,0.66667
0.66446,0.059258,7.9735,-0.66111,-70.805,237.64,14.057,-4.6857,-0.4426,18.743,8.0291e-13,-0.2213,0,0,0.083333,-0,-0,0.66667
0.67117,0.20017,8.0541,-0.44975,-47.284,228.13,9.6595,-3.2198,-1.2861,12.879,-4.5475e-13,-0.64305,0,0,0.083333,-0,-0,0.66667
0.19112,0.94306,2.2934,0.66458,122.86,1115.2,-4.0645,1.3548,-0.42922,-5.4193,-7.5348e-10,-0.21461,0,0,0.083333,-0,-0,0.66667
0.24088,0.36424,2.8906,-0.20364,-36.72,1004.7,1.5697,-0.52323,-1.8486,2.0929,-3.3789e-12,-0.92429,0,0,0.083333,-1.9737e-16,0,0.66667
0.50091,0.16016,6.0109,-0.50976,-73.156,487.6,8.1711,-2.7237,-1.0817,10.895,6.982e-12,-0.54085,0,0,0.083333,-1.579e-15,0,0.66667
0.46695,0.04271,5.6034,-0.68593,-102.92,548.58,10.249,-3.4165,-0.32966,13.666,-2.7116e-12,-0.16483,0,0,0.083333,-7.8949e-16,-9.1675e-17,0.66667
0.32409,0.63384,3.8891,0.20076,34.389,826.99,-2.0821,0.69404,-1.8553,-2.7762,1.1529e-12,-0.92764,0,0,0.083333,-0,-0,0.66667
0.72003,0.15895,8.6404,-0.51157,-47.139,169.5,11.787,-3.9291,-1.0744,15.716,2.1121e-12,-0.53718,0,0,0.083333,-0,-0,0.66667
0.27597,0.20702,3.3116,-0.43946,-77.783,928.9,3.8809,-1.2936,-1.3102,5.1745,5.4141e-12,-0.65509,0,0,0.083333,-0,-0,0.66667
0.89558,0.50801,10.747,0.012018,0.4497,26.021,-0.34442,0.11481,-1.997,-0.45923,3.6995e-08,-0.99849,0,0,0.083333,3.158e-15,0,0.66667
0.12274,0.80724,1.4729,0.46085,86.984,1269.7,-1.8101,0.60337,-1.247,-2.4135,6.3596e-09,-0.62352,0,0,0.083333,-9.8686e-17,0,0.66667
0.92163,0.81815,11.06,0.47722,13.632,16.232,-14.074,4.6914,-1.1975,-18.766,5.7636e-08,-0.59875,0,0,0.083333,-0,-0,0.66667
0.10352,0.98292,1.2422,0.72438,137.56,1313.9,-2.3995,0.79984,-0.13058,-3.1994,-6.1593e-07,-0.065289,0,0,0.083333,2.4518e-16,0,0.66667
0.19298,0.15219,2.3158,-0.52172,-96.282,1110.9,3.2218,-1.0739,-1.0297,4.2958,1.4763e-10,-0.51486,0,0,0.083333,3.9475e-16,0,0.66667
0.45235,0.78545,5.4281,0.42817,65.219,574.63,-6.1978,2.0659,-1.3541,-8.2637,-4.5204e-12,-0.67705,0,0,0.083333,-1.579e-15,0,0.66667
0.88235,0.31956,10.588,-0.27066,-11.371,32.985,7.6423,-2.5474,-1.7356,10.19,-8.7895e-09,-0.8678,0,0,0.083333,-0,-0,0.66667
0.30753,0.56002,3.6904,0.090036,15.6,861.57,-0.88604,0.29535,-1.9695,-1.1814,-1.445e-11,-0.98473,0,0,0.083333,1.9737e-16,0,0.66667
0.65742,0.57882,7.8891,0.11823,12.821,245.39,-2.4872,0.82907,-1.9543,-3.3163,-2.7138e-12,-0.97714,0,0,0.083333,7.8949e-16,0,0.66667
0.33893,0.81709,4.0672,0.47563,80.665,796.65,-5.1587,1.7196,-1.1937,-6.8782,9.158e-12,-0.59687,0,0,0.083333,-0,-0,0.66667
0.016138,0.50406,0.19366,0.0060839,1.1642,1515.5,-0.0031418,0.0010436,-2.0066,-0.0041909,-5.5056e-06,-1.0033,0,0,0.083333,-0,-0,0.66667
0.62443,0.33254,7.4931,-0.25119,-29.293,290.9,5.0191,-1.673,-1.7814,6.6922,-1.2794e-12,-0.8907,0,0,0.083333,7.8949e-16,0,0.66667
0.23807,0.99076,2.8568,0.73614,133.31,1011.5,-5.608,1.8693,-0.072321,-7.4774,1.2381e-11,-0.036161,0,0,0.083333,-3.9475e-16,0,0.66667
0.19454,0.27031,2.3344,-0.34453,-63.488,1107.3,2.1448,-0.71492,-1.5737,2.8597,-1.0937e-10,-0.78687,0,0,0.083333,-1.9737e-16,0,0.66667
0.80885,0.463,9.7062,-0.0555,-3.6522,82.081,1.4365,-0.47884,-1.9886,1.9154,2.4396e-11,-0.99429,0,0,0.083333,-3.9475e-16,0,0.66667
0.61735,0.18407,7.4082,-0.47389,-56.144,301.57,9.3619,-3.1206,-1.1981,12.483,3.4701e-12,-0.59904,0,0,0.083333,1.9737e-16,0,0.66667
0.79544,0.85,9.5453,0.525,36.865,94.485,-13.363,4.4544,-1.0239,-17.818,1.6418e-10,-0.51197,0,0,0.083333,-1.579e-15,0,0.66667
0.26534,0.7397,3.1841,0.35954,64.01,951.66,-3.0529,1.0176,-1.547,-4.0705,-7.8864e-12,-0.77349,0,0,0.083333,3.9475e-16,0,0.66667
0.047177,0.7115,0.56613,0.31725,60.624,1443.6,-0.47894,0.15965,-1.649,-0.63858,-2.7574e-07,-0.8245,0,0,0.083333,-0,-0,0.66667
0.85345,0.52958,10.241,0.044363,2.2878,49.564,-1.2116,0.40386,-1.9906,-1.6154,9.5809e-10,-0.99529,0,0,0.083333,-0,-0,0.66667
0.76433,0.44983,9.172,-0.07525,-5.964,121.94,1.8405,-0.6135,-1.9836,2.454,6.4249e-13,-0.99181,0,0,0.083333,-0,-0,0.66667
0.0045005,0.36677,0.054007,-0.19984,-38.26,1542.6,0.02878,-0.0095925,-1.856,0.038374,1.1877e-06,-0.92801,0,0,0.083333,3.084e-18,0,0.66667
0.69985,0.38001,8.3982,-0.17998,-17.532,192.02,4.0307,-1.3436,-1.8851,5.3742,-3.4932e-12,-0.94254,0,0,0.083333,1.579e-15,0,0.66667
0.24166,0.68772,2.8999,0.28158,50.765,1003,-2.1775,0.72584,-1.7153,-2.9034,9.3006e-12,-0.85766,0,0,0.083333,-0,-0,0.66667
0.35967,0.78951,4.3161,0.43426,72.424,754.29,-4.9982,1.6661,-1.3362,-6.6643,6.1258e-12,-0.66811,0,0,0.083333,-0,-0,0.66667
0.78074,0.57833,9.3689,0.1175,8.7412,106.45,-2.9355,0.9785,-1.9567,-3.914,-1.6196e-11,-0.97834,0,0,0.083333,-0,-0,0.66667
0.98652,0.59454,11.838,0.14181,0.64952,0.75188,-4.4767,1.4922,-1.9317,-5.969,-1.5857e-07,-0.96587,0,0,0.083333,-0,-0,0.66667
0.24556,0.09409,2.9468,-0.60886,-109.73,994.91,4.7845,-1.5948,-0.68124,6.3793,-4.2131e-10,-0.34062,0,0,0.083333,-0,-0,0.66667
0.4675,0.46054,5.61,-0.059187,-8.846,546.41,0.88544,-0.29515,-1.9917,1.1806,3.7886e-13,-0.99586,0,0,0.083333,-0,-0,0.66667
0.40034,0.24305,4.804,-0.38542,-61.975,673.41,4.9375,-1.6458,-1.4686,6.5834,1.6795e-12,-0.73428,0,0,0.083333,3.9475e-16,0,0.66667
0.55826,0.97012,6.6991,0.70518,93.15,392.38,-12.598,4.1992,-0.23129,-16.797,-9.2246e-12,-0.11565,0,0,0.083333,-0,1.0677e-16,0.66667
0.52926,0.33967,6.3512,-0.2405,-33.115,438.6,4.0732,-1.3577,-1.7973,5.4309,-1.1044e-12,-0.89866,0,0,0.083333,-3.9475e-16,0,0.66667
0.65803,0.67544,7.8963,0.26316,28.514,244.78,-5.5414,1.8471,-1.7564,-7.3885,-4.9738e-12,-0.87818,0,0,0.083333,7.8949e-16,0,0.66667
0.49673,0.93022,5.9608,0.64534,93.234,495.32,-10.258,3.4193,-0.51923,-13.677,8.5976e-13,-0.25962,0,0,0.083333,3.9475e-16,0,0.66667
0.68538,0.31345,8.2246,-0.27982,-28.347,209.77,6.1371,-2.0457,-1.7249,8.1828,1.5099e-14,-0.86243,0,0,0.083333,-1.579e-15,0,0.66667
0.31286,0.26721,3.7543,-0.34919,-60.323,850.58,3.4959,-1.1653,-1.5727,4.6612,-2.5626e-12,-0.78633,0,0,0.083333,3.9475e-16,0,0.66667
0.21438,0.67299,2.5725,0.25948,47.398,1063.1,-1.7801,0.59336,-1.7584,-2.3734,3.7846e-11,-0.8792,0,0,0.083333,-3.9475e-16,0,0.66667
0.90718,0.53264,10.886,0.048955,1.6355,20.827,-1.4211,0.47371,-1.9975,-1.8949,4.6224e-08,-0.99876,0,0,0.083333,-3.158e-15,0,0.66667
0.5576,0.59978,6.6912,0.14967,19.718,392.02,-2.6706,0.8902,-1.9182,-3.5608,-2.4372e-12,-0.95908,0,0,0.083333,1.579e-15,0,0.66667
0.029017,0.013314,0.34821,-0.73003,-140.03,1485.8,0.67788,-0.22597,-0.10651,0.90384,-1.1693e-05,-0.053255,0,0,0.083333,9.8686e-17,0,0.66667
0.12197,0.56446,1.4636,0.096696,18.234,1271.3,-0.3774,0.1258,-1.968,-0.5032,5.5198e-10,-0.98398,0,0,0.083333,-0,-0,0.66667
0.6814,0.32724,8.1768,-0.25913,-26.52,214.69,5.6503,-1.8834,-1.7573,7.5338,-2.6255e-12,-0.87867,0,0,0.083333,-0,-0,0.66667
0.80871,0.53475,9.7045,0.052121,3.4321,82.195,-1.3488,0.44961,-1.99,-1.7984,-2.4015e-11,-0.995,0,0,0.083333,-0,-0,0.66667
0.82348,0.99343,9.8818,0.74015,45.73,72.973,-19.504,6.5013,-0.050233,-26.005,-4.9762e-10,-0.025117,0,0,0.083333,-0,-0,0.66667
0.4331,0.96494,5.1971,0.69741,108.73,611.3,-9.6654,3.2218,-0.26939,-12.887,4.0972e-12,-0.1347,0,0,0.083333,-8.5864e-16,0,0.66667
0.58043,0.8931,6.9652,0.58965,74.941,357.08,-10.952,3.6507,-0.76515,-14.603,-1.6609e-13,-0.38258,0,0,0.083333,-0,-0,0.66667
0.80756,0.54538,9.6908,0.068067,4.5065,83.139,-1.759,0.58633,-1.9807,-2.3453,-4.3784e-11,-0.99033,0,0,0.083333,-0,-0,0.66667
0.95758,0.17055,11.491,-0.49418,-7.7153,6.0548,15.143,-5.0477,-1.1294,20.191,-3.9884e-06,-0.56469,0,0,0.083333,-1.579e-15,0,0.66667
0.87975,0.007039,10.557,-0.73944,-32.079,36.59,20.817,-6.9389,-0.053756,27.756,3.4073e-08,-0.026878,0,0,0.083333,-0,-0,0.66667
0.38851,0.84028,4.6621,0.51042,83.048,696.84,-6.3457,2.1152,-1.0765,-8.4609,3.8591e-12,-0.53824,0,0,0.083333,1.9737e-16,0,0.66667
0.96148,0.032333,11.538,-0.7015,-10.124,6.5523,21.583,-7.1945,-0.24737,28.778,-4.1512e-05,-0.12368,0,0,0.083333,-0,-0,0.66667
0.13705,0.30939,1.6446,-0.28591,-53.721,1236.9,1.2539,-0.41795,-1.7094,1.6718,2.9468e-09,-0.85471,0,0,0.083333,-2.4672e-16,0,0.66667
0.90874,0.8535,10.905,0.53024,17.579,21.519,-15.419,5.1398,-1.0015,-20.559,1.1142e-07,-0.50076,0,0,0.083333,-0,-0,0.66667
0.52131,0.26241,6.2557,-0.35639,-49.67,452.19,5.9453,-1.9818,-1.5449,7.927,-2.5953e-12,-0.77243,0,0,0.083333,7.8949e-16,0,0.66667
0.71489,0.51258,8.5787,0.018864,1.7599,174.34,-0.43154,0.14385,-1.9973,-0.57539,-5.8056e-13,-0.99866,0,0,0.083333,-0,-0,0.66667
0.78467,0.85618,9.416,0.53426,39.267,104.02,-13.415,4.4717,-0.98441,-17.887,-1.2479e-10,-0.4922,0,0,0.083333,-0,-0,0.66667
0.33468,0.95295,4.0162,0.67943,115.77,805.82,-7.2766,2.4255,-0.35449,-9.7021,1.5044e-11,-0.17724,0,0,0.083333,-0,-0,0.66667
0.87769,0.17375,10.532,-0.48937,-21.416,36.265,13.745,-4.5815,-1.1491,18.326,6.6032e-09,-0.57454,0,0,0.083333,-0,-0,0.66667
0.25801,0.39871,3.0961,-0.15194,-27.146,967.38,1.2545,-0.41816,-1.9139,1.6727,-1.207e-11,-0.95695,0,0,0.083333,1.5277e-16,0,0.66667
0.083575,0.99267,1.0029,0.73901,140.89,1359.7,-1.9764,0.6588,-0.055281,-2.6352,-7.4222e-08,-0.02764,0,0,0.083333,9.8686e-17,0,0.66667
0.75937,0.67058,9.1124,0.25587,20.666,127.06,-6.2176,2.0725,-1.7632,-8.2901,-7.796e-12,-0.88161,0,0,0.083333,-0,-0,0.66667
0.89508,0.6414,10.741,0.2121,7.9829,26.473,-6.075,2.025,-1.8377,-8.1,2.9147e-08,-0.91887,0,0,0.083333,-1.579e-15,0,0.66667
0.92645,0.20862,11.117,-0.43707,-11.722,14.353,12.957,-4.3192,-1.3185,17.277,-2.4739e-07,-0.65927,0,0,0.083333,-0,-0,0.66667
0.37407,0.017349,4.4889,-0.72398,-119.52,726.02,8.6662,-2.8887,-0.14103,11.555,7.5326e-12,-0.070516,0,0,0.083333,-0,-9.7484e-17,0.66667
0.34146,0.90198,4.0975,0.60297,102.15,791.71,-6.5885,2.1962,-0.7096,-8.7846,3.7916e-12,-0.3548,0,0,0.083333,1.9737e-16,4.8439e-17,0.66667
0.25569,0.40847,3.0682,-0.13729,-24.559,972.41,1.1233,-0.37443,-1.9306,1.4977,-7.0168e-12,-0.96532,0,0,0.083333,-7.8949e-16,0,0.66667
0.47079,0.10481,5.6495,-0.59278,-88.457,541.31,8.9304,-2.9768,-0.75269,11.907,-7.6232e-12,-0.37634,0,0,0.083333,7.8949e-16,0,0.66667
0.96717,0.76345,11.606,0.39517,4.7329,3.8191,-12.23,4.0768,-1.4478,-16.307,-9.8033e-07,-0.72389,0,0,0.083333,-0,-0,0.66667
0.49887,0.13493,5.9864,-0.5476,-78.825,491.28,8.7418,-2.9139,-0.93812,11.656,2.4416e-12,-0.46906,0,0,0.083333,-0,-0,0.66667
0.23907,0.0486,2.8689,-0.6771,-122.5,1009.2,5.1801,-1.7267,-0.36731,6.9067,4.2003e-11,-0.18366,0,0,0.083333,-0,-0,0.66667
0.20791,0.67548,2.495,0.26322,48.219,1077.4,-1.7513,0.58376,-1.751,-2.335,4.9743e-11,-0.87551,0,0,0.083333,-0,-0,0.66667
0.92671,0.2321,11.121,-0.40186,-10.728,14.118,11.917,-3.9723,-1.4231,15.889,-2.5973e-07,-0.71154,0,0,0.083333,-0,-0,0.66667
0.68793,0.44692,8.2552,-0.079618,-8.0063,206.36,1.7527,-0.58423,-1.9837,2.3369,-6.3372e-13,-0.99185,0,0,0.083333,-0,-0,0.66667
0.70478,0.51191,8.4574,0.017863,1.7157,186.06,-0.40287,0.13429,-2.0018,-0.53716,6.3616e-13,-1.0009,0,0,0.083333,-0,-0,0.66667
0.5889,0.30196,7.0668,-0.29706,-37.109,343.3,5.5979,-1.866,-1.6836,7.4639,-4.5208e-13,-0.84182,0,0,0.083333,-7.8949e-16,0,0.66667
0.61873,0.89418,7.4247,0.59128,69.935,300,-11.707,3.9023,-0.75301,-15.609,-3.6948e-12,-0.37651,0,0,0.083333,-0,-0,0.66667
0.045998,0.26669,0.55197,-0.34996,-66.89,1446.3,0.51511,-0.1717,-1.5693,0.68682,5.5004e-07,-0.78466,0,0,0.083333,-0,-0,0.66667
0.35616,0.15751,4.2739,-0.51374,-85.966,761.55,5.8551,-1.9517,-1.0626,7.8068,-4.6012e-12,-0.53132,0,0,0.083333,-0,-0,0.66667
0.079759,0.31915,0.95711,-0.27128,-51.616,1368.3,0.69237,-0.23079,-1.7418,0.92317,1.1638e-07,-0.87088,0,0,0.083333,-0,-0,0.66667
0.32577,0.26516,3.9093,-0.35227,-60.297,823.65,3.6723,-1.2241,-1.56,4.8964,4.4791e-12,-0.78002,0,0,0.083333,-0,-0,0.66667
0.71057,0.86564,8.5268,0.54846,51.986,180.45,-12.471,4.157,-0.92628,-16.628,-1.0983e-11,-0.46314,0,0,0.083333,7.8949e-16,0,0.66667
0.072478,0.94864,0.86973,0.67296,128.45,1385.2,-1.5608,0.52026,-0.38633,-2.0811,-5.0391e-06,-0.19316,0,0,0.083333,1.9737e-16,0,0.66667
0.89901,0.46539,10.788,-0.051917,-1.8816,24.438,1.4936,-0.49785,-1.9871,1.9914,3.8422e-09,-0.99353,0,0,0.083333,3.9475e-16,0,0.66667
0.35431,0.52119,4.2517,0.031781,5.3174,764.81,-0.36033,0.12011,-1.9936,-0.48044,5.5764e-12,-0.9968,0,0,0.083333,-0,-0,0.66667
0.089774,0.16373,1.0773,-0.5044,-95.904,1345.3,1.449,-0.48301,-1.0942,1.932,4.8297e-08,-0.5471,0,0,0.083333,-0,-0,0.66667
0.10048,0.3792,1.2057,-0.1812,-34.34,1320.6,0.58261,-0.1942,-1.8799,0.77681,3.2299e-08,-0.93996,0,0,0.083333,-0,-0,0.66667
0.14697,0.39758,1.7637,-0.15364,-28.775,1214.3,0.72257,-0.24086,-1.9123,0.96343,9.2836e-10,-0.95617,0,0,0.083333,-9.8686e-17,0,0.66667
0.70481,0.67651,8.4577,0.26476,25.447,186.3,-5.9714,1.9905,-1.7537,-7.9618,-6.4038e-13,-0.87683,0,0,0.083333,7.8949e-16,0,0.66667
0.94314,0.62989,11.318,0.19483,4.0271,8.4651,-5.8802,1.9601,-1.8623,-7.8403,9.1673e-08,-0.93113,0,0,0.083333,-0,-0,0.66667
0.76054,0.50738,9.1265,0.011072,0.88973,125.64,-0.26946,0.08982,-1.997,-0.35928,-6.2308e-12,-0.9985,0,0,0.083333,3.158e-15,0,0.66667
0.39221,0.48698,4.7065,-0.019537,-3.1627,689.02,0.2452,-0.081734,-2.0017,0.32693,4.441e-12,-1.0008,0,0,0.083333,-0,-0,0.66667
0.76781,0.75678,9.2138,0.38517,30.189,119.15,-9.4635,3.1545,-1.4747,-12.618,-2.2882e-11,-0.73733,0,0,0.083333,-0,-0,0.66667
0.83593,0.072058,10.031,-0.64191,-37.024,63.255,17.171,-5.7237,-0.5307,22.895,2.3165e-08,-0.26535,0,0,0.083333,-1.579e-15,0,0.66667
0.061478,0.8206,0.73773,0.4809,91.819,1410.6,-0.94607,0.31536,-1.1825,-1.2614,-2.9013e-08,-0.59125,0,0,0.083333,-0,-0,0.66667
0.31055,0.99724,3.7266,0.74587,129.39,856.14,-7.4121,2.4707,-0.025259,-9.8827,-7.6956e-12,-0.012629,0,0,0.083333,5.9212e-16,0,0.66667
0.74228,0.9939,8.9073,0.74086,63.86,146.44,-17.597,5.8658,-0.044637,-23.463,5.0981e-13,-0.022318,0,0,0.083333,-0,-0,0.66667
0.26043,0.072377,3.1251,-0.64143,-114.7,962.68,5.3455,-1.7818,-0.53418,7.1273,-2.0367e-11,-0.26709,0,0,0.083333,-0,-0,0.66667
0.91053,0.052706,10.926,-0.67094,-21.942,21.6,19.549,-6.5164,-0.39758,26.066,1.3218e-06,-0.19879,0,0,0.083333,-0,-0,0.66667
0.24225,0.72889,2.907,0.34334,61.894,1001.8,-2.6616,0.88718,-1.5766,-3.5487,4.527e-12,-0.7883,0,0,0.083333,-0,-0,0.66667
0.78725,0.76106,9.447,0.39159,28.423,101.15,-9.865,3.2883,-1.4511,-13.153,1.5969e-12,-0.72554,0,0,0.083333,-0,-0,0.66667
0.39894,0.64504,4.7873,0.21756,35.007,675.92,-2.7774,0.92579,-1.8274,-3.7032,4.8961e-13,-0.91371,0,0,0.083333,-3.9475e-16,0,0.66667
0.88796,0.10982,10.656,-0.58527,-23.636,31.369,16.63,-5.5435,-0.78268,22.174,3.2742e-08,-0.39134,0,0,0.083333,-0,-0,0.66667
0.28813,0.41267,3.4575,-0.131,-22.989,902.65,1.2078,-0.4026,-1.9353,1.6104,1.3688e-12,-0.96764,0,0,0.083333,-7.8949e-16,0,0.66667
0.57639,0.28541,6.9167,-0.32189,-41.117,362.58,5.9371,-1.979,-1.6351,7.9162,-3.5714e-12,-0.81757,0,0,0.083333,1.579e-15,0,0.66667
0.015374,0.97498,0.18449,0.71246,136.72,1517.4,-0.35046,0.11679,-0.20231,-0.46729,-4.0198e-05,-0.10116,0,0,0.083333,4.9343e-17,0,0.66667
0.80519,0.4797,9.6623,-0.030446,-2.038,85.079,0.78446,-0.26149,-1.9924,1.046,7.4305e-12,-0.99621,0,0,0.083333,1.579e-15,0,0.66667
0.033564,0.84901,0.40277,0.52351,100.24,1475.2,-0.56229,0.18743,-1.0276,-0.74971,6.5513e-07,-0.51381,0,0,0.083333,-0,-0,0.66667
0.64091,0.62328,7.6909,0.18493,20.82,267.75,-3.7927,1.2642,-1.8862,-5.0569,-2.5864e-12,-0.94308,0,0,0.083333,9.8686e-16,0,0.66667
0.56365,0.89242,6.7638,0.58864,76.981,383.34,-10.617,3.539,-0.7721,-14.156,3.8813e-13,-0.38605,0,0,0.083333,-7.8949e-16,0,0.66667
0.92841,0.097254,11.141,-0.60412,-15.889,14.55,17.948,-5.9826,-0.69923,23.93,-1.0208e-06,-0.34962,0,0,0.083333,-0,-0,0.66667
0.91911,0.48623,11.029,-0.020661,-0.60375,16.045,0.60768,-0.20256,-1.9989,0.81024,-2.3535e-08,-0.99946,0,0,0.083333,4.9053e-16,0,0.66667
0.24888,0.1898,2.9866,-0.4653,-83.636,987.48,3.7057,-1.2352,-1.2356,4.9409,3.1834e-11,-0.61779,0,0,0.083333,-0,-0,0.66667
0.26552,0.39479,3.1862,-0.15782,-28.077,951.15,1.3409,-0.44697,-1.9185,1.7879,2.7663e-12,-0.95924,0,0,0.083333,3.9475e-16,0,0.66667
0.65743,0.069376,7.8891,-0.64594,-70.32,246.8,13.589,-4.5297,-0.52102,18.119,-2.3537e-13,-0.26051,0,0,0.083333,-0,-0,0.66667
0.28227,0.29315,3.3872,-0.31028,-54.677,915.27,2.8026,-0.93421,-1.6622,3.7369,3.4839e-13,-0.83109,0,0,0.083333,-0,-0,0.66667
0.17582,0.39995,2.1099,-0.15008,-27.841,1149.1,0.8444,-0.28147,-1.9189,1.1259,-3.1472e-11,-0.95946,0,0,0.083333,2.9606e-16,0,0.66667
0.17263,0.92572,2.0716,0.63858,118.85,1156.7,-3.5276,1.1759,-0.5553,-4.7035,8.9627e-09,-0.27765,0,0,0.083333,1.9737e-16,0,0.66667
0.027872,0.40841,0.33446,-0.13738,-26.279,1488.3,0.12253,-0.040843,-1.9335,0.16337,-5.8003e-07,-0.96673,0,0,0.083333,-0,-0,0.66667
0.46709,0.0049423,5.605,-0.74259,-111.46,548.53,11.099,-3.6998,-0.042927,14.799,7.6783e-12,-0.021463,0,0,0.083333,-0,-0,0.66667
0.48856,0.11444,5.8628,-0.57834,-84.399,509.48,9.0417,-3.0139,-0.80899,12.056,2.2125e-12,-0.4045,0,0,0.083333,-0,-0,0.66667
0.42371,0.52207,5.0845,0.033105,5.1957,627.99,-0.44886,0.14962,-1.9988,-0.59848,-1.1397e-11,-0.99939,0,0,0.083333,-0,-0,0.66667
0.98837,0.83094,11.86,0.49641,2.042,1.8072,-15.7,5.2335,-1.1222,-20.934,9.9911e-06,-0.56109,0,0,0.083333,-0,-0,0.66667
0.64354,0.43627,7.7224,-0.095602,-10.699,264.07,1.9688,-0.65625,-1.9691,2.625,2.1738e-13,-0.98455,0,0,0.083333,-9.8686e-17,0,0.66667
0.56225,0.96832,6.747,0.70247,92.187,386,-12.639,4.213,-0.25357,-16.852,-1.0514e-11,-0.12679,0,0,0.083333,9.6219e-16,-5.4055e-18,0.66667
0.086457,0.071829,1.0375,-0.64226,-122.29,1353,1.7769,-0.59229,-0.52921,2.3692,-3.2493e-08,-0.2646,0,0,0.083333,-0,-0,0.66667
0.45235,0.17326,5.4282,-0.49011,-74.681,574.75,7.0944,-2.3648,-1.151,9.4592,-3.0633e-12,-0.5755,0,0,0.083333,7.8949e-16,-2.0482e-17,0.66667
0.069724,0.16381,0.83668,-0.50429,-96.191,1391.5,1.1251,-0.37505,-1.0918,1.5002,2.8738e-07,-0.54592,0,0,0.083333,-0,-0,0.66667
0.48716,0.80888,5.8459,0.46332,67.679,511.66,-7.2227,2.4076,-1.2381,-9.6302,2.1423e-12,-0.61907,0,0,0.083333,-1.9737e-16,0,0.66667
0.01559,0.68949,0.18708,0.28424,54.419,1516.8,-0.14181,0.047269,-1.7212,-0.18907,6.5459e-07,-0.86059,0,0,0.083333,-4.9343e-17,0,0.66667
0.14153,0.99532,1.6983,0.74299,139.79,1227.1,-3.3649,1.1216,-0.04276,-4.4865,-1.3482e-08,-0.02138,0,0,0.083333,2.9606e-16,0,0.66667
0.61893,0.79952,7.4272,0.44927,53.048,299.22,-8.8982,2.9661,-1.2785,-11.864,-2.3386e-12,-0.63924,0,0,0.083333,-0,-0,0.66667
0.67615,0.453,8.1138,-0.070506,-7.3074,221.08,1.5255,-0.50851,-1.9802,2.034,-2.3711e-12,-0.99012,0,0,0.083333,-0,-0,0.66667
0.60372,0.039058,7.2447,-0.69141,-84.305,322.29,13.358,-4.4525,-0.29711,17.81,6.7519e-12,-0.14855,0,0,0.083333,-0,-0,0.66667
0.25097,0.0015909,3.0117,-0.74761,-134.5,983.38,6.0042,-2.0014,-0.018587,8.0056,-1.6016e-11,-0.0092936,0,0,0.083333,1.579e-15,0,0.66667
0.066186,0.65806,0.79423,0.23709,45.198,1399.6,-0.50215,0.16738,-1.8003,-0.66953,-1.9468e-07,-0.90013,0,0,0.083333,1.9737e-16,0,0.66667
0.67727,0.69347,8.1273,0.29021,30.017,219.94,-6.2897,2.0966,-1.6978,-8.3862,2.3399e-12,-0.84892,0,0,0.083333,-1.579e-15,0,0.66667
0.76834,0.83041,9.2201,0.49562,38.819,119.04,-12.186,4.0619,-1.1272,-16.248,-2.5166e-11,-0.56359,0,0,0.083333,-0,-0,0.66667
0.11928,0.61932,1.4313,0.17898,33.776,1277.5,-0.68312,0.22771,-1.8832,-0.91082,-6.9749e-09,-0.94158,0,0,0.083333,9.8686e-17,0,0.66667
0.73956,0.43683,8.8747,-0.094753,-8.1877,147.17,2.2424,-0.74747,-1.9665,2.9899,-1.2377e-12,-0.98325,0,0,0.083333,-2.0177e-15,0,0.66667
0.77319,0.22674,9.2783,-0.40989,-31.484,114.11,10.142,-3.3805,-1.3986,13.522,1.9533e-11,-0.69928,0,0,0.083333,-0,-0,0.66667
0.10997,0.99691,1.3197,0.74537,141.37,1299.1,-2.623,0.87435,-0.031233,-3.4974,5.9591e-08,-0.015616,0,0,0.083333,-4.9343e-17,0,0.66667
0.48647,0.34491,5.8376,-0.23263,-33.973,512.46,3.6214,-1.2071,-1.8108,4.8285,-4.6367e-12,-0.90542,0,0,0.083333,-0,-0,0.66667
0.005725,0.5176,0.0687,0.026396,5.0525,1539.7,-0.0048359,0.0016137,-1.9939,-0.006447,2.5549e-06,-0.99696,0,0,0.083333,-0,-0,0.66667
0.62591,0.6763,7.5109,0.26446,30.748,288.81,-5.2969,1.7656,-1.7561,-7.0625,-2.2733e-12,-0.87807,0,0,0.083333,7.8949e-16,0,0.66667
0.85898,0.92844,10.308,0.64266,32.246,47.952,-17.665,5.8883,-0.53793,-23.553,-6.7862e-08,-0.26897,0,0,0.083333,-7.8949e-16,8.1279e-17,0.66667
0.86017,0.92623,10.322,0.63934,31.827,47.199,-17.598,5.8661,-0.55174,-23.464,-8.6508e-08,-0.27587,0,0,0.083333,-0,-0,0.66667
0.93728,0.49991,11.247,-0.00014202,-0.0032303,9.9409,0.0042595,-0.0014196,-2.0083,0.0056795,4.2042e-07,-1.0041,0,0,0.083333,1.8504e-16,0,0.66667
0.78384,0.16209,9.4061,-0.50686,-37.365,104.65,12.714,-4.2379,-1.088,16.951,1.3454e-10,-0.54399,0,0,0.083333,-1.579e-15,0,0.66667
0.43204,0.63106,5.1845,0.19659,30.593,612.26,-2.7179,0.90595,-1.8598,-3.6238,-1.2212e-11,-0.92991,0,0,0.083333,-0,-0,0.66667
0.77402,0.82197,9.2882,0.48296,37.01,113.6,-11.962,3.9874,-1.1665,-15.95,-5.1975e-11,-0.58326,0,0,0.083333,-0,-0,0.66667
0.98356,0.79208,11.803,0.43813,2.5755,1.9062,-13.79,4.5965,-1.3226,-18.386,-1.3979e-06,-0.66128,0,0,0.083333,-0,-0,0.66667
0.36725,0.30389,4.407,-0.29416,-48.716,738.82,3.457,-1.1523,-1.6882,4.6093,8.5243e-13,-0.8441,0,0,0.083333,3.9475e-16,0,0.66667
0.035895,0.38261,0.43074,-0.17608,-33.667,1469.7,0.20225,-0.067418,-1.8877,0.26967,-2.8631e-07,-0.94383,0,0,0.083333,-0,-0,0.66667
0.50774,0.93897,6.0929,0.65846,93.743,476.23,-10.698,3.5661,-0.45537,-14.265,6.0902e-12,-0.22768,0,0,0.083333,-1.579e-15,0,0.66667
0.3525,0.28517,4.23,-0.32224,-54.029,768.68,3.6348,-1.2116,-1.6275,4.8464,5.7083e-12,-0.81373,0,0,0.083333,-0,-0,0.66667
0.17606,0.8255,2.1127,0.48825,90.674,1148.8,-2.7508,0.91693,-1.1505,-3.6677,1.7389e-10,-0.57525,0,0,0.083333,-0,-0,0.66667
0.9343,0.093621,11.212,-0.60957,-14.752,12.695,18.225,-6.0749,-0.68014,24.3,2.2969e-07,-0.34007,0,0,0.083333,6.7109e-16,-9.9497e-17,0.66667
0.11962,0.29154,1.4354,-0.31269,-59.028,1276.7,1.1969,-0.39897,-1.6492,1.5959,5.1834e-09,-0.8246,0,0,0.083333,-0,-0,0.66667
0.65426,0.067241,7.8511,-0.64914,-71.189,251.02,13.591,-4.5302,-0.50462,18.121,1.5206e-12,-0.25231,0,0,0.083333,-1.579e-15,0,0.66667
0.16873,0.39863,2.0248,-0.15206,-28.279,1165.1,0.82103,-0.27368,-1.9179,1.0947,-1.5201e-10,-0.95897,0,0,0.083333,-2.9606e-16,0,0.66667
0.79644,0.5388,9.5573,0.058205,4.0529,92.469,-1.4834,0.49447,-1.9944,-1.9779,-4.9984e-11,-0.99719,0,0,0.083333,-0,-0,0.66667
0.25811,0.11011,3.0973,-0.58483,-104.67,967.61,4.8303,-1.6101,-0.77946,6.4404,5.4262e-11,-0.38973,0,0,0.083333,-3.9475e-16,0,0.66667
0.69801,0.40249,8.3761,-0.14627,-14.319,194.19,3.267,-1.089,-1.9218,4.356,3.7899e-12,-0.96092,0,0,0.083333,-1.1842e-15,0,0.66667
0.62789,0.78602,7.5347,0.42902,49.729,286.39,-8.6202,2.8734,-1.3466,-11.494,3.6815e-12,-0.67328,0,0,0.083333,-1.579e-15,0,0.66667
0.7158,0.76846,8.5896,0.40269,37.535,173.92,-9.2239,3.0746,-1.4235,-12.299,-1.1733e-12,-0.71177,0,0,0.083333,7.8949e-16,0,0.66667
0.25083,0.34714,3.01,-0.22928,-41.132,983.01,1.8404,-0.61346,-1.819,2.4538,-1.5875e-12,-0.90951,0,0,0.083333,-0,-0,0.66667
0.50402,0.10931,6.0483,-0.58603,-83.801,482.42,9.452,-3.1507,-0.77717,12.603,-2.0748e-12,-0.38859,0,0,0.083333,7.8949e-16,0,0.66667
0.34213,0.071777,4.1056,-0.64233,-108.79,790.42,7.0325,-2.3442,-0.53618,9.3766,8.1228e-12,-0.26809,0,0,0.083333,-0,8.2399e-17,0.66667
0.1803,0.45204,2.1636,-0.071934,-13.321,1139,0.41503,-0.13834,-1.9772,0.55337,5.4454e-13,-0.9886,0,0,0.083333,3.9475e-16,0,0.66667
0.47551,0.66229,5.7061,0.24344,36.045,532.07,-3.7043,1.2348,-1.7857,-4.939,-3.0358e-12,-0.89283,0,0,0.083333,-0,-0,0.66667
0.91212,0.0070378,10.945,-0.73944,-23.844,21.425,21.583,-7.1943,-0.052668,28.777,-2.3174e-07,-0.026334,0,0,0.083333,-0,-0,0.66667
0.56794,0.72272,6.8153,0.33408,43.297,375.84,-6.0716,2.0239,-1.6007,-8.0955,2.6477e-12,-0.80036,0,0,0.083333,-1.579e-15,0,0.66667
0.63089,0.86916,7.5707,0.55374,63.854,282.59,-11.179,3.7264,-0.90669,-14.905,-5.0893e-13,-0.45334,0,0,0.083333,3.9475e-16,0,0.66667
0.54925,0.27158,6.591,-0.34263,-45.781,405.79,6.0221,-2.0074,-1.584,8.0295,-4.0941e-12,-0.79202,0,0,0.083333,7.8949e-16,0,0.66667
0.04503,0.67377,0.54036,0.26065,49.81,1448.6,-0.37559,0.1252,-1.7608,-0.50079,-1.6874e-07,-0.88041,0,0,0.083333,4.9343e-17,0,0.66667
0.86867,0.98423,10.424,0.72634,34.199,42.677,-20.19,6.7301,-0.12013,-26.921,3.8841e-08,-0.060065,0,0,0.083333,2.0574e-15,0,0.66667
0.12479,0.15424,1.4975,-0.51864,-97.87,1265,2.0711,-0.69037,-1.0515,2.7615,-1.4013e-09,-0.52577,0,0,0.083333,-2.7139e-16,1.1015e-16,0.66667
0.73641,0.81132,8.8369,0.46697,40.87,151.36,-11.004,3.6681,-1.2281,-14.672,-2.1241e-11,-0.61403,0,0,0.083333,4.9343e-16,0,0.66667
0.45176,0.65296,5.4211,0.22943,34.94,575.4,-3.3168,1.1056,-1.8174,-4.4224,-9.8952e-12,-0.9087,0,0,0.083333,9.8686e-16,0,0.66667
0.71027,0.3137,8.5233,-0.27946,-26.447,179.94,6.3517,-2.1172,-1.7194,8.469,-2.4039e-12,-0.8597,0,0,0.083333,-0,-0,0.66667
0.86113,0.44997,10.334,-0.075042,-3.6805,44.763,2.0679,-0.68928,-1.9826,2.7571,-9.7434e-10,-0.99131,0,0,0.083333,-1.579e-15,0,0.66667
0.69657,0.46552,8.3589,-0.051721,-5.082,195.84,1.1529,-0.38429,-1.9874,1.5372,1.0034e-12,-0.9937,0,0,0.083333,-1.9737e-16,0,0.66667
0.8539,0.69472,10.247,0.29208,15.045,49.655,-7.9811,2.6604,-1.6937,-10.641,9.4032e-10,-0.84687,0,0,0.083333,-0,-0,0.66667
0.48707,0.91018,5.8448,0.61527,89.989,512.24,-9.5898,3.1966,-0.65553,-12.786,6.1906e-12,-0.32776,0,0,0.083333,-0,-0,0.66667
0.091798,0.17658,1.1016,-0.48514,-92.196,1340.6,1.4251,-0.47503,-1.1654,1.9001,4.8276e-08,-0.58272,0,0,0.083333,-0,-0,0.66667
0.37859,0.86533,4.5431,0.54799,89.984,716.57,-6.6388,2.2129,-0.9315,-8.8517,3.1708e-12,-0.46575,0,0,0.083333,-0,-0,0.66667
0.19142,0.84459,2.297,0.51689,95.448,1114.4,-3.1661,1.0554,-1.05,-4.2215,7.1191e-11,-0.52501,0,0,0.083333,-7.8949e-16,0,0.66667
0.76352,0.74686,9.1622,0.3703,29.487,123.27,-9.0472,3.0157,-1.5153,-12.063,-1.0274e-11,-0.75766,0,0,0.083333,-1.7764e-15,0,0.66667
0.69537,0.86598,8.3445,0.54896,54.287,198.39,-12.215,4.0718,-0.92433,-16.287,4.2686e-12,-0.46216,0,0,0.083333,-0,-0,0.66667
0.57953,0.73197,6.9544,0.34795,44.21,357.77,-6.4528,2.1509,-1.573,-8.6037,8.1712e-14,-0.78648,0,0,0.083333,-0,-0,0.66667
0.76884,0.2495,9.2261,-0.37575,-29.334,118.13,9.2446,-3.0815,-1.4992,12.326,2.1091e-11,-0.74959,0,0,0.083333,5.4278e-16,0,0.66667
0.36936,0.33561,4.4324,-0.24659,-40.757,734.53,2.9146,-0.97152,-1.7806,3.8861,9.2371e-13,-0.89031,0,0,0.083333,-0,-0,0.66667
0.36918,0.26958,4.4301,-0.34564,-57.159,735.02,4.0832,-1.3611,-1.5716,5.4443,4.0408e-12,-0.78582,0,0,0.083333,-0,-0,0.66667
0.70021,0.80624,8.4025,0.45936,44.787,192.26,-10.293,3.4309,-1.2505,-13.724,-1.1289e-12,-0.62525,0,0,0.083333,1.1842e-15,0,0.66667
0.4523,0.48638,5.4276,-0.020432,-3.1085,574.27,0.29573,-0.098578,-2.0035,0.39431,-9.1369e-13,-1.0017,0,0,0.083333,7.8949e-16,0,0.66667
0.81192,0.41743,9.743,-0.12386,-8.0342,79.659,3.2181,-1.0727,-1.9511,4.2908,3.388e-11,-0.97557,0,0,0.083333,-0,-0,0.66667
0.15461,0.13783,1.8553,-0.54326,-101.66,1197.2,2.6878,-0.89593,-0.95356,3.5837,-1.4979e-09,-0.47678,0,0,0.083333,-0,-3.4288e-17,0.66667
0.58986,0.062843,7.0783,-0.65574,-82.006,342.91,12.377,-4.1258,-0.47126,16.503,1.7506e-12,-0.23563,0,0,0.083333,-1.579e-15,0,0.66667
0.37357,0.91616,4.4828,0.62424,103.02,726.76,-7.4623,2.4874,-0.61806,-9.9497,3.3813e-12,-0.30903,0,0,0.083333,-0,-8.5481e-17,0.66667
0.24708,0.90333,2.9649,0.605,108.94,991.6,-4.7834,1.5945,-0.69983,-6.3779,3.5841e-10,-0.34992,0,0,0.083333,-9.8686e-17,0,0.66667
0.25433,0.54885,3.052,0.073281,13.118,975.34,-0.5964,0.1988,-1.9788,-0.79521,-1.0434e-12,-0.98939,0,0,0.083333,-0,-0,0.66667
0.74375,0.974,8.925,0.711,60.957,144.73,-16.922,5.6406,-0.19935,-22.562,-6.4677e-12,-0.099673,0,0,0.083333,-1.579e-15,0,0.66667
0.32886,0.76158,3.9464,0.39237,67.02,817.29,-4.1291,1.3764,-1.4579,-5.5055,-5.2136e-13,-0.72893,0,0,0.083333,-0,-0,0.66667
0.22792,0.93173,2.735,0.6476,117.78,1033.6,-4.7231,1.5744,-0.50541,-6.2975,5.9068e-10,-0.25271,0,0,0.083333,-6.242e-17,0,0.66667
0.90536,0.10871,10.864,-0.58694,-20.189,23.259,17.004,-5.6682,-0.77983,22.673,-1.4357e-07,-0.38992,0,0,0.083333,-0,-0,0.66667
0.41629,0.82019,4.9955,0.48029,76.069,642.7,-6.3981,2.1327,-1.1767,-8.5308,-2.6907e-12,-0.58837,0,0,0.083333,-0,-0,0.66667
0.5344,0.68411,6.4128,0.27616,37.742,430.09,-4.7226,1.5742,-1.7296,-6.2968,2.9297e-12,-0.86479,0,0,0.083333,1.9737e-16,0,0.66667
0.37206,0.68099,4.4647,0.27149,44.772,729.15,-3.2323,1.0774,-1.7386,-4.3098,1.1369e-13,-0.8693,0,0,0.083333,-0,-0,0.66667
0.23386,0.78922,2.8063,0.43383,78.571,1020.3,-3.2465,1.0822,-1.337,-4.3287,3.0821e-11,-0.66849,0,0,0.083333,-0,-0,0.66667
0.10234,0.046824,1.2281,-0.67976,-129.08,1316.5,2.2262,-0.74207,-0.35269,2.9683,5.9232e-07,-0.17635,0,0,0.083333,-0,-0,0.66667
0.055182,0.11138,0.66219,-0.58293,-111.45,1425.2,1.0293,-0.34312,-0.78741,1.3725,-2.7171e-06,-0.3937,0,0,0.083333,-0,-0,0.66667
0.87287,0.84851,10.474,0.52276,23.741,39.092,-14.602,4.8672,-1.0309,-19.469,4.7497e-09,-0.51545,0,0,0.083333,-0,-0,0.66667
0.17297,0.49719,2.0756,-0.0042215,-0.78381,1155.5,0.023366,-0.0077887,-2.0053,0.031155,5.013e-10,-1.0026,0,0,0.083333,-2.4672e-16,0,0.66667
0.53895,0.14865,6.4674,-0.52702,-71.641,423.12,9.0893,-3.0298,-1.0084,12.119,-2.5979e-12,-0.5042,0,0,0.083333,3.9475e-16,0,0.66667
0.97872,0.76989,11.745,0.40483,3.1049,2.2528,-12.679,4.2263,-1.4138,-16.905,-4.2119e-06,-0.70692,0,0,0.083333,-0,-0,0.66667
0.16733,0.61453,2.008,0.1718,31.967,1168.3,-0.91991,0.30664,-1.8928,-1.2265,-5.3746e-11,-0.94641,0,0,0.083333,-0,-0,0.66667
0.59576,0.51283,7.1492,0.019248,2.3727,332.63,-0.36695,0.12232,-2.0007,-0.48927,8.1904e-12,-1.0004,0,0,0.083333,-3.158e-15,0,0.66667
0.75137,0.4879,9.0164,-0.018156,-1.5073,134.85,0.43653,-0.14551,-2.0024,0.58204,6.5434e-12,-1.0012,0,0,0.083333,-1.579e-15,0,0.66667
0.079887,0.045654,0.95864,-0.68152,-129.95,1368.2,1.7422,-0.58074,-0.35112,2.323,1.4407e-06,-0.17556,0,0,0.083333,-0,-0,0.66667
0.45273,0.53329,5.4327,0.049934,7.5933,573.49,-0.72341,0.24114,-1.9985,-0.96455,-1.8062e-12,-0.99925,0,0,0.083333,-1.579e-15,0,0.66667
0.79183,0.43959,9.5019,-0.090617,-6.4377,96.491,2.2961,-0.76537,-1.9691,3.0615,3.2622e-11,-0.98454,0,0,0.083333,-0,-0,0.66667
0.72178,0.43784,8.6613,-0.093233,-8.5215,166.57,2.1534,-0.7178,-1.9706,2.8712,2.9801e-12,-0.98532,0,0,0.083333,-0,-0,0.66667
0.67856,0.73304,8.1428,0.34957,36.053,218.45,-7.5905,2.5302,-1.5613,-10.121,-1.1724e-13,-0.78065,0,0,0.083333,-0,-0,0.66667
0.76669,0.72132,9.2003,0.33197,26.117,120.08,-8.1447,2.7149,-1.6136,-10.86,-1.2294e-11,-0.80681,0,0,0.083333,3.158e-15,0,0.66667
0.5821,0.8082,6.9852,0.4623,58.519,354.08,-8.6115,2.8705,-1.2393,-11.482,2.0606e-13,-0.61967,0,0,0.083333,1.9737e-16,0,0.66667
0.3749,0.9999,4.4988,0.74985,123.74,724.45,-8.9957,2.9986,-0.0094221,-11.994,4.3752e-12,-0.004711,0,0,0.083333,-2.4884e-15,1.2579e-18,0.66667
0.44709,0.66049,5.3651,0.24073,36.856,584.07,-3.4442,1.1481,-1.791,-4.5923,-1.5698e-11,-0.89549,0,0,0.083333,-0,-0,0.66667
0.28043,0.33445,3.3651,-0.24833,-43.8,919.16,2.2284,-0.74279,-1.7859,2.9712,6.2075e-12,-0.89296,0,0,0.083333,-0,-0,0.66667
0.33926,0.57442,4.0711,0.11163,18.903,795.6,-1.2119,0.40398,-1.9534,-1.6159,-8.8263e-12,-0.97671,0,0,0.083333,-0,-0,0.66667
0.88017,0.72153,10.562,0.3323,14.219,34.32,-9.3592,3.1197,-1.6054,-12.479,3.9475e-09,-0.80271,0,0,0.083333,-0,-0,0.66667
0.53635,0.94941,6.4362,0.67411,92.121,427.93,-11.57,3.8566,-0.38129,-15.427,1.4939e-12,-0.19064,0,0,0.083333,7.8949e-16,0,0.66667
0.073744,0.57596,0.88493,0.11395,21.694,1382.2,-0.26889,0.089631,-1.9517,-0.35852,-1.0049e-07,-0.97583,0,0,0.083333,-0,-0,0.66667
0.67227,0.53905,8.0672,0.058574,6.1295,226.02,-1.2601,0.42002,-1.9943,-1.6801,6.3416e-13,-0.99716,0,0,0.083333,-0,-0,0.66667
0.72976,0.45935,8.7571,-0.060976,-5.4374,157.72,1.4239,-0.47464,-1.9845,1.8986,4.0535e-12,-0.99227,0,0,0.083333,-7.8949e-16,0,0.66667
0.39561,0.54769,4.7473,0.071529,11.543,682.35,-0.90552,0.30184,-1.9789,-1.2074,1.1484e-12,-0.98944,0,0,0.083333,-0,-0,0.66667
0.34753,0.54108,4.1704,0.061626,10.367,778.62,-0.68534,0.22845,-1.9854,-0.91379,-6.0067e-12,-0.99269,0,0,0.083333,-0,-0,0.66667
0.10753,0.50883,1.2904,0.013243,2.5056,1304.4,-0.045571,0.01519,-2.0021,-0.060761,-2.911e-08,-1.001,0,0,0.083333,-0,-0,0.66667
0.54663,0.89977,6.5596,0.59965,80.605,410.76,-10.489,3.4964,-0.72858,-13.986,-3.9844e-12,-0.36429,0,0,0.083333,3.9475e-16,-6.4884e-17,0.66667
0.26282,0.012239,3.1539,-0.73164,-130.75,957.68,6.1533,-2.0511,-0.097139,8.2044,-5.266e-12,-0.048569,0,0,0.083333,-7.8949e-16,-9.4053e-17,0.66667
0.91802,0.83585,11.016,0.50377,15.048,17.699,-14.799,4.933,-1.0966,-19.732,2.1335e-08,-0.5483,0,0,0.083333,7.8949e-16,0,0.66667
0.85065,0.4232,10.208,-0.1152,-6.0481,51.435,3.1359,-1.0453,-1.9485,4.1812,-1.9307e-11,-0.97426,0,0,0.083333,-1.579e-15,0,0.66667
0.65361,0.49038,7.8433,-0.014427,-1.5782,250.42,0.30174,-0.10058,-2.0002,0.40232,-2.0196e-12,-1.0001,0,0,0.083333,-7.8949e-16,0,0.66667
0.87584,0.21553,10.51,-0.42671,-18.913,37.01,11.959,-3.9864,-1.3585,15.946,3.2871e-09,-0.67927,0,0,0.083333,2.3685e-15,0,0.66667
0.96891,0.19836,11.627,-0.45247,-5.1498,3.7903,14.029,-4.6763,-1.279,18.705,2.773e-06,-0.63951,0,0,0.083333,1.579e-15,0,0.66667
0.59079,0.73037,7.0894,0.34556,43.032,340.52,-6.5329,2.1776,-1.5756,-8.7106,2.9488e-13,-0.78779,0,0,0.083333,-0,-0,0.66667
0.98013,0.033586,11.762,-0.69962,-5.2316,3.8,21.943,-7.3143,-0.2588,29.257,4.8525e-05,-0.1294,0,0,0.083333,-0,-0,0.66667
0.54926,0.30971,6.5911,-0.28544,-38.128,405.66,5.017,-1.6723,-1.7126,6.6893,-7.4247e-12,-0.85632,0,0,0.083333,1.1842e-15,0,0.66667
0.2936,0.073799,3.5231,-0.6393,-112.06,891.64,6.0063,-2.0021,-0.54642,8.0084,6.7968e-12,-0.27321,0,0,0.083333,7.8949e-16,4.0224e-17,0.66667
0.49124,0.8718,5.8948,0.55769,81.093,504.69,-8.7667,2.9222,-0.89092,-11.689,2.8209e-12,-0.44546,0,0,0.083333,-1.9737e-16,0,0.66667
0.40509,0.61358,4.861,0.17038,27.25,663.91,-2.2086,0.73619,-1.9009,-2.9447,-6.6958e-12,-0.95046,0,0,0.083333,-0,-0,0.66667
0.59978,0.57004,7.1973,0.10506,12.855,326.66,-2.0165,0.67215,-1.9573,-2.6886,4.0661e-12,-0.97867,0,0,0.083333,-1.579e-15,0,0.66667
0.4807,0.31034,5.7684,-0.28449,-41.859,522.81,4.3762,-1.4587,-1.7123,5.8349,-3.3769e-12,-0.85615,0,0,0.083333,1.9737e-16,0,0.66667
0.2867,0.94749,3.4404,0.67124,118.21,906.35,-6.1582,2.0527,-0.39484,-8.211,-1.4889e-11,-0.19742,0,0,0.083333,-0,-0,0.66667
0.62519,0.16494,7.5023,-0.50259,-58.618,290.45,10.055,-3.3516,-1.1089,13.406,2.1814e-12,-0.55446,0,0,0.083333,-0,-0,0.66667
0.8054,0.1257,9.6648,-0.56145,-37.729,86.252,14.47,-4.8234,-0.87638,19.294,3.2776e-11,-0.43819,0,0,0.083333,-0,-0,0.66667
0.078748,0.48361,0.94497,-0.024585,-4.6767,1370.6,0.061952,-0.020651,-2.0033,0.082602,5.084e-08,-1.0017,0,0,0.083333,-9.8686e-17,0,0.66667
0.42362,0.43576,5.0835,-0.096361,-15.126,628.18,1.3063,-0.43542,-1.9709,1.7417,-4.3365e-12,-0.98546,0,0,0.083333,-9.8686e-17,0,0.66667
0.645,0.31715,7.74,-0.27427,-30.614,262.29,5.661,-1.887,-1.7312,7.5481,3.0465e-13,-0.86558,0,0,0.083333,-0,-0,0.66667
0.0072838,0.8853,0.087406,0.57796,110.82,1536.1,-0.1347,0.044884,-0.80812,-0.17961,-2.5559e-05,-0.40406,0,0,0.083333,-0,-0,0.66667
0.87569,0.96509,10.508,0.69764,31.177,38.515,-19.549,6.5164,-0.27577,-26.066,-3.1656e-07,-0.13789,0,0,0.083333,2.3685e-15,0,0.66667
0.69402,0.26173,8.3283,-0.3574,-35.408,199.38,7.9375,-2.6458,-1.5418,10.583,-4.2477e-12,-0.77089,0,0,0.083333,1.579e-15,0,0.66667
0.74977,0.22196,8.9972,-0.41706,-34.893,137.18,10.006,-3.3355,-1.3892,13.342,1.0385e-11,-0.69459,0,0,0.083333,-3.158e-15,0,0.66667
0.5233,0.5541,6.2795,0.081157,11.268,448.5,-1.359,0.453,-1.9725,-1.812,6.5858e-13,-0.98624,0,0,0.083333,-7.8949e-16,0,0.66667
0.97547,0.29674,11.706,-0.30489,-2.6886,2.276,9.5171,-3.1724,-1.6652,12.69,2.284e-06,-0.83262,0,0,0.083333,-0,-0,0.66667
0.15309,0.88948,1.837,0.58421,109.41,1200.7,-2.8619,0.95397,-0.78615,-3.8159,-3.4889e-09,-0.39307,0,0,0.083333,1.9737e-16,2.1177e-17,0.66667
0.95582,0.484,11.47,-0.023994,-0.38412,5.1855,0.7339,-0.24463,-1.9985,0.97853,-5.4608e-07,-0.99926,0,0,0.083333,1.579e-15,0,0.66667
0.9956,0.87184,11.947,0.55776,0.79517,1.7714,-17.77,5.9232,-0.89276,-23.693,2.2752e-06,-0.44638,0,0,0.083333,3.9475e-16,0,0.66667
0.078553,0.7022,0.94264,0.30331,57.728,1371.1,-0.76243,0.25414,-1.6789,-1.0166,-1.394e-07,-0.83945,0,0,0.083333,-0,-0,0.66667
0.33688,0.25567,4.0426,-0.36649,-62.218,800.69,3.9509,-1.317,-1.5188,5.2679,-8.4943e-12,-0.75941,0,0,0.083333,7.8949e-16,0,0.66667
0.99274,0.98649,11.913,0.72974,2.0032,3.0639,-23.182,7.7273,-0.10252,-30.909,6.7684e-05,-0.05126,0,0,0.083333,-0,-0,0.66667
0.42676,0.4349,5.1211,-0.097643,-15.277,622.2,1.3334,-0.44448,-1.9645,1.7779,-1.7064e-12,-0.98223,0,0,0.083333,2.9606e-16,0,0.66667
0.82335,0.29932,9.8802,-0.30102,-18.468,71.065,7.931,-2.6437,-1.6752,10.575,1.0884e-10,-0.83758,0,0,0.083333,-0,-0,0.66667
0.28812,0.71248,3.4574,0.31872,55.963,902.81,-2.9385,0.97951,-1.6351,-3.918,-1.0526e-11,-0.81756,0,0,0.083333,-0,-0,0.66667
0.51209,0.28474,6.1451,-0.32289,-45.583,467.85,5.2912,-1.7637,-1.6294,7.0549,7.9052e-12,-0.81469,0,0,0.083333,-0,-0,0.66667
0.4661,0.86649,5.5933,0.54973,82.469,549.69,-8.1994,2.7331,-0.9265,-10.933,-3.7721e-12,-0.46325,0,0,0.083333,7.8949e-16,0,0.66667
0.33294,0.43147,3.9953,-0.1028,-17.491,808.6,1.0953,-0.36509,-1.9603,1.4604,1.3845e-11,-0.98016,0,0,0.083333,3.9475e-16,0,0.66667
0.52708,0.20816,6.325,-0.43776,-60.531,442.64,7.3836,-2.4612,-1.3169,9.8448,3.197e-12,-0.65844,0,0,0.083333,-7.8949e-16,0,0.66667
0.080511,0.20781,0.96614,-0.43828,-83.436,1366.6,1.1292,-0.37639,-1.3183,1.5056,6.975e-08,-0.65917,0,0,0.083333,9.8686e-17,0,0.66667
0.2212,0.53078,2.6543,0.046176,8.4051,1047.9,-0.32684,0.10895,-1.9951,-0.43579,-2.5393e-11,-0.99754,0,0,0.083333,-3.7007e-16,0,0.66667
0.33596,0.6173,4.0315,0.17594,29.871,802.42,-1.8915,0.63051,-1.8859,-2.522,-1.2929e-11,-0.94295,0,0,0.083333,-5.9212e-16,0,0.66667
0.96887,0.9425,11.626,0.66376,7.7259,5.0147,-20.579,6.8597,-0.44124,-27.439,-2.6119e-05,-0.22062,0,0,0.083333,-0,-0,0.66667
0.44075,0.56262,5.2891,0.09393,14.477,595.79,-1.3248,0.4416,-1.9698,-1.7664,-6.8607e-12,-0.98491,0,0,0.083333,-0,-0,0.66667
0.96131,0.79919,11.536,0.44878,6.3699,5.0941,-13.805,4.6018,-1.2795,-18.407,1.9627e-06,-0.63975,0,0,0.083333,-0,-0,0.66667
0.57362,0.43295,6.8834,-0.10057,-12.898,366.62,1.8461,-0.61536,-1.9625,2.4614,-5.3226e-12,-0.98126,0,0,0.083333,3.9475e-16,0,0.66667
0.046616,0.072969,0.55939,-0.64055,-122.62,1445,0.95549,-0.31849,-0.5478,1.274,1.178e-05,-0.2739,0,0,0.083333,-0,-0,0.66667
0.65871,0.64037,7.9046,0.21056,22.773,243.79,-4.4384,1.4795,-1.8434,-5.9178,-3.066e-12,-0.92169,0,0,0.083333,-0,-0,0.66667
0.014774,0.088352,0.17729,-0.61747,-118.41,1518.7,0.2919,-0.097279,-0.64987,0.38922,3.3567e-05,-0.32493,0,0,0.083333,6.1679e-18,0,0.66667
0.74247,0.058514,8.9097,-0.66223,-56.971,145.8,15.734,-5.2446,-0.43721,20.979,7.0652e-11,-0.2186,0,0,0.083333,4.3963e-16,0,0.66667
0.4207,0.057161,5.0485,-0.66426,-104.88,634.72,8.9426,-2.9809,-0.43588,11.923,-8.9271e-12,-0.21794,0,0,0.083333,3.9475e-16,5.5921e-17,0.66667
0.53388,0.85369,6.4066,0.53053,72.674,431.52,-9.0638,3.0213,-1.0001,-12.085,-1.3136e-12,-0.50006,0,0,0.083333,-0,-0,0.66667
0.78883,0.89574,9.466,0.59361,42.924,100.58,-14.984,4.9948,-0.74282,-19.979,-1.0278e-09,-0.37141,0,0,0.083333,-0,-0,0.66667
0.9056,0.80456,10.867,0.45685,15.612,22.501,-13.239,4.413,-1.2637,-17.652,4.9973e-08,-0.63185,0,0,0.083333,-7.8949e-16,0,0.66667
0.98688,0.4475,11.843,-0.078753,-0.34877,0.65052,2.487,-0.82901,-1.9791,3.316,3.1911e-07,-0.98955,0,0,0.083333,-0,-0,0.66667
0.80208,0.46438,9.6249,-0.053425,-3.6276,87.678,1.3712,-0.45708,-1.9876,1.8283,1.2178e-10,-0.99379,0,0,0.083333,-3.9475e-16,0,0.66667
0.0025426,0.083103,0.030511,-0.62534,-119.95,1547.1,0.050873,-0.016988,-0.61068,0.067816,-4.4548e-05,-0.30534,0,0,0.083333,-0,-4.4047e-16,0.66667
0.60009,0.70987,7.201,0.31481,38.526,326.48,-6.0452,2.0151,-1.6439,-8.0603,3.3031e-12,-0.82194,0,0,0.083333,-7.8949e-16,0,0.66667
0.28885,0.91693,3.4662,0.62539,109.95,901.7,-5.7805,1.9268,-0.60509,-7.7074,-2.485e-11,-0.30254,0,0,0.083333,7.8949e-16,0,0.66667
0.70972,0.14026,8.5166,-0.53962,-51.268,181.4,12.255,-4.0851,-0.96049,16.34,4.0288e-12,-0.48024,0,0,0.083333,1.579e-15,0,0.66667
0.30554,0.87356,3.6665,0.56034,97.396,866.25,-5.4786,1.8262,-0.88071,-7.3048,-7.9048e-12,-0.44036,0,0,0.083333,4.4409e-16,0,0.66667
0.55587,0.94912,6.6704,0.67368,89.304,396.09,-11.983,3.9944,-0.38222,-15.978,-8.507e-12,-0.19111,0,0,0.083333,-0,-0,0.66667
0.91807,0.86761,11.017,0.55142,16.49,17.925,-16.2,5.3999,-0.91796,-21.6,5.2869e-08,-0.45898,0,0,0.083333,-0,-0,0.66667
0.24787,0.50561,2.9744,0.0084075,1.5102,989.39,-0.066687,0.022229,-2.0022,-0.088916,3.1108e-12,-1.0011,0,0,0.083333,-0,-0,0.66667
0.11184,0.14628,1.3421,-0.53058,-100.44,1294.7,1.8989,-0.63297,-1.0003,2.5319,-8.8178e-09,-0.50015,0,0,0.083333,-9.8686e-17,0,0.66667
0.51354,0.80635,6.1625,0.45953,64.794,465.66,-7.5516,2.5172,-1.2516,-10.069,-5.8025e-12,-0.62582,0,0,0.083333,6.9882e-16,0,0.66667
0.91372,0.69013,10.965,0.2852,8.8996,18.523,-8.339,2.7797,-1.7075,-11.119,5.3732e-08,-0.85376,0,0,0.083333,-0,-0,0.66667
0.17924,0.021707,2.1509,-0.71744,-133.29,1141.9,4.115,-1.3717,-0.16571,5.4866,-3.3399e-09,-0.082855,0,0,0.083333,-0,-0,0.66667
0.25588,0.41531,3.0705,-0.12704,-22.723,971.99,1.0402,-0.34674,-1.9392,1.387,-7.3153e-12,-0.96958,0,0,0.083333,-0,-0,0.66667
0.033996,0.77354,0.40795,0.4103,78.52,1474.2,-0.44636,0.14879,-1.4023,-0.59514,4.0214e-07,-0.70116,0,0,0.083333,-0,-0,0.66667
0.015372,0.36256,0.18446,-0.20617,-39.463,1517.3,0.10141,-0.033804,-1.8554,0.13522,-3.0261e-07,-0.92772,0,0,0.083333,-0,-0,0.66667
0.54222,0.41705,6.5066,-0.12443,-16.796,416.98,2.1589,-0.71964,-1.9426,2.8785,-9.1815e-13,-0.97128,0,0,0.083333,-0,-0,0.66667
0.85536,0.16426,10.264,-0.50362,-25.787,49.493,13.785,-4.5949,-1.0969,18.38,1.2554e-09,-0.54845,0,0,0.083333,-1.579e-15,0,0.66667
0.44652,0.60834,5.3583,0.16251,24.891,585.06,-2.3221,0.77404,-1.9019,-3.0962,-8.672e-12,-0.95095,0,0,0.083333,-0,-0,0.66667
0.23564,0.36975,2.8276,-0.19538,-35.323,1016.2,1.4732,-0.49107,-1.8688,1.9643,-6.7469e-12,-0.9344,0,0,0.083333,1.9737e-16,0,0.66667
0.93653,0.16722,11.238,-0.49918,-11.617,11.408,14.96,-4.9866,-1.1187,19.946,-1.6946e-07,-0.55936,0,0,0.083333,-1.579e-15,0,0.66667
0.61921,0.32406,7.4305,-0.26391,-31.107,298.38,5.2292,-1.7431,-1.7488,6.9723,3.6873e-12,-0.8744,0,0,0.083333,-1.579e-15,0,0.66667
0.86458,0.36069,10.375,-0.20897,-10.019,42.85,5.7814,-1.9271,-1.8416,7.7085,-3.0278e-09,-0.92079,0,0,0.083333,-0,-0,0.66667
0.12811,0.42107,1.5374,-0.11839,-22.29,1257.3,0.48534,-0.16178,-1.9499,0.64713,3.5705e-09,-0.97497,0,0,0.083333,1.9737e-16,0,0.66667
0.44124,0.88525,5.2949,0.57787,89.213,595.65,-8.1594,2.7198,-0.81158,-10.879,-5.1585e-12,-0.40579,0,0,0.083333,-7.8949e-16,0,0.66667
0.85755,0.79179,10.291,0.43768,22.067,47.828,-12.011,4.0036,-1.3215,-16.014,2.2994e-09,-0.66074,0,0,0.083333,-0,-0,0.66667
0.89819,0.44224,10.778,-0.086644,-3.1649,24.836,2.4903,-0.83011,-1.9697,3.3205,-1.9886e-08,-0.98484,0,0,0.083333,-0,-0,0.66667
0.87726,0.8731,10.527,0.55965,24.613,36.839,-15.711,5.2369,-0.88912,-20.948,5.0995e-08,-0.44456,0,0,0.083333,-1.9737e-16,0,0.66667
0.62547,0.15694,7.5057,-0.51459,-59.99,290.09,10.3,-3.4332,-1.0659,13.733,7.816e-12,-0.53295,0,0,0.083333,-1.579e-15,0,0.66667
0.75811,0.024344,9.0973,-0.71348,-58.217,130.11,17.309,-5.7696,-0.18609,23.078,-5.6701e-12,-0.093043,0,0,0.083333,-0,-0,0.66667
0.6755,0.68234,8.106,0.27351,28.414,222.16,-5.9123,1.9708,-1.7337,-7.883,-1.9904e-12,-0.86684,0,0,0.083333,3.9475e-16,0,0.66667
0.84516,0.259,10.142,-0.3615,-19.668,55.607,9.7769,-3.259,-1.539,13.036,-3.1283e-10,-0.76952,0,0,0.083333,-0,-0,0.66667
0.63245,0.49056,7.5894,-0.014166,-1.6237,279.37,0.2867,-0.095567,-1.9951,0.38227,1.077e-12,-0.99755,0,0,0.083333,7.8949e-16,0,0.66667
0.17189,0.57356,2.0627,0.11033,20.495,1158,-0.60689,0.2023,-1.9641,-0.80918,-1.0541e-10,-0.98203,0,0,0.083333,-0,-0,0.66667
0.65052,0.90597,7.8062,0.60895,67.32,255.85,-12.676,4.2254,-0.67953,-16.902,-7.2049e-12,-0.33976,0,0,0.083333,2.4672e-16,0,0.66667
0.45534,0.8052,5.4641,0.4578,69.505,569.17,-6.6705,2.2235,-1.2569,-8.894,-5.584e-12,-0.62843,0,0,0.083333,-0,-0,0.66667
0.058851,0.69431,0.70621,0.29147,55.623,1416.6,-0.54889,0.18296,-1.6973,-0.73186,-1.6722e-07,-0.84867,0,0,0.083333,-0,-0,0.66667
0.53586,0.73053,6.4304,0.3458,47.17,427.78,-5.9297,1.9766,-1.5724,-7.9062,-2.979e-12,-0.78621,0,0,0.083333,-0,-0,0.66667
0.43929,0.37989,5.2715,-0.18017,-27.817,598.58,2.5327,-0.84422,-1.8879,3.3769,2.216e-12,-0.94394,0,0,0.083333,-0,-0,0.66667
0.87473,0.45892,10.497,-0.061626,-2.7431,36.795,1.725,-0.57499,-1.9932,2.3,-4.3087e-09,-0.99658,0,0,0.083333,-0,-0,0.66667
0.66072,0.46659,7.9287,-0.050122,-5.3931,240.99,1.0597,-0.35324,-1.99,1.413,1.7016e-12,-0.995,0,0,0.083333,-1.1842e-15,0,0.66667
0.26079,0.53682,3.1295,0.055233,9.8515,961.34,-0.46093,0.15364,-1.9871,-0.61458,-1.3708e-11,-0.99354,0,0,0.083333,-0,-0,0.66667
0.21677,0.18658,2.6012,-0.47012,-85.856,1058,3.261,-1.087,-1.2177,4.348,1.424e-10,-0.60886,0,0,0.083333,4.1942e-16,0,0.66667
0.097323,0.65904,1.1679,0.23855,45.243,1327.8,-0.74294,0.24765,-1.7978,-0.99059,-4.3242e-08,-0.89889,0,0,0.083333,-0,-0,0.66667
0.46914,0.55838,5.6297,0.087563,13.061,543.44,-1.3145,0.43818,-1.9798,-1.7527,-1.4525e-12,-0.98988,0,0,0.083333,3.9475e-16,0,0.66667
0.3498,0.79795,4.1976,0.44692,75.141,774.36,-5.0027,1.6676,-1.2859,-6.6702,7.8471e-13,-0.64297,0,0,0.083333,-4.1425e-16,0,0.66667
0.57735,0.45172,6.9282,-0.07242,-9.2279,360.79,1.338,-0.44599,-1.9864,1.784,-2.2218e-12,-0.9932,0,0,0.083333,-0,-0,0.66667
0.056942,0.55061,0.6833,0.075913,14.484,1421,-0.13832,0.046108,-1.9761,-0.18443,-7.2612e-08,-0.98805,0,0,0.083333,-0,-0,0.66667
0.24992,0.80474,2.999,0.45711,82.116,985.21,-3.6557,1.2186,-1.2645,-4.8743,-1.7244e-11,-0.63224,0,0,0.083333,1.9737e-16,0,0.66667
0.51229,0.63404,6.1475,0.20106,28.363,467.33,-3.296,1.0987,-1.856,-4.3947,-2.0914e-12,-0.92798,0,0,0.083333,-0,-0,0.66667
0.37596,0.96171,4.5115,0.69256,114.12,722.17,-8.332,2.7773,-0.29965,-11.109,3.5412e-12,-0.14983,0,0,0.083333,-0,-0,0.66667
0.6269,0.60129,7.5228,0.15194,17.622,287.25,-3.048,1.016,-1.9206,-4.064,1.259e-13,-0.9603,0,0,0.083333,-0,-0,0.66667
0.37322,0.20451,4.4786,-0.44324,-73.079,727.07,5.2936,-1.7645,-1.304,7.0581,3.9124e-12,-0.652,0,0,0.083333,7.8949e-16,0,0.66667
0.46031,0.28821,5.5238,-0.31768,-47.918,559.77,4.6794,-1.5598,-1.6373,6.2392,3.884e-12,-0.81865,0,0,0.083333,-0,-0,0.66667
0.23422,0.70824,2.8106,0.31236,56.533,1019.4,-2.3411,0.78038,-1.66,-3.1215,1.3245e-12,-0.83002,0,0,0.083333,1.9737e-16,0,0.66667
0.29959,0.60307,3.5951,0.15461,26.934,878.34,-1.4822,0.49407,-1.9158,-1.9763,-1.4622e-11,-0.9579,0,0,0.083333,-7.8949e-16,0,0.66667
0.11528,0.094586,1.3834,-0.60812,-115.09,1286.8,2.2434,-0.74781,-0.68287,2.9912,3.0336e-08,-0.34143,0,0,0.083333,-0,-0,0.66667
0.77244,0.28268,9.2693,-0.32598,-25.09,114.57,8.0576,-2.6859,-1.6193,10.743,9.6065e-12,-0.80965,0,0,0.083333,-0,-0,0.66667
0.79388,0.78427,9.5266,0.4264,30.103,95.432,-10.832,3.6108,-1.3546,-14.443,-6.3656e-11,-0.67732,0,0,0.083333,-0,-0,0.66667
0.043936,0.23636,0.52723,-0.39546,-75.615,1451.1,0.55599,-0.18533,-1.4441,0.74133,1.2145e-06,-0.72203,0,0,0.083333,4.9343e-17,0,0.66667
0.16096,0.63162,1.9315,0.19743,36.816,1182.6,-1.0169,0.33896,-1.8594,-1.3559,-2.4306e-10,-0.92968,0,0,0.083333,-0,-0,0.66667
0.80286,0.88437,9.6343,0.57656,39.207,88.435,-14.813,4.9376,-0.81449,-19.75,9.5992e-10,-0.40724,0,0,0.083333,-0,-0,0.66667
0.91048,0.99515,10.926,0.74272,24.381,22.114,-21.639,7.2131,-0.037443,-28.852,5.9986e-07,-0.018721,0,0,0.083333,-7.8949e-16,0,0.66667
0.36919,0.63703,4.4303,0.20554,33.974,734.84,-2.4283,0.80942,-1.8462,-3.2377,-2.4867e-12,-0.92309,0,0,0.083333,-0,-0,0.66667
0.67531,0.033632,8.1037,-0.69955,-73.008,223.89,15.117,-5.0391,-0.26044,20.156,-2.3919e-12,-0.13022,0,0,0.083333,-0,-0,0.66667
0.18999,0.32843,2.2799,-0.25735,-47.496,1117.4,1.5646,-0.52155,-1.7655,2.0862,-7.1109e-11,-0.88274,0,0,0.083333,-0,-0,0.66667
0.87123,0.85711,10.455,0.53567,24.629,40.085,-14.934,4.978,-0.97847,-19.912,5.5636e-09,-0.48924,0,0,0.083333,1.579e-15,0,0.66667
0.82471,0.78802,9.8965,0.43203,26.364,70.461,-11.402,3.8005,-1.3361,-15.202,-3.9893e-11,-0.66807,0,0,0.083333,-0,-0,0.66667
0.25001,0.37891,3.0002,-0.18163,-32.594,984.76,1.4531,-0.48438,-1.8909,1.9375,-2.0806e-12,-0.94543,0,0,0.083333,-0,-0,0.66667
0.59285,0.94613,7.1142,0.66919,83.247,338.44,-12.695,4.2318,-0.41279,-16.927,4.4231e-13,-0.2064,0,0,0.083333,-0,-0,0.66667
0.73576,0.090402,8.8292,-0.6144,-53.987,152.67,14.466,-4.8219,-0.66234,19.287,-1.2905e-10,-0.33117,0,0,0.083333,1.1842e-15,0,0.66667
0.88384,0.16515,10.606,-0.50228,-20.941,33.046,14.206,-4.7353,-1.099,18.941,8.1193e-09,-0.54952,0,0,0.083333,-0,-0,0.66667
0.46773,0.82289,5.6127,0.48433,72.483,546.57,-7.2491,2.4164,-1.1705,-9.6655,-7.5291e-12,-0.58526,0,0,0.083333,-7.8949e-16,0,0.66667
0.13462,0.68661,1.6154,0.27991,52.628,1242.5,-1.2058,0.40194,-1.7191,-1.6078,-3.6228e-09,-0.85955,0,0,0.083333,2.2204e-16,0,0.66667
0.1094,0.23772,1.3127,-0.39342,-74.467,1300.2,1.3772,-0.45908,-1.4569,1.8363,2.8343e-08,-0.72846,0,0,0.083333,-0,-0,0.66667
0.52968,0.01156,6.3561,-0.73266,-101.18,439.26,12.418,-4.1394,-0.09453,16.558,3.3484e-12,-0.047265,0,0,0.083333,-0,9.2009e-17,0.66667
0.049289,0.51906,0.59146,0.028594,5.4601,1438.7,-0.0451,0.015033,-1.9983,-0.060133,-4.2666e-08,-0.99915,0,0,0.083333,-0,-0,0.66667
0.6209,0.66251,7.4508,0.24377,28.633,295.93,-4.8434,1.6145,-1.7875,-6.4578,-3.9719e-12,-0.89375,0,0,0.083333,1.579e-15,0,0.66667
0.033328,0.056907,0.39994,-0.66464,-127.39,1475.8,0.70885,-0.23629,-0.43193,0.94513,-4.5105e-06,-0.21596,0,0,0.083333,-0,-0,0.66667
0.021184,0.32907,0.2542,-0.2564,-49.075,1503.8,0.17381,-0.057938,-1.7628,0.23175,-1.512e-06,-0.88138,0,0,0.083333,-0,-0,0.66667
0.075209,0.42609,0.90251,-0.11087,-21.103,1378.8,0.26682,-0.088941,-1.9565,0.35576,9.5832e-08,-0.97827,0,0,0.083333,9.8686e-17,0,0.66667
0.36803,0.49041,4.4163,-0.01438,-2.3786,737.09,0.16935,-0.056451,-1.9952,0.2258,7.1519e-12,-0.99759,0,0,0.083333,-3.9475e-16,0,0.66667
0.38175,0.093219,4.581,-0.61017,-99.959,710.44,7.4539,-2.4846,-0.67357,9.9385,5.5067e-13,-0.33678,0,0,0.083333,1.4803e-16,0,0.66667
0.76697,0.43912,9.2036,-0.091327,-7.1676,119.39,2.2414,-0.74715,-1.9753,2.9886,-1.5049e-11,-0.98764,0,0,0.083333,3.158e-15,0,0.66667
0.84595,0.37439,10.151,-0.18842,-10.184,54.65,5.1005,-1.7002,-1.8769,6.8006,-8.227e-11,-0.93847,0,0,0.083333,2.0231e-15,0,0.66667
0.7272,0.097796,8.7264,-0.60331,-54.455,161.92,14.039,-4.6797,-0.7024,18.719,4.0841e-11,-0.3512,0,0,0.083333,1.579e-15,0,0.66667
0.88443,0.38569,10.613,-0.17147,-7.075,31.689,4.853,-1.6177,-1.8917,6.4706,-1.0104e-08,-0.94583,0,0,0.083333,-0,-0,0.66667
0.5749,0.039434,6.8988,-0.69085,-88.742,366.04,12.709,-4.2365,-0.30299,16.946,-1.3562e-12,-0.1515,0,0,0.083333,-0,-7.6308e-17,0.66667
0.93988,0.11588,11.279,-0.57618,-12.763,10.845,17.329,-5.7765,-0.82109,23.106,2.0014e-06,-0.41054,0,0,0.083333,-0,-0,0.66667
0.90679,0.31882,10.881,-0.27176,-9.1361,21.337,7.8858,-2.6286,-1.7437,10.514,-4.5563e-08,-0.87185,0,0,0.083333,-0,-0,0.66667
0.44844,0.65083,5.3812,0.22625,34.584,581.56,-3.2466,1.0822,-1.8161,-4.3288,-1.0861e-11,-0.90806,0,0,0.083333,7.8949e-16,0,0.66667
0.47973,0.64494,5.7567,0.21741,32.021,524.47,-3.3376,1.1125,-1.8295,-4.4501,-3.7583e-12,-0.91475,0,0,0.083333,-0,-0,0.66667
0.85666,0.2846,10.28,-0.3231,-16.356,47.991,8.8572,-2.9524,-1.6304,11.81,-1.3283e-09,-0.81519,0,0,0.083333,-0,-0,0.66667
0.39841,0.34605,4.7809,-0.23092,-37.177,676.98,2.944,-0.98133,-1.8072,3.9253,2e-12,-0.90359,0,0,0.083333,1.579e-15,0,0.66667
0.942,0.66282,11.304,0.24423,5.1543,8.8863,-7.3619,2.454,-1.7861,-9.8159,1.4188e-07,-0.89307,0,0,0.083333,-0,-0,0.66667
0.29331,0.63861,3.5197,0.20792,36.374,891.67,-1.9515,0.6505,-1.8453,-2.602,-1.9703e-11,-0.92266,0,0,0.083333,3.9475e-16,0,0.66667
0.25901,0.26035,3.1081,-0.35948,-64.228,965.37,2.9794,-0.99315,-1.5365,3.9726,-1.5627e-12,-0.76826,0,0,0.083333,-0,-0,0.66667
0.10893,0.16492,1.3071,-0.50262,-95.197,1301.3,1.752,-0.584,-1.108,2.336,7.2213e-09,-0.55402,0,0,0.083333,-0,-0,0.66667
0.24704,0.2299,2.9645,-0.40515,-72.874,991.41,3.2029,-1.0676,-1.4166,4.2705,-9.1571e-12,-0.70828,0,0,0.083333,3.9475e-16,0,0.66667
0.53775,0.05872,6.453,-0.66192,-90.252,425.56,11.39,-3.7968,-0.43901,15.187,1.4824e-12,-0.2195,0,0,0.083333,9.8686e-16,0,0.66667
0.98024,0.80962,11.763,0.46443,3.3226,2.3576,-14.568,4.856,-1.2323,-19.424,-5.4145e-06,-0.61617,0,0,0.083333,2.3685e-15,0,0.66667
0.20773,0.99949,2.4928,0.74924,137.64,1078.4,-4.9804,1.6601,-0.0031751,-6.6406,7.5747e-11,-0.0015875,0,0,0.083333,-4.9343e-17,0,0.66667
0.54702,0.60911,6.5642,0.16367,21.93,409.15,-2.8649,0.95497,-1.9116,-3.8199,-5.0671e-13,-0.95579,0,0,0.083333,7.8949e-16,0,0.66667
0.87839,0.96393,10.541,0.6959,30.465,37.028,-19.561,6.5202,-0.27823,-26.081,-4.3498e-07,-0.13911,0,0,0.083333,-1.579e-15,0,0.66667
0.58966,0.79035,7.0759,0.43552,54.377,342.45,-8.2179,2.7393,-1.3241,-10.957,-6.5281e-13,-0.66204,0,0,0.083333,-0,-0,0.66667
0.83528,0.30487,10.023,-0.29269,-16.844,62.266,7.8234,-2.6078,-1.6915,10.431,-6.0187e-12,-0.84573,0,0,0.083333,-7.8949e-16,0,0.66667
0.23929,0.53627,2.8714,0.054402,9.8155,1008.1,-0.41656,0.13885,-1.9874,-0.55541,3.1625e-12,-0.9937,0,0,0.083333,-0,-0,0.66667
0.07308,0.85908,0.87696,0.53862,102.71,1383.8,-1.2596,0.41987,-0.96547,-1.6795,-2.1933e-07,-0.48274,0,0,0.083333,-0,-0,0.66667
0.95297,0.91679,11.436,0.62519,10.915,7.803,-19.065,6.355,-0.61722,-25.42,8.5212e-06,-0.30861,0,0,0.083333,-1.579e-15,8.8237e-17,0.66667
0.11233,0.57609,1.3479,0.11413,21.572,1293.4,-0.41025,0.13675,-1.9538,-0.547,-9.372e-09,-0.97689,0,0,0.083333,1.9737e-16,0,0.66667
0.8024,0.95493,9.6288,0.68239,46.595,89.391,-17.522,5.8405,-0.34088,-23.362,-2.1529e-09,-0.17044,0,0,0.083333,-1.579e-15,0,0.66667
0.65102,0.20137,7.8122,-0.44795,-49.387,254.59,9.332,-3.1107,-1.2834,12.443,-1.5445e-12,-0.64168,0,0,0.083333,-0,-0,0.66667
0.86511,0.54174,10.381,0.062611,2.988,42.346,-1.7333,0.57777,-1.9826,-2.3111,-8.1667e-10,-0.9913,0,0,0.083333,-0,-0,0.66667
0.62975,0.28445,7.557,-0.32333,-37.306,283.51,6.5158,-2.1719,-1.6267,8.6877,3.4865e-12,-0.81335,0,0,0.083333,-0,-0,0.66667
0.29818,0.96827,3.5781,0.7024,122.82,882.07,-6.7021,2.234,-0.25108,-8.9361,5.1203e-12,-0.12554,0,0,0.083333,1.727e-16,0,0.66667
0.93148,0.26834,11.178,-0.3475,-8.6705,12.334,10.358,-3.4527,-1.5668,13.811,-2.8444e-07,-0.78342,0,0,0.083333,-1.579e-15,0,0.66667
0.6923,0.4791,8.3076,-0.031351,-3.1161,201,0.69453,-0.23151,-1.994,0.92604,2.6227e-12,-0.99698,0,0,0.083333,-0,-0,0.66667
0.87664,0.56446,10.52,0.096688,4.2423,35.762,-2.7123,0.90411,-1.9709,-3.6164,-1.5911e-10,-0.98546,0,0,0.083333,3.158e-15,0,0.66667
0.81549,0.062906,9.7859,-0.65564,-42.077,78.617,17.109,-5.7031,-0.4732,22.813,-1.6433e-08,-0.2366,0,0,0.083333,-0,-0,0.66667
0.136,0.45519,1.632,-0.067214,-12.627,1239.3,0.29252,-0.097507,-1.9814,0.39003,-1.6016e-10,-0.99072,0,0,0.083333,-0,-0,0.66667
0.69941,0.6629,8.3929,0.24435,23.838,192.65,-5.4689,1.823,-1.787,-7.2919,-2.1134e-12,-0.89351,0,0,0.083333,-0,-0,0.66667
0.68101,0.63531,8.1721,0.20296,20.786,215.09,-4.423,1.4743,-1.8496,-5.8973,2.8839e-12,-0.9248,0,0,0.083333,-0,-0,0.66667
0.7558,0.78704,9.0696,0.43056,35.277,131.11,-10.413,3.4711,-1.3378,-13.884,2.5979e-12,-0.66892,0,0,0.083333,-1.579e-15,0,0.66667
0.79965,0.40427,9.5958,-0.14359,-9.8596,89.799,3.6743,-1.2248,-1.9284,4.899,9.5091e-11,-0.9642,0,0,0.083333,-7.8949e-16,0,0.66667
0.94145,0.19147,11.297,-0.4628,-9.9339,9.8158,13.942,-4.6474,-1.2378,18.59,8.8769e-08,-0.61891,0,0,0.083333,-0,-0,0.66667
0.065147,0.88475,0.78177,0.57712,110.2,1402.1,-1.2031,0.40105,-0.81663,-1.6042,1.2479e-07,-0.40832,0,0,0.083333,-0,-0,0.66667
0.50862,0.23227,6.1034,-0.40159,-56.992,473.99,6.5362,-2.1787,-1.4223,8.7149,-3.1788e-12,-0.71113,0,0,0.083333,7.8949e-16,0,0.66667
0.49966,0.59384,5.9959,0.14076,20.2,489.15,-2.2507,0.75023,-1.9375,-3.0009,1.4668e-12,-0.96874,0,0,0.083333,-1.579e-15,0,0.66667
0.70076,0.70143,8.4092,0.30215,29.377,191.15,-6.7755,2.2585,-1.6767,-9.034,-7.4607e-13,-0.83833,0,0,0.083333,-0,-0,0.66667
0.9956,0.22599,11.947,-0.41102,-0.52461,1.0164,13.095,-4.365,-1.3976,17.46,-3.2553e-06,-0.69879,0,0,0.083333,-3.158e-15,-5.8279e-17,0.66667
0.90798,0.076073,10.896,-0.63589,-21.331,22.433,18.476,-6.1587,-0.56494,24.635,-2.342e-08,-0.28247,0,0,0.083333,-0,-0,0.66667
0.29689,0.17247,3.5626,-0.49129,-85.85,884.4,4.6674,-1.5558,-1.149,6.2233,-3.205e-12,-0.57451,0,0,0.083333,3.9475e-16,0,0.66667
0.33575,0.44506,4.0291,-0.082416,-13.992,802.79,0.88549,-0.29516,-1.9718,1.1806,1.5074e-11,-0.98592,0,0,0.083333,-0,-0,0.66667
0.82017,0.48657,9.842,-0.020145,-1.2543,73.1,0.52871,-0.17624,-1.9941,0.70494,1.8309e-10,-0.99706,0,0,0.083333,-0,-0,0.66667
0.36161,0.93164,4.3394,0.64746,107.96,750.82,-7.4922,2.4974,-0.51164,-9.9896,3.5913e-12,-0.25582,0,0,0.083333,-0,-0,0.66667
0.32537,0.59323,3.9045,0.13985,23.929,824.29,-1.4561,0.48536,-1.9325,-1.9414,-2.3941e-12,-0.96625,0,0,0.083333,-3.9475e-16,0,0.66667
0.4447,0.12857,5.3364,-0.55714,-85.67,589.12,7.9284,-2.6428,-0.89296,10.571,-5.4801e-13,-0.44648,0,0,0.083333,-0,-0,0.66667
0.27712,0.74117,3.3254,0.36175,63.96,926.34,-3.208,1.0693,-1.5332,-4.2773,-1.5782e-11,-0.76658,0,0,0.083333,-0,-0,0.66667
0.74901,0.10613,8.9881,-0.59081,-49.666,138.67,14.161,-4.7202,-0.76343,18.881,6.9481e-11,-0.38171,0,0,0.083333,-0,9.4418e-17,0.66667
0.45268,0.27907,5.4321,-0.33139,-50.433,573.84,4.8004,-1.6001,-1.6167,6.4005,-1.9855e-12,-0.80837,0,0,0.083333,1.0856e-15,0,0.66667
0.16392,0.69707,1.9671,0.29561,55.086,1176,-1.5506,0.51688,-1.6851,-2.0675,-3.9592e-11,-0.84254,0,0,0.083333,3.9475e-16,0,0.66667
0.99046,0.051395,11.886,-0.67291,-2.3765,2.763,21.328,-7.1093,-0.3863,28.437,-9.8281e-05,-0.19315,0,0,0.083333,1.579e-15,0,0.66667
0.338,0.93037,4.056,0.64555,109.69,798.91,-6.9823,2.3274,-0.5151,-9.3097,6.0791e-12,-0.25755,0,0,0.083333,1.9737e-16,0,0.66667
0.30176,0.57693,3.6211,0.1154,20.074,873.74,-1.1144,0.37145,-1.9498,-1.4858,-1.5975e-11,-0.97491,0,0,0.083333,3.9475e-16,0,0.66667
0.22533,0.64868,2.7039,0.22302,40.528,1038.9,-1.6081,0.53603,-1.8194,-2.1441,1.5221e-11,-0.90971,0,0,0.083333,-1.9737e-16,0,0.66667
0.42574,0.23449,5.1089,-0.39826,-62.439,624.47,5.4258,-1.8086,-1.4346,7.2344,-2.7414e-12,-0.71728,0,0,0.083333,7.8949e-16,0,0.66667
0.69512,0.84104,8.3414,0.51156,50.601,198.55,-11.379,3.7931,-1.0662,-15.172,-4.1185e-12,-0.53311,0,0,0.083333,9.9529e-16,0,0.66667
0.60241,0.003976,7.2289,-0.74404,-91.007,324.48,14.343,-4.7809,-0.028292,19.124,3.0891e-12,-0.014146,0,0,0.083333,-0,-0,0.66667
0.18146,0.58104,2.1775,0.12157,22.503,1136.4,-0.70591,0.2353,-1.9436,-0.94121,8.4137e-11,-0.97182,0,0,0.083333,-2.1489e-16,0,0.66667
0.26456,0.74613,3.1747,0.36919,65.76,953.37,-3.1256,1.0419,-1.5206,-4.1674,-3.316e-12,-0.7603,0,0,0.083333,2.757e-16,0,0.66667
0.59825,0.35817,7.179,-0.21275,-26.114,329.05,4.0728,-1.3576,-1.8367,5.4305,1.7057e-12,-0.91836,0,0,0.083333,-0,-0,0.66667
0.85805,0.25402,10.297,-0.36897,-18.522,47.267,10.131,-3.377,-1.5205,13.508,-1.7678e-09,-0.76025,0,0,0.083333,-0,-0,0.66667
0.41292,0.66773,4.955,0.2516,39.94,648.83,-3.3244,1.1081,-1.7708,-4.4326,-6.8761e-12,-0.88541,0,0,0.083333,-0,-0,0.66667
0.21585,0.56912,2.5902,0.10368,18.92,1059.8,-0.71615,0.23872,-1.9625,-0.95487,3.7253e-11,-0.98125,0,0,0.083333,-0,-0,0.66667
0.32339,0.9004,3.8807,0.6006,103.13,829.01,-6.2153,2.0718,-0.71544,-8.287,-1.3442e-11,-0.35772,0,0,0.083333,7.836e-16,0,0.66667
0.69169,0.52444,8.3003,0.036663,3.6501,201.74,-0.81151,0.2705,-1.9938,-1.082,-2.3976e-12,-0.9969,0,0,0.083333,7.8949e-16,0,0.66667
0.70095,0.91847,8.4114,0.62771,61.195,192.07,-14.08,4.6932,-0.60075,-18.773,5.1781e-12,-0.30038,0,0,0.083333,-0,-0,0.66667
0.22335,0.13333,2.6802,-0.55001,-100.19,1043.5,3.931,-1.3103,-0.92229,5.2414,-6.8614e-11,-0.46114,0,0,0.083333,-0,-0,0.66667
0.3965,0.12683,4.7579,-0.55976,-90.433,681.27,7.1021,-2.3674,-0.88353,9.4695,1.1644e-12,-0.44176,0,0,0.083333,-0,-0,0.66667
0.69933,0.048643,8.392,-0.67703,-66.344,194.23,15.151,-5.0504,-0.36886,20.201,-2.2649e-13,-0.18443,0,0,0.083333,-0,1.2799e-16,0.66667
0.72057,0.2263,8.6469,-0.41056,-37.73,168.53,9.4668,-3.1556,-1.4036,12.622,5.3531e-12,-0.70178,0,0,0.083333,-1.579e-15,0,0.66667
0.13052,0.82631,1.5662,0.48946,92.211,1251.9,-2.0442,0.68141,-1.1448,-2.7256,-8.8847e-09,-0.57238,0,0,0.083333,-0,-0,0.66667
0.60937,0.96806,7.3125,0.70209,84.694,314.03,-13.691,4.5636,-0.25615,-18.254,1.1058e-12,-0.12807,0,0,0.083333,-1.0856e-15,0,0.66667
0.88607,0.62622,10.633,0.18934,7.7083,30.878,-5.3685,1.7895,-1.8715,-7.158,1.2016e-08,-0.93577,0,0,0.083333,-0,-0,0.66667
0.58236,0.70985,6.9883,0.31477,39.788,353.33,-5.866,1.9553,-1.646,-7.8213,-9.4902e-13,-0.823,0,0,0.083333,-0,-0,0.66667
0.30721,0.081108,3.6865,-0.62834,-109.15,862.88,6.177,-2.059,-0.59304,8.236,-1.6357e-11,-0.29652,0,0,0.083333,3.9475e-16,0,0.66667
0.74514,0.96178,8.9417,0.69267,59.091,143.18,-16.516,5.5055,-0.29178,-22.022,-1.0424e-11,-0.14589,0,0,0.083333,-1.1842e-15,5.9585e-17,0.66667
0.9777,0.55144,11.732,0.077155,0.60888,1.5478,-2.4139,0.80463,-1.9748,-3.2185,-2.0103e-07,-0.98738,0,0,0.083333,1.579e-15,0,0.66667
0.90462,0.7658,10.855,0.3987,13.739,22.681,-11.541,3.8472,-1.4377,-15.389,4.6363e-08,-0.71884,0,0,0.083333,1.579e-15,0,0.66667
0.8716,0.55652,10.459,0.084787,3.8632,38.574,-2.3648,0.78828,-1.9744,-3.1531,2.1717e-09,-0.98718,0,0,0.083333,-1.1842e-15,0,0.66667
0.00029225,0.37539,0.003507,-0.18692,-35.787,1552.3,0.0017476,-0.00058155,-1.8838,0.0023306,1.4619e-06,-0.94189,0,0,0.083333,7.7099e-19,0,0.66667
0.58262,0.84825,6.9914,0.52237,66.094,353.48,-9.7389,3.2463,-1.0283,-12.985,-5.3575e-12,-0.51415,0,0,0.083333,1.579e-15,0,0.66667
0.26272,0.06977,3.1526,-0.64535,-115.26,957.74,5.4254,-1.8085,-0.51985,7.2339,-4.1906e-11,-0.25993,0,0,0.083333,-0,7.5808e-17,0.66667
0.81301,0.72228,9.7561,0.33342,21.547,79.203,-8.6742,2.8914,-1.6115,-11.566,-2.6914e-11,-0.80577,0,0,0.083333,-3.158e-15,0,0.66667
0.52348,0.22613,6.2817,-0.4108,-57.093,448.65,6.8815,-2.2938,-1.396,9.1753,-3.3387e-12,-0.69798,0,0,0.083333,-0,-0,0.66667
0.8939,0.33131,10.727,-0.25303,-9.6312,27.128,7.2378,-2.4126,-1.7719,9.6504,-3.0567e-08,-0.88596,0,0,0.083333,1.579e-15,0,0.66667
0.52374,0.36309,6.2849,-0.20536,-28.503,447.84,3.4419,-1.1473,-1.8457,4.5892,3.0764e-12,-0.92284,0,0,0.083333,-7.8949e-16,0,0.66667
0.89114,0.12556,10.694,-0.56165,-22.057,29.665,16.016,-5.3388,-0.88574,21.355,9.7172e-08,-0.44287,0,0,0.083333,-0,-0,0.66667
0.44972,0.2729,5.3967,-0.34065,-52.02,579.33,4.9024,-1.6341,-1.587,6.5365,-9.5035e-13,-0.79351,0,0,0.083333,-0,-0,0.66667
0.5615,0.42539,6.738,-0.11191,-14.649,385.76,2.0108,-0.67028,-1.96,2.6811,5.4801e-13,-0.97999,0,0,0.083333,-0,-0,0.66667
0.81248,0.84382,9.7498,0.51573,33.495,80.29,-13.409,4.4696,-1.0632,-17.878,-1.0224e-09,-0.53159,0,0,0.083333,-0,-0,0.66667
0.40317,0.14155,4.8381,-0.53767,-86.3,668.19,6.9367,-2.3122,-0.97196,9.249,-3.3076e-12,-0.48598,0,0,0.083333,-0,-0,0.66667
0.56867,0.74954,6.824,0.37432,48.464,374.78,-6.8116,2.2705,-1.4995,-9.0821,-2.9332e-12,-0.74974,0,0,0.083333,1.1842e-15,0,0.66667
0.89846,0.012079,10.782,-0.73188,-27.067,27.243,21.042,-7.0141,-0.091077,28.056,-2.0715e-07,-0.045538,0,0,0.083333,-3.158e-15,0,0.66667
0.48462,0.68094,5.8155,0.27141,39.734,515.79,-4.209,1.403,-1.7452,-5.612,-9.6145e-13,-0.87259,0,0,0.083333,3.9475e-16,0,0.66667
0.59059,0.70032,7.0871,0.30048,37.422,340.73,-5.6788,1.8929,-1.6787,-7.5717,1.7808e-13,-0.83935,0,0,0.083333,-0,-0,0.66667
0.93638,0.18917,11.237,-0.46624,-10.861,11.295,13.97,-4.6568,-1.2326,18.627,-2.7654e-07,-0.61629,0,0,0.083333,-3.158e-15,0,0.66667
0.88325,0.71393,10.599,0.3209,13.394,32.652,-9.0699,3.0233,-1.6302,-12.093,7.8648e-09,-0.81512,0,0,0.083333,-1.579e-15,0,0.66667
0.75772,0.44919,9.0926,-0.076217,-6.1879,128.46,1.848,-0.61601,-1.975,2.4641,3.4606e-12,-0.98749,0,0,0.083333,-0,-0,0.66667
0.71123,0.3525,8.5348,-0.22125,-20.874,178.73,5.0355,-1.6785,-1.8218,6.714,-5.7891e-12,-0.91091,0,0,0.083333,1.579e-15,0,0.66667
0.8192,0.10243,9.8303,-0.59635,-37.533,75.407,15.633,-5.211,-0.73161,20.844,3.3201e-09,-0.36581,0,0,0.083333,-0,-0,0.66667
0.10608,0.27711,1.273,-0.33433,-63.313,1307.8,1.1349,-0.37831,-1.6029,1.5132,3.9931e-08,-0.80147,0,0,0.083333,-4.9343e-17,0,0.66667
0.38103,0.26441,4.5724,-0.35338,-57.838,711.36,4.3088,-1.4363,-1.5521,5.7451,9.579e-13,-0.77606,0,0,0.083333,-0,-0,0.66667
0.54579,0.42325,6.5495,-0.11512,-15.453,411.12,2.0106,-0.67021,-1.9571,2.6808,-1.8407e-12,-0.97855,0,0,0.083333,7.8949e-16,0,0.66667
0.85851,0.27145,10.302,-0.34283,-17.151,46.893,9.4183,-3.1394,-1.5871,12.558,-1.7642e-09,-0.79357,0,0,0.083333,-0,-0,0.66667
0.1464,0.84828,1.7568,0.52243,97.999,1215.8,-2.4475,0.81583,-1.0268,-3.2633,3.3349e-09,-0.51338,0,0,0.083333,-0,-0,0.66667
0.71404,0.54564,8.5685,0.06846,6.403,175.33,-1.5643,0.52142,-1.9807,-2.0857,3.2101e-12,-0.99036,0,0,0.083333,-0,-0,0.66667
0.59097,0.2553,7.0916,-0.36705,-45.699,340.3,6.9413,-2.3138,-1.5221,9.2551,5.9774e-13,-0.76105,0,0,0.083333,-0,-0,0.66667
0.60872,0.12504,7.3046,-0.56243,-67.83,314.41,10.956,-3.6519,-0.88233,14.608,4.5386e-13,-0.44116,0,0,0.083333,1.579e-15,5.6205e-19,0.66667
0.37262,0.0050429,4.4714,-0.74244,-122.75,728.98,8.8527,-2.9509,-0.042111,11.804,3.2774e-12,-0.021056,0,0,0.083333,-0,5.3421e-17,0.66667
0.91582,0.18974,10.99,-0.46539,-14.243,18.357,13.639,-4.5463,-1.2273,18.185,-2.4095e-08,-0.61364,0,0,0.083333,-3.158e-15,0,0.66667
0.71391,0.00034991,8.5669,-0.74948,-70.559,177.6,17.122,-5.7072,-0.0016466,22.829,5.0306e-12,-0.00082328,0,0,0.083333,-0,-0,0.66667
0.6683,0.3937,8.0196,-0.15944,-16.852,231.2,3.4098,-1.1366,-1.9086,4.5464,-1.2492e-12,-0.95432,0,0,0.083333,-0,-0,0.66667
0.22147,0.53332,2.6576,0.049978,9.0962,1047.3,-0.35419,0.11806,-1.9929,-0.47226,-1.661e-11,-0.99646,0,0,0.083333,-0,-0,0.66667
0.81288,0.28447,9.7545,-0.32329,-20.903,79.278,8.4094,-2.8031,-1.6356,11.213,4.5128e-11,-0.8178,0,0,0.083333,-0,-0,0.66667
0.49585,0.80812,5.9503,0.46219,66.754,496.32,-7.3337,2.4446,-1.2395,-9.7782,1.6103e-12,-0.61973,0,0,0.083333,-1.9737e-16,0,0.66667
0.50837,0.49238,6.1005,-0.011432,-1.621,473.97,0.18598,-0.061992,-1.9956,0.24797,3.4036e-12,-0.99778,0,0,0.083333,1.1842e-15,0,0.66667
0.084733,0.15079,1.0168,-0.52381,-99.693,1356.9,1.4203,-0.47343,-1.021,1.8937,5.0613e-08,-0.51048,0,0,0.083333,4.9343e-17,0,0.66667
0.43727,0.60212,5.2472,0.15318,23.702,602.36,-2.1434,0.71447,-1.9235,-2.8579,-1.4224e-11,-0.96175,0,0,0.083333,-0,-0,0.66667
0.8632,0.82505,10.358,0.48757,23.696,44.57,-13.468,4.4893,-1.1534,-17.957,1.0118e-08,-0.5767,0,0,0.083333,1.579e-15,0,0.66667
0.68024,0.2775,8.1628,-0.33375,-34.273,216.31,7.265,-2.4217,-1.6005,9.6866,3.6682e-13,-0.80026,0,0,0.083333,-1.1842e-15,0,0.66667
0.18942,0.26118,2.2731,-0.35823,-66.151,1118.7,2.1715,-0.72382,-1.546,2.8953,-4.2596e-11,-0.77302,0,0,0.083333,-0,-0,0.66667
0.58407,0.23967,7.0089,-0.3905,-49.232,350.87,7.2986,-2.4329,-1.4542,9.7314,-4.2633e-13,-0.7271,0,0,0.083333,7.8949e-16,0,0.66667
0.94401,0.98578,11.328,0.72866,15.205,10.714,-22.012,7.3372,-0.10802,-29.349,-5.0754e-06,-0.054011,0,0,0.083333,-0,-0,0.66667
0.50746,0.85823,6.0895,0.53735,76.45,476.33,-8.7259,2.9086,-0.96891,-11.634,-2.4452e-12,-0.48446,0,0,0.083333,7.8949e-16,0,0.66667
0.9674,0.60625,11.609,0.15938,1.8737,3.1069,-4.9338,1.6446,-1.9133,-6.5784,-4.5242e-07,-0.95665,0,0,0.083333,-0,-0,0.66667
0.36627,0.70819,4.3952,0.31228,51.764,740.82,-3.6601,1.22,-1.6491,-4.8801,2.3825e-13,-0.82457,0,0,0.083333,3.9475e-16,0,0.66667
0.29075,0.73922,3.489,0.35882,62.909,897.25,-3.3385,1.1128,-1.5384,-4.4513,-1.427e-11,-0.76922,0,0,0.083333,-0,-0,0.66667
0.83985,0.49044,10.078,-0.014336,-0.80265,58.661,0.38528,-0.12843,-1.998,0.5137,-5.8519e-11,-0.999,0,0,0.083333,-1.579e-15,0,0.66667
0.86973,0.26113,10.437,-0.3583,-16.595,40.215,9.972,-3.324,-1.5404,13.296,-5.036e-09,-0.77022,0,0,0.083333,-0,-0,0.66667
0.20167,0.75065,2.42,0.37597,69.086,1091.4,-2.4263,0.80875,-1.5023,-3.235,1.5283e-10,-0.75113,0,0,0.083333,-0,-0,0.66667
0.71945,0.51063,8.6334,0.015949,1.4678,169.15,-0.36718,0.12239,-2.0045,-0.48957,-6.3717e-12,-1.0023,0,0,0.083333,3.158e-15,0,0.66667
0.59211,0.84253,7.1053,0.51379,63.904,338.98,-9.735,3.245,-1.0657,-12.98,-2.2409e-12,-0.53284,0,0,0.083333,9.8686e-16,0,0.66667
0.89451,0.93034,10.734,0.64551,24.671,28.518,-18.477,6.1591,-0.51745,-24.636,-2.9478e-07,-0.25873,0,0,0.083333,-7.8949e-16,0,0.66667
0.14945,0.91249,1.7933,0.61873,116.03,1209,-2.959,0.98632,-0.63516,-3.9453,-1.8806e-08,-0.31758,0,0,0.083333,-3.9475e-16,0,0.66667
0.76303,0.2317,9.1563,-0.40244,-32.115,123.85,9.8264,-3.2755,-1.4249,13.102,1.3672e-11,-0.71247,0,0,0.083333,-0,-0,0.66667
0.68996,0.26555,8.2795,-0.35167,-35.219,204.31,7.7645,-2.5882,-1.5613,10.353,9.2992e-13,-0.78065,0,0,0.083333,-1.579e-15,0,0.66667
0.79502,0.1713,9.5402,-0.49305,-34.669,94.711,12.544,-4.1812,-1.138,16.725,2.3372e-11,-0.56898,0,0,0.083333,-0,-0,0.66667
0.45329,0.7585,5.4394,0.38774,58.985,572.81,-5.6243,1.8748,-1.4726,-7.4991,-6.6867e-12,-0.73628,0,0,0.083333,-0,-0,0.66667
0.22843,0.5811,2.7412,0.12165,22.068,1032,-0.88922,0.29641,-1.9436,-1.1856,4.8488e-12,-0.97182,0,0,0.083333,-3.9475e-16,0,0.66667
0.28605,0.91735,3.4327,0.62602,110.25,907.64,-5.7304,1.9101,-0.60397,-7.6406,-1.8647e-11,-0.30199,0,0,0.083333,7.8949e-16,0,0.66667
0.3043,0.45483,3.6516,-0.06775,-11.764,868.36,0.65973,-0.21991,-1.9793,0.87964,6.3519e-12,-0.98963,0,0,0.083333,3.9475e-16,0,0.66667
0.84027,0.44294,10.083,-0.085587,-4.7812,58.404,2.3013,-0.76711,-1.9738,3.0684,-5.6812e-11,-0.9869,0,0,0.083333,-0,-0,0.66667
0.53716,0.36892,6.4459,-0.19662,-26.751,425.4,3.3796,-1.1265,-1.8594,4.5062,-1.7855e-12,-0.92971,0,0,0.083333,-7.8949e-16,0,0.66667
0.56358,0.94969,6.763,0.67454,88.3,383.77,-12.165,4.0551,-0.3865,-16.22,-2.6938e-12,-0.19325,0,0,0.083333,-0,-0,0.66667
0.28417,0.072337,3.41,-0.64149,-113.12,911.69,5.8333,-1.9444,-0.5372,7.7778,-1.8936e-12,-0.2686,0,0,0.083333,7.8949e-16,0,0.66667
0.83416,0.37351,10.01,-0.18973,-10.977,62.844,5.0645,-1.6882,-1.8695,6.7526,-2.1443e-10,-0.93477,0,0,0.083333,-9.8686e-17,0,0.66667
0.70493,0.97027,8.4592,0.7054,68.087,187.76,-15.912,5.3041,-0.23463,-21.216,-2.3714e-12,-0.11732,0,0,0.083333,-0,-0,0.66667
0.87814,0.99427,10.538,0.7414,32.57,37.47,-20.834,6.9446,-0.045985,-27.778,-1.5134e-08,-0.022993,0,0,0.083333,1.9737e-15,0,0.66667
0.13153,0.58815,1.5783,0.13222,24.872,1249.5,-0.55649,0.1855,-1.9344,-0.74199,-2.5703e-09,-0.96719,0,0,0.083333,-2.9606e-16,0,0.66667
0.8496,0.42671,10.195,-0.10994,-5.8091,52.117,2.9889,-0.9963,-1.9535,3.9852,2.4574e-10,-0.97673,0,0,0.083333,-0,-0,0.66667
0.052112,0.35642,0.62535,-0.21536,-41.122,1432.2,0.35914,-0.11971,-1.8319,0.47885,7.0262e-08,-0.91597,0,0,0.083333,9.8686e-17,0,0.66667
0.87713,0.71102,10.526,0.31654,13.866,35.917,-8.8846,2.9615,-1.6459,-11.846,4.3611e-09,-0.82296,0,0,0.083333,-7.8949e-16,0,0.66667
0.23974,0.65169,2.8769,0.22753,41.055,1007.2,-1.7456,0.58186,-1.8135,-2.3274,7.7498e-12,-0.90673,0,0,0.083333,-0,-0,0.66667
0.88566,0.19819,10.628,-0.45272,-18.572,31.883,12.831,-4.2769,-1.2685,17.108,-1.1766e-09,-0.63426,0,0,0.083333,-0,-0,0.66667
0.37931,0.60389,4.5517,0.15584,25.529,714.58,-1.8916,0.63052,-1.9117,-2.5221,-8.0713e-13,-0.95587,0,0,0.083333,-0,-0,0.66667
0.84292,0.60335,10.115,0.15503,8.5303,56.653,-4.1817,1.3939,-1.9197,-5.5756,3.5397e-10,-0.95984,0,0,0.083333,1.579e-15,0,0.66667
0.53961,0.25804,6.4754,-0.36294,-49.231,421.61,6.2671,-2.089,-1.5276,8.3561,-3.2387e-12,-0.76382,0,0,0.083333,-0,-0,0.66667
0.56418,0.19308,6.7701,-0.46038,-60.091,382.1,8.3115,-2.7705,-1.2499,11.082,-2.4807e-12,-0.62493,0,0,0.083333,-0,-0,0.66667
0.98402,0.10745,11.808,-0.58883,-3.4523,2.6764,18.542,-6.1805,-0.77339,24.722,-1.1529e-05,-0.3867,0,0,0.083333,-1.579e-15,9.7182e-17,0.66667
0.96375,0.83041,11.565,0.49562,6.6116,4.8704,-15.285,5.095,-1.1237,-20.38,2.0639e-06,-0.56185,0,0,0.083333,-1.579e-15,0,0.66667
0.11432,0.097176,1.3719,-0.60424,-114.37,1289,2.2105,-0.73684,-0.7,2.9474,1.281e-08,-0.35,0,0,0.083333,-3.9475e-16,0,0.66667
0.36415,0.51586,4.3698,0.023785,3.9474,744.9,-0.27716,0.092388,-1.9953,-0.36955,-1.2579e-12,-0.99764,0,0,0.083333,-0,-0,0.66667
0.25055,0.26194,3.0066,-0.35709,-64.097,983.73,2.863,-0.95433,-1.5524,3.8173,-5.2967e-12,-0.77618,0,0,0.083333,-0,-0,0.66667
0.4483,0.24406,5.3795,-0.3839,-58.731,582.05,5.5073,-1.8358,-1.4739,7.343,-2.9377e-12,-0.73693,0,0,0.083333,-3.9475e-16,0,0.66667
0.12635,0.2501,1.5162,-0.37485,-70.658,1261.4,1.5156,-0.50521,-1.5056,2.0208,3.7536e-09,-0.75281,0,0,0.083333,-3.9475e-16,0,0.66667
0.51157,0.74802,6.1388,0.37203,52.573,468.85,-6.0902,2.0301,-1.5074,-8.1203,-4.6541e-13,-0.75371,0,0,0.083333,-1.9737e-16,0,0.66667
0.86558,0.36385,10.387,-0.20423,-9.7229,42.241,5.6569,-1.8856,-1.8479,7.5426,-3.3339e-09,-0.92393,0,0,0.083333,-0,-0,0.66667
0.35235,0.12157,4.2282,-0.56765,-95.316,769.39,6.4005,-2.1335,-0.85098,8.5339,4.7917e-13,-0.42549,0,0,0.083333,5.9212e-16,0,0.66667
0.15564,0.32128,1.8677,-0.26808,-50.087,1194.7,1.3352,-0.44505,-1.7503,1.7802,4.1391e-10,-0.87515,0,0,0.083333,3.9475e-16,0,0.66667
0.30726,0.72654,3.6871,0.33981,58.927,862.31,-3.3411,1.1137,-1.5867,-4.4549,-7.2291e-12,-0.79333,0,0,0.083333,-0,-0,0.66667
0.74287,0.56136,8.9145,0.092041,7.8665,143.67,-2.188,0.72933,-1.967,-2.9173,9.015e-14,-0.98348,0,0,0.083333,6.9081e-16,0,0.66667
0.091276,0.13024,1.0953,-0.55464,-105.46,1341.9,1.62,-0.54001,-0.90797,2.16,2.0081e-07,-0.45398,0,0,0.083333,-0,-0,0.66667
0.73558,0.53741,8.827,0.056109,4.9114,151.4,-1.3207,0.44024,-1.9933,-1.761,-1.5513e-12,-0.99667,0,0,0.083333,-0,-0,0.66667
0.61392,0.7415,7.3671,0.36226,43.176,306.22,-7.1167,2.3722,-1.5313,-9.4889,-1.283e-12,-0.76567,0,0,0.083333,-0,-0,0.66667
0.74026,0.93412,8.8831,0.65118,56.421,148.07,-15.425,5.1418,-0.48959,-20.567,-7.3539e-11,-0.2448,0,0,0.083333,-3.9475e-16,0,0.66667
0.0090497,0.26556,0.1086,-0.35167,-67.354,1532,0.10184,-0.033945,-1.5561,0.13579,1.7063e-06,-0.77805,0,0,0.083333,-0,-0,0.66667
0.72047,0.90883,8.6457,0.61324,56.506,169.45,-14.138,4.7128,-0.66673,-18.851,-5.2107e-11,-0.33337,0,0,0.083333,-1.579e-15,0,0.66667
0.32058,0.86544,3.847,0.54817,94.282,834.74,-5.6235,1.8745,-0.9274,-7.4979,-2.9754e-14,-0.4637,0,0,0.083333,-0,-0,0.66667
0.63297,0.80922,7.5957,0.46383,53.208,279.36,-9.395,3.1317,-1.2317,-12.527,1.303e-12,-0.61583,0,0,0.083333,3.8477e-16,0,0.66667
0.053837,0.48802,0.64604,-0.017965,-3.4289,1428.2,0.03095,-0.010317,-1.9946,0.041267,-2.6728e-07,-0.9973,0,0,0.083333,-4.9343e-17,0,0.66667
0.55643,0.78756,6.6772,0.43133,57.006,394.38,-7.6803,2.5601,-1.3352,-10.24,-2.558e-12,-0.6676,0,0,0.083333,-0,-0,0.66667
0.9416,0.29454,11.299,-0.30819,-6.5602,9.175,9.286,-3.0953,-1.6605,12.381,-1.6555e-07,-0.83025,0,0,0.083333,-0,-0,0.66667
0.32009,0.57024,3.841,0.10537,18.097,835.29,-1.0792,0.35974,-1.9565,-1.439,-4.9443e-12,-0.97825,0,0,0.083333,-0,-0,0.66667
0.52274,0.47237,6.2728,-0.041452,-5.7599,449.43,0.69339,-0.23113,-1.9905,0.92452,-5.6122e-14,-0.99526,0,0,0.083333,-0,-0,0.66667
0.40771,0.63552,4.8925,0.20328,32.432,658.84,-2.6522,0.88405,-1.8565,-3.5362,-2.7027e-12,-0.92826,0,0,0.083333,-0,-0,0.66667
0.56965,0.35774,6.8358,-0.21339,-27.561,372.94,3.8898,-1.2966,-1.8337,5.1864,-2.2184e-12,-0.91686,0,0,0.083333,-0,-0,0.66667
0.068319,0.51919,0.81982,0.028778,5.4829,1394.7,-0.062915,0.020972,-1.9934,-0.083887,-5.5846e-08,-0.99672,0,0,0.083333,-0,-0,0.66667
0.36188,0.86321,4.3426,0.54482,90.756,750.04,-6.3091,2.103,-0.94565,-8.4121,2.224e-12,-0.47283,0,0,0.083333,3.9475e-16,0,0.66667
0.52066,0.050126,6.2479,-0.67481,-94.366,454.21,11.243,-3.7477,-0.37799,14.991,1.5286e-12,-0.18899,0,0,0.083333,-1.4061e-15,0,0.66667
0.084824,0.046696,1.0179,-0.67996,-129.54,1356.8,1.8457,-0.61522,-0.35189,2.4609,-1.4733e-06,-0.17594,0,0,0.083333,1.9737e-16,0,0.66667
0.46765,0.22172,5.6118,-0.41742,-62.45,546.57,6.2466,-2.0822,-1.3858,8.3288,9.603e-12,-0.69288,0,0,0.083333,-1.579e-15,0,0.66667
0.77223,0.17722,9.2668,-0.48416,-37.359,115.29,11.964,-3.9881,-1.1625,15.952,5.7682e-11,-0.58126,0,0,0.083333,-0,-0,0.66667
0.443,0.71653,5.316,0.32479,49.968,591.81,-4.6043,1.5348,-1.6227,-6.1391,-4.253e-12,-0.81136,0,0,0.083333,-1.0856e-15,0,0.66667
0.39093,0.36022,4.6911,-0.20967,-33.991,691.63,2.6229,-0.87429,-1.8501,3.4972,-1.857e-12,-0.92503,0,0,0.083333,-0,-0,0.66667
0.27288,0.33928,3.2745,-0.24107,-42.713,935.34,2.1051,-0.70169,-1.7898,2.8067,5.3269e-13,-0.89491,0,0,0.083333,-0,-0,0.66667
0.051852,0.1545,0.62222,-0.51826,-99.08,1432.8,0.85991,-0.28664,-1.0434,1.1466,1.13e-07,-0.52171,0,0,0.083333,9.8686e-17,0,0.66667
0.76182,0.7215,9.1419,0.33225,26.613,124.82,-8.0997,2.6999,-1.6073,-10.8,-6.6915e-12,-0.80364,0,0,0.083333,-3.158e-15,0,0.66667
0.48578,0.75677,5.8293,0.38515,56.333,513.93,-5.9872,1.9957,-1.4765,-7.9829,-1.6427e-12,-0.73826,0,0,0.083333,-0,-0,0.66667
0.16135,0.88404,1.9362,0.57606,107.59,1182,-2.9743,0.99143,-0.81733,-3.9657,-1.2696e-09,-0.40867,0,0,0.083333,-0,-0,0.66667
0.066079,0.95797,0.79294,0.68696,131.26,1400,-1.4526,0.4842,-0.32122,-1.9368,-2.3422e-07,-0.16061,0,0,0.083333,-9.8686e-17,0,0.66667
0.7579,0.037452,9.0948,-0.69382,-56.636,130.21,16.827,-5.609,-0.28454,22.436,-6.5731e-11,-0.14227,0,0,0.083333,-0,-0,0.66667
0.58841,0.78504,7.0609,0.42755,53.5,344.33,-8.0505,2.6835,-1.3477,-10.734,8.8107e-13,-0.67386,0,0,0.083333,-0,-0,0.66667
0.55876,0.074462,6.7052,-0.63831,-84.188,391.3,11.413,-3.8044,-0.55015,15.218,4.6807e-13,-0.27508,0,0,0.083333,-0,3.7594e-17,0.66667
0.20632,0.73958,2.4759,0.35938,65.901,1081,-2.3727,0.79091,-1.5406,-3.1637,5.5691e-11,-0.7703,0,0,0.083333,-1.9737e-16,0,0.66667
0.59434,0.29369,7.1321,-0.30947,-38.28,335.08,5.8858,-1.9619,-1.6651,7.8477,2.0433e-12,-0.83254,0,0,0.083333,-0,-0,0.66667
0.93421,0.46812,11.211,-0.047826,-1.1407,10.883,1.4297,-0.47658,-1.9929,1.9063,-4.9676e-08,-0.99645,0,0,0.083333,-2.9606e-16,0,0.66667
0.72548,0.45783,8.7057,-0.063254,-5.7161,162.43,1.4685,-0.48948,-1.9817,1.9579,2.8088e-12,-0.99084,0,0,0.083333,-7.8949e-16,0,0.66667
0.5866,0.51537,7.0392,0.023059,2.8904,346.52,-0.43283,0.14428,-1.9937,-0.57711,-1.6264e-12,-0.99686,0,0,0.083333,-0,-0,0.66667
0.8653,0.82494,10.384,0.48742,23.35,43.316,-13.496,4.4988,-1.1516,-17.995,1.0879e-08,-0.57579,0,0,0.083333,-0,-0,0.66667
0.99657,0.72698,11.959,0.34047,0.29009,0.70167,-10.858,3.6192,-1.5874,-14.477,2.7214e-06,-0.79372,0,0,0.083333,-0,-6.8441e-18,0.66667
0.86511,0.50145,10.381,0.0021719,0.10365,42.331,-0.060127,0.020042,-1.9977,-0.080169,8.3116e-09,-0.99887,0,0,0.083333,-0,-0,0.66667
0.17918,0.052346,2.1502,-0.67148,-124.71,1142,3.8502,-1.2834,-0.39263,5.1336,6.682e-09,-0.19632,0,0,0.083333,1.9737e-16,0,0.66667
0.69466,0.17494,8.336,-0.48758,-48.277,199.01,10.839,-3.6129,-1.1504,14.451,3.6762e-12,-0.57519,0,0,0.083333,-7.8949e-16,0,0.66667
0.29623,0.45335,3.5548,-0.069972,-12.215,885.42,0.66329,-0.2211,-1.988,0.88439,5.2298e-12,-0.99399,0,0,0.083333,-3.9475e-16,0,0.66667
0.059534,0.045189,0.7144,-0.68222,-130.45,1415.1,1.2997,-0.43324,-0.34524,1.7329,-1.5077e-05,-0.17262,0,0,0.083333,-0,-0,0.66667
0.10804,0.69653,1.2965,0.29479,55.794,1303.2,-1.0192,0.33974,-1.6949,-1.359,-2.976e-08,-0.84745,0,0,0.083333,-0,-0,0.66667
0.76279,0.29964,9.1535,-0.30054,-23.981,123.79,7.3359,-2.4453,-1.6792,9.7812,1.0053e-11,-0.8396,0,0,0.083333,-0,-0,0.66667
