xi,eta,X,Y,uX,uY,epsilon_X,epsilon_Y,gamma_XY,sigma_XX,sigma_YY,sigma_XY,fx,fy,dxidx,dxidy,detadx,detady,
0.41702,0.7655,3.7532,0.39825,35.364,273.85,-3.9859,1.3286,-1.4343,-5.3145,3.5905e-13,-0.71714,0,0,0.11111,-5.2633e-16,0,0.66667
0.72032,0.30817,6.4829,-0.28774,-14.809,72.745,4.9744,-1.6581,-1.7079,6.6325,8.562e-12,-0.85397,0,0,0.11111,1.3158e-15,0,0.66667
0.00011437,0.73538,0.0010294,0.35307,37.971,660.64,-0.00096878,0.00032209,-1.5604,-0.0012921,-1.2559e-06,-0.78021,0,0,0.11111,-0,-0,0.66667
0.30233,0.8122,2.721,0.4683,45.787,372.25,-3.398,1.1327,-1.2197,-4.5306,-2.7844e-13,-0.60987,0,0,0.11111,-4.9343e-17,0,0.66667
0.14676,0.23669,1.3208,-0.39496,-41.57,517.35,1.3911,-0.4637,-1.4429,1.8548,2.8845e-09,-0.72147,0,0,0.11111,2.6316e-16,0,0.66667
0.092339,0.062824,0.83105,-0.65576,-70.129,570.23,1.4533,-0.48442,-0.47431,1.9377,4.7646e-07,-0.23716,0,0,0.11111,-2.6316e-16,0,0.66667
0.18626,0.62204,1.6763,0.18307,18.985,479.45,-0.81835,0.27278,-1.8839,-1.0911,-1.5462e-10,-0.94193,0,0,0.11111,-2.6316e-16,0,0.66667
0.34556,0.94394,3.11,0.66591,63.248,334.44,-5.5227,1.8409,-0.42507,-7.3636,-5.9064e-14,-0.21253,0,0,0.11111,-0,-0,0.66667
0.39677,0.34766,3.5709,-0.22851,-20.673,290.35,2.176,-0.72532,-1.8128,2.9013,6.1728e-13,-0.90642,0,0,0.11111,-0,-0,0.66667
0.53882,0.43363,4.8494,-0.099561,-7.5738,180.86,1.2875,-0.42916,-1.963,1.7166,1.0976e-12,-0.98148,0,0,0.11111,-5.2633e-16,0,0.66667
0.41919,0.27723,3.7728,-0.33416,-29.591,272,3.3619,-1.1206,-1.604,4.4825,4.6341e-13,-0.802,0,0,0.11111,-0,-0,0.66667
0.68522,0.69207,6.167,0.28811,16.363,90.447,-4.7381,1.5794,-1.7063,-6.3174,-3.435e-12,-0.85313,0,0,0.11111,-0,-0,0.66667
0.20445,0.18359,1.8401,-0.47461,-48.949,462.37,2.3288,-0.77628,-1.2018,3.1051,-8.0395e-11,-0.60092,0,0,0.11111,-2.6316e-16,0,0.66667
0.87812,0.73211,7.9031,0.34817,8.4482,15.832,-7.3376,2.4459,-1.5686,-9.7835,1.1125e-08,-0.78432,0,0,0.11111,-0,-0,0.66667
0.027388,0.7503,0.24649,0.37544,40.353,633.8,-0.24678,0.08226,-1.4994,-0.32904,8.3011e-07,-0.74969,0,0,0.11111,-0,-0,0.66667
0.67047,0.45507,6.0342,-0.067393,-3.9676,98.171,1.0844,-0.36148,-1.9855,1.4459,2.4801e-12,-0.99277,0,0,0.11111,-1.8466e-15,0,0.66667
0.4173,0.75403,3.7557,0.38104,33.821,273.6,-3.8163,1.2721,-1.4831,-5.0883,6.7657e-13,-0.74153,0,0,0.11111,-0,-0,0.66667
0.55869,0.15501,5.0282,-0.51748,-38.285,167.68,6.9387,-2.3129,-1.0483,9.2516,6.3989e-12,-0.52414,0,0,0.11111,-1.4474e-15,0,0.66667
0.14039,0.66052,1.2635,0.24078,25.366,523.43,-0.81125,0.27042,-1.7982,-1.0817,-4.4587e-09,-0.8991,0,0,0.11111,-0,-0,0.66667
0.1981,0.29391,1.7829,-0.30913,-31.926,468.26,1.4698,-0.48992,-1.6584,1.9597,1.013e-10,-0.82918,0,0,0.11111,-0,-0,0.66667
0.80074,0.44476,7.2067,-0.082854,-3.163,38.59,1.5923,-0.53076,-1.975,2.123,-1.2202e-10,-0.9875,0,0,0.11111,-0,-0,0.66667
0.96826,0.8319,8.7144,0.49785,3.1964,2.3334,-11.569,3.8564,-1.1219,-15.425,-9.5372e-07,-0.56094,0,0,0.11111,1.0527e-15,0,0.66667
0.31342,0.90051,2.8208,0.60077,58.384,362.53,-4.5191,1.5064,-0.71976,-6.0254,1.1031e-12,-0.35988,0,0,0.11111,-5.2633e-16,0,0.66667
0.69232,0.31828,6.2309,-0.27258,-15.191,86.706,4.5292,-1.5097,-1.7347,6.0389,2.9159e-12,-0.86735,0,0,0.11111,-0,-0,0.66667
0.87639,0.17908,7.8875,-0.48138,-11.893,16.628,10.125,-3.375,-1.1781,13.5,-4.5875e-09,-0.58907,0,0,0.11111,-0,-0,0.66667
0.89461,0.45874,8.0515,-0.061888,-1.2988,11.775,1.3288,-0.44292,-1.9854,1.7717,7.3262e-09,-0.99271,0,0,0.11111,1.0527e-15,0,0.66667
0.085044,0.67898,0.7654,0.26847,28.649,577.23,-0.54797,0.18266,-1.7414,-0.73062,-3.8984e-08,-0.8707,0,0,0.11111,1.3158e-16,0,0.66667
0.039055,0.41442,0.35149,-0.12837,-13.77,622.31,0.12032,-0.040107,-1.939,0.16043,-7.5839e-08,-0.96952,0,0,0.11111,-0,-0,0.66667
0.16983,0.056519,1.5285,-0.66522,-69.689,495.4,2.7114,-0.9038,-0.42808,3.6152,-1.2267e-08,-0.21404,0,0,0.11111,1.0056e-16,-8.1451e-17,0.66667
0.87814,0.85403,7.9033,0.53104,12.971,16.391,-11.192,3.7306,-0.99711,-14.923,-3.9108e-10,-0.49855,0,0,0.11111,-0,-0,0.66667
0.098347,0.88562,0.88512,0.57843,61.73,564.34,-1.3653,0.4551,-0.80889,-1.8204,-3.2219e-08,-0.40445,0,0,0.11111,-0,-0,0.66667
0.42111,0.88824,3.79,0.58236,51.606,270.83,-5.8856,1.9619,-0.7968,-7.8475,-2.3372e-12,-0.3984,0,0,0.11111,-0,1.2851e-16,0.66667
0.95789,0.4772,8.621,-0.034205,-0.28467,2.2408,0.78635,-0.26212,-1.9944,1.0485,-7.772e-08,-0.99722,0,0,0.11111,-0,-0,0.66667
0.53317,0.77997,4.7985,0.41995,32.294,185.2,-5.3737,1.7912,-1.3754,-7.1649,-2.5073e-12,-0.68769,0,0,0.11111,1.9737e-16,0,0.66667
0.69188,0.39922,6.2269,-0.15117,-8.4265,86.795,2.5102,-0.83673,-1.9178,3.3469,2.4272e-12,-0.95889,0,0,0.11111,-1.0527e-15,0,0.66667
0.31552,0.26626,2.8396,-0.35062,-33.937,360.38,2.655,-0.885,-1.5626,3.54,-2.0017e-12,-0.78131,0,0,0.11111,-0,-0,0.66667
0.6865,0.27109,6.1785,-0.34337,-19.449,89.868,5.6574,-1.8858,-1.5832,7.5432,2.6854e-12,-0.79162,0,0,0.11111,-0,-0,0.66667
0.83463,0.64719,7.5116,0.22078,7.1168,27.389,-4.4225,1.4742,-1.8244,-5.8967,1.1079e-09,-0.9122,0,0,0.11111,-0,-0,0.66667
0.018288,0.040255,0.16459,-0.68962,-74.392,642.78,0.30268,-0.1009,-0.30944,0.40357,-7.9807e-06,-0.15472,0,0,0.11111,-3.2895e-17,0,0.66667
0.75014,0.38441,6.7513,-0.17338,-8.0924,58.902,3.1214,-1.0405,-1.897,4.1619,1.861e-11,-0.94849,0,0,0.11111,-0,-0,0.66667
0.98886,0.68293,8.8997,0.27439,0.51787,0.55992,-6.512,2.1707,-1.7316,-8.6827,1.9986e-07,-0.86579,0,0,0.11111,-5.2633e-16,0,0.66667
0.74817,0.69364,6.7335,0.29045,13.666,59.933,-5.2154,1.7385,-1.7018,-6.9539,-2.1503e-11,-0.85088,0,0,0.11111,-0,-0,0.66667
0.28044,0.87009,2.524,0.55513,55.092,392.07,-3.7364,1.2455,-0.90763,-4.9818,-1.1177e-11,-0.45381,0,0,0.11111,4.2922e-16,-7.2997e-17,0.66667
0.78928,0.78155,7.1035,0.42232,17.029,43.378,-7.9999,2.6666,-1.3647,-10.667,-5.9353e-11,-0.68237,0,0,0.11111,-2.1053e-15,0,0.66667
0.10323,0.17645,0.92903,-0.48532,-51.692,559.55,1.2024,-0.40078,-1.1602,1.6031,3.6404e-08,-0.5801,0,0,0.11111,-1.3158e-16,0,0.66667
0.44789,0.24052,4.031,-0.38921,-33.437,249.07,4.1838,-1.3946,-1.4596,5.5784,2.0588e-12,-0.7298,0,0,0.11111,-5.2633e-16,0,0.66667
0.9086,0.94322,8.1774,0.66483,12.443,10.645,-14.498,4.8325,-0.42957,-19.33,1.3941e-07,-0.21479,0,0,0.11111,-0,-0,0.66667
0.29361,0.66536,2.6425,0.24804,24.351,379.89,-1.7479,0.58264,-1.781,-2.3305,3.9612e-12,-0.8905,0,0,0.11111,-0,-0,0.66667
0.28778,0.26459,2.59,-0.35312,-34.818,385.23,2.4389,-0.81295,-1.5541,3.2518,-9.1072e-12,-0.77703,0,0,0.11111,-0,-0,0.66667
0.13003,0.17012,1.1703,-0.49481,-52.373,533.54,1.5442,-0.51472,-1.1275,2.0589,7.5714e-09,-0.56377,0,0,0.11111,-2.6316e-16,0,0.66667
0.019367,0.14803,0.1743,-0.52795,-56.842,641.7,0.24539,-0.081799,-1.0084,0.32719,-2.5532e-06,-0.50418,0,0,0.11111,-0,-0,0.66667
0.67884,0.90997,6.1095,0.61495,35.692,94.647,-10.019,3.3396,-0.65371,-13.358,1.4033e-13,-0.32685,0,0,0.11111,-0,-0,0.66667
0.21163,0.77616,1.9047,0.41424,42.566,455.57,-2.104,0.70132,-1.3879,-2.8053,5.982e-11,-0.69397,0,0,0.11111,1.2531e-16,0,0.66667
0.26555,0.28807,2.3899,-0.3179,-31.76,405.43,2.026,-0.67533,-1.6449,2.7013,-1.2133e-11,-0.82246,0,0,0.11111,-0,-0,0.66667
0.49157,0.74725,4.4242,0.37088,30.212,215.43,-4.3755,1.4585,-1.5094,-5.834,2.0162e-13,-0.75468,0,0,0.11111,-6.5791e-16,0,0.66667
0.053363,0.86256,0.48026,0.54385,58.418,608.31,-0.6965,0.23217,-0.94587,-0.92867,-9.4415e-08,-0.47293,0,0,0.11111,-1.2898e-16,0,0.66667
0.57412,0.61368,5.1671,0.17051,12.251,156.77,-2.3495,0.78316,-1.8955,-3.1326,2.2051e-12,-0.94777,0,0,0.11111,-5.2633e-16,0,0.66667
0.14673,0.9395,1.3206,0.65924,69.578,517.54,-2.3215,0.77384,-0.45359,-3.0954,-2.1315e-08,-0.2268,0,0,0.11111,5.2633e-16,0,0.66667
0.58931,0.60561,5.3037,0.15841,11.079,146.8,-2.2405,0.74683,-1.9093,-2.9873,3.5536e-12,-0.95467,0,0,0.11111,-0,-0,0.66667
0.69976,0.10229,6.2978,-0.59657,-32.753,83.676,10.019,-3.3396,-0.73432,13.359,2.6024e-12,-0.36716,0,0,0.11111,-0,-0,0.66667
0.10233,0.98938,0.92101,0.73408,78.432,560.54,-1.8029,0.60097,-0.081499,-2.4039,-1.0363e-07,-0.040749,0,0,0.11111,1.3158e-16,0,0.66667
0.41406,0.98682,3.7265,0.73022,65.321,276.89,-7.2565,2.4188,-0.10136,-9.6753,2.9918e-12,-0.05068,0,0,0.11111,5.2633e-16,0,0.66667
0.6944,0.90075,6.2496,0.60113,33.492,86.429,-10.018,3.3394,-0.71323,-13.358,-1.5454e-12,-0.35661,0,0,0.11111,-0,-0,0.66667
0.41418,0.73179,3.7276,0.34769,30.95,276.11,-3.4561,1.152,-1.5675,-4.6082,-4.3112e-12,-0.78373,0,0,0.11111,1.0527e-15,0,0.66667
0.049953,0.96362,0.44958,0.69543,74.862,611.69,-0.83374,0.27791,-0.28087,-1.1117,-5.1898e-07,-0.14043,0,0,0.11111,-9.8686e-17,0,0.66667
0.5359,0.99431,4.8231,0.74146,57.071,184.07,-9.5364,3.1788,-0.044271,-12.715,2.0259e-12,-0.022135,0,0,0.11111,-7.8949e-16,0,0.66667
0.66379,0.020758,5.9742,-0.71886,-43.394,103.21,11.452,-3.8174,-0.16004,15.27,1.5818e-12,-0.080022,0,0,0.11111,-0,-0,0.66667
0.51489,0.16433,4.634,-0.50351,-39.801,198.46,6.222,-2.074,-1.1016,8.296,2.236e-12,-0.55082,0,0,0.11111,-0,-0,0.66667
0.94459,0.88471,8.5014,0.57707,6.5774,4.8933,-13.082,4.3608,-0.8135,-17.443,-3.9862e-07,-0.40675,0,0,0.11111,-2.1053e-15,0,0.66667
0.58656,0.11667,5.279,-0.575,-40.597,149.3,8.0945,-2.6982,-0.82208,10.793,-3.908e-14,-0.41104,0,0,0.11111,-0,-0,0.66667
0.9034,0.45466,8.1306,-0.068006,-1.3111,10.026,1.4745,-0.4915,-1.9835,1.966,-7.2416e-09,-0.99173,0,0,0.11111,-0,-0,0.66667
0.13747,0.83135,1.2373,0.49702,52.501,526.35,-1.6399,0.54662,-1.1213,-2.1865,-7.5931e-09,-0.56066,0,0,0.11111,-1.3158e-16,0,0.66667
0.13928,0.69424,1.2535,0.29136,30.712,524.52,-0.97391,0.32464,-1.7005,-1.2986,-5.2286e-09,-0.85023,0,0,0.11111,-0,-0,0.66667
0.80739,0.69526,7.2665,0.29288,10.867,36.477,-5.6753,1.8918,-1.6935,-7.5671,1.7221e-10,-0.84673,0,0,0.11111,-0,-0,0.66667
0.39768,0.57866,3.5791,0.11799,10.661,289.54,-1.1261,0.37537,-1.9478,-1.5015,-2.3244e-12,-0.9739,0,0,0.11111,5.2633e-16,0,0.66667
0.16535,0.083831,1.4882,-0.62425,-65.464,499.64,2.4774,-0.82578,-0.61207,3.3031,7.2974e-10,-0.30603,0,0,0.11111,-0,-0,0.66667
0.92751,0.26774,8.3476,-0.34839,-5.0981,6.359,7.7553,-2.5851,-1.5662,10.34,-8.9141e-08,-0.78311,0,0,0.11111,-0,-0,0.66667
0.34777,0.76325,3.1299,0.39487,37.322,332.13,-3.2958,1.0986,-1.4444,-4.3944,1.1395e-12,-0.72221,0,0,0.11111,-5.2633e-16,0,0.66667
0.75081,0.874,6.7573,0.56101,26.289,59.465,-10.109,3.3697,-0.88499,-13.479,7.9801e-11,-0.4425,0,0,0.11111,1.0527e-15,0,0.66667
0.726,0.49922,6.534,-0.0011652,-0.058835,69.803,0.020303,-0.0067677,-1.9988,0.027071,-5.2884e-13,-0.9994,0,0,0.11111,1.579e-15,0,0.66667
0.88331,0.57864,7.9498,0.11796,2.7327,14.258,-2.5007,0.83356,-1.9478,-3.3343,5.932e-09,-0.97389,0,0,0.11111,-1.0527e-15,0,0.66667
0.62367,0.62708,5.613,0.19062,12.476,125.28,-2.8533,0.9511,-1.8739,-3.8044,-1.3303e-12,-0.93693,0,0,0.11111,2.1053e-15,0,0.66667
0.75094,0.38512,6.7585,-0.17233,-8.0209,58.552,3.1058,-1.0353,-1.897,4.141,1.8705e-11,-0.94848,0,0,0.11111,-0,-0,0.66667
0.3489,0.51957,3.1401,0.029352,2.7671,330.93,-0.24578,0.081928,-1.995,-0.32771,-1.0304e-12,-0.99752,0,0,0.11111,-0,-0,0.66667
0.26993,0.39182,2.4294,-0.16228,-16.159,401.34,1.0513,-0.35042,-1.9049,1.4017,-4.3786e-12,-0.95247,0,0,0.11111,-5.2633e-16,0,0.66667
0.89589,0.25282,8.063,-0.37077,-7.7406,11.991,7.9721,-2.6574,-1.5103,10.629,-2.8134e-08,-0.75515,0,0,0.11111,2.1053e-15,0,0.66667
0.42809,0.5703,3.8528,0.10546,9.2418,264.62,-1.0835,0.36116,-1.9584,-1.4446,3.1183e-12,-0.9792,0,0,0.11111,-1.0527e-15,0,0.66667
0.96484,0.92833,8.6836,0.64249,4.6939,3.229,-14.878,4.9592,-0.53147,-19.837,1.9154e-06,-0.26573,0,0,0.11111,-0,-0,0.66667
0.66344,0.16741,5.971,-0.49889,-30.002,102.7,7.9436,-2.6479,-1.1125,10.591,5.3202e-13,-0.55624,0,0,0.11111,1.0527e-15,0,0.66667
0.6217,0.76088,5.5953,0.39132,25.762,126.77,-5.8388,1.9463,-1.4551,-7.7851,1.4433e-13,-0.72755,0,0,0.11111,-0,-0,0.66667
0.11475,0.42252,1.0327,-0.11621,-12.32,548.25,0.32004,-0.10668,-1.9499,0.42672,6.518e-09,-0.97493,0,0,0.11111,-0,-0,0.66667
0.94949,0.59068,8.5454,0.13602,1.3698,3.1525,-3.0996,1.0332,-1.9344,-4.1328,-4.6378e-08,-0.96722,0,0,0.11111,-0,-0,0.66667
0.44991,0.59821,4.0492,0.14731,12.607,247.25,-1.5907,0.53023,-1.9232,-2.1209,-1.2312e-12,-0.96161,0,0,0.11111,-0,-0,0.66667
0.57839,0.016081,5.2055,-0.72588,-52.142,155.09,10.076,-3.3587,-0.12997,13.435,1.9069e-12,-0.064983,0,0,0.11111,-0,-0,0.66667
0.40814,0.79667,3.6732,0.44501,39.887,281.19,-4.359,1.453,-1.2969,-5.812,5.7732e-13,-0.64846,0,0,0.11111,-0,-0,0.66667
0.23703,0.047652,2.1332,-0.67852,-69.092,432.09,3.8599,-1.2866,-0.36316,5.1465,-1.9928e-11,-0.18158,0,0,0.11111,-0,-0,0.66667
0.90338,0.069426,8.1304,-0.64586,-12.731,11.521,14.003,-4.6677,-0.51725,18.671,-1.5424e-08,-0.25862,0,0,0.11111,-0,9.7261e-17,0.66667
0.57368,0.45803,5.1631,-0.062959,-4.5253,157,0.86683,-0.28894,-1.9845,1.1558,1.064e-12,-0.99227,0,0,0.11111,-5.2633e-16,0,0.66667
0.0028703,0.76336,0.025833,0.39504,42.497,657.92,-0.027213,0.0090702,-1.445,-0.036285,-1.309e-06,-0.72252,0,0,0.11111,4.1119e-18,0,0.66667
0.61714,0.86404,5.5543,0.54606,36.363,129.91,-8.088,2.696,-0.93718,-10.784,-1.3953e-12,-0.46859,0,0,0.11111,-0,-0,0.66667
0.32664,0.70793,2.9398,0.31189,29.94,350.51,-2.4451,0.81502,-1.6559,-3.2601,-5.0049e-13,-0.82793,0,0,0.11111,5.2633e-16,0,0.66667
0.52706,0.94802,4.7435,0.67203,52.34,190.12,-8.5007,2.8336,-0.39308,-11.334,-1.2896e-12,-0.19654,0,0,0.11111,1.0527e-15,0,0.66667
0.88594,0.046994,7.9735,-0.67951,-15.715,15.255,14.448,-4.816,-0.35657,19.264,9.2993e-09,-0.17829,0,0,0.11111,-0,-0,0.66667
0.35727,0.87399,3.2154,0.56098,52.709,324.15,-4.8101,1.6034,-0.8833,-6.4135,3.9058e-12,-0.44165,0,0,0.11111,7.8949e-16,-1.232e-16,0.66667
0.90854,0.80798,8.1768,0.46198,8.5424,9.8254,-10.073,3.3578,-1.2426,-13.431,2.6555e-08,-0.62128,0,0,0.11111,5.2633e-16,0,0.66667
0.62336,0.040489,5.6102,-0.68927,-45.452,126.56,10.312,-3.4373,-0.31243,13.749,1.8536e-12,-0.15621,0,0,0.11111,-0,-0,0.66667
0.015821,0.82076,0.14239,0.48114,51.785,645.19,-0.18269,0.060898,-1.1808,-0.24359,5.4843e-07,-0.59039,0,0,0.11111,-0,-0,0.66667
0.92944,0.52135,8.3649,0.032029,0.4523,5.6293,-0.71445,0.23815,-1.9938,-0.9526,2.9836e-08,-0.99691,0,0,0.11111,-0,-0,0.66667
0.6909,0.64605,6.2181,0.21908,12.25,87.374,-3.6327,1.2109,-1.8289,-4.8436,-3.4306e-12,-0.91445,0,0,0.11111,1.0527e-15,0,0.66667
0.99732,0.52553,8.9759,0.038299,-0.00016225,0.047001,-0.91672,0.30557,-1.9956,-1.2223,1.5301e-06,-0.99778,0,0,0.11111,1.0527e-15,0,0.66667
0.17234,0.77014,1.5511,0.40521,42.296,492.81,-1.676,0.55868,-1.4194,-2.2347,-6.1308e-10,-0.7097,0,0,0.11111,2.6316e-16,0,0.66667
0.13714,0.44245,1.2342,-0.086328,-9.0984,526.54,0.28413,-0.094709,-1.9736,0.37884,4.8327e-09,-0.98678,0,0,0.11111,-0,-0,0.66667
0.9326,0.1066,8.3934,-0.5901,-8.1708,6.4753,13.208,-4.4026,-0.7601,17.61,-1.8821e-07,-0.38005,0,0,0.11111,-0,-0,0.66667
0.69682,0.7649,6.2714,0.39735,21.91,84.622,-6.6451,2.215,-1.4361,-8.8601,-3.6446e-12,-0.71806,0,0,0.11111,-0,-0,0.66667
0.066,0.68562,0.594,0.27842,29.799,595.87,-0.44103,0.14701,-1.7249,-0.58803,-4.6399e-08,-0.86247,0,0,0.11111,-4.9343e-17,0,0.66667
0.75546,0.78652,6.7992,0.42977,19.757,57.062,-7.7923,2.5974,-1.3418,-10.39,-3.3965e-11,-0.67092,0,0,0.11111,2.1053e-15,0,0.66667
0.75388,0.82434,6.7849,0.48651,22.517,57.902,-8.8025,2.9342,-1.1574,-11.737,-1.927e-11,-0.57871,0,0,0.11111,-0,-0,0.66667
0.92302,0.66459,8.3072,0.24688,3.8184,6.8179,-5.4691,1.823,-1.7857,-7.2921,4.3372e-08,-0.89284,0,0,0.11111,-0,-0,0.66667
0.71152,0.45153,6.4037,-0.072711,-3.8352,76.803,1.2417,-0.41389,-1.9785,1.6555,1.9097e-12,-0.98925,0,0,0.11111,-0,-0,0.66667
0.12427,0.41282,1.1184,-0.13077,-13.831,539,0.39001,-0.13,-1.9424,0.52002,8.0944e-09,-0.97121,0,0,0.11111,-0,-0,0.66667
0.01988,0.41813,0.17892,-0.12281,-13.189,641.18,0.058596,-0.019532,-1.9451,0.078127,-8.8384e-08,-0.97254,0,0,0.11111,3.2895e-17,0,0.66667
0.026211,0.61218,0.2359,0.16828,18.068,634.95,-0.10586,0.035286,-1.8974,-0.14114,1.2401e-07,-0.94872,0,0,0.11111,-0,-0,0.66667
0.028306,0.29358,0.25476,-0.30963,-33.263,632.89,0.21035,-0.070116,-1.659,0.28046,-4.9257e-07,-0.8295,0,0,0.11111,-0,-0,0.66667
0.24621,0.89366,2.2159,0.59049,59.776,423.47,-3.4893,1.1631,-0.75928,-4.6524,5.1534e-11,-0.37964,0,0,0.11111,-0,-0,0.66667
0.86003,0.69778,7.7403,0.29667,8.1958,20.242,-6.1235,2.0412,-1.69,-8.1647,5.0282e-09,-0.84502,0,0,0.11111,-0,-0,0.66667
0.53883,0.42705,4.8495,-0.10943,-8.3244,180.85,1.4151,-0.47171,-1.9549,1.8868,-9.6712e-13,-0.97743,0,0,0.11111,5.2633e-16,0,0.66667
0.55282,0.46517,4.9754,-0.052249,-3.888,171.1,0.69322,-0.23107,-1.9889,0.92429,3.4083e-12,-0.99446,0,0,0.11111,-1.0527e-15,0,0.66667
0.84203,0.49463,7.5783,-0.008057,-0.2485,24.993,0.16282,-0.054274,-2.0017,0.2171,7.6875e-10,-1.0009,0,0,0.11111,-1.579e-15,0,0.66667
0.12417,0.052057,1.1176,-0.67191,-71.37,539.31,2.0024,-0.66747,-0.39747,2.6699,7.3334e-08,-0.19873,0,0,0.11111,1.3158e-16,0,0.66667
0.27918,0.28218,2.5127,-0.32673,-32.383,392.99,2.1893,-0.72975,-1.6227,2.919,-8.1215e-12,-0.81137,0,0,0.11111,-0,-0,0.66667
0.58576,0.087677,5.2718,-0.61848,-43.762,149.94,8.6948,-2.8983,-0.63779,11.593,1.3216e-12,-0.3189,0,0,0.11111,-5.2633e-16,0,0.66667
0.9696,0.42581,8.7264,-0.11128,-0.65623,1.3251,2.5896,-0.8632,-1.9586,3.4528,2.3576e-07,-0.97928,0,0,0.11111,-1.0527e-15,0,0.66667
0.56103,0.82255,5.0493,0.48383,35.642,166.01,-6.5147,2.1716,-1.1695,-8.6862,1.6964e-13,-0.58473,0,0,0.11111,-0,-0,0.66667
0.018647,0.95834,0.16783,0.68752,74.162,642.42,-0.30768,0.10257,-0.31923,-0.41024,1.1207e-05,-0.15961,0,0,0.11111,-0,-0,0.66667
0.80063,0.53649,7.2057,0.054737,2.0904,38.618,-1.0518,0.35059,-1.9891,-1.4024,-8.1677e-11,-0.99456,0,0,0.11111,2.1053e-15,0,0.66667
0.23297,0.36165,2.0968,-0.20753,-21.085,435.47,1.1604,-0.38679,-1.8486,1.5472,-1.8865e-11,-0.92429,0,0,0.11111,2.6316e-16,0,0.66667
0.80711,0.7965,7.2639,0.44475,16.575,36.939,-8.615,2.8717,-1.2946,-11.487,2.8891e-11,-0.64729,0,0,0.11111,-0,-0,0.66667
0.38786,0.95404,3.4907,0.68106,62.419,298.43,-6.3397,2.1132,-0.35079,-8.453,-2.1436e-12,-0.17539,0,0,0.11111,-0,-1.3113e-16,0.66667
0.86354,0.49395,7.7719,-0.0090723,-0.24386,19.016,0.18802,-0.062674,-1.999,0.2507,-7.4559e-09,-0.99951,0,0,0.11111,-1.579e-15,0,0.66667
0.74712,0.21536,6.7241,-0.42696,-20.204,60.686,7.6558,-2.5519,-1.3528,10.208,1.996e-11,-0.67638,0,0,0.11111,4.8436e-16,0,0.66667
0.55624,0.57963,5.0062,0.11945,8.841,168.79,-1.5946,0.53153,-1.9468,-2.1261,1.4205e-12,-0.97339,0,0,0.11111,-0,-0,0.66667
0.13646,0.13934,1.2281,-0.54099,-57.188,527.36,1.7717,-0.59057,-0.95806,2.3623,2.485e-09,-0.47903,0,0,0.11111,2.6316e-16,0,0.66667
0.059918,0.79638,0.53926,0.44457,47.673,601.86,-0.6393,0.2131,-1.2975,-0.8524,-9.202e-08,-0.64873,0,0,0.11111,1.3158e-16,0,0.66667
0.12134,0.67439,1.0921,0.26159,27.702,541.87,-0.76182,0.25394,-1.7558,-1.0158,-1.1388e-08,-0.87792,0,0,0.11111,-1.3158e-16,0,0.66667
0.044552,0.78309,0.40097,0.42464,45.601,616.94,-0.45404,0.15135,-1.3607,-0.60539,-1.9634e-07,-0.68035,0,0,0.11111,-1.3158e-16,0,0.66667
0.10749,0.66305,0.96745,0.24457,25.981,555.32,-0.63096,0.21032,-1.7889,-0.84128,-1.9248e-08,-0.89445,0,0,0.11111,-0,-0,0.66667
0.22571,0.069303,2.0314,-0.64604,-66.121,442.58,3.4996,-1.1665,-0.51386,4.6662,-4.4638e-11,-0.25693,0,0,0.11111,-5.2633e-16,0,0.66667
0.71299,0.38368,6.4169,-0.17448,-9.1681,76.155,2.9856,-0.99521,-1.8898,3.9808,5.8058e-12,-0.94489,0,0,0.11111,-0,-0,0.66667
0.55972,0.083583,5.0375,-0.62462,-46.214,167.26,8.3907,-2.7969,-0.61295,11.188,3.1353e-12,-0.30648,0,0,0.11111,-0,-1.7542e-16,0.66667
0.012556,0.90984,0.113,0.61475,66.265,648.4,-0.18525,0.061739,-0.65694,-0.247,-1.5388e-05,-0.32847,0,0,0.11111,-3.2895e-17,-1.5658e-16,0.66667
0.071974,0.96087,0.64777,0.69131,74.214,590.13,-1.1942,0.39805,-0.29871,-1.5922,-3.7668e-06,-0.14935,0,0,0.11111,-0,-0,0.66667
0.96728,0.87002,8.7055,0.55503,3.7124,2.6387,-12.885,4.2949,-0.90707,-17.18,-8.3881e-07,-0.45353,0,0,0.11111,-0,-0,0.66667
0.5681,0.29118,5.1129,-0.31323,-22.76,160.94,4.2707,-1.4236,-1.6491,5.6943,2.2258e-12,-0.82457,0,0,0.11111,-0,-0,0.66667
0.20329,0.30427,1.8296,-0.29359,-30.253,463.35,1.4325,-0.47749,-1.6974,1.9099,5.3758e-11,-0.84872,0,0,0.11111,1.3158e-16,0,0.66667
0.25233,0.6315,2.2709,0.19724,19.839,417.52,-1.1945,0.39816,-1.8627,-1.5926,1.988e-11,-0.93137,0,0,0.11111,-0,-0,0.66667
0.74383,0.86372,6.6944,0.54558,26.172,62.493,-9.7396,3.2465,-0.93932,-12.986,-2.9918e-11,-0.46966,0,0,0.11111,-0,-0,0.66667
0.19543,0.70603,1.7589,0.30905,31.953,470.79,-1.4495,0.48318,-1.6577,-1.9327,-1.2924e-10,-0.82885,0,0,0.11111,-0,-0,0.66667
0.58136,0.27133,5.2322,-0.34301,-24.367,152.19,4.7859,-1.5953,-1.5814,6.3812,1.3407e-12,-0.79069,0,0,0.11111,-0,-0,0.66667
0.97002,0.50071,8.7302,0.0010632,0.0061604,1.2471,-0.024752,0.0082477,-2.0034,-0.033004,-4.4305e-06,-1.0017,0,0,0.11111,-0,-0,0.66667
0.84683,0.79527,7.6215,0.4429,13.363,24.257,-9.0014,3.0005,-1.3022,-12.002,2.0034e-09,-0.65111,0,0,0.11111,-0,-0,0.66667
0.23985,0.60418,2.1586,0.15627,15.819,429.05,-0.89956,0.29985,-1.9112,-1.1994,1.9108e-11,-0.95559,0,0,0.11111,-0,-0,0.66667
0.49377,0.38588,4.4439,-0.17118,-13.885,213.57,2.0286,-0.67618,-1.8935,2.7047,1.3323e-14,-0.94674,0,0,0.11111,-0,-0,0.66667
0.61996,0.74546,5.5796,0.36819,24.318,127.79,-5.4783,1.8261,-1.5169,-7.3044,-2.8422e-13,-0.75846,0,0,0.11111,5.2633e-16,0,0.66667
0.82898,0.13694,7.4608,-0.54459,-18.247,29.972,10.835,-3.6117,-0.94804,14.447,2.131e-10,-0.47402,0,0,0.11111,-0,-0,0.66667
0.15679,0.99325,1.4111,0.73987,77.93,507.94,-2.7841,0.92804,-0.057162,-3.7122,4.225e-09,-0.028581,0,0,0.11111,2.6316e-16,0,0.66667
0.018576,0.083942,0.16719,-0.62409,-67.266,642.49,0.27823,-0.092747,-0.61517,0.37097,-3.9296e-06,-0.30759,0,0,0.11111,1.6448e-17,0,0.66667
0.070022,0.79263,0.6302,0.43894,47.005,591.96,-0.73765,0.24588,-1.3123,-0.98353,-1.3814e-07,-0.65617,0,0,0.11111,-1.3158e-16,0,0.66667
0.48635,0.22987,4.3771,-0.4052,-33.243,219.41,4.7296,-1.5765,-1.4173,6.3062,2.327e-13,-0.70864,0,0,0.11111,1.0527e-15,0,0.66667
0.60633,0.37903,5.457,-0.18145,-12.292,135.97,2.6404,-0.88014,-1.8836,3.5205,3.0911e-12,-0.94178,0,0,0.11111,-2.1053e-15,0,0.66667
0.56885,0.14636,5.1197,-0.53046,-38.596,160.85,7.242,-2.414,-0.99722,9.656,2.4936e-12,-0.49861,0,0,0.11111,5.2633e-16,0,0.66667
0.31736,0.37352,2.8563,-0.18972,-18.322,358.63,1.445,-0.48167,-1.8716,1.9267,-4.9631e-12,-0.9358,0,0,0.11111,1.9737e-16,0,0.66667
0.98862,0.025421,8.8975,-0.71187,-1.6993,2.2745,16.89,-5.6302,-0.19753,22.52,-6.3252e-05,-0.098766,0,0,0.11111,-1.0527e-15,0,0.66667
0.57975,0.7844,5.2177,0.4266,30.419,153.4,-5.9356,1.9785,-1.3554,-7.9141,-1.1635e-12,-0.67771,0,0,0.11111,2.1053e-15,0,0.66667
0.38014,0.34034,3.4213,-0.2395,-22.002,304.29,2.185,-0.72834,-1.7951,2.9134,1.1575e-12,-0.89755,0,0,0.11111,-6.5791e-16,0,0.66667
0.55095,0.34642,4.9585,-0.23037,-17.206,172.51,3.0461,-1.0154,-1.8112,4.0615,1.9962e-13,-0.90561,0,0,0.11111,-0,-0,0.66667
0.74533,0.65726,6.708,0.23588,11.199,61.1,-4.2195,1.4065,-1.802,-5.626,-1.7318e-11,-0.90098,0,0,0.11111,-2.1053e-15,0,0.66667
0.66923,0.98039,6.0231,0.72058,42.936,100.23,-11.574,3.8579,-0.15407,-15.432,7.6916e-13,-0.077035,0,0,0.11111,-0,-0,0.66667
0.26492,0.49757,2.3843,-0.0036445,-0.36386,405.89,0.023172,-0.0077241,-2.0039,0.030896,6.0897e-12,-1.0019,0,0,0.11111,-5.9212e-16,0,0.66667
0.066335,0.40013,0.59701,-0.1498,-16.024,595.53,0.23849,-0.079497,-1.9198,0.31799,2.2927e-09,-0.95989,0,0,0.11111,9.8686e-17,0,0.66667
0.37008,0.11586,3.3308,-0.57621,-53.569,313.22,5.1179,-1.706,-0.81794,6.8238,-1.7599e-12,-0.40897,0,0,0.11111,-0,-0,0.66667
0.62972,0.21454,5.6675,-0.4282,-27.739,122,6.4714,-2.1571,-1.3473,8.6286,1.207e-12,-0.67363,0,0,0.11111,-0,-0,0.66667
0.21017,0.31647,1.8916,-0.2753,-28.28,456.85,1.3887,-0.46288,-1.7288,1.8515,1.0573e-11,-0.86439,0,0,0.11111,-5.2633e-16,0,0.66667
0.75276,0.78244,6.7748,0.42366,19.66,58.214,-7.6539,2.5513,-1.3633,-10.205,-3.5764e-11,-0.68164,0,0,0.11111,-2.1053e-15,0,0.66667
0.066536,0.79272,0.59883,0.43907,47.042,595.37,-0.70115,0.23372,-1.3134,-0.93486,-1.4023e-07,-0.65671,0,0,0.11111,1.3158e-16,0,0.66667
0.26032,0.77512,2.3428,0.41268,41.382,410.3,-2.5783,0.85942,-1.393,-3.4377,7.3133e-12,-0.6965,0,0,0.11111,-0,-0,0.66667
0.80475,0.67466,7.2428,0.262,9.8363,37.352,-5.0602,1.6867,-1.7532,-6.747,1.2003e-10,-0.87661,0,0,0.11111,1.0527e-15,0,0.66667
0.19343,0.05046,1.7409,-0.67431,-70.025,472.96,3.1304,-1.0435,-0.38101,4.1739,-6.745e-10,-0.19051,0,0,0.11111,-0,-0,0.66667
0.63946,0.055376,5.7551,-0.66694,-42.494,116.9,10.236,-3.4118,-0.42099,13.647,2.526e-12,-0.21049,0,0,0.11111,-1.0527e-15,-9.2633e-17,0.66667
0.52467,0.41447,4.722,-0.1283,-9.9691,190.91,1.6155,-0.53851,-1.9393,2.154,2.9745e-12,-0.96963,0,0,0.11111,-0,-0,0.66667
0.92481,0.049945,8.3233,-0.67508,-10.477,8.0023,14.984,-4.9946,-0.37947,19.978,-1.6992e-06,-0.18974,0,0,0.11111,-1.0527e-15,0,0.66667
0.2633,0.1957,2.3697,-0.45646,-45.712,407.6,2.8844,-0.96147,-1.2601,3.8459,-1.3511e-11,-0.63003,0,0,0.11111,-0,-0,0.66667
0.065961,0.014927,0.59365,-0.72761,-78.215,596.03,1.1519,-0.38395,-0.11692,1.5358,-2.3767e-07,-0.058461,0,0,0.11111,-0,-0,0.66667
0.73507,0.81244,6.6156,0.46866,23.1,66.223,-8.2678,2.7559,-1.2235,-11.024,-2.3401e-11,-0.61173,0,0,0.11111,1.4762e-15,0,0.66667
0.77218,0.33477,6.9496,-0.24785,-10.678,49.713,4.5932,-1.5311,-1.7793,6.1242,2.7165e-11,-0.88965,0,0,0.11111,1.0527e-15,0,0.66667
0.90782,0.26441,8.1703,-0.35339,-6.5519,9.6349,7.6995,-2.5665,-1.5574,10.266,-3.57e-08,-0.77871,0,0,0.11111,-0,-0,0.66667
0.93197,0.019914,8.3877,-0.72013,-10.189,7.1968,16.107,-5.3691,-0.15407,21.476,-9.914e-07,-0.077034,0,0,0.11111,-0,-0,0.66667
0.013952,0.031277,0.12556,-0.70308,-75.869,647.04,0.23542,-0.078435,-0.24533,0.31391,5.6413e-05,-0.12267,0,0,0.11111,-6.5791e-17,0,0.66667
0.23436,0.086751,2.1093,-0.61987,-63.155,434.49,3.4866,-1.1622,-0.63812,4.6488,1.7428e-10,-0.31906,0,0,0.11111,-0,9.1481e-17,0.66667
0.61678,0.47309,5.551,-0.040361,-2.6773,129.4,0.59744,-0.19915,-1.9924,0.79659,8.3095e-13,-0.99618,0,0,0.11111,-0,-0,0.66667
0.94902,0.076726,8.5411,-0.63491,-6.7087,4.6639,14.461,-4.8203,-0.56544,19.281,-2.6184e-07,-0.28272,0,0,0.11111,-0,3.905e-17,0.66667
0.95018,0.57818,8.5516,0.11728,1.1639,3.0604,-2.6744,0.89146,-1.9509,-3.5658,-5.4314e-08,-0.97544,0,0,0.11111,-0,-0,0.66667
0.55665,0.69103,5.0099,0.28655,21.215,168.65,-3.8282,1.2761,-1.7067,-5.1042,3.4655e-12,-0.85337,0,0,0.11111,-2.1053e-15,0,0.66667
0.91561,0.67466,8.2405,0.26199,4.4401,8.0555,-5.7571,1.919,-1.7535,-7.6761,3.9175e-08,-0.87675,0,0,0.11111,-0,-0,0.66667
0.64157,0.022684,5.7741,-0.71597,-45.461,115.84,11.024,-3.6748,-0.18003,14.699,1.5641e-12,-0.090017,0,0,0.11111,-0,-0,0.66667
0.39001,0.92783,3.5101,0.64175,58.666,296.55,-6.0069,2.0023,-0.53874,-8.0092,-2.1476e-12,-0.26937,0,0,0.11111,-0,-1.1244e-16,0.66667
0.48599,0.037084,4.3739,-0.69437,-57.222,220.3,8.099,-2.6997,-0.28772,10.799,3.1086e-13,-0.14386,0,0,0.11111,-1.0527e-15,0,0.66667
0.60431,0.18248,5.4388,-0.47628,-32.487,137.71,6.9077,-2.3026,-1.1923,9.2102,-6.5636e-13,-0.59615,0,0,0.11111,8.8415e-16,0,0.66667
0.54955,0.60082,4.9459,0.15123,11.316,173.41,-1.9946,0.66487,-1.9193,-2.6595,9.7777e-13,-0.95964,0,0,0.11111,-0,-0,0.66667
0.92618,0.76435,8.3356,0.39653,5.9225,6.6899,-8.8141,2.938,-1.4395,-11.752,1.0855e-07,-0.71976,0,0,0.11111,-0,-0,0.66667
0.91873,0.23191,8.2686,-0.40214,-6.605,7.8759,8.8671,-2.9557,-1.4246,11.823,-5.7454e-08,-0.71232,0,0,0.11111,-0,-0,0.66667
0.39488,0.80231,3.5539,0.45346,41.169,292.17,-4.2974,1.4325,-1.2677,-5.7299,-2.8724e-12,-0.63385,0,0,0.11111,-0,-0,0.66667
0.96326,0.9542,8.6694,0.6813,5.2375,3.5527,-15.751,5.2502,-0.34743,-21.001,1.1856e-05,-0.17372,0,0,0.11111,-0,-0,0.66667
0.17396,0.49282,1.5656,-0.010764,-1.121,491.15,0.044938,-0.014979,-2.0009,0.059917,2.6971e-10,-1.0004,0,0,0.11111,1.3158e-16,0,0.66667
0.12633,0.56279,1.137,0.094185,9.9555,537,-0.28556,0.095187,-1.9719,-0.38075,-1.6287e-09,-0.98594,0,0,0.11111,-0,-0,0.66667
0.13508,0.38654,1.2157,-0.17019,-17.951,528.54,0.55174,-0.18391,-1.8949,0.73565,4.6623e-09,-0.94746,0,0,0.11111,2.6316e-16,0,0.66667
0.50566,0.27933,4.551,-0.331,-26.452,204.91,4.017,-1.339,-1.6095,5.356,2.7289e-12,-0.80475,0,0,0.11111,-1.3158e-16,0,0.66667
0.021525,0.19526,0.19372,-0.45711,-49.177,639.57,0.23614,-0.078715,-1.2551,0.31485,-1.6776e-06,-0.62756,0,0,0.11111,-0,-0,0.66667
0.94797,0.55603,8.5317,0.084049,0.8716,3.2759,-1.9122,0.63741,-1.9735,-2.5496,-2.9019e-08,-0.98673,0,0,0.11111,-0,-0,0.66667
0.82712,0.79877,7.444,0.44815,15.121,30.247,-8.8962,2.9654,-1.2882,-11.862,3.8894e-10,-0.64408,0,0,0.11111,-1.0527e-15,0,0.66667
0.015019,0.87567,0.13517,0.56351,60.702,645.98,-0.20312,0.067704,-0.87536,-0.27082,-1.7496e-06,-0.43768,0,0,0.11111,-6.5791e-17,0,0.66667
0.1762,0.039335,1.5858,-0.691,-72.25,489.35,2.922,-0.97401,-0.30125,3.896,2.5025e-10,-0.15062,0,0,0.11111,-0,-0,0.66667
0.33206,0.4427,2.9886,-0.085955,-8.21,345.62,0.68502,-0.22834,-1.9733,0.91336,5.8065e-13,-0.98667,0,0,0.11111,-0,-0,0.66667
0.131,0.50089,1.179,0.0013316,0.14057,532.48,-0.0041866,0.0013955,-1.9991,-0.0055821,-4.6119e-09,-0.99955,0,0,0.11111,-0,-0,0.66667
0.80949,0.9747,7.2854,0.71206,26.469,37.108,-13.834,4.6112,-0.19762,-18.445,7.6355e-11,-0.098811,0,0,0.11111,-2.1053e-15,0,0.66667
0.34474,0.29184,3.1026,-0.31224,-29.564,334.68,2.5834,-0.86112,-1.6558,3.4445,6.5925e-13,-0.8279,0,0,0.11111,-0,-0,0.66667
0.94011,0.84743,8.461,0.52114,6.3827,5.2019,-11.758,3.9194,-1.0355,-15.678,-1.2112e-08,-0.51776,0,0,0.11111,-2.1053e-15,0,0.66667
0.58201,0.85033,5.2381,0.52549,37.372,152.13,-7.3402,2.4467,-1.0176,-9.7869,6.8168e-13,-0.50882,0,0,0.11111,-0,-0,0.66667
0.87883,0.39457,7.9095,-0.15814,-3.8,15.327,3.3355,-1.1118,-1.9101,4.4474,-1.016e-08,-0.95507,0,0,0.11111,-1.0527e-15,0,0.66667
0.84473,0.6288,7.6026,0.1932,5.8712,24.325,-3.9169,1.3056,-1.8705,-5.2225,1.5464e-09,-0.93526,0,0,0.11111,-2.1053e-15,0,0.66667
0.90539,0.41505,8.1485,-0.12742,-2.4086,9.6907,2.7688,-0.92295,-1.9451,3.6918,-1.9656e-08,-0.97253,0,0,0.11111,-0,-0,0.66667
0.45988,0.91288,4.1389,0.61932,52.626,240.1,-6.8356,2.2785,-0.63414,-9.1141,2.3119e-12,-0.31707,0,0,0.11111,-1.0527e-15,0,0.66667
0.54635,0.89228,4.9171,0.58842,44.448,176.33,-7.7155,2.5718,-0.77192,-10.287,-1.2812e-12,-0.38596,0,0,0.11111,-0,-0,0.66667
0.7986,0.060767,7.1874,-0.65885,-25.687,40.732,12.628,-4.2093,-0.45918,16.837,1.7011e-09,-0.22959,0,0,0.11111,3.9475e-16,0,0.66667
0.28572,0.024953,2.5715,-0.71257,-70.635,387.53,4.8863,-1.6288,-0.19369,6.515,-5.8176e-13,-0.096847,0,0,0.11111,5.2633e-16,0,0.66667
0.49025,0.70925,4.4123,0.31387,25.6,216.34,-3.6931,1.231,-1.6476,-4.9241,-2.333e-12,-0.82381,0,0,0.11111,5.2633e-16,0,0.66667
0.59911,0.031142,5.392,-0.70329,-48.643,141.63,10.112,-3.3708,-0.24094,13.483,2.8066e-13,-0.12047,0,0,0.11111,-1.2336e-15,0,0.66667
0.015533,0.94002,0.1398,0.66003,71.179,645.48,-0.24605,0.082007,-0.45589,-0.32807,-1.3265e-05,-0.22794,0,0,0.11111,-0,-0,0.66667
0.59348,0.86699,5.3413,0.55048,38.364,144.77,-7.8408,2.6136,-0.92635,-10.454,-8.038e-13,-0.46317,0,0,0.11111,-0,1.09e-16,0.66667
0.43368,0.57866,3.9031,0.118,10.28,260.14,-1.2281,0.40938,-1.9494,-1.6375,8.3111e-13,-0.97472,0,0,0.11111,-0,-0,0.66667
0.80736,0.82224,7.2662,0.48336,18.011,36.965,-9.3659,3.122,-1.1675,-12.488,7.5928e-11,-0.58377,0,0,0.11111,-0,-0,0.66667
0.31524,0.61723,2.8372,0.17584,17.007,360.5,-1.3304,0.44346,-1.8905,-1.7739,3.8264e-12,-0.94525,0,0,0.11111,-2.6316e-16,0,0.66667
0.89289,0.51368,8.036,0.020517,0.43729,12.121,-0.43966,0.14655,-1.9991,-0.58621,2.1813e-08,-0.99954,0,0,0.11111,-0,-0,0.66667
0.57786,0.70046,5.2007,0.30069,21.483,154.43,-4.1701,1.39,-1.682,-5.5601,1.8296e-12,-0.84098,0,0,0.11111,-0,-0,0.66667
0.18401,0.33289,1.6561,-0.25067,-26.026,481.61,1.107,-0.36901,-1.776,1.476,3.5524e-10,-0.888,0,0,0.11111,-0,-0,0.66667
0.78793,0.74957,7.0914,0.37435,15.166,43.77,-7.0791,2.3597,-1.5007,-9.4388,7.8599e-12,-0.75036,0,0,0.11111,1.9737e-16,0,0.66667
0.61203,0.16101,5.5083,-0.50849,-34.186,132.96,7.4691,-2.4897,-1.0816,9.9588,4.9427e-13,-0.5408,0,0,0.11111,-0,-0,0.66667
0.053909,0.075316,0.48518,-0.63703,-68.495,607.8,0.8242,-0.27473,-0.5545,1.0989,-9.9954e-07,-0.27725,0,0,0.11111,-0,-0,0.66667
0.42019,0.076161,3.7817,-0.63576,-56.434,271.68,6.4114,-2.1371,-0.5642,8.5485,1.4833e-13,-0.2821,0,0,0.11111,-0,-1.295e-16,0.66667
0.67907,0.014685,6.1116,-0.72797,-42.342,94.934,11.864,-3.9547,-0.11304,15.819,-1.9273e-13,-0.056518,0,0,0.11111,-0,-0,0.66667
0.9186,0.96902,8.2674,0.70354,11.817,9.122,-15.51,5.1702,-0.24123,-20.681,4.3908e-07,-0.12062,0,0,0.11111,-0,4.5828e-18,0.66667
0.00040202,0.73607,0.0036182,0.3541,38.083,660.35,-0.0034162,0.0011379,-1.5574,-0.0045554,-1.2389e-06,-0.77868,0,0,0.11111,5.1399e-19,0,0.66667
0.97676,0.16819,8.7908,-0.49772,-2.307,1.7851,11.668,-3.8892,-1.1165,15.557,2.7722e-06,-0.55827,0,0,0.11111,-2.1053e-15,0,0.66667
0.37658,0.33489,3.3892,-0.24766,-22.825,307.31,2.2383,-0.74611,-1.7837,2.9844,-3.2974e-13,-0.89183,0,0,0.11111,-2.6316e-16,0,0.66667
0.97378,0.62236,8.7641,0.18354,0.92507,1.1276,-4.2895,1.4298,-1.8795,-5.7193,-2.0314e-07,-0.93974,0,0,0.11111,-2.6316e-16,0,0.66667
0.60472,0.84913,5.4424,0.5237,35.72,137.57,-7.6005,2.5335,-1.0239,-10.134,1.2319e-12,-0.51195,0,0,0.11111,-2.1053e-15,0,0.66667
0.82885,0.61039,7.4596,0.16559,5.5059,29.122,-3.2939,1.098,-1.9052,-4.3919,6.5088e-10,-0.95259,0,0,0.11111,1.0527e-15,0,0.66667
0.57471,0.63837,5.1724,0.20755,14.9,156.4,-2.8627,0.95424,-1.8462,-3.817,2.2857e-12,-0.9231,0,0,0.11111,-0,-0,0.66667
0.62808,0.19138,5.6527,-0.46293,-30.107,123.07,6.9782,-2.3261,-1.2386,9.3042,-5.8442e-13,-0.61932,0,0,0.11111,2.1053e-15,0,0.66667
0.28558,0.93256,2.5702,0.64883,64.264,387.56,-4.447,1.4823,-0.5025,-5.9293,-9.8765e-13,-0.25125,0,0,0.11111,-0,-0,0.66667
0.58683,0.65822,5.2815,0.23733,16.68,148.48,-3.3425,1.1142,-1.7984,-4.4567,4.1054e-12,-0.89918,0,0,0.11111,-2.1053e-15,0,0.66667
0.75002,0.052986,6.7502,-0.67052,-31.601,60.214,12.07,-4.0232,-0.40548,16.093,-8.4057e-12,-0.20274,0,0,0.11111,-0,-0,0.66667
0.85831,0.94407,7.7248,0.66611,18.859,21.921,-13.722,4.5738,-0.42512,-18.295,-3.3033e-08,-0.21256,0,0,0.11111,-2.1053e-15,0,0.66667
0.75508,0.10195,6.7957,-0.59707,-27.591,57.744,10.82,-3.6067,-0.7309,14.427,9.154e-11,-0.36545,0,0,0.11111,-0,-0,0.66667
0.69806,0.58231,6.2825,0.12346,6.7666,83.59,-2.0685,0.68948,-1.944,-2.7579,-1.0218e-12,-0.97199,0,0,0.11111,-1.0527e-15,0,0.66667
0.86448,0.19316,7.7803,-0.46025,-12.392,19.505,9.5491,-3.183,-1.2455,12.732,-3.7533e-09,-0.62277,0,0,0.11111,-0,-0,0.66667
0.32268,0.015682,2.9041,-0.72648,-70.264,354.56,5.6261,-1.8754,-0.12133,7.5014,-6.4739e-12,-0.060665,0,0,0.11111,1.0527e-15,0,0.66667
0.67079,0.14898,6.0371,-0.52653,-31.123,98.726,8.4766,-2.8255,-1.0169,11.302,-7.4252e-13,-0.50843,0,0,0.11111,1.0527e-15,1.7145e-16,0.66667
0.45087,0.66329,4.0579,0.24493,20.947,246.56,-2.6504,0.88347,-1.7878,-3.5339,-1.0254e-12,-0.89389,0,0,0.11111,1.0527e-15,0,0.66667
0.3821,0.65826,3.4389,0.23738,21.77,302.64,-2.1769,0.72564,-1.7982,-2.9026,6.4238e-13,-0.89911,0,0,0.11111,-0,-0,0.66667
0.41081,0.60289,3.6973,0.15434,13.769,278.71,-1.5217,0.50724,-1.914,-2.0289,-1.2511e-12,-0.95699,0,0,0.11111,-0,-0,0.66667
0.40148,0.65624,3.6133,0.23436,21.108,286.45,-2.2582,0.75273,-1.8047,-3.0109,2.6408e-12,-0.90233,0,0,0.11111,-7.8692e-16,0,0.66667
0.31738,0.90403,2.8565,0.60605,58.737,359.03,-4.6164,1.5388,-0.69348,-6.1552,-1.0285e-12,-0.34674,0,0,0.11111,7.8949e-16,0,0.66667
0.62192,0.25607,5.5973,-0.3659,-24.07,126.59,5.4614,-1.8205,-1.5243,7.2819,3.0953e-13,-0.76213,0,0,0.11111,-0,-0,0.66667
0.43025,0.91629,3.8722,0.62444,54.844,263.54,-6.4479,2.1493,-0.61109,-8.5972,-1.2141e-12,-0.30554,0,0,0.11111,-0,-0,0.66667
0.9738,0.26277,8.7642,-0.35584,-1.8264,1.4885,8.3164,-2.7721,-1.5479,11.089,7.5619e-07,-0.77395,0,0,0.11111,-0,-0,0.66667
0.6778,0.52651,6.1002,0.039763,2.2984,94.18,-0.64684,0.21561,-1.9928,-0.86245,-1.4346e-12,-0.99641,0,0,0.11111,1.0527e-15,0,0.66667
0.19857,0.55568,1.7871,0.083525,8.6169,467.75,-0.39805,0.13268,-1.9741,-0.53074,-1.1949e-10,-0.98706,0,0,0.11111,1.3158e-16,0,0.66667
0.4267,0.66776,3.8403,0.25163,22.098,265.84,-2.5769,0.85898,-1.7732,-3.4359,1.5563e-12,-0.88659,0,0,0.11111,-0,-0,0.66667
0.34335,0.20883,3.0901,-0.43675,-41.44,336.02,3.599,-1.1997,-1.3252,4.7986,1.5736e-12,-0.66258,0,0,0.11111,-0,-0,0.66667
0.79764,0.69944,7.1787,0.29916,11.606,39.984,-5.7269,1.909,-1.6845,-7.6358,6.0109e-11,-0.84224,0,0,0.11111,-0,-0,0.66667
0.88,0.89083,7.92,0.58625,14.151,16.177,-12.382,4.1272,-0.77608,-16.509,-5.7559e-09,-0.38804,0,0,0.11111,-0,-0,0.66667
0.90384,0.68531,8.1346,0.27797,5.356,10.205,-6.0298,2.0099,-1.7269,-8.0397,3.1524e-08,-0.86346,0,0,0.11111,-5.2633e-16,0,0.66667
0.66272,0.6735,5.9645,0.26025,15.629,102.62,-4.1394,1.3798,-1.7566,-5.5192,1.4966e-13,-0.87831,0,0,0.11111,-1.0527e-15,0,0.66667
0.27021,0.57254,2.4319,0.1088,10.831,401.07,-0.70559,0.2352,-1.9565,-0.94079,5.3756e-12,-0.97824,0,0,0.11111,-0,-0,0.66667
0.25237,0.90755,2.2713,0.61133,61.699,417.82,-3.7027,1.2342,-0.67307,-4.9369,4.2286e-11,-0.33654,0,0,0.11111,-1.0527e-15,0,0.66667
0.8549,0.60397,7.6941,0.15596,4.4464,21.408,-3.1999,1.0666,-1.9122,-4.2665,2.9851e-09,-0.95608,0,0,0.11111,-0,-0,0.66667
0.52771,0.4464,4.7494,-0.080401,-6.2188,188.71,1.0183,-0.33943,-1.9765,1.3577,3.4455e-12,-0.98827,0,0,0.11111,-0,-0,0.66667
0.80216,0.39913,7.2194,-0.1513,-5.7412,38.131,2.9128,-0.97092,-1.917,3.8837,-7.2944e-12,-0.95852,0,0,0.11111,-5.2633e-16,0,0.66667
0.57249,0.070747,5.1524,-0.64388,-46.649,158.73,8.8467,-2.9489,-0.52406,11.796,1.8971e-12,-0.26203,0,0,0.11111,-0,-0,0.66667
0.73314,0.94816,6.5983,0.67224,33.501,67.789,-11.828,3.9428,-0.39532,-15.771,6.9189e-13,-0.19766,0,0,0.11111,-2.1053e-15,1.1828e-16,0.66667
0.51901,0.096499,4.6711,-0.60525,-47.636,195.71,7.5392,-2.5131,-0.69801,10.052,-3.03e-12,-0.349,0,0,0.11111,2.1053e-15,0,0.66667
0.77088,0.68874,6.938,0.28311,12.264,50.296,-5.2378,1.7459,-1.7144,-6.9837,-2.3015e-11,-0.85721,0,0,0.11111,-0,-0,0.66667
0.56886,0.32867,5.1197,-0.257,-18.642,160.36,3.5087,-1.1696,-1.7626,4.6782,1.2537e-12,-0.88132,0,0,0.11111,1.0527e-15,0,0.66667
0.46571,0.26073,4.1914,-0.3589,-30.193,235.11,4.0115,-1.3372,-1.5419,5.3486,-3.3307e-13,-0.77093,0,0,0.11111,-0,-0,0.66667
0.34269,0.83409,3.0842,0.50114,47.605,336.67,-4.1216,1.3739,-1.1095,-5.4955,9.015e-14,-0.55474,0,0,0.11111,2.6316e-16,0,0.66667
0.068209,0.32015,0.61388,-0.26978,-28.863,593.7,0.44163,-0.14721,-1.7394,0.58884,4.9203e-08,-0.86969,0,0,0.11111,-0,-0,0.66667
0.37792,0.6022,3.4013,0.1533,14.106,306.11,-1.3904,0.46347,-1.9166,-1.8539,8.4566e-13,-0.95831,0,0,0.11111,-1.0527e-15,0,0.66667
0.079626,0.7934,0.71663,0.44011,47.062,582.56,-0.84105,0.28035,-1.3129,-1.1214,-6.8972e-08,-0.65647,0,0,0.11111,1.3158e-16,0,0.66667
0.98282,0.91129,8.8454,0.61694,2.1537,2.0007,-14.552,4.8507,-0.64894,-19.403,5.0805e-07,-0.32447,0,0,0.11111,-0,7.1203e-17,0.66667
0.18161,0.26992,1.6345,-0.34513,-35.886,483.93,1.5043,-0.50144,-1.5743,2.0057,3.6501e-10,-0.78713,0,0,0.11111,-0,-0,0.66667
0.81186,0.75257,7.3067,0.37885,13.783,35.113,-7.3818,2.4606,-1.4937,-9.8424,2.2572e-10,-0.74683,0,0,0.11111,-0,-0,0.66667
0.87496,0.75787,7.8747,0.3868,9.628,16.681,-8.1224,2.7075,-1.4722,-10.83,9.5887e-09,-0.73611,0,0,0.11111,-0,-0,0.66667
0.68841,0.50119,6.1957,0.0017857,0.10041,88.539,-0.029503,0.0098342,-2.0038,-0.039337,6.4435e-14,-1.0019,0,0,0.11111,-0,-0,0.66667
0.56949,0.1455,5.1254,-0.53175,-38.649,160.43,7.2678,-2.4226,-0.99213,9.6904,2.4083e-12,-0.49606,0,0,0.11111,-0,-0,0.66667
0.16097,0.39547,1.4487,-0.15679,-16.407,503.6,0.60574,-0.20191,-1.911,0.80766,1.0592e-09,-0.95551,0,0,0.11111,-1.3158e-16,0,0.66667
0.46688,0.13774,4.2019,-0.54339,-45.743,234.51,6.0887,-2.0296,-0.95125,8.1183,1.1577e-12,-0.47563,0,0,0.11111,-0,-0,0.66667
0.34517,0.58735,3.1065,0.13102,12.39,334.19,-1.0854,0.3618,-1.9412,-1.4472,-2.8944e-13,-0.9706,0,0,0.11111,5.2633e-16,0,0.66667
0.22504,0.22191,2.0254,-0.41714,-42.601,442.99,2.2529,-0.75098,-1.3799,3.0039,-6.1466e-12,-0.68995,0,0,0.11111,5.2633e-16,0,0.66667
0.59251,0.67916,5.3326,0.26873,18.697,144.84,-3.8215,1.2738,-1.7455,-5.0953,1.4315e-12,-0.87275,0,0,0.11111,-0,-0,0.66667
0.31227,0.47161,2.8104,-0.042588,-4.1262,363.11,0.31918,-0.10639,-1.9981,0.42557,1.012e-13,-0.99907,0,0,0.11111,-0,-0,0.66667
0.91631,0.91367,8.2467,0.6205,10.634,9.097,-13.646,4.5486,-0.62927,-18.194,6.2139e-08,-0.31463,0,0,0.11111,2.1053e-15,0,0.66667
0.90964,0.17183,8.1867,-0.49225,-9.0106,9.7317,10.747,-3.5822,-1.1378,14.329,-7.5437e-09,-0.5689,0,0,0.11111,-2.1053e-15,0,0.66667
0.25712,0.53442,2.3141,0.051628,5.1772,413.06,-0.31859,0.1062,-1.9889,-0.42478,9.2007e-12,-0.99445,0,0,0.11111,1.0527e-15,0,0.66667
0.11089,0.86258,0.99802,0.54387,57.866,552.12,-1.4475,0.48249,-0.94986,-1.9299,-7.29e-09,-0.47493,0,0,0.11111,1.3158e-16,0,0.66667
0.19296,0.99456,1.7367,0.74184,77.126,473.48,-3.4355,1.1452,-0.041833,-4.5807,-3.7024e-11,-0.020916,0,0,0.11111,-0,-0,0.66667
0.49958,0.71834,4.4963,0.32751,26.388,209.4,-3.9268,1.3089,-1.6234,-5.2357,-1.8479e-12,-0.8117,0,0,0.11111,-2.3027e-16,0,0.66667
0.72859,0.25635,6.5573,-0.36547,-18.356,68.975,6.3907,-2.1302,-1.5234,8.5209,1.1691e-11,-0.76168,0,0,0.11111,-0,-0,0.66667
0.20819,0.34881,1.8737,-0.22678,-23.31,458.7,1.1331,-0.37771,-1.816,1.5109,2.4133e-11,-0.90798,0,0,0.11111,-0,-0,0.66667
0.24803,0.42095,2.2323,-0.11857,-11.951,421.46,0.70584,-0.23528,-1.9509,0.94112,-1.302e-11,-0.97547,0,0,0.11111,5.2633e-16,0,0.66667
0.85167,0.62289,7.665,0.18434,5.3669,22.335,-3.7678,1.2559,-1.8777,-5.0238,2.2157e-09,-0.93885,0,0,0.11111,-1.579e-15,0,0.66667
0.41585,0.92533,3.7426,0.63799,56.884,275.22,-6.3674,2.1225,-0.55045,-8.4898,-1.5503e-12,-0.27522,0,0,0.11111,5.2633e-16,0,0.66667
0.61669,0.80406,5.5502,0.45609,30.357,129.97,-6.7503,2.2501,-1.258,-9.0004,-7.9226e-13,-0.62901,0,0,0.11111,5.2633e-16,0,0.66667
0.23367,0.01841,2.103,-0.72239,-73.727,435.27,4.0511,-1.3504,-0.1473,5.4015,-7.747e-11,-0.073652,0,0,0.11111,-0,-0,0.66667
0.10197,0.34928,0.91771,-0.22608,-24.043,560.7,0.55328,-0.18443,-1.8162,0.7377,2.2415e-08,-0.90811,0,0,0.11111,-2.6316e-16,0,0.66667
0.51586,0.46645,4.6427,-0.05032,-3.9591,197.24,0.62299,-0.20766,-1.9957,0.83065,5.0726e-13,-0.99784,0,0,0.11111,5.2633e-16,0,0.66667
0.47714,0.213,4.2943,-0.43049,-35.74,226.43,4.9298,-1.6433,-1.339,6.573,-1.1147e-13,-0.66951,0,0,0.11111,7.8949e-16,0,0.66667
0.15267,0.02292,1.374,-0.71562,-75.448,511.87,2.6221,-0.87404,-0.1787,3.4962,-1.1307e-08,-0.089351,0,0,0.11111,-0,-0,0.66667
0.62181,0.75101,5.5963,0.37651,24.777,126.67,-5.6188,1.8729,-1.497,-7.4918,-1.9025e-12,-0.7485,0,0,0.11111,2.1053e-15,0,0.66667
0.54401,0.69071,4.8961,0.28607,21.609,177.38,-3.735,1.245,-1.71,-4.98,3.5771e-13,-0.85499,0,0,0.11111,-0,-0,0.66667
0.65414,0.1128,5.8872,-0.58081,-35.751,108.16,9.1182,-3.0394,-0.80141,12.158,1.7453e-12,-0.40071,0,0,0.11111,-0,-0,0.66667
0.14455,0.12956,1.3009,-0.55567,-58.612,519.57,1.9277,-0.64255,-0.9019,2.5702,2.6418e-09,-0.45095,0,0,0.11111,-0,-0,0.66667
0.75153,0.27947,6.7638,-0.3308,-15.393,58.536,5.9666,-1.9889,-1.6138,7.9554,2.3923e-11,-0.80688,0,0,0.11111,1.579e-15,0,0.66667
0.22205,0.25541,1.9984,-0.36688,-37.507,445.75,1.9552,-0.65172,-1.5216,2.6069,-2.8172e-11,-0.76079,0,0,0.11111,-0,-0,0.66667
0.51935,0.46352,4.6742,-0.05472,-4.284,194.71,0.68206,-0.22735,-1.9891,0.90941,3.8275e-12,-0.99457,0,0,0.11111,-7.8949e-16,0,0.66667
0.7853,0.42123,7.0677,-0.11816,-4.8243,44.381,2.227,-0.74232,-1.9491,2.9693,6.9544e-13,-0.97456,0,0,0.11111,-0,-0,0.66667
0.02233,0.58435,0.20097,0.12653,13.586,638.76,-0.06781,0.022603,-1.9407,-0.090413,1.2287e-07,-0.97036,0,0,0.11111,1.6448e-17,0,0.66667
0.32436,0.65355,2.9193,0.23033,22.137,352.46,-1.793,0.59768,-1.8115,-2.3907,2.0305e-12,-0.90577,0,0,0.11111,7.8949e-16,0,0.66667
0.87292,0.19874,7.8563,-0.45189,-11.448,17.365,9.4672,-3.1557,-1.2748,12.623,-6.6926e-09,-0.63742,0,0,0.11111,-0,-0,0.66667
0.84471,0.51017,7.6024,0.015252,0.46298,24.207,-0.30921,0.10307,-2.0017,-0.41228,-1.1773e-09,-1.0008,0,0,0.11111,-0,-0,0.66667
0.53844,0.56601,4.846,0.099019,7.5369,181.12,-1.2796,0.42653,-1.9634,-1.7061,6.4915e-13,-0.98172,0,0,0.11111,-0,-0,0.66667
0.86661,0.38999,7.7995,-0.16502,-4.3459,18.321,3.4321,-1.144,-1.9005,4.5762,-4.5298e-09,-0.95023,0,0,0.11111,-0,-0,0.66667
0.94981,0.8486,8.5483,0.52291,5.3702,4.0868,-11.92,3.9733,-1.028,-15.893,2.7873e-07,-0.51401,0,0,0.11111,-0,-0,0.66667
0.82641,0.60697,7.4377,0.16046,5.405,29.894,-3.1825,1.0608,-1.9097,-4.2433,5.5453e-10,-0.95487,0,0,0.11111,-0,-0,0.66667
0.85412,0.52038,7.687,0.030564,0.87507,21.544,-0.62653,0.20884,-1.9948,-0.83538,4.0657e-10,-0.99739,0,0,0.11111,-0,-0,0.66667
0.098743,0.73637,0.88869,0.35456,37.759,563.87,-0.84026,0.28009,-1.5511,-1.1203,-3.2794e-08,-0.77557,0,0,0.11111,-1.3158e-16,0,0.66667
0.6513,0.435,5.8617,-0.097499,-6.0072,108.92,1.524,-0.50801,-1.9655,2.0321,-9.1682e-13,-0.98276,0,0,0.11111,1.0527e-15,0,0.66667
0.70352,0.62066,6.3317,0.18099,9.7732,80.869,-3.056,1.0187,-1.8876,-4.0746,-3.3267e-12,-0.9438,0,0,0.11111,-0,-0,0.66667
0.61024,0.35589,5.4922,-0.21617,-14.536,133.56,3.1659,-1.0553,-1.8364,4.2212,-4.4631e-13,-0.91819,0,0,0.11111,1.0527e-15,0,0.66667
0.79962,0.88475,7.1965,0.57712,22.34,40.043,-11.075,3.6918,-0.81599,-14.767,-2.6278e-11,-0.408,0,0,0.11111,-2.1053e-15,0,0.66667
0.034571,0.93998,0.31114,0.65997,71.105,626.78,-0.54759,0.18253,-0.45197,-0.73012,-1.635e-06,-0.22598,0,0,0.11111,-1.3158e-16,0,0.66667
0.77024,0.15509,6.9321,-0.51737,-22.568,51.136,9.5639,-3.188,-1.0481,12.752,-7.2215e-11,-0.52405,0,0,0.11111,5.2633e-16,0,0.66667
0.73173,0.61159,6.5856,0.16738,8.3054,67.201,-2.9395,0.97982,-1.9005,-3.9193,-9.2475e-12,-0.95027,0,0,0.11111,-0,-0,0.66667
0.2597,0.55495,2.3373,0.08243,8.2545,410.69,-0.51376,0.17125,-1.9739,-0.68502,5.6167e-12,-0.98696,0,0,0.11111,2.6316e-16,0,0.66667
0.25707,0.081222,2.3136,-0.62817,-63.249,413.51,3.8756,-1.2919,-0.59436,5.1674,2.0529e-11,-0.29718,0,0,0.11111,-0,-0,0.66667
0.6323,0.95857,5.6907,0.68785,44.523,121.19,-10.438,3.4795,-0.31518,-13.918,-8.5354e-13,-0.15759,0,0,0.11111,-0,-0,0.66667
0.3453,0.50138,3.1077,0.0020751,0.19618,334.06,-0.017197,0.0057322,-2.0029,-0.022929,5.0202e-13,-1.0014,0,0,0.11111,-0,-0,0.66667
0.79659,0.49989,7.1693,-0.00016278,-0.0063295,40.084,0.0031121,-0.0010374,-2.005,0.0041494,-1.3484e-10,-1.0025,0,0,0.11111,-3.3471e-15,0,0.66667
0.44615,0.54442,4.0153,0.066626,5.7247,250.19,-0.71339,0.2378,-1.9816,-0.95119,2.4071e-12,-0.99078,0,0,0.11111,-0,-0,0.66667
0.78275,0.6879,7.0447,0.28185,11.648,45.573,-5.2949,1.765,-1.7207,-7.0599,-1.7429e-11,-0.86035,0,0,0.11111,-0,-0,0.66667
0.99047,0.67713,8.9142,0.2657,0.40868,0.48911,-6.316,2.1053,-1.7467,-8.4214,2.684e-07,-0.87337,0,0,0.11111,-0,-0,0.66667
0.30025,0.3487,2.7022,-0.22695,-22.181,373.91,1.6354,-0.54513,-1.817,2.1805,-1.448e-12,-0.90851,0,0,0.11111,-0,-0,0.66667
0.14301,0.21311,1.2871,-0.43034,-45.357,520.98,1.477,-0.49232,-1.3427,1.9693,3.5066e-09,-0.67134,0,0,0.11111,-6.5791e-17,0,0.66667
0.90131,0.60768,8.1118,0.16153,3.1836,10.508,-3.4941,1.1647,-1.9054,-4.6587,1.6669e-08,-0.95269,0,0,0.11111,-0,-0,0.66667
0.54156,0.77411,4.874,0.41117,31.215,179.28,-5.3442,1.7814,-1.3973,-7.1256,-2.1303e-12,-0.69865,0,0,0.11111,5.2633e-16,0,0.66667
0.97474,0.61732,8.7727,0.17598,0.85103,1.0577,-4.1169,1.3723,-1.8879,-5.4892,-1.5783e-07,-0.94396,0,0,0.11111,-1.0527e-15,0,0.66667
0.6366,0.46662,5.7294,-0.050077,-3.1874,117.45,0.7651,-0.25503,-1.9911,1.0201,1.7357e-12,-0.99557,0,0,0.11111,-1.4474e-15,0,0.66667
0.99391,0.27526,8.9452,-0.3371,-0.28493,0.56537,8.0413,-2.6804,-1.5942,10.722,-6.5203e-07,-0.79708,0,0,0.11111,-1.0527e-15,0,0.66667
0.54607,0.10574,4.9146,-0.59139,-44.694,176.53,7.7506,-2.5835,-0.75909,10.334,4.3401e-12,-0.37955,0,0,0.11111,-0,-0,0.66667
0.52643,0.39061,4.7378,-0.16408,-12.719,189.68,2.073,-0.69101,-1.9025,2.764,3.4592e-12,-0.95124,0,0,0.11111,-1.0527e-15,0,0.66667
0.13543,0.69224,1.2189,0.28837,30.429,528.24,-0.93726,0.31242,-1.7031,-1.2497,-6.3441e-09,-0.85157,0,0,0.11111,-0,-0,0.66667
0.35571,0.048348,3.2013,-0.67748,-63.837,325.7,5.7836,-1.9279,-0.36719,7.7114,5.3078e-12,-0.18359,0,0,0.11111,-0,-1.698e-16,0.66667
0.026219,0.56508,0.23597,0.09762,10.48,634.94,-0.061427,0.020476,-1.9654,-0.081902,5.0108e-07,-0.98269,0,0,0.11111,-6.5791e-17,0,0.66667
0.1604,0.055937,1.4436,-0.6661,-70.005,504.42,2.5641,-0.85471,-0.42172,3.4188,1.5623e-10,-0.21086,0,0,0.11111,-1.3158e-16,0,0.66667
0.74564,0.14103,6.7107,-0.53846,-25.67,61.664,9.6359,-3.212,-0.96762,12.848,1.9687e-11,-0.48381,0,0,0.11111,-1.0527e-15,0,0.66667
0.0304,0.50571,0.2736,0.0085664,0.91932,630.82,-0.0062502,0.0020855,-2.0029,-0.0083325,3.1726e-06,-1.0014,0,0,0.11111,-0,-0,0.66667
0.36654,0.95013,3.2989,0.67519,63.048,316.42,-5.9396,1.9799,-0.37644,-7.9195,3.2929e-12,-0.18822,0,0,0.11111,-5.2633e-16,0,0.66667
0.86235,0.0080939,7.7611,-0.73786,-20.415,21.206,15.271,-5.0903,-0.064389,20.361,-1.7992e-08,-0.032194,0,0,0.11111,-0,-0,0.66667
0.69268,0.3833,6.2341,-0.17505,-9.7378,86.401,2.91,-0.97,-1.8894,3.88,1.8809e-12,-0.94471,0,0,0.11111,-0,-0,0.66667
0.69094,0.14015,6.2185,-0.53977,-30.313,88.023,8.9508,-2.9836,-0.96338,11.934,3.8458e-13,-0.48169,0,0,0.11111,-0,-0,0.66667
0.18864,0.91449,1.6977,0.62174,64.645,477.46,-2.8148,0.93826,-0.628,-3.753,1.1833e-09,-0.314,0,0,0.11111,-0,-0,0.66667
0.4419,0.37747,3.9771,-0.18379,-15.872,253.6,1.9492,-0.64973,-1.8796,2.5989,1.9429e-13,-0.9398,0,0,0.11111,-1.0527e-15,0,0.66667
0.58158,0.72005,5.2342,0.33007,23.435,152.03,-4.6071,1.5357,-1.6133,-6.1428,1.5961e-12,-0.80667,0,0,0.11111,-0,-0,0.66667
0.98975,0.53793,8.9078,0.056899,0.0923,0.24517,-1.3516,0.45053,-1.9869,-1.8021,-1.9518e-06,-0.99346,0,0,0.11111,-0,-0,0.66667
0.20391,0.43516,1.8352,-0.097265,-10.012,462.71,0.47599,-0.15866,-1.9702,0.63466,8.4319e-11,-0.98508,0,0,0.11111,1.3158e-16,0,0.66667
0.24773,0.10903,2.2296,-0.58645,-59.317,422.06,3.4868,-1.1623,-0.77772,4.6491,-1.3642e-11,-0.38886,0,0,0.11111,-0,-0,0.66667
0.26217,0.87064,2.3596,0.55596,55.771,408.74,-3.4982,1.1661,-0.90117,-4.6643,5.2954e-11,-0.45059,0,0,0.11111,6.5791e-16,0,0.66667
0.75017,0.16266,6.7516,-0.50601,-23.734,59.568,9.1103,-3.0368,-1.0937,12.147,3.652e-11,-0.54687,0,0,0.11111,-0,-0,0.66667
0.45698,0.75884,4.1128,0.38826,33.01,241.94,-4.2582,1.4194,-1.4633,-5.6777,2.1307e-12,-0.73163,0,0,0.11111,-0,-0,0.66667
0.056929,0.63569,0.51236,0.20353,21.8,604.76,-0.27808,0.092694,-1.8507,-0.37078,2.8362e-08,-0.92533,0,0,0.11111,1.3158e-16,0,0.66667
0.50852,0.45822,4.5766,-0.062668,-4.9817,202.6,0.76482,-0.25494,-1.9835,1.0198,-1.4316e-12,-0.99175,0,0,0.11111,-0,-0,0.66667
0.21196,0.051528,1.9076,-0.67271,-69.312,455.49,3.4221,-1.1407,-0.38848,4.5628,4.6569e-10,-0.19424,0,0,0.11111,-0,-0,0.66667
0.7986,0.30729,7.1874,-0.28906,-11.165,39.612,5.5403,-1.8468,-1.7049,7.3871,-7.2394e-11,-0.85245,0,0,0.11111,-0,-0,0.66667
0.29733,0.52923,2.676,0.043851,4.2917,376.47,-0.31292,0.10431,-1.9975,-0.41722,4.7405e-12,-0.99877,0,0,0.11111,2.6316e-16,0,0.66667
0.027606,0.46876,0.24845,-0.046866,-5.0304,633.57,0.031051,-0.010349,-1.993,0.041402,1.5871e-06,-0.9965,0,0,0.11111,-0,-0,0.66667
0.59343,0.62718,5.3409,0.19077,13.243,144.16,-2.717,0.90567,-1.8752,-3.6227,7.2453e-13,-0.93758,0,0,0.11111,-0,-0,0.66667
0.84384,0.30896,7.5946,-0.28656,-8.7683,24.737,5.8034,-1.9345,-1.7127,7.7379,-2.0441e-09,-0.85636,0,0,0.11111,-1.3158e-15,0,0.66667
0.38102,0.89776,3.4291,0.59664,54.955,304.01,-5.4559,1.8186,-0.73224,-7.2745,-2.7138e-12,-0.36612,0,0,0.11111,-2.6316e-16,0,0.66667
0.74986,0.95443,6.7487,0.68164,32.154,60.331,-12.267,4.0891,-0.35157,-16.356,1.044e-11,-0.17578,0,0,0.11111,-0,-0,0.66667
0.51114,0.4202,4.6003,-0.11969,-9.4814,200.7,1.4683,-0.48944,-1.9475,1.9578,4.6685e-13,-0.97376,0,0,0.11111,-1.0527e-15,0,0.66667
0.54095,0.70737,4.8686,0.31106,23.613,179.55,-4.0384,1.3461,-1.6537,-5.3846,-3.2019e-13,-0.82686,0,0,0.11111,-0,-0,0.66667
0.95943,0.57324,8.6349,0.10986,0.88034,2.1414,-2.5296,0.8432,-1.9547,-3.3728,6.6061e-08,-0.97737,0,0,0.11111,-2.1053e-15,0,0.66667
0.80396,0.57202,7.2356,0.10803,4.0643,37.451,-2.0844,0.6948,-1.9561,-2.7792,1.4169e-10,-0.97803,0,0,0.11111,2.1053e-15,0,0.66667
0.032323,0.24778,0.29091,-0.37832,-40.652,628.95,0.29349,-0.097829,-1.4945,0.39132,-4.6597e-07,-0.74725,0,0,0.11111,-3.2895e-17,0,0.66667
0.70939,0.71073,6.3845,0.3161,16.807,78.127,-5.3817,1.7939,-1.6426,-7.1756,-5.5649e-12,-0.82131,0,0,0.11111,-0,-0,0.66667
0.465,0.32335,4.185,-0.26497,-22.294,235.55,2.9571,-0.98569,-1.7495,3.9428,2.3113e-12,-0.87477,0,0,0.11111,-1.0527e-15,0,0.66667
0.94755,0.90312,8.5279,0.60468,6.5475,4.6819,-13.751,4.5837,-0.69882,-18.335,-5.1371e-07,-0.34941,0,0,0.11111,8.0686e-16,0,0.66667
0.22143,0.92424,1.9929,0.63635,65.252,446.57,-3.3818,1.1273,-0.5603,-4.5091,5.9242e-11,-0.28015,0,0,0.11111,-2.6316e-16,0,0.66667
0.26707,0.027346,2.4036,-0.70898,-71.064,404.46,4.5444,-1.5148,-0.21535,6.0592,-7.6734e-12,-0.10768,0,0,0.11111,-2.6316e-16,0,0.66667
0.081474,0.59929,0.73327,0.14893,15.894,580.7,-0.29121,0.097071,-1.9212,-0.38828,-2.3239e-08,-0.96062,0,0,0.11111,-0,-0,0.66667
0.42862,0.26328,3.8576,-0.35508,-31.143,264.4,3.6527,-1.2176,-1.5491,4.8702,1.1338e-12,-0.77455,0,0,0.11111,-0,-0,0.66667
0.10902,0.46135,0.98117,-0.057968,-6.1525,553.81,0.15167,-0.050557,-1.9918,0.20223,-4.7032e-09,-0.99588,0,0,0.11111,-0,-0,0.66667
0.63379,0.33156,5.7041,-0.25267,-16.196,119.28,3.8433,-1.2811,-1.7704,5.1244,4.0101e-13,-0.88521,0,0,0.11111,-1.0527e-15,0,0.66667
0.80296,0.89313,7.2267,0.58969,22.493,38.887,-11.364,3.788,-0.76121,-15.152,9.4489e-10,-0.38061,0,0,0.11111,-0,-0,0.66667
0.6968,0.209,6.2712,-0.4365,-24.085,84.722,7.2997,-2.4332,-1.3203,9.733,3.0744e-12,-0.66013,0,0,0.11111,5.2633e-16,0,0.66667
0.76621,0.18089,6.8959,-0.47867,-21.181,52.669,8.8022,-2.9341,-1.1888,11.736,5.0122e-11,-0.59439,0,0,0.11111,5.2633e-16,0,0.66667
0.34245,0.071596,3.0821,-0.64261,-61.163,337.1,5.2815,-1.7605,-0.53388,7.042,-5.6311e-13,-0.26694,0,0,0.11111,1.0527e-15,0,0.66667
0.84585,0.9988,7.6127,0.74821,22.99,25.769,-15.189,5.063,-0.011765,-20.252,-5.652e-09,-0.0058824,0,0,0.11111,1.4474e-15,0,0.66667
0.42877,0.20554,3.8589,-0.44169,-38.765,264.39,4.5452,-1.5151,-1.3037,6.0603,9.7655e-13,-0.65185,0,0,0.11111,-5.2633e-16,0,0.66667
0.82401,0.509,7.4161,0.013498,0.46008,30.584,-0.26694,0.08898,-1.9984,-0.35592,1.2513e-11,-0.99918,0,0,0.11111,-0,-0,0.66667
0.6265,0.23424,5.6385,-0.39864,-25.988,123.88,5.9939,-1.998,-1.4365,7.9919,1.7719e-13,-0.71825,0,0,0.11111,-0,-0,0.66667
0.14342,0.33686,1.2908,-0.2447,-25.757,520.5,0.84231,-0.28077,-1.7876,1.1231,3.9678e-09,-0.89379,0,0,0.11111,1.3158e-16,0,0.66667
0.078387,0.42365,0.70548,-0.11453,-12.228,583.72,0.21547,-0.071822,-1.9568,0.28729,2.2575e-08,-0.97839,0,0,0.11111,-0,-0,0.66667
0.018333,0.35307,0.16499,-0.2204,-23.678,642.7,0.096973,-0.032324,-1.8276,0.1293,-1.0706e-07,-0.9138,0,0,0.11111,-0,-0,0.66667
0.066725,0.97154,0.60052,0.70731,76.003,595.27,-1.1327,0.37756,-0.22099,-1.5102,-4.9865e-07,-0.1105,0,0,0.11111,-0,-0,0.66667
0.45858,0.0013703,4.1273,-0.74794,-63.788,241.43,8.2319,-2.744,-0.010201,10.976,2.4265e-12,-0.0051006,0,0,0.11111,-0,-0,0.66667
0.11334,0.96778,1.0201,0.70167,74.756,549.83,-1.9087,0.63623,-0.24977,-2.5449,-2.6146e-08,-0.12488,0,0,0.11111,-1.9737e-16,0,0.66667
0.027783,0.34728,0.25005,-0.22908,-24.6,633.4,0.15275,-0.050917,-1.8137,0.20367,-2.5685e-07,-0.90686,0,0,0.11111,-0,-0,0.66667
0.75486,0.18688,6.7938,-0.46968,-21.655,57.429,8.509,-2.8363,-1.2154,11.345,-1.0441e-11,-0.6077,0,0,0.11111,-6.5791e-17,0,0.66667
0.39485,0.25428,3.5537,-0.36858,-33.437,292.08,3.4928,-1.1643,-1.5165,4.6571,-9.0039e-13,-0.75825,0,0,0.11111,1.0527e-15,0,0.66667
0.74694,0.36221,6.7224,-0.20668,-9.7565,60.35,3.705,-1.235,-1.8478,4.9401,1.698e-11,-0.92392,0,0,0.11111,-0,-0,0.66667
0.4524,0.14295,4.0716,-0.53558,-45.851,245.76,5.8152,-1.9384,-0.98281,7.7536,2.3257e-12,-0.4914,0,0,0.11111,-5.2633e-16,0,0.66667
0.45009,0.72696,4.0508,0.34044,29.162,247.28,-3.6775,1.2258,-1.588,-4.9033,-1.6362e-12,-0.79399,0,0,0.11111,-0,-0,0.66667
0.47807,0.38599,4.3027,-0.17101,-14.153,225.43,1.9621,-0.65403,-1.8937,2.6161,1.7286e-12,-0.94683,0,0,0.11111,-0,-0,0.66667
0.474,0.36327,4.266,-0.2051,-17.063,228.56,2.3332,-0.77775,-1.8485,3.111,1.2417e-12,-0.92424,0,0,0.11111,-0,-0,0.66667
0.80316,0.22394,7.2285,-0.4141,-15.705,38.249,7.9821,-2.6607,-1.3886,10.643,-1.3926e-10,-0.69428,0,0,0.11111,-0,-0,0.66667
0.40239,0.26003,3.6215,-0.35996,-32.419,285.81,3.4762,-1.1587,-1.5385,4.635,-4.0967e-13,-0.76923,0,0,0.11111,1.0527e-15,0,0.66667
0.90469,0.54607,8.1422,0.069107,1.315,9.7823,-1.5005,0.50016,-1.9845,-2.0007,9.8543e-09,-0.99224,0,0,0.11111,-0,-0,0.66667
0.037061,0.36103,0.33355,-0.20845,-22.369,624.28,0.18541,-0.061803,-1.8432,0.24721,-1.377e-07,-0.9216,0,0,0.11111,-6.5791e-17,0,0.66667
0.77387,0.022193,6.9649,-0.71671,-31.012,50.428,13.311,-4.4372,-0.17116,17.749,6.3531e-11,-0.08558,0,0,0.11111,-0,-0,0.66667
0.12564,0.30208,1.1308,-0.29688,-31.41,537.71,0.8952,-0.2984,-1.6896,1.1936,9.9605e-09,-0.8448,0,0,0.11111,-0,-0,0.66667
0.61851,0.73591,5.5666,0.35386,23.436,128.64,-5.2528,1.7509,-1.5522,-7.0038,7.0077e-13,-0.77611,0,0,0.11111,-7.3247e-16,0,0.66667
0.010364,0.67108,0.093278,0.25662,27.58,650.55,-0.063832,0.021277,-1.7638,-0.085109,-2.2044e-07,-0.8819,0,0,0.11111,-1.6448e-17,0,0.66667
0.53863,0.61673,4.8476,0.1751,13.328,181.03,-2.2635,0.7545,-1.8886,-3.018,2.2755e-12,-0.94431,0,0,0.11111,-5.2633e-16,0,0.66667
0.003018,0.17081,0.027162,-0.49378,-53.165,657.78,0.035764,-0.01192,-1.1328,0.047686,1.6309e-06,-0.5664,0,0,0.11111,-4.1119e-18,2.6195e-16,0.66667
0.95119,0.70633,8.5607,0.30949,3.0333,3.2644,-7.0652,2.3551,-1.6605,-9.4203,-5.2721e-08,-0.83024,0,0,0.11111,-0,-0,0.66667
0.9054,0.10992,8.1486,-0.58512,-11.257,10.87,12.714,-4.2382,-0.78517,16.953,-5.3807e-08,-0.39259,0,0,0.11111,-0,1.3142e-16,0.66667
0.79597,0.86274,7.1637,0.54411,21.383,41.256,-10.394,3.4647,-0.94982,-13.859,-1.199e-10,-0.47491,0,0,0.11111,-0,-1.4574e-16,0.66667
0.91527,0.80119,8.2375,0.45178,7.7497,8.6079,-9.924,3.308,-1.2718,-13.232,3.57e-08,-0.63591,0,0,0.11111,-0,-0,0.66667
0.14556,0.38076,1.31,-0.17885,-18.809,518.43,0.62481,-0.20827,-1.8851,0.83308,2.9251e-09,-0.94254,0,0,0.11111,-0,-0,0.66667
0.15773,0.45044,1.4196,-0.074336,-7.7856,506.7,0.2814,-0.0938,-1.982,0.3752,5.6577e-10,-0.99098,0,0,0.11111,-2.6316e-16,0,0.66667
0.18763,0.90376,1.6887,0.60564,62.983,478.39,-2.7273,0.9091,-0.70064,-3.6364,2.5032e-09,-0.35032,0,0,0.11111,-3.9475e-16,0,0.66667
0.6225,0.46076,5.6025,-0.058862,-3.8596,125.91,0.87939,-0.29313,-1.9884,1.1725,1.1244e-12,-0.99418,0,0,0.11111,-1.0527e-15,0,0.66667
0.90581,0.9188,8.1523,0.62819,12.069,10.983,-13.657,4.5522,-0.60004,-18.209,9.1382e-08,-0.30002,0,0,0.11111,-0,-0,0.66667
0.98996,0.98044,8.9096,0.72066,1.5235,2.2823,-17.122,5.7074,-0.15141,-22.83,5.1365e-05,-0.075707,0,0,0.11111,-0,-0,0.66667
0.71112,0.40281,6.4001,-0.14579,-7.7009,77.047,2.4881,-0.82937,-1.9227,3.3175,5.5336e-12,-0.96135,0,0,0.11111,-2.6316e-16,0,0.66667
0.7318,0.74508,6.5862,0.36762,18.278,67.481,-6.4566,2.1522,-1.5205,-8.6088,-1.3412e-11,-0.76024,0,0,0.11111,-1.0527e-15,0,0.66667
0.90929,0.85251,8.1836,0.52876,9.7349,9.9289,-11.539,3.8464,-1.0059,-15.386,1.6035e-08,-0.50296,0,0,0.11111,-0,-0,0.66667
0.40087,0.68436,3.6079,0.27654,24.928,286.98,-2.6606,0.88687,-1.7271,-3.5475,-3.7561e-12,-0.86353,0,0,0.11111,-5.2633e-16,0,0.66667
0.24985,0.15918,2.2487,-0.51123,-51.607,420.02,3.0656,-1.0219,-1.0754,4.0874,-4.1876e-11,-0.53772,0,0,0.11111,-0,-1.0807e-16,0.66667
0.17343,0.79035,1.5609,0.43553,45.454,491.79,-1.8128,0.60427,-1.3273,-2.4171,-5.0285e-10,-0.66366,0,0,0.11111,-0,-0,0.66667
0.11946,0.97041,1.0751,0.70561,75.072,543.9,-2.023,0.67433,-0.22887,-2.6973,2.0222e-07,-0.11444,0,0,0.11111,-0,-0,0.66667
0.81261,0.84334,7.3135,0.51501,18.734,35.251,-10.044,3.348,-1.0622,-13.392,-3.5044e-10,-0.5311,0,0,0.11111,-1.0856e-15,0,0.66667
0.14679,0.13326,1.3211,-0.55011,-57.983,517.4,1.938,-0.64601,-0.92193,2.584,3.2556e-09,-0.46097,0,0,0.11111,-0,-0,0.66667
0.2643,0.72521,2.3787,0.33782,33.778,406.59,-2.1428,0.71427,-1.5966,-2.8571,1.3742e-11,-0.7983,0,0,0.11111,-0,-0,0.66667
0.81909,0.31561,7.3718,-0.27658,-9.6909,32.451,5.4371,-1.8124,-1.7265,7.2495,-3.9298e-10,-0.86325,0,0,0.11111,-0,-0,0.66667
0.31059,0.5345,2.7953,0.051749,5.0197,364.61,-0.38574,0.12858,-1.9925,-0.51432,1.1964e-12,-0.99627,0,0,0.11111,1.0527e-15,0,0.66667
0.98242,0.3513,8.8418,-0.22306,-0.72107,0.71847,5.2592,-1.7531,-1.8245,7.0123,8.1624e-08,-0.91224,0,0,0.11111,2.1053e-15,0,0.66667
0.26664,0.95957,2.3997,0.68936,69.095,404.83,-4.4114,1.4705,-0.31285,-5.8819,6.092e-12,-0.15643,0,0,0.11111,-2.6316e-16,0,0.66667
0.53365,0.017028,4.8029,-0.72446,-55.931,185.6,9.2786,-3.0929,-0.13431,12.371,2.9887e-12,-0.067157,0,0,0.11111,-2.1053e-15,0,0.66667
0.31447,0.73063,2.8302,0.34595,33.509,361.3,-2.611,0.87032,-1.5755,-3.4813,-5.2336e-13,-0.78774,0,0,0.11111,-0,-0,0.66667
0.91077,0.55158,8.197,0.07737,1.38,8.6678,-1.6912,0.56373,-1.9773,-2.2549,1.051e-08,-0.98864,0,0,0.11111,1.0527e-15,0,0.66667
0.36656,0.39116,3.299,-0.16327,-15.173,315.78,1.4363,-0.47877,-1.9025,1.9151,4.2655e-13,-0.95125,0,0,0.11111,-9.6042e-16,0,0.66667
0.43359,0.8565,3.9023,0.53476,46.742,260.68,-5.5648,1.8549,-0.98218,-7.4197,-1.3531e-12,-0.49109,0,0,0.11111,-0,-0,0.66667
0.51229,0.034253,4.6106,-0.69862,-55.595,200.83,8.5896,-2.8632,-0.26516,11.453,5.7199e-13,-0.13258,0,0,0.11111,-0,4.6936e-17,0.66667
0.93889,0.72753,8.45,0.34129,4.2096,4.7729,-7.6904,2.5635,-1.5879,-10.254,5.7539e-08,-0.79394,0,0,0.11111,-0,-0,0.66667
0.030949,0.36445,0.27854,-0.20332,-21.828,630.29,0.15102,-0.050341,-1.8565,0.20136,-1.9804e-07,-0.92826,0,0,0.11111,3.2895e-17,0,0.66667
0.71688,0.31476,6.4519,-0.27786,-14.447,74.391,4.7805,-1.5935,-1.7278,6.374,8.1797e-12,-0.8639,0,0,0.11111,-0,-0,0.66667
0.89102,0.85273,8.0192,0.52909,11.621,13.512,-11.314,3.7714,-1.0082,-15.086,2.0149e-08,-0.50408,0,0,0.11111,-0,-0,0.66667
0.027287,0.27446,0.24559,-0.33831,-36.353,633.9,0.22155,-0.073852,-1.5924,0.29541,-6.369e-07,-0.79622,0,0,0.11111,3.2895e-17,0,0.66667
0.52205,0.92251,4.6985,0.63376,49.686,193.6,-7.9406,2.6469,-0.56933,-10.587,-1.1724e-12,-0.28467,0,0,0.11111,1.0527e-15,0,0.66667
0.32599,0.33953,2.9339,-0.2407,-23.107,351.03,1.8832,-0.62773,-1.7956,2.5109,8.4188e-13,-0.89781,0,0,0.11111,-1.3158e-16,0,0.66667
0.85949,0.25559,7.7354,-0.36662,-10.182,20.545,7.5625,-2.5208,-1.5264,10.083,-4.4412e-09,-0.76322,0,0,0.11111,2.1053e-15,0,0.66667
0.55852,0.69003,5.0266,0.28504,21.039,167.38,-3.8208,1.2736,-1.7111,-5.0945,1.8117e-12,-0.85556,0,0,0.11111,-0,-0,0.66667
0.69023,0.86982,6.2121,0.55472,31.221,88.44,-9.1892,3.0631,-0.90668,-12.252,-3.2507e-13,-0.45334,0,0,0.11111,1.0527e-15,0,0.66667
0.45285,0.65775,4.0757,0.23663,20.191,244.99,-2.5718,0.85727,-1.8057,-3.4291,-8.0091e-13,-0.90284,0,0,0.11111,1.0527e-15,0,0.66667
0.62831,0.027557,5.6548,-0.70866,-46.277,123.65,10.686,-3.5621,-0.2148,14.248,1.7097e-12,-0.1074,0,0,0.11111,5.2633e-16,0,0.66667
0.2901,0.20927,2.6109,-0.4361,-42.966,383.21,3.0362,-1.0121,-1.3214,4.0483,-2.0459e-12,-0.66071,0,0,0.11111,-0,-0,0.66667
0.0093486,0.28707,0.084137,-0.31939,-34.338,651.55,0.07166,-0.023886,-1.6355,0.095547,3.5384e-07,-0.81773,0,0,0.11111,-0,-0,0.66667
0.57676,0.2741,5.1908,-0.33885,-24.265,155.22,4.6904,-1.5635,-1.594,6.2539,1.6898e-12,-0.79699,0,0,0.11111,5.2633e-16,0,0.66667
0.31144,0.92233,2.803,0.6335,61.676,364.34,-4.7352,1.5784,-0.57523,-6.3136,6.2883e-13,-0.28762,0,0,0.11111,5.2633e-16,1.3147e-16,0.66667
0.51727,0.83517,4.6554,0.50275,39.607,196.74,-6.2413,2.0804,-1.103,-8.3218,-1.1275e-12,-0.5515,0,0,0.11111,-0,-0,0.66667
0.91641,0.69139,8.2477,0.28708,4.8241,7.971,-6.314,2.1047,-1.7058,-8.4187,4.2508e-08,-0.85288,0,0,0.11111,-0,-0,0.66667
0.42647,0.36825,3.8383,-0.19762,-17.354,265.98,2.0227,-0.67424,-1.86,2.697,-3.4062e-13,-0.93002,0,0,0.11111,-7.8949e-16,0,0.66667
0.2474,0.070582,2.2266,-0.64413,-65.209,422.44,3.8245,-1.2748,-0.52536,5.0993,-1.8563e-11,-0.26268,0,0,0.11111,5.2633e-16,-1.0971e-16,0.66667
0.37129,0.12777,3.3416,-0.55835,-51.843,312.17,4.9755,-1.6585,-0.89175,6.634,-2.8542e-12,-0.44588,0,0,0.11111,-0,-0,0.66667
0.93186,0.72999,8.3868,0.34499,4.7459,5.7228,-7.7156,2.5719,-1.5747,-10.287,8.7506e-08,-0.78735,0,0,0.11111,-0,-0,0.66667
0.93687,0.75732,8.4318,0.38599,4.9318,5.1557,-8.6788,2.8929,-1.4736,-11.572,9.9257e-08,-0.73678,0,0,0.11111,-0,-0,0.66667
0.84433,0.12589,7.599,-0.56116,-17.256,25.381,11.371,-3.7904,-0.88475,15.162,-3.3536e-09,-0.44237,0,0,0.11111,-0,-0,0.66667
0.92021,0.14392,8.2819,-0.53411,-8.6848,8.0916,11.796,-3.932,-0.98707,15.728,-3.9797e-08,-0.49353,0,0,0.11111,1.0527e-15,-2.047e-17,0.66667
0.2279,0.25044,2.0511,-0.37434,-38.165,440.29,2.0475,-0.6825,-1.5008,2.73,-4.4792e-11,-0.7504,0,0,0.11111,1.0527e-15,0,0.66667
0.087482,0.79664,0.78734,0.44496,47.52,574.89,-0.93423,0.31141,-1.2935,-1.2456,-2.748e-08,-0.64677,0,0,0.11111,-0,-0,0.66667
0.22731,0.21676,2.0458,-0.42486,-43.346,440.88,2.3178,-0.7726,-1.3568,3.0904,-2.8015e-12,-0.6784,0,0,0.11111,6.5791e-17,0,0.66667
0.31438,0.036855,2.8294,-0.69472,-67.557,361.84,5.2417,-1.7472,-0.28571,6.9889,-2.2191e-12,-0.14286,0,0,0.11111,1.0527e-15,0,0.66667
0.17477,0.82128,1.5729,0.48193,50.293,490.54,-2.0214,0.6738,-1.1744,-2.6952,-2.3328e-10,-0.58719,0,0,0.11111,-0,-0,0.66667
0.60709,0.98884,5.4638,0.73326,49.986,136.72,-10.684,3.5613,-0.088945,-14.245,3.6326e-13,-0.044472,0,0,0.11111,-0,1.2083e-16,0.66667
0.41359,0.46434,3.7223,-0.053489,-4.7576,276.4,0.53094,-0.17698,-1.988,0.70792,-1.2108e-12,-0.99398,0,0,0.11111,7.8949e-16,0,0.66667
0.81635,0.66144,7.3472,0.24216,8.5975,33.308,-4.7446,1.5815,-1.7912,-6.3261,3.8181e-10,-0.89559,0,0,0.11111,2.1053e-15,0,0.66667
0.18513,0.28239,1.6662,-0.32641,-33.89,480.58,1.4503,-0.48343,-1.6231,1.9337,2.6707e-10,-0.81154,0,0,0.11111,-0,-0,0.66667
0.70188,0.46054,6.3169,-0.059197,-3.2094,81.615,0.99718,-0.33239,-1.9898,1.3296,1.0535e-12,-0.99491,0,0,0.11111,-5.2633e-16,0,0.66667
0.24036,0.46871,2.1632,-0.046935,-4.7489,428.56,0.27075,-0.090249,-1.9915,0.36099,-8.2961e-14,-0.99573,0,0,0.11111,-4.0091e-17,0,0.66667
0.57422,0.32472,5.168,-0.26292,-18.898,156.79,3.6233,-1.2078,-1.7532,4.8311,1.3392e-12,-0.87659,0,0,0.11111,-0,-0,0.66667
0.34899,0.81063,3.1409,0.46594,44.026,331.16,-3.9026,1.3009,-1.2274,-5.2034,1.3856e-13,-0.61368,0,0,0.11111,7.237e-16,0,0.66667
0.056964,0.93735,0.51268,0.65602,70.53,604.81,-0.89687,0.29896,-0.4693,-1.1958,1.6342e-06,-0.23465,0,0,0.11111,1.6037e-16,0,0.66667
0.22881,0.50881,2.0593,0.013219,1.3452,439.31,-0.072594,0.024198,-1.9975,-0.096792,-1.367e-11,-0.99874,0,0,0.11111,-0,-0,0.66667
0.6641,0.47164,5.9769,-0.042542,-2.5434,101.68,0.67805,-0.22602,-1.9919,0.90407,-4.4131e-13,-0.99597,0,0,0.11111,-0,-0,0.66667
0.49725,0.51585,4.4753,0.023772,1.9187,210.92,-0.28369,0.094563,-1.998,-0.37825,-1.9354e-13,-0.999,0,0,0.11111,-0,-0,0.66667
0.51902,0.75746,4.6711,0.3862,30.308,195.26,-4.8106,1.6035,-1.4695,-6.4141,-2.0286e-12,-0.73476,0,0,0.11111,-0,-0,0.66667
0.17472,0.54071,1.5725,0.06106,6.3577,490.42,-0.25604,0.085347,-1.9869,-0.34139,-2.1386e-10,-0.99345,0,0,0.11111,-0,-0,0.66667
0.57072,0.46964,5.1364,-0.045534,-3.2894,158.97,0.62368,-0.20789,-1.9914,0.83158,1.1455e-12,-0.9957,0,0,0.11111,-0,-0,0.66667
0.99675,0.161,8.9708,-0.50851,-0.19573,1.0826,12.165,-4.0548,-1.0809,16.219,-1.6461e-06,-0.54046,0,0,0.11111,-0,-0,0.66667
0.81684,0.28888,7.3515,-0.31667,-11.23,33.282,6.2081,-2.0694,-1.6424,8.2774,-3.1043e-10,-0.82121,0,0,0.11111,-0,-0,0.66667
0.59437,0.87103,5.3494,0.55654,38.726,144.21,-7.939,2.6463,-0.90248,-10.585,1.1622e-12,-0.45124,0,0,0.11111,-1.3158e-15,0,0.66667
0.97599,0.78684,8.7839,0.43026,2.0363,1.5847,-10.078,3.3594,-1.3398,-13.438,-1.4323e-06,-0.66988,0,0,0.11111,-0,-0,0.66667
0.90156,0.92953,8.1141,0.64429,12.926,11.862,-13.941,4.6469,-0.52276,-18.588,-1.0518e-07,-0.26138,0,0,0.11111,-0,-0,0.66667
0.59561,0.018087,5.3605,-0.72287,-50.345,143.93,10.333,-3.4444,-0.14318,13.777,5.5067e-14,-0.071592,0,0,0.11111,-0,-0,0.66667
0.032426,0.49057,0.29184,-0.014143,-1.5176,628.83,0.011007,-0.0036699,-2.0015,0.014676,-1.2851e-06,-1.0008,0,0,0.11111,3.2895e-17,0,0.66667
0.093577,0.53087,0.84219,0.046298,4.9295,568.87,-0.10398,0.034659,-1.9975,-0.13864,-4.5636e-08,-0.99877,0,0,0.11111,-5.7567e-17,0,0.66667
0.065372,0.033657,0.58835,-0.69951,-75.172,596.59,1.0975,-0.36583,-0.26129,1.4633,-1.1185e-06,-0.13065,0,0,0.11111,2.6316e-16,0,0.66667
0.45173,0.72381,4.0656,0.33571,28.701,245.98,-3.6396,1.2132,-1.6018,-4.8528,-8.0425e-13,-0.80088,0,0,0.11111,-0,-0,0.66667
0.37543,0.69553,3.3789,0.29329,27.066,308.31,-2.6427,0.88089,-1.6977,-3.5235,1.2337e-12,-0.84884,0,0,0.11111,-0,-0,0.66667
0.97535,0.64852,8.7782,0.22279,1.0531,1.0936,-5.215,1.7383,-1.8214,-6.9534,-2.4471e-07,-0.91068,0,0,0.11111,-1.0527e-15,0,0.66667
0.16798,0.89582,1.5118,0.59373,62.184,497.1,-2.3937,0.79789,-0.74571,-3.1916,-5.5941e-09,-0.37285,0,0,0.11111,-0,-0,0.66667
0.97279,0.56419,8.7551,0.09629,0.50303,1.0962,-2.2481,0.74935,-1.9672,-2.9974,-5.1959e-07,-0.98358,0,0,0.11111,-0,-0,0.66667
0.76747,0.86915,6.9073,0.55372,24.43,52.386,-10.199,3.3997,-0.91159,-13.599,-1.8634e-10,-0.45579,0,0,0.11111,1.579e-15,0,0.66667
0.82424,0.22624,7.4181,-0.41063,-14.052,31.065,8.123,-2.7077,-1.3998,10.831,-4.1272e-10,-0.69991,0,0,0.11111,-0,-0,0.66667
0.63262,0.8604,5.6935,0.54059,34.867,120.55,-8.2077,2.7359,-0.95816,-10.944,4.0501e-13,-0.47908,0,0,0.11111,-7.4917e-16,0,0.66667
0.66873,0.36484,6.0186,-0.20274,-11.995,99.221,3.2539,-1.0846,-1.8536,4.3386,1.0969e-13,-0.92682,0,0,0.11111,1.0527e-15,0,0.66667
0.47688,0.74241,4.2919,0.36361,30.177,226.53,-4.1616,1.3872,-1.5276,-5.5488,1.2772e-12,-0.7638,0,0,0.11111,-5.2633e-16,0,0.66667
0.013136,0.46859,0.11823,-0.047109,-5.0596,647.81,0.014852,-0.0049532,-1.9941,0.019802,-3.7048e-06,-0.99704,0,0,0.11111,1.799e-17,0,0.66667
0.35301,0.94008,3.1771,0.66012,62.322,327.99,-5.5927,1.8642,-0.44927,-7.4569,9.579e-13,-0.22463,0,0,0.11111,1.0527e-15,0,0.66667
0.49207,0.4744,4.4286,-0.038396,-3.1204,214.79,0.45345,-0.15115,-1.9927,0.6046,2.9028e-12,-0.99634,0,0,0.11111,-0,-0,0.66667
0.73009,0.85606,6.5708,0.53409,26.782,68.714,-9.3584,3.1195,-0.98443,-12.478,-4.805e-12,-0.49221,0,0,0.11111,-0,-0,0.66667
0.46863,0.0050218,4.2177,-0.74247,-62.568,233.65,8.3506,-2.7835,-0.044381,11.134,6.1284e-13,-0.02219,0,0,0.11111,-0,-7.0988e-17,0.66667
0.4574,0.88319,4.1166,0.57479,48.951,241.93,-6.3099,2.1033,-0.82428,-8.4131,-1.0187e-12,-0.41214,0,0,0.11111,-0,-0,0.66667
0.13766,0.26484,1.239,-0.35274,-37.214,526.1,1.1654,-0.38848,-1.5574,1.5539,5.2905e-09,-0.77868,0,0,0.11111,-2.6316e-16,0,0.66667
0.010889,0.68672,0.097999,0.28008,30.105,650.03,-0.073194,0.024398,-1.7209,-0.097592,-2.1644e-07,-0.86044,0,0,0.11111,6.1679e-18,0,0.66667
0.75828,0.83746,6.8245,0.50619,23.074,56.076,-9.2119,3.0706,-1.0868,-12.283,-5.2031e-11,-0.54342,0,0,0.11111,-1.0527e-15,0,0.66667
0.31995,0.86043,2.8796,0.54065,52.261,356.66,-4.1516,1.3839,-0.95795,-5.5354,1.7311e-12,-0.47898,0,0,0.11111,5.2633e-16,0,0.66667
0.98438,0.31945,8.8595,-0.27082,-0.76901,0.72372,6.3982,-2.1327,-1.7436,8.531,3.278e-08,-0.87178,0,0,0.11111,-2.1053e-15,0,0.66667
0.22023,0.4353,1.9821,-0.097057,-9.918,447.34,0.51301,-0.171,-1.9693,0.68401,-1.8218e-11,-0.98466,0,0,0.11111,-3.9475e-16,0,0.66667
0.33871,0.50907,3.0484,0.013607,1.2931,339.8,-0.11061,0.036872,-1.9977,-0.14749,3.4859e-12,-0.99885,0,0,0.11111,-0,-0,0.66667
0.5239,0.61367,4.7151,0.17051,13.267,191.49,-2.1439,0.71464,-1.894,-2.8586,5.2092e-13,-0.947,0,0,0.11111,-0,-0,0.66667
0.75489,0.0091619,6.794,-0.73626,-34.187,58.387,13.339,-4.4464,-0.07107,17.785,-2.6543e-11,-0.035535,0,0,0.11111,-0,-0,0.66667
0.46386,0.37444,4.1747,-0.18835,-15.862,236.37,2.0968,-0.69893,-1.8736,2.7957,6.0929e-13,-0.9368,0,0,0.11111,4.6054e-16,0,0.66667
0.12482,0.28014,1.1234,-0.32978,-34.906,538.52,0.98794,-0.32931,-1.6183,1.3173,1.044e-08,-0.80916,0,0,0.11111,-3.783e-16,0,0.66667
0.3125,0.29996,2.8125,-0.30006,-29.095,363.01,2.2505,-0.75015,-1.6838,3.0006,-2.2193e-12,-0.84188,0,0,0.11111,-5.2633e-16,0,0.66667
0.50452,0.52287,4.5407,0.034305,2.7419,205.53,-0.41538,0.13846,-1.9946,-0.55384,5.5234e-13,-0.99729,0,0,0.11111,-0,-0,0.66667
0.67385,0.31868,6.0646,-0.27198,-15.898,96.513,4.3986,-1.4662,-1.7385,5.8648,1.334e-12,-0.86926,0,0,0.11111,-0,-0,0.66667
0.77015,0.54256,6.9313,0.063843,2.7684,50.36,-1.18,0.39335,-1.984,-1.5734,-1.4124e-11,-0.99202,0,0,0.11111,-0,-0,0.66667
0.13034,0.17934,1.173,-0.48099,-50.899,533.24,1.5046,-0.50152,-1.1757,2.0061,6.4374e-09,-0.58786,0,0,0.11111,-0,-0,0.66667
0.022915,0.35841,0.20624,-0.21238,-22.811,638.19,0.1168,-0.038934,-1.8369,0.15574,-2.1532e-07,-0.91845,0,0,0.11111,-0,-0,0.66667
0.51908,0.0024929,4.6717,-0.74626,-58.875,196.06,9.2969,-3.099,-0.020382,12.396,7.1054e-13,-0.010191,0,0,0.11111,-0,-0,0.66667
0.80999,0.020865,7.2899,-0.7187,-26.661,36.967,13.971,-4.6571,-0.1639,18.629,-1.4615e-10,-0.081949,0,0,0.11111,-0,-1.1678e-16,0.66667
0.012604,0.45379,0.11343,-0.069322,-7.4455,648.34,0.02097,-0.0069907,-1.9826,0.027959,-1.3438e-06,-0.99131,0,0,0.11111,-1.6448e-17,0,0.66667
0.67247,0.055898,6.0522,-0.66615,-39.328,98.258,10.751,-3.5837,-0.42562,14.335,-3.9879e-13,-0.21281,0,0,0.11111,-0,-0,0.66667
0.68681,0.435,6.1813,-0.097497,-5.5069,89.408,1.6071,-0.53569,-1.9701,2.1428,1.3378e-12,-0.98506,0,0,0.11111,-2.6316e-16,0,0.66667
0.44925,0.28739,4.0432,-0.31891,-27.339,247.91,3.4385,-1.1462,-1.6379,4.5846,-1.3123e-13,-0.81896,0,0,0.11111,-0,-0,0.66667
0.91479,0.19753,8.2331,-0.4537,-7.8271,8.6968,9.961,-3.3203,-1.2656,13.281,-3.3726e-08,-0.63281,0,0,0.11111,-0,-0,0.66667
0.64436,0.4203,5.7992,-0.11955,-7.4825,112.93,1.8488,-0.61626,-1.9482,2.465,-1.5854e-12,-0.97411,0,0,0.11111,1.0527e-15,0,0.66667
0.0052398,0.20711,0.047159,-0.43934,-47.279,655.59,0.055249,-0.018415,-1.3118,0.073666,1.3414e-06,-0.65589,0,0,0.11111,8.2239e-18,0,0.66667
0.48443,0.57285,4.3599,0.10927,8.9693,220.56,-1.2704,0.42347,-1.9615,-1.6939,-1.7764e-12,-0.98074,0,0,0.11111,-0,-0,0.66667
0.85932,0.14044,7.7339,-0.53934,-15.084,21.129,11.123,-3.7077,-0.96947,14.831,-3.2652e-09,-0.48473,0,0,0.11111,1.0527e-15,1.6369e-16,0.66667
0.8304,0.016633,7.4736,-0.72505,-24.281,30.287,14.45,-4.8167,-0.1314,19.267,-1.7111e-09,-0.0657,0,0,0.11111,-0,-0,0.66667
0.64915,0.8039,5.8424,0.45585,28.318,110.67,-7.102,2.3673,-1.2588,-9.4693,-5.2047e-13,-0.6294,0,0,0.11111,5.2633e-16,0,0.66667
0.6737,0.39339,6.0633,-0.15991,-9.3429,96.464,2.5856,-0.86186,-1.9102,3.4475,1.4222e-12,-0.95512,0,0,0.11111,-0,-0,0.66667
0.5785,0.24869,5.2065,-0.37697,-26.923,154.13,5.2338,-1.7446,-1.4994,6.9784,3.1015e-12,-0.74969,0,0,0.11111,-1.3816e-15,0,0.66667
0.27412,0.80773,2.4671,0.46159,45.939,397.72,-3.0368,1.0123,-1.2405,-4.049,1.446e-12,-0.62027,0,0,0.11111,4.2548e-16,0,0.66667
0.56053,0.71072,5.0448,0.31608,23.259,166.05,-4.2521,1.4174,-1.6461,-5.6695,1.9234e-12,-0.82305,0,0,0.11111,-0,-0,0.66667
0.67173,0.62115,6.0456,0.18173,10.671,97.557,-2.9298,0.97658,-1.8871,-3.9063,-2.0852e-12,-0.94356,0,0,0.11111,2.6316e-16,0,0.66667
0.35243,0.34464,3.1719,-0.23303,-21.919,327.95,1.9711,-0.65702,-1.8058,2.6281,-1.8076e-12,-0.90288,0,0,0.11111,1.0527e-15,0,0.66667
0.85583,0.65273,7.7025,0.2291,6.499,21.25,-4.7057,1.5686,-1.8136,-6.2743,3.6862e-09,-0.9068,0,0,0.11111,-1.0624e-15,0,0.66667
0.19504,0.51527,1.7553,0.0229,2.3658,471.09,-0.10719,0.035732,-1.9954,-0.14293,-5.2884e-11,-0.99769,0,0,0.11111,-0,-0,0.66667
0.74732,0.86961,6.7259,0.55441,26.289,60.972,-9.9437,3.3146,-0.90794,-13.258,4.4231e-13,-0.45397,0,0,0.11111,-1.0527e-15,0,0.66667
0.2896,0.35335,2.6064,-0.21998,-21.648,383.49,1.5289,-0.50965,-1.8255,2.0386,-2.2179e-12,-0.91273,0,0,0.11111,-0,-0,0.66667
0.7738,0.19872,6.9642,-0.45191,-19.415,49.5,8.3926,-2.7975,-1.2712,11.19,5.4174e-11,-0.63562,0,0,0.11111,-0,-0,0.66667
0.42774,0.59783,3.8496,0.14674,12.866,264.93,-1.5064,0.50214,-1.922,-2.0086,-1.3318e-12,-0.96101,0,0,0.11111,-0,-0,0.66667
0.8077,0.9076,7.2693,0.6114,22.834,37.3,-11.852,3.9506,-0.67053,-15.803,5.3097e-10,-0.33526,0,0,0.11111,-0,-0,0.66667
0.35353,0.62332,3.1818,0.18498,17.379,326.97,-1.5695,0.52316,-1.8774,-2.0927,-4.5867e-12,-0.93868,0,0,0.11111,-5.3979e-16,0,0.66667
0.21369,0.80105,1.9232,0.45158,46.375,453.65,-2.316,0.772,-1.2731,-3.088,-4.3116e-11,-0.63656,0,0,0.11111,-0,-0,0.66667
0.76728,0.81803,6.9056,0.47705,21.024,52.222,-8.7847,2.9282,-1.1929,-11.713,-5.9811e-11,-0.59644,0,0,0.11111,2.1053e-15,0,0.66667
0.30864,0.73296,2.7778,0.34943,33.984,366.49,-2.5884,0.8628,-1.5648,-3.4512,1.7715e-12,-0.78239,0,0,0.11111,-0,-0,0.66667
0.73325,0.037188,6.5992,-0.69422,-34.607,67.83,12.217,-4.0723,-0.28915,16.289,5.0653e-12,-0.14458,0,0,0.11111,-0,-0,0.66667
0.74447,0.1909,6.7003,-0.46365,-22.154,61.958,8.2843,-2.7614,-1.2345,11.046,2.3107e-11,-0.61724,0,0,0.11111,-0,-0,0.66667
0.2214,0.1725,1.9926,-0.49125,-50.29,446.46,2.6102,-0.87008,-1.1421,3.4803,-9.559e-12,-0.57104,0,0,0.11111,-2.6316e-16,0,0.66667
0.21411,0.83309,1.927,0.49963,51.324,453.3,-2.5674,0.85581,-1.1109,-3.4233,1.0369e-10,-0.55546,0,0,0.11111,-2.6316e-16,0,0.66667
0.19895,0.49478,1.7905,-0.0078289,-0.80748,467.39,0.037381,-0.01246,-1.9992,0.049841,1.7964e-10,-0.9996,0,0,0.11111,7.8949e-16,0,0.66667
0.14252,0.78951,1.2827,0.43426,45.779,521.45,-1.4854,0.49512,-1.3309,-1.9805,-3.5864e-09,-0.66544,0,0,0.11111,-2.6316e-16,0,0.66667
0.37708,0.70695,3.3937,0.31042,28.609,306.94,-2.8093,0.93644,-1.6583,-3.7458,1.1116e-12,-0.82913,0,0,0.11111,-5.2633e-16,0,0.66667
0.026628,0.82468,0.23965,0.48703,52.397,634.56,-0.31124,0.10375,-1.1551,-0.41499,2.31e-06,-0.57753,0,0,0.11111,-0,-0,0.66667
0.11092,0.24085,0.99828,-0.38873,-41.3,552.03,1.0348,-0.34494,-1.4645,1.3798,1.9254e-08,-0.73224,0,0,0.11111,-1.3158e-16,0,0.66667
0.67456,0.57903,6.0711,0.11854,6.9094,95.963,-1.9191,0.6397,-1.9501,-2.5588,-1.33e-12,-0.97506,0,0,0.11111,-0,-0,0.66667
0.79978,0.57762,7.198,0.11643,4.4649,38.962,-2.2348,0.74493,-1.9516,-2.9797,6.8673e-11,-0.97582,0,0,0.11111,-0,-0,0.66667
0.08053,0.70157,0.72477,0.30235,32.294,581.65,-0.58435,0.19478,-1.6754,-0.77913,-5.1222e-08,-0.83769,0,0,0.11111,-0,-0,0.66667
0.2317,0.60343,2.0853,0.15515,15.77,436.63,-0.86276,0.28759,-1.9147,-1.1503,3.0509e-11,-0.95737,0,0,0.11111,-0,-0,0.66667
0.20763,0.26797,1.8686,-0.34804,-35.809,459.29,1.7343,-0.5781,-1.5678,2.3124,2.0413e-11,-0.78388,0,0,0.11111,-0,-0,0.66667
0.91733,0.93397,8.256,0.65096,11.049,9.0682,-14.332,4.7772,-0.49275,-19.109,2.2866e-07,-0.24638,0,0,0.11111,1.3158e-15,0,0.66667
0.71131,0.24993,6.4018,-0.3751,-19.849,77.292,6.4035,-2.1345,-1.4987,8.538,5.9037e-12,-0.74934,0,0,0.11111,-1.8093e-16,0,0.66667
0.55388,0.3859,4.985,-0.17115,-12.719,170.43,2.2752,-0.75839,-1.8933,3.0336,1.6587e-13,-0.94665,0,0,0.11111,1.0527e-15,0,0.66667
0.30452,0.53411,2.7407,0.051171,4.9843,370.03,-0.37398,0.12466,-1.9891,-0.49864,3.5902e-13,-0.99453,0,0,0.11111,1.0527e-15,0,0.66667
0.83485,0.80735,7.5137,0.46103,14.92,27.866,-9.2374,3.0791,-1.2424,-12.316,8.6951e-11,-0.62121,0,0,0.11111,5.2633e-16,0,0.66667
0.43531,0.59396,3.9178,0.14094,12.258,258.84,-1.4725,0.49083,-1.9317,-1.9633,1.3471e-12,-0.96584,0,0,0.11111,-0,-0,0.66667
0.92346,0.7841,8.3111,0.42615,6.6078,7.1963,-9.4448,3.1483,-1.3569,-12.593,1.0139e-07,-0.67843,0,0,0.11111,-0,-0,0.66667
0.70605,0.022107,6.3545,-0.71684,-38.789,80.956,12.147,-4.049,-0.17305,16.196,3.6202e-12,-0.086527,0,0,0.11111,-1.0527e-15,0,0.66667
0.47803,0.36938,4.3023,-0.19593,-16.218,225.47,2.2478,-0.74927,-1.8617,2.9971,9.6012e-13,-0.93084,0,0,0.11111,-0,-0,0.66667
0.12621,0.48856,1.1359,-0.017157,-1.8135,537.12,0.05197,-0.017323,-2.001,0.069293,-2.7735e-09,-1.0005,0,0,0.11111,-2.6316e-16,0,0.66667
0.97604,0.25886,8.7844,-0.36171,-1.6874,1.3696,8.4732,-2.8244,-1.5324,11.298,7.9848e-07,-0.76619,0,0,0.11111,-0,-0,0.66667
0.15983,0.51478,1.4385,0.022177,2.321,504.68,-0.085071,0.028357,-1.9974,-0.11343,-2.5543e-10,-0.99871,0,0,0.11111,-0,-0,0.66667
0.2026,0.38323,1.8234,-0.17515,-18.043,463.96,0.85167,-0.28389,-1.8943,1.1356,7.5784e-11,-0.94714,0,0,0.11111,-0,-0,0.66667
0.43118,0.93483,3.8806,0.65225,57.254,262.85,-6.7497,2.2499,-0.48602,-8.9996,-3.2019e-12,-0.24301,0,0,0.11111,6.5791e-16,0,0.66667
0.4042,0.52781,3.6378,0.041718,3.7451,284.11,-0.4047,0.1349,-1.9957,-0.53959,-3.7354e-12,-0.99784,0,0,0.11111,2.6316e-16,0,0.66667
0.14675,0.44714,1.3208,-0.079294,-8.3336,517.26,0.27928,-0.093092,-1.9754,0.37237,1.2767e-09,-0.98772,0,0,0.11111,-0,-0,0.66667
0.72932,0.58857,6.5639,0.13285,6.6412,68.294,-2.3254,0.77514,-1.9361,-3.1005,-8.1719e-12,-0.96803,0,0,0.11111,2.0108e-15,0,0.66667
0.18875,0.61402,1.6987,0.17103,17.718,477.08,-0.77473,0.25824,-1.898,-1.033,-1.7472e-10,-0.94902,0,0,0.11111,-0,-0,0.66667
0.6439,0.80578,5.7951,0.45867,28.831,113.71,-7.088,2.3627,-1.252,-9.4507,-1.5903e-12,-0.62601,0,0,0.11111,1.0527e-15,0,0.66667
0.75431,0.53135,6.7888,0.047021,2.1615,57.009,-0.85124,0.28375,-1.9924,-1.135,4.3846e-12,-0.99619,0,0,0.11111,2.1053e-15,0,0.66667
0.21073,0.55585,1.8966,0.083768,8.5969,456.27,-0.42366,0.14122,-1.9729,-0.56488,1.9033e-11,-0.98643,0,0,0.11111,-0,-0,0.66667
0.60095,0.4743,5.4086,-0.038552,-2.6375,139.28,0.55603,-0.18534,-1.9927,0.74138,1.0003e-12,-0.99635,0,0,0.11111,-0,-0,0.66667
0.74893,0.92472,6.7404,0.63708,30.109,60.561,-11.451,3.817,-0.55912,-15.268,-2.6938e-11,-0.27956,0,0,0.11111,-1.9396e-15,0,0.66667
0.63822,0.64505,5.744,0.21758,13.811,116.61,-3.3327,1.1109,-1.8322,-4.4436,9.1416e-13,-0.9161,0,0,0.11111,-1.0527e-15,0,0.66667
0.59713,0.87531,5.3741,0.56297,38.978,142.47,-8.0679,2.6893,-0.87413,-10.757,-2.9834e-12,-0.43707,0,0,0.11111,2.1053e-15,0,0.66667
0.29548,0.69398,2.6593,0.29098,28.537,378.23,-2.0635,0.68783,-1.7012,-2.7513,7.5844e-12,-0.85062,0,0,0.11111,-0,-0,0.66667
0.73161,0.43917,6.5845,-0.091241,-4.5272,67.2,1.6021,-0.53402,-1.9717,2.1361,5.8046e-12,-0.98587,0,0,0.11111,-0,-0,0.66667
0.94531,0.6355,8.5078,0.20324,2.2255,3.7079,-4.6111,1.537,-1.8505,-6.1481,-4.0421e-08,-0.92527,0,0,0.11111,-0,-0,0.66667
0.42556,0.15536,3.8301,-0.51696,-45.563,267.1,5.28,-1.76,-1.0504,7.04,-1.7808e-13,-0.52518,0,0,0.11111,7.566e-16,0,0.66667
0.78218,0.19467,7.0396,-0.458,-19.034,46.201,8.5977,-2.8659,-1.257,11.464,-3.4514e-11,-0.62852,0,0,0.11111,-0,-0,0.66667
0.056141,0.68805,0.50527,0.28208,30.227,605.54,-0.38006,0.12669,-1.7161,-0.50675,6.2644e-09,-0.85807,0,0,0.11111,-0,-0,0.66667
0.83527,0.028677,7.5174,-0.70698,-23.038,28.698,14.173,-4.7242,-0.22131,18.897,-1.7e-09,-0.11066,0,0,0.11111,5.2633e-16,0,0.66667
0.19225,0.70737,1.7303,0.31106,32.202,473.81,-1.4352,0.4784,-1.6544,-1.9136,-1.6957e-10,-0.82718,0,0,0.11111,-2.6316e-16,0,0.66667
0.3951,0.6846,3.5559,0.2769,25.097,291.78,-2.6256,0.87521,-1.727,-3.5008,-1.2228e-12,-0.86348,0,0,0.11111,-6.5791e-16,0,0.66667
0.30008,0.27699,2.7007,-0.33451,-32.717,374.13,2.4091,-0.80304,-1.6026,3.2121,-3.3722e-12,-0.80129,0,0,0.11111,-2.6316e-16,0,0.66667
0.080104,0.11302,0.72093,-0.58048,-62.153,582.14,1.116,-0.37199,-0.80295,1.4879,-5.1498e-09,-0.40147,0,0,0.11111,-0,-0,0.66667
0.90463,0.21641,8.1417,-0.42539,-8.1767,10.43,9.2357,-3.0786,-1.3592,12.314,-3.3152e-08,-0.67961,0,0,0.11111,2.6316e-16,0,0.66667
0.37015,0.67058,3.3314,0.25588,23.716,312.77,-2.2731,0.75771,-1.7654,-3.0308,1.1502e-12,-0.8827,0,0,0.11111,5.2633e-16,0,0.66667
0.5307,0.84534,4.7763,0.51801,40.03,187.14,-6.5977,2.1992,-1.0502,-8.7969,-2.2649e-13,-0.52512,0,0,0.11111,-2.1053e-15,1.4393e-16,0.66667
0.49412,0.10752,4.447,-0.58872,-47.926,213.94,6.9815,-2.3272,-0.76534,9.3087,-5.3202e-13,-0.38267,0,0,0.11111,-0,-0,0.66667
0.13216,0.061087,1.1895,-0.65837,-69.774,531.58,2.0883,-0.69609,-0.45754,2.7843,-6.8124e-08,-0.22877,0,0,0.11111,-3.783e-16,0,0.66667
0.20645,0.38428,1.8581,-0.17358,-17.852,460.32,0.86008,-0.28669,-1.8926,1.1468,3.7818e-11,-0.94628,0,0,0.11111,-0,-0,0.66667
0.076189,0.5681,0.6857,0.10216,10.91,585.87,-0.1868,0.062266,-1.9646,-0.24906,-5.5079e-08,-0.98228,0,0,0.11111,2.6316e-16,0,0.66667
0.50792,0.63661,4.5713,0.20492,16.311,203.11,-2.498,0.83266,-1.848,-3.3306,2.9932e-13,-0.92402,0,0,0.11111,-1.0527e-15,0,0.66667
0.26155,0.1988,2.3539,-0.4518,-45.289,409.2,2.8361,-0.94535,-1.2731,3.7814,-1.5524e-11,-0.63655,0,0,0.11111,-5.2633e-16,0,0.66667
0.35706,0.84156,3.2136,0.51235,48.119,324.26,-4.3905,1.4635,-1.0684,-5.854,4.1585e-12,-0.53422,0,0,0.11111,-5.522e-16,0,0.66667
0.10807,0.13021,0.97259,-0.55468,-59.06,554.87,1.4386,-0.47954,-0.90861,1.9181,-1.0341e-08,-0.4543,0,0,0.11111,-0,-0,0.66667
0.78755,0.93291,7.088,0.64937,26.539,44.801,-12.274,4.0913,-0.49901,-16.365,3.9095e-10,-0.24951,0,0,0.11111,5.2633e-16,0,0.66667
0.10658,0.87107,0.95925,0.5566,59.284,556.32,-1.4238,0.4746,-0.89938,-1.8984,1.596e-08,-0.44969,0,0,0.11111,1.9737e-16,0,0.66667
0.98571,0.9298,8.8714,0.6447,1.8777,2.0185,-15.252,5.0839,-0.52438,-20.335,1.7817e-05,-0.26219,0,0,0.11111,1.0527e-15,-1.4942e-16,0.66667
0.17716,0.15703,1.5945,-0.51445,-53.658,488.28,2.1874,-0.72912,-1.0585,2.9165,-1.5209e-10,-0.52923,0,0,0.11111,-5.2633e-16,0,0.66667
0.57241,0.75599,5.1516,0.38399,27.718,158.18,-5.2751,1.7584,-1.4741,-7.0335,3.5083e-13,-0.73705,0,0,0.11111,-0,-0,0.66667
0.044845,0.56263,0.40361,0.093952,10.072,616.62,-0.10112,0.033706,-1.9711,-0.13483,-1.7063e-07,-0.98557,0,0,0.11111,-0,-0,0.66667
0.78712,0.43913,7.084,-0.0913,-3.6989,43.665,1.7247,-0.57491,-1.9694,2.2996,5.0601e-11,-0.98469,0,0,0.11111,-0,-0,0.66667
0.18961,0.30387,1.7065,-0.29419,-30.485,476.31,1.3387,-0.44624,-1.6934,1.785,2.1496e-10,-0.84668,0,0,0.11111,-2.6316e-16,0,0.66667
0.5279,0.5253,4.7511,0.037957,2.9349,188.57,-0.48091,0.1603,-1.9949,-0.64121,-4.8575e-13,-0.99746,0,0,0.11111,-5.2633e-16,0,0.66667
0.74008,0.36621,6.6607,-0.20069,-9.6942,63.412,3.5646,-1.1882,-1.8548,4.7528,1.2395e-11,-0.92742,0,0,0.11111,5.2633e-16,0,0.66667
0.14993,0.60239,1.3494,0.15358,16.128,514.21,-0.55264,0.18421,-1.914,-0.73685,-2.7108e-09,-0.95698,0,0,0.11111,-0,-0,0.66667
0.55109,0.45316,4.9598,-0.070264,-5.2433,172.3,0.92932,-0.30977,-1.9811,1.2391,1.9153e-12,-0.99054,0,0,0.11111,-1.0527e-15,0,0.66667
0.21662,0.72246,1.9496,0.33368,34.191,450.83,-1.7348,0.57825,-1.6058,-2.313,2.5604e-11,-0.80291,0,0,0.11111,-0,-0,0.66667
0.7592,0.24977,6.8328,-0.37534,-17.008,55.337,6.839,-2.2797,-1.4982,9.1187,2.2527e-11,-0.74909,0,0,0.11111,-6.5791e-17,0,0.66667
0.72292,0.084038,6.5062,-0.62394,-32.057,72.392,10.825,-3.6085,-0.61472,14.434,1.7249e-11,-0.30736,0,0,0.11111,-0,-0,0.66667
0.17655,0.20822,1.5889,-0.43766,-45.626,488.81,1.8545,-0.61815,-1.3174,2.4726,4.464e-10,-0.65871,0,0,0.11111,-2.6316e-16,0,0.66667
0.86197,0.89903,7.7577,0.59854,16.487,20.663,-12.382,4.1274,-0.72689,-16.51,1.7693e-08,-0.36344,0,0,0.11111,1.579e-15,0,0.66667
0.019775,0.62664,0.17798,0.18996,20.404,641.28,-0.090154,0.030051,-1.8718,-0.1202,1.171e-07,-0.93588,0,0,0.11111,-0,-0,0.66667
0.86024,0.54363,7.7421,0.065447,1.7998,19.899,-1.3512,0.4504,-1.9873,-1.8016,7.9075e-10,-0.99365,0,0,0.11111,-0,-0,0.66667
0.5589,0.92791,5.0301,0.64186,47.567,167.86,-8.6098,2.8699,-0.53456,-11.48,-4.3698e-13,-0.26728,0,0,0.11111,5.2633e-16,0,0.66667
0.40322,0.88194,3.629,0.57292,51.676,285.45,-5.5443,1.8481,-0.83318,-7.3924,-3.1615e-12,-0.41659,0,0,0.11111,1.0527e-15,0,0.66667
0.75875,0.73783,6.8287,0.35675,16.187,55.486,-6.4964,2.1655,-1.5449,-8.6618,-2.2327e-11,-0.77245,0,0,0.11111,-8.9854e-16,0,0.66667
0.71693,0.2611,6.4524,-0.35836,-18.649,74.514,6.166,-2.0553,-1.5446,8.2213,7.8395e-12,-0.77232,0,0,0.11111,-0,-0,0.66667
0.98733,0.60358,8.8859,0.15537,0.33587,0.41233,-3.6815,1.2272,-1.9142,-4.9087,-2.9483e-08,-0.9571,0,0,0.11111,-0,-0,0.66667
0.27809,0.4976,2.5028,-0.0035968,-0.35631,393.87,0.024005,-0.0080017,-2.0007,0.032007,4.2617e-12,-1.0004,0,0,0.11111,-1.6448e-15,0,0.66667
0.0037937,0.97111,0.034143,0.70667,76.272,657.02,-0.064367,0.021467,-0.22469,-0.085817,1.7265e-05,-0.11234,0,0,0.11111,-0,-0,0.66667
0.9339,0.071572,8.4051,-0.64264,-8.7721,6.5385,14.404,-4.8013,-0.53105,19.205,2.5033e-07,-0.26552,0,0,0.11111,-2.1053e-15,0,0.66667
0.8579,0.74205,7.7211,0.36307,10.19,20.962,-7.4754,2.4918,-1.5333,-9.9672,4.1574e-09,-0.76664,0,0,0.11111,5.2633e-16,0,0.66667
0.72885,0.92647,6.5597,0.63971,32.285,69.654,-11.19,3.73,-0.54293,-14.92,-7.1667e-12,-0.27147,0,0,0.11111,1.0527e-15,0,0.66667
0.51669,0.65174,4.6502,0.2276,17.898,196.74,-2.8224,0.9408,-1.8188,-3.7632,-2.391e-12,-0.90941,0,0,0.11111,5.2633e-16,0,0.66667
0.70696,0.93042,6.3626,0.64563,34.781,80.232,-10.954,3.6515,-0.51736,-14.606,2.7551e-12,-0.25868,0,0,0.11111,-0,-0,0.66667
0.78053,0.45537,7.0248,-0.06695,-2.7868,46.206,1.2542,-0.41805,-1.9868,1.6722,2.6368e-12,-0.99338,0,0,0.11111,-1.0527e-15,0,0.66667
0.37488,0.11087,3.3739,-0.58369,-54.046,309.17,5.2515,-1.7505,-0.79226,7.002,-1.0614e-13,-0.39613,0,0,0.11111,5.2633e-16,0,0.66667
0.77032,0.95794,6.9329,0.68691,30.1,51.731,-12.699,4.2331,-0.32079,-16.932,-1.4745e-10,-0.16039,0,0,0.11111,-0,-0,0.66667
0.75062,0.10449,6.7556,-0.59326,-27.842,59.658,10.688,-3.5625,-0.75158,14.25,3.5078e-11,-0.37579,0,0,0.11111,2.1053e-15,0,0.66667
0.61321,0.0099463,5.5189,-0.73508,-49.519,132.92,10.818,-3.6061,-0.077946,14.424,-9.3525e-13,-0.038973,0,0,0.11111,-0,-0,0.66667
0.40187,0.45435,3.6168,-0.068473,-6.1612,286.05,0.6604,-0.22013,-1.9818,0.88054,2.5524e-12,-0.99092,0,0,0.11111,-0,-0,0.66667
0.69731,0.15606,6.2758,-0.51591,-28.467,84.673,8.6339,-2.878,-1.053,11.512,4.5954e-12,-0.52649,0,0,0.11111,-1.431e-15,0,0.66667
0.0031129,0.95616,0.028016,0.68424,73.83,657.69,-0.051133,0.017058,-0.33507,-0.06817,2.1105e-05,-0.16754,0,0,0.11111,-0,-5.0647e-16,0.66667
0.7749,0.028189,6.9741,-0.70772,-30.493,49.98,13.162,-4.3873,-0.21772,17.549,6.9492e-11,-0.10886,0,0,0.11111,-6.7497e-17,0,0.66667
0.89642,0.93699,8.0677,0.65549,13.816,12.93,-14.102,4.7007,-0.47157,-18.803,-3.7572e-07,-0.23579,0,0,0.11111,6.5791e-17,0,0.66667
0.23932,0.059047,2.1538,-0.66143,-67.257,429.94,3.799,-1.2663,-0.44364,5.0653,-5.4134e-13,-0.22182,0,0,0.11111,1.3158e-16,0,0.66667
0.12077,0.26721,1.0869,-0.34919,-37.003,542.45,1.0121,-0.33737,-1.5651,1.3495,1.1628e-08,-0.78255,0,0,0.11111,-1.3158e-16,0,0.66667
0.22028,0.67864,1.9826,0.26796,27.399,447.35,-1.4167,0.47222,-1.7465,-1.8889,2.0448e-11,-0.87325,0,0,0.11111,-2.6316e-16,0,0.66667
0.3021,0.87235,2.7189,0.55852,54.67,372.57,-4.0495,1.3498,-0.88999,-5.3993,2.1858e-12,-0.44499,0,0,0.11111,-0,-0,0.66667
0.88303,0.092388,7.9473,-0.61142,-14.425,15.592,12.958,-4.3192,-0.66948,17.277,2.1594e-08,-0.33474,0,0,0.11111,2.623e-16,0,0.66667
0.54317,0.68644,4.8885,0.27965,21.152,177.96,-3.6456,1.2152,-1.7225,-4.8608,4.3121e-13,-0.86123,0,0,0.11111,2.6316e-16,0,0.66667
0.28671,0.99719,2.5804,0.74578,73.919,386.68,-5.1318,1.7106,-0.021399,-6.8424,-3.3724e-12,-0.0107,0,0,0.11111,2.6316e-16,0,0.66667
0.13835,0.8377,1.2452,0.50655,53.5,525.5,-1.682,0.56067,-1.0888,-2.2427,-8.6587e-09,-0.54442,0,0,0.11111,6.5791e-17,0,0.66667
0.29014,0.36219,2.6113,-0.20672,-20.335,382.99,1.4395,-0.47983,-1.8455,1.9193,-3.6597e-12,-0.92274,0,0,0.11111,5.2633e-16,0,0.66667
0.61387,0.33942,5.5248,-0.24087,-16.085,131.33,3.5488,-1.1829,-1.793,4.7317,3.153e-14,-0.89651,0,0,0.11111,5.2633e-16,0,0.66667
0.32414,0.4495,2.9172,-0.075744,-7.2772,352.6,0.58924,-0.19641,-1.9785,0.78565,2.8966e-13,-0.98925,0,0,0.11111,-5.2633e-16,0,0.66667
0.45736,0.033987,4.1162,-0.69902,-59.649,242.26,7.6729,-2.5576,-0.26243,10.231,4.0559e-12,-0.13122,0,0,0.11111,-0,-0,0.66667
0.44412,0.15561,3.9971,-0.51659,-44.629,252.26,5.5062,-1.8354,-1.0501,7.3416,3.1934e-12,-0.52505,0,0,0.11111,-5.5922e-16,0,0.66667
0.82814,0.28565,7.4532,-0.32153,-10.757,29.599,6.3905,-2.1302,-1.6371,8.5206,-7.9803e-10,-0.81856,0,0,0.11111,-0,-0,0.66667
0.42635,0.15942,3.8371,-0.51088,-44.986,266.46,5.2275,-1.7425,-1.0715,6.97,8.0957e-13,-0.53577,0,0,0.11111,-1.0527e-15,0,0.66667
0.3457,0.86473,3.1113,0.54709,51.875,334.12,-4.5391,1.513,-0.93694,-6.0521,2.0606e-13,-0.46847,0,0,0.11111,5.2633e-16,0,0.66667
0.67497,0.57287,6.0747,0.1093,6.3642,95.736,-1.7706,0.59021,-1.9574,-2.3608,-1.251e-12,-0.97868,0,0,0.11111,-0,-0,0.66667
0.22148,0.31745,1.9933,-0.27382,-27.984,446.23,1.4555,-0.48518,-1.7342,1.9407,-1.8905e-11,-0.86711,0,0,0.11111,-0,-0,0.66667
0.46725,0.58764,4.2052,0.13146,11.024,233.71,-1.4742,0.49141,-1.9407,-1.9656,-1.0455e-12,-0.97036,0,0,0.11111,-2.6316e-16,0,0.66667
0.31477,0.54619,2.8329,0.06929,6.7018,360.89,-0.52345,0.17448,-1.9835,-0.69793,6.4171e-13,-0.99174,0,0,0.11111,5.2633e-16,0,0.66667
0.62686,0.25406,5.6417,-0.36891,-24.023,123.6,5.55,-1.85,-1.5181,7.4,-2.2466e-12,-0.75906,0,0,0.11111,2.1053e-15,0,0.66667
0.87736,0.98126,7.8962,0.72189,17.919,17.414,-15.2,5.0668,-0.14765,-20.267,-1.1169e-07,-0.073823,0,0,0.11111,-0,-0,0.66667
0.44769,0.45122,4.0292,-0.073165,-6.2758,248.97,0.78612,-0.26204,-1.9788,1.0482,-3.237e-12,-0.98942,0,0,0.11111,-0,-0,0.66667
0.78446,0.28997,7.0601,-0.31505,-12.936,44.973,5.9315,-1.9772,-1.6469,7.9086,1.6282e-11,-0.82347,0,0,0.11111,2.1053e-15,0,0.66667
0.45697,0.6921,4.1127,0.28815,24.478,241.82,-3.1602,1.0534,-1.7046,-4.2136,2.4385e-12,-0.85229,0,0,0.11111,-0,-0,0.66667
0.65623,0.76542,5.9061,0.39813,24.315,106.51,-6.2703,2.0901,-1.4402,-8.3604,-1.0836e-12,-0.72011,0,0,0.11111,1.0527e-15,0,0.66667
0.13184,0.51895,1.1866,0.028423,2.9997,531.66,-0.089935,0.029978,-1.9945,-0.11991,-1.9289e-09,-0.99727,0,0,0.11111,-0,-0,0.66667
0.43298,0.21785,3.8968,-0.42323,-36.971,260.98,4.398,-1.466,-1.3631,5.864,-1.6622e-12,-0.68153,0,0,0.11111,7.8949e-16,0,0.66667
0.90931,0.84675,8.1838,0.52012,9.5689,9.8925,-11.351,3.7836,-1.0389,-15.134,-3.0403e-09,-0.51946,0,0,0.11111,-0,-0,0.66667
0.60548,0.86881,5.4493,0.55322,37.697,137.16,-8.0391,2.6797,-0.91134,-10.719,-2.1707e-12,-0.45567,0,0,0.11111,8.8484e-16,0,0.66667
0.76677,0.66496,6.901,0.24743,10.883,51.922,-4.5534,1.5178,-1.7847,-6.0712,-2.8146e-11,-0.89234,0,0,0.11111,-0,-0,0.66667
0.5047,0.22736,4.5423,-0.40896,-32.749,205.74,4.9536,-1.6512,-1.404,6.6048,1.2466e-12,-0.70199,0,0,0.11111,-0,-0,0.66667
0.49806,0.10606,4.4825,-0.59092,-47.857,211.01,7.0634,-2.3545,-0.7595,9.4179,-2.6201e-14,-0.37975,0,0,0.11111,-0,-0,0.66667
0.8429,0.17196,7.5861,-0.49206,-15.222,25.553,9.9542,-3.3181,-1.1416,13.272,-9.344e-10,-0.57079,0,0,0.11111,1.0527e-15,3.2549e-17,0.66667
0.067807,0.71147,0.61026,0.31721,33.949,594.1,-0.51621,0.17207,-1.6406,-0.68828,-7.2228e-08,-0.82032,0,0,0.11111,-0,-0,0.66667
0.57327,0.028099,5.1595,-0.70785,-51.279,158.41,9.739,-3.2463,-0.21774,12.985,3.6504e-13,-0.10887,0,0,0.11111,5.2633e-16,1.5411e-16,0.66667
0.94276,0.023751,8.4849,-0.71437,-8.5406,5.7778,16.164,-5.3879,-0.18389,21.552,8.43e-06,-0.091947,0,0,0.11111,-0,-0,0.66667
0.51786,0.7344,4.6607,0.3516,27.629,196.04,-4.3699,1.4566,-1.5611,-5.8265,-2.1374e-12,-0.78053,0,0,0.11111,-0,-0,0.66667
0.19447,0.63393,1.7502,0.2009,20.768,471.66,-0.93764,0.31255,-1.8541,-1.2502,-1.5773e-10,-0.92706,0,0,0.11111,-0,-0,0.66667
0.84794,0.077065,7.6315,-0.6344,-19.147,24.64,12.91,-4.3035,-0.56766,17.214,-1.5982e-08,-0.28383,0,0,0.11111,-0,-0,0.66667
0.25164,0.59101,2.2648,0.13651,13.733,418.13,-0.82443,0.27481,-1.9363,-1.0992,1.2024e-11,-0.96813,0,0,0.11111,-2.6316e-16,0,0.66667
0.70073,0.79246,6.3065,0.4387,23.947,82.728,-7.3777,2.4592,-1.3163,-9.837,-3.7081e-12,-0.65813,0,0,0.11111,-0,-0,0.66667
0.54026,0.24544,4.8623,-0.38183,-29.036,180.14,4.951,-1.6503,-1.4799,6.6013,5.8575e-13,-0.73993,0,0,0.11111,7.8949e-16,0,0.66667
0.94884,0.28583,8.5395,-0.32125,-3.3064,3.5451,7.3155,-2.4385,-1.6325,9.754,2.5869e-08,-0.81625,0,0,0.11111,-0,-0,0.66667
0.62434,0.13077,5.619,-0.55385,-36.353,125.55,8.299,-2.7663,-0.91276,11.065,7.1232e-13,-0.45638,0,0,0.11111,-0,8.3673e-17,0.66667
0.83798,0.34362,7.5418,-0.23457,-7.4208,26.388,4.7176,-1.5725,-1.8037,6.2902,-1.3411e-09,-0.90186,0,0,0.11111,-1.6448e-16,0,0.66667
0.0079329,0.37144,0.071396,-0.19284,-20.72,652.94,0.036715,-0.012238,-1.866,0.048953,2.1544e-07,-0.93302,0,0,0.11111,-1.6448e-17,0,0.66667
0.98934,0.94382,8.9041,0.66573,1.4423,1.9998,-15.807,5.2691,-0.42288,-21.076,3.8513e-05,-0.21144,0,0,0.11111,-2.1053e-15,0,0.66667
0.077715,0.74187,0.69943,0.3628,38.783,584.41,-0.67667,0.22556,-1.5356,-0.90223,-7.5328e-08,-0.76778,0,0,0.11111,-1.3158e-16,0,0.66667
0.32213,0.38509,2.8992,-0.17236,-16.588,354.4,1.3326,-0.44419,-1.8922,1.7768,1.9917e-13,-0.94609,0,0,0.11111,-5.2633e-16,0,0.66667
0.94615,0.91218,8.5154,0.61827,6.882,4.901,-14.04,4.6798,-0.63882,-18.719,-9.716e-07,-0.31941,0,0,0.11111,-0,-0,0.66667
0.0089391,0.8855,0.080452,0.57825,62.309,651.96,-0.12405,0.041345,-0.80867,-0.16541,-8.6669e-06,-0.40433,0,0,0.11111,-0,-0,0.66667
0.82273,0.98629,7.4046,0.72943,25.432,32.751,-14.403,4.801,-0.10608,-19.204,-1.9386e-10,-0.053039,0,0,0.11111,-2.1053e-15,0,0.66667
0.86121,0.52822,7.7509,0.042337,1.1565,19.632,-0.87507,0.29169,-1.9958,-1.1668,-2.2607e-09,-0.99791,0,0,0.11111,-0,-0,0.66667
0.43983,0.29252,3.9585,-0.31121,-26.959,255.36,3.2851,-1.095,-1.6562,4.3802,-1.2745e-12,-0.82812,0,0,0.11111,1.0527e-15,0,0.66667
0.25575,0.1184,2.3017,-0.57241,-57.637,414.66,3.5134,-1.1711,-0.83329,4.6845,-1.9338e-11,-0.41665,0,0,0.11111,3.9475e-16,0,0.66667
0.80269,0.11417,7.2242,-0.57874,-22.095,38.944,11.149,-3.7164,-0.80694,14.865,-1.8379e-10,-0.40347,0,0,0.11111,-1.0527e-15,0,0.66667
0.47786,0.73687,4.3008,0.3553,29.45,225.77,-4.0749,1.3583,-1.5486,-5.4332,1.2434e-14,-0.7743,0,0,0.11111,-0,-0,0.66667
0.13434,0.28461,1.209,-0.32308,-34.109,529.3,1.0416,-0.34722,-1.6274,1.3889,6.6269e-09,-0.8137,0,0,0.11111,-5.2633e-16,0,0.66667
0.92785,0.61403,8.3506,0.17105,2.4749,5.9668,-3.8089,1.2696,-1.8937,-5.0786,2.1502e-08,-0.94686,0,0,0.11111,-1.0527e-15,0,0.66667
0.89597,0.088964,8.0637,-0.61655,-13.017,12.843,13.258,-4.4193,-0.64711,17.677,8.8888e-09,-0.32356,0,0,0.11111,-0,-0,0.66667
0.49155,0.9408,4.4239,0.66119,54.069,216.04,-7.8002,2.6001,-0.44393,-10.4,-2.1836e-12,-0.22196,0,0,0.11111,1.0527e-15,0,0.66667
0.8567,0.39533,7.7103,-0.15701,-4.4239,20.917,3.2282,-1.0761,-1.9126,4.3043,-3.0628e-09,-0.9563,0,0,0.11111,-1.0527e-15,0,0.66667
0.41858,0.024395,3.7672,-0.71341,-63.509,273.17,7.1668,-2.3889,-0.19037,9.5557,2.2742e-12,-0.095187,0,0,0.11111,-5.2633e-16,-9.0128e-17,0.66667
0.68346,0.50365,6.1512,0.0054717,0.3117,91.149,-0.089753,0.029918,-1.9997,-0.11967,2.2184e-12,-0.99984,0,0,0.11111,-0,-0,0.66667
0.39799,0.069734,3.5819,-0.6454,-58.565,289.92,6.1647,-2.0549,-0.51671,8.2196,3.8369e-13,-0.25836,0,0,0.11111,1.0527e-15,0,0.66667
0.50574,0.81307,4.5517,0.46961,37.579,205.08,-5.7,1.9,-1.2152,-7.6,-2.9901e-12,-0.60759,0,0,0.11111,-0,-0,0.66667
0.18955,0.90487,1.706,0.6073,63.11,476.57,-2.7628,0.92092,-0.69088,-3.6837,1.1137e-09,-0.34544,0,0,0.11111,-3.2895e-16,0,0.66667
0.96499,0.28151,8.6849,-0.32774,-2.2804,2.0386,7.5904,-2.5301,-1.6187,10.121,2.6193e-07,-0.80937,0,0,0.11111,-0,-0,0.66667
0.29422,0.28752,2.6479,-0.31873,-31.29,379.39,2.2506,-0.75019,-1.6395,3.0008,-7.1603e-12,-0.81976,0,0,0.11111,-0,-0,0.66667
0.10346,0.97723,0.93114,0.71585,76.447,559.44,-1.7775,0.59249,-0.17596,-2.37,-4.3626e-07,-0.087979,0,0,0.11111,-2.6316e-16,0,0.66667
0.14432,0.60866,1.2988,0.16299,17.146,519.62,-0.56452,0.18817,-1.9046,-0.7527,-3.1036e-09,-0.95231,0,0,0.11111,2.6316e-16,0,0.66667
0.014092,0.54121,0.12683,0.061819,6.6393,646.87,-0.020908,0.0069708,-1.9881,-0.027877,1.9856e-06,-0.99406,0,0,0.11111,-0,-0,0.66667
0.71595,0.49463,6.4435,-0.0080557,-0.41936,74.624,0.13842,-0.04614,-2.0004,0.18456,-2.7962e-12,-1.0002,0,0,0.11111,3.6843e-15,0,0.66667
0.5645,0.11561,5.0805,-0.57659,-42.29,163.89,7.8116,-2.6039,-0.81911,10.415,2.7551e-12,-0.40955,0,0,0.11111,-5.2633e-16,0,0.66667
0.79458,0.78363,7.1512,0.42544,16.77,41.402,-8.1131,2.7044,-1.3582,-10.817,1.9611e-11,-0.67909,0,0,0.11111,-2.1053e-15,0,0.66667
0.50708,0.74487,4.5637,0.36731,29.306,203.92,-4.4701,1.49,-1.5184,-5.9602,5.6044e-13,-0.75918,0,0,0.11111,-7.8949e-16,0,0.66667
0.79182,0.4285,7.1264,-0.10726,-4.2597,41.893,2.0383,-0.67942,-1.9575,2.7177,-3.0824e-12,-0.97873,0,0,0.11111,-0,-0,0.66667
0.69576,0.66349,6.2619,0.24523,13.536,84.89,-4.0949,1.365,-1.7839,-5.4599,-3.6944e-12,-0.89196,0,0,0.11111,-0,-0,0.66667
0.77785,0.79587,7.0006,0.44381,18.762,47.863,-8.2852,2.7617,-1.299,-11.047,-3.3107e-11,-0.64951,0,0,0.11111,-0,-0,0.66667
0.40648,0.29458,3.6583,-0.30813,-27.63,282.38,3.006,-1.002,-1.6659,4.008,1.4131e-12,-0.83295,0,0,0.11111,-0,-0,0.66667
0.64777,0.74779,5.8299,0.37168,23.134,111.28,-5.7783,1.9261,-1.5074,-7.7045,9.0372e-13,-0.75368,0,0,0.11111,-1.579e-15,0,0.66667
0.17979,0.85284,1.6181,0.52925,55.157,485.78,-2.2838,0.76126,-1.0016,-3.045,-1.3554e-10,-0.50079,0,0,0.11111,-5.2633e-16,0,0.66667
0.32182,0.45699,2.8964,-0.064517,-6.2088,354.64,0.49831,-0.1661,-1.9828,0.66441,9.1588e-13,-0.99139,0,0,0.11111,-9.0744e-16,0,0.66667
0.1726,0.44045,1.5534,-0.08932,-9.3078,492.45,0.37001,-0.12334,-1.9754,0.49335,6.8734e-10,-0.9877,0,0,0.11111,5.2633e-16,0,0.66667
0.40864,0.25108,3.6777,-0.37338,-33.428,280.68,3.6619,-1.2206,-1.5062,4.8825,-8.5043e-14,-0.7531,0,0,0.11111,1.0527e-15,0,0.66667
0.24142,0.51032,2.1728,0.015473,1.5647,427.57,-0.089654,0.029885,-1.9966,-0.11954,4.8748e-12,-0.99832,0,0,0.11111,-0,-0,0.66667
0.40692,0.045262,3.6623,-0.68211,-61.401,282.62,6.6616,-2.2205,-0.34846,8.8821,6.2839e-13,-0.17423,0,0,0.11111,-0,-0,0.66667
0.97522,0.49627,8.777,-0.0055942,-0.026302,0.90781,0.13093,-0.043642,-1.9983,0.17458,4.306e-06,-0.99915,0,0,0.11111,3.158e-15,0,0.66667
0.32032,0.7315,2.8829,0.34725,33.495,356.12,-2.6695,0.88984,-1.5686,-3.5593,-7.2387e-13,-0.78428,0,0,0.11111,-0,-0,0.66667
0.98249,0.52178,8.8424,0.032676,0.10347,0.52372,-0.77049,0.25683,-1.9975,-1.0273,4.466e-07,-0.99875,0,0,0.11111,-0,-0,0.66667
0.63631,0.70967,5.7268,0.3145,20.063,117.87,-4.8029,1.601,-1.6472,-6.4039,-2.6645e-14,-0.82358,0,0,0.11111,5.2633e-16,0,0.66667
0.37509,0.51326,3.3758,0.019893,1.8346,308.48,-0.17908,0.059694,-2.0023,-0.23878,2.6076e-12,-1.0012,0,0,0.11111,1.0527e-15,0,0.66667
0.85748,0.30267,7.7174,-0.29599,-8.3166,20.922,6.0914,-2.0305,-1.6897,8.1219,-4.3217e-09,-0.84487,0,0,0.11111,-1.0527e-15,0,0.66667
0.61959,0.36798,5.5763,-0.19803,-13.07,127.77,2.9447,-0.98158,-1.8589,3.9263,-7.0433e-13,-0.92947,0,0,0.11111,1.0527e-15,0,0.66667
0.25203,0.2038,2.2683,-0.4443,-44.768,417.95,2.6875,-0.89582,-1.299,3.5833,-1.8445e-11,-0.64949,0,0,0.11111,-0,-0,0.66667
0.79286,0.30441,7.1357,-0.29338,-11.622,41.742,5.5827,-1.8609,-1.6931,7.4436,-2.1672e-11,-0.84657,0,0,0.11111,-0,-0,0.66667
0.43294,0.94668,3.8964,0.67002,58.72,261.48,-6.9618,2.3206,-0.4025,-9.2824,-1.7133e-12,-0.20125,0,0,0.11111,-0,-0,0.66667
0.35751,0.30176,3.2176,-0.29737,-27.865,323.62,2.5515,-0.8505,-1.6868,3.402,1.2956e-12,-0.84341,0,0,0.11111,-0,-0,0.66667
0.33028,0.38914,2.9725,-0.16629,-15.908,347.22,1.3181,-0.43937,-1.9024,1.7575,6.2661e-13,-0.9512,0,0,0.11111,-5.2633e-16,0,0.66667
0.69737,0.1887,6.2763,-0.46695,-25.738,84.508,7.8152,-2.6051,-1.2239,10.42,2.7733e-12,-0.61195,0,0,0.11111,-0,-0,0.66667
0.26865,0.31974,2.4179,-0.27039,-26.957,402.56,1.7434,-0.58113,-1.7402,2.3245,-1.1577e-11,-0.87012,0,0,0.11111,-0,-0,0.66667
0.80828,0.67173,7.2745,0.2576,9.5125,36.104,-4.9971,1.6657,-1.7627,-6.6628,1.7389e-10,-0.88134,0,0,0.11111,-1.0527e-15,0,0.66667
0.29529,0.40241,2.6576,-0.14639,-14.35,378.33,1.0375,-0.34582,-1.9262,1.3833,-3.4289e-12,-0.9631,0,0,0.11111,7.8949e-16,0,0.66667
0.54412,0.35964,4.8971,-0.21055,-15.894,177.22,2.7495,-0.9165,-1.8424,3.666,8.7974e-13,-0.92119,0,0,0.11111,-0,-0,0.66667
0.48792,0.019674,4.3913,-0.72049,-59.256,218.92,8.437,-2.8123,-0.1536,11.249,-1.3243e-12,-0.076802,0,0,0.11111,-0,-0,0.66667
0.85536,0.75373,7.6982,0.38059,10.866,21.695,-7.813,2.6043,-1.4848,-10.417,3.5076e-09,-0.74238,0,0,0.11111,-2.1053e-15,0,0.66667
0.88839,0.49995,7.9955,-7.2455e-05,-0.0016069,13.081,0.0015448,-0.00051495,-2.0023,0.0020598,-1.547e-08,-1.0011,0,0,0.11111,4.1119e-17,0,0.66667
0.18438,0.37194,1.6595,-0.19209,-19.935,481.24,0.85003,-0.28334,-1.8695,1.1334,1.738e-10,-0.93476,0,0,0.11111,-3.2895e-16,0,0.66667
0.58535,0.020792,5.2681,-0.71881,-50.998,150.52,10.098,-3.366,-0.16034,13.464,2.7782e-12,-0.080169,0,0,0.11111,-0,-0,0.66667
0.89821,0.97006,8.0838,0.70509,14.666,12.814,-15.199,5.0665,-0.23104,-20.266,5.2818e-07,-0.11552,0,0,0.11111,-0,-0,0.66667
0.44612,0.35913,4.0151,-0.21131,-18.166,250.28,2.2624,-0.75414,-1.8385,3.0166,-1.5021e-12,-0.91927,0,0,0.11111,-0,-0,0.66667
0.92187,0.49659,8.2968,-0.0051189,-0.080024,6.7753,0.11326,-0.037752,-2.0048,0.15101,-1.9482e-07,-1.0024,0,0,0.11111,2.6316e-16,0,0.66667
0.27899,0.61758,2.5109,0.17637,17.468,393.08,-1.181,0.39365,-1.8904,-1.5746,6.623e-12,-0.94522,0,0,0.11111,-0,-0,0.66667
0.60883,0.34111,5.4795,-0.23833,-16.073,134.46,3.4824,-1.1608,-1.8022,4.6432,4.7962e-13,-0.90108,0,0,0.11111,-0,-0,0.66667
0.68245,0.94513,6.1421,0.6677,38.445,92.903,-10.936,3.6454,-0.41337,-14.582,-4.0679e-13,-0.20669,0,0,0.11111,-0,-0,0.66667
0.22821,0.027929,2.0539,-0.70811,-72.448,440.33,3.8783,-1.2928,-0.21578,5.171,-1.1626e-10,-0.10789,0,0,0.11111,1.3158e-16,0,0.66667
0.013768,0.77805,0.12391,0.41707,44.867,647.2,-0.13781,0.045936,-1.3837,-0.18375,7.4352e-08,-0.69183,0,0,0.11111,2.056e-17,0,0.66667
0.41672,0.85534,3.7505,0.53301,47.414,274.3,-5.3308,1.7769,-0.98798,-7.1078,-5.0537e-13,-0.49399,0,0,0.11111,-0,-0,0.66667
0.93848,0.86094,8.4463,0.5414,6.8216,5.4877,-12.194,4.0648,-0.96009,-16.259,6.5232e-08,-0.48005,0,0,0.11111,1.0527e-15,0,0.66667
0.34303,0.36286,3.0873,-0.20571,-19.492,336.09,1.6936,-0.56453,-1.8523,2.2581,-6.7679e-13,-0.92614,0,0,0.11111,-0,-0,0.66667
0.77974,0.63537,7.0177,0.20306,8.4868,46.629,-3.8,1.2667,-1.8551,-5.0666,-1.2839e-11,-0.92756,0,0,0.11111,-0,-0,0.66667
0.17474,0.41445,1.5726,-0.12832,-13.363,490.42,0.53814,-0.17938,-1.9417,0.71752,3.8783e-10,-0.97086,0,0,0.11111,-5.2633e-16,0,0.66667
0.34195,0.60786,3.0776,0.16178,15.339,337,-1.3277,0.44258,-1.9081,-1.7703,-1.7364e-13,-0.95405,0,0,0.11111,5.2633e-16,0,0.66667
0.1446,0.66219,1.3014,0.24329,25.599,519.37,-0.84431,0.28144,-1.789,-1.1257,-3.7483e-09,-0.89451,0,0,0.11111,-0,-0,0.66667
0.71677,0.78186,6.4509,0.42279,22.034,74.735,-7.2731,2.4244,-1.3669,-9.6975,-8.8365e-12,-0.68346,0,0,0.11111,-0,-0,0.66667
0.69931,0.22224,6.2938,-0.41665,-22.824,83.395,6.9927,-2.3309,-1.3828,9.3236,3.713e-12,-0.69138,0,0,0.11111,-0,-0,0.66667
0.6885,0.74969,6.1965,0.37453,21.111,88.881,-6.1887,2.0629,-1.5051,-8.2517,-1.2856e-12,-0.75257,0,0,0.11111,-2.7961e-16,0,0.66667
0.2534,0.1817,2.2806,-0.47745,-48.088,416.72,2.9036,-0.96787,-1.1895,3.8715,-1.0768e-11,-0.59475,0,0,0.11111,1.3158e-16,0,0.66667
0.69236,0.64782,6.2312,0.22173,12.349,86.617,-3.6843,1.2281,-1.8237,-4.9125,-2.8044e-12,-0.91187,0,0,0.11111,-5.2633e-16,0,0.66667
0.2273,0.64085,2.0457,0.21128,21.526,440.76,-1.1525,0.38418,-1.8386,-1.5367,2.1536e-11,-0.91929,0,0,0.11111,-7.955e-16,0,0.66667
0.42465,0.073921,3.8218,-0.63912,-56.476,268.08,6.5136,-2.1712,-0.54775,8.6848,3.7126e-13,-0.27388,0,0,0.11111,-0,-0,0.66667
0.37192,0.44403,3.3473,-0.083958,-7.7648,311.18,0.74942,-0.24981,-1.9752,0.99922,8.1662e-13,-0.98759,0,0,0.11111,-0,-0,0.66667
0.35531,0.85665,3.1978,0.53498,50.331,325.8,-4.562,1.5207,-0.98118,-6.0827,3.6531e-12,-0.49059,0,0,0.11111,-5.2633e-16,0,0.66667
0.057655,0.8131,0.51889,0.46965,50.387,604.09,-0.64986,0.21662,-1.2155,-0.86649,-8.4713e-08,-0.60775,0,0,0.11111,-0,-0,0.66667
0.63165,0.2477,5.6848,-0.37845,-24.401,120.75,5.7371,-1.9124,-1.4894,7.6494,1.994e-13,-0.7447,0,0,0.11111,5.2633e-16,0,0.66667
0.70732,0.67901,6.3658,0.26851,14.355,79.077,-4.5582,1.5194,-1.7427,-6.0776,-5.3282e-12,-0.87133,0,0,0.11111,5.2633e-16,0,0.66667
0.61359,0.30847,5.5223,-0.2873,-19.203,131.57,4.2307,-1.4102,-1.7061,5.641,6.8434e-13,-0.85305,0,0,0.11111,2.6316e-16,0,0.66667
0.64831,0.033284,5.8348,-0.70007,-43.777,111.88,10.893,-3.6309,-0.25594,14.524,6.6613e-14,-0.12797,0,0,0.11111,2.1053e-15,0,0.66667
0.16994,0.43088,1.5295,-0.10368,-10.815,495,0.42288,-0.14096,-1.9633,0.56385,9.0622e-10,-0.98165,0,0,0.11111,-1.6254e-16,0,0.66667
0.14945,0.55898,1.345,0.088468,9.2902,514.67,-0.31731,0.10577,-1.9705,-0.42308,-1.8008e-10,-0.98527,0,0,0.11111,-3.505e-16,0,0.66667
0.51418,0.30033,4.6276,-0.2995,-23.648,198.64,3.6959,-1.232,-1.6827,4.9279,1.4539e-12,-0.84137,0,0,0.11111,-0,-0,0.66667
0.87533,0.54355,7.878,0.065318,1.6114,16.083,-1.3722,0.4574,-1.9882,-1.8296,5.1074e-09,-0.99409,0,0,0.11111,-0,-0,0.66667
0.18395,0.46484,1.6556,-0.052738,-5.4723,481.62,0.23283,-0.07761,-1.9903,0.31044,3.9881e-10,-0.99514,0,0,0.11111,-0,-0,0.66667
0.46284,0.77951,4.1656,0.41926,35.412,237.42,-4.6572,1.5524,-1.374,-6.2097,6.9456e-13,-0.68698,0,0,0.11111,-7.8949e-16,0,0.66667
0.42893,0.70663,3.8604,0.30994,27.165,264.09,-3.1907,1.0636,-1.6558,-4.2542,-5.449e-13,-0.82791,0,0,0.11111,-0,-0,0.66667
0.49729,0.85799,4.4756,0.53699,43.5,211.46,-6.4089,2.1363,-0.9748,-8.5452,-6.7768e-13,-0.4874,0,0,0.11111,-0,-0,0.66667
0.16151,0.44092,1.4536,-0.088626,-9.2709,503.07,0.34354,-0.11451,-1.9711,0.45805,9.0223e-10,-0.98553,0,0,0.11111,-0,-0,0.66667
0.34244,0.70226,3.082,0.30339,28.776,336.67,-2.4934,0.83114,-1.6745,-3.3246,1.4104e-12,-0.83727,0,0,0.11111,-0,-0,0.66667
0.26188,0.69858,2.3569,0.29787,29.817,408.78,-1.8721,0.62405,-1.6837,-2.4962,1.4924e-11,-0.84185,0,0,0.11111,-0,-0,0.66667
0.84453,0.44797,7.6007,-0.078039,-2.372,24.28,1.5818,-0.52725,-1.9811,2.109,-4.5115e-10,-0.99056,0,0,0.11111,2.1053e-15,0,0.66667
0.80033,0.99014,7.203,0.7352,28.526,40.448,-14.122,4.7073,-0.07765,-18.829,3.1893e-11,-0.038825,0,0,0.11111,-0,-0,0.66667
0.42664,0.4639,3.8398,-0.054156,-4.7528,265.78,0.55453,-0.18484,-1.9886,0.73937,-1.2794e-12,-0.99431,0,0,0.11111,5.2633e-16,0,0.66667
0.60702,0.010805,5.4631,-0.73379,-50.03,136.77,10.69,-3.5634,-0.086112,14.254,1.5543e-13,-0.043056,0,0,0.11111,-0,1.1906e-16,0.66667
0.14547,0.5616,1.3092,0.092399,9.7148,518.5,-0.32258,0.10753,-1.9693,-0.43011,-1.2798e-09,-0.98467,0,0,0.11111,3.2895e-16,0,0.66667
0.50961,0.58758,4.5865,0.13137,10.429,201.82,-1.6067,0.53558,-1.9368,-2.1423,-4.2188e-14,-0.96842,0,0,0.11111,2.6316e-16,0,0.66667
0.29695,0.43294,2.6725,-0.10059,-9.8481,376.83,0.71687,-0.23896,-1.9686,0.95583,-4.9882e-13,-0.98429,0,0,0.11111,-3.9475e-16,0,0.66667
0.85965,0.31459,7.7369,-0.27812,-7.6996,20.306,5.738,-1.9127,-1.7296,7.6506,-4.984e-09,-0.86482,0,0,0.11111,-2.1053e-15,0,0.66667
0.6716,0.41055,6.0444,-0.13418,-7.8792,97.588,2.1627,-0.7209,-1.9403,2.8836,-9.0039e-13,-0.97013,0,0,0.11111,2.1053e-15,0,0.66667
0.63347,0.15335,5.7013,-0.51997,-33.464,119.98,7.9053,-2.6351,-1.0371,10.54,1.9522e-12,-0.51855,0,0,0.11111,1.8755e-16,0,0.66667
0.12475,0.44549,1.1228,-0.081772,-8.6468,538.53,0.24483,-0.081609,-1.98,0.32644,1.446e-09,-0.99002,0,0,0.11111,-0,-0,0.66667
0.47059,0.32321,4.2353,-0.26519,-22.162,231.24,2.9951,-0.99836,-1.7512,3.9934,1.6149e-12,-0.87561,0,0,0.11111,-0,-0,0.66667
0.98657,0.73172,8.8792,0.34759,0.8421,0.82237,-8.2301,2.7434,-1.5711,-10.973,3.0286e-08,-0.78556,0,0,0.11111,-0,-0,0.66667
0.9483,0.38557,8.5347,-0.17165,-1.7724,3.3243,3.9065,-1.3022,-1.8936,5.2087,4.0766e-08,-0.94681,0,0,0.11111,-2.1053e-15,0,0.66667
0.64509,0.87411,5.8058,0.56117,35.242,113.29,-8.6881,2.896,-0.88027,-11.584,-4.0412e-13,-0.44014,0,0,0.11111,1.1842e-15,0,0.66667
0.15172,0.86373,1.3655,0.54559,57.418,512.65,-1.9867,0.66224,-0.94015,-2.649,-2.3636e-09,-0.47007,0,0,0.11111,-0,-0,0.66667
0.63913,0.73845,5.7521,0.35768,22.688,116.28,-5.4864,1.8288,-1.5468,-7.3152,-1.3771e-12,-0.77339,0,0,0.11111,1.0527e-15,0,0.66667
0.56566,0.97989,5.091,0.71983,52.833,163.53,-9.7723,3.2574,-0.15738,-13.03,-2.2817e-12,-0.078688,0,0,0.11111,-0,-0,0.66667
0.46867,0.55926,4.218,0.088886,7.44,232.6,-0.99979,0.33326,-1.9767,-1.3331,6.3782e-13,-0.98833,0,0,0.11111,1.3158e-16,0,0.66667
0.42804,0.5768,3.8523,0.1152,10.096,264.67,-1.1834,0.39447,-1.9504,-1.5779,5.097e-13,-0.97518,0,0,0.11111,-0,-0,0.66667
0.59927,0.50969,5.3934,0.014532,0.99736,140.35,-0.20901,0.06967,-1.9973,-0.27868,1.6374e-12,-0.99865,0,0,0.11111,-0,-0,0.66667
0.84997,0.52678,7.6497,0.040168,1.1807,22.703,-0.81939,0.27313,-1.9926,-1.0925,1.8809e-09,-0.99632,0,0,0.11111,-1.0527e-15,0,0.66667
0.75112,0.24786,6.7601,-0.37821,-17.637,58.815,6.818,-2.2727,-1.4947,9.0906,1.8008e-11,-0.74737,0,0,0.11111,1.3158e-15,0,0.66667
0.57936,0.55503,5.2142,0.082548,5.8752,153.25,-1.1478,0.3826,-1.9781,-1.5304,1.0655e-12,-0.98907,0,0,0.11111,5.2633e-16,0,0.66667
0.9247,0.55605,8.3223,0.08407,1.2674,6.3585,-1.8658,0.62192,-1.9754,-2.4877,3.6941e-08,-0.98769,0,0,0.11111,1.0527e-15,0,0.66667
0.06474,0.071573,0.58266,-0.64264,-69.015,597.19,0.99851,-0.33284,-0.53249,1.3313,-3.5366e-07,-0.26625,0,0,0.11111,-0,-0,0.66667
0.99135,0.18605,8.9221,-0.47093,-0.71001,1.0623,11.205,-3.7348,-1.2102,14.939,-1.2319e-06,-0.60509,0,0,0.11111,-2.2369e-15,0,0.66667
0.052995,0.087282,0.47695,-0.61908,-66.557,608.69,0.78738,-0.26246,-0.63544,1.0498,-7.0917e-07,-0.31772,0,0,0.11111,-9.8686e-17,0,0.66667
0.1995,0.6076,1.7955,0.1614,16.647,466.89,-0.77275,0.25758,-1.9065,-1.0303,-3.4256e-11,-0.95326,0,0,0.11111,-0,-0,0.66667
0.42275,0.48425,3.8048,-0.023632,-2.0823,268.92,0.23977,-0.079924,-2.0004,0.3197,-1.1055e-12,-1.0002,0,0,0.11111,-0,-0,0.66667
0.10751,0.1584,0.96758,-0.5124,-54.541,555.4,1.3221,-0.4407,-1.0688,1.7628,3.7795e-08,-0.53439,0,0,0.11111,-0,-0,0.66667
0.62367,0.27271,5.613,-0.34093,-22.341,125.48,5.1031,-1.701,-1.5888,6.8041,-2.8466e-13,-0.79442,0,0,0.11111,1.0527e-15,0,0.66667
0.047993,0.073561,0.43193,-0.63966,-68.822,613.6,0.73677,-0.24559,-0.54741,0.98236,2.3571e-06,-0.27371,0,0,0.11111,-0,-0,0.66667
0.28462,0.58312,2.5616,0.12468,12.304,387.95,-0.85169,0.2839,-1.9443,-1.1356,3.1964e-12,-0.97213,0,0,0.11111,2.6316e-16,0,0.66667
0.061037,0.52665,0.54933,0.039981,4.2786,600.72,-0.058567,0.019522,-1.9968,-0.07809,-1.2108e-07,-0.99838,0,0,0.11111,6.5791e-17,0,0.66667
0.70352,0.70154,6.3317,0.30231,16.342,81.033,-5.1043,1.7014,-1.6783,-6.8057,-3.6158e-12,-0.83913,0,0,0.11111,-1.0527e-15,0,0.66667
0.66846,0.56295,6.0161,0.094426,5.587,99.287,-1.5149,0.50495,-1.9692,-2.0198,-5.0815e-13,-0.98461,0,0,0.11111,-0,-0,0.66667
0.37858,0.6871,3.4072,0.28065,25.825,305.64,-2.55,0.84999,-1.7207,-3.4,1.5219e-12,-0.86037,0,0,0.11111,-7.0725e-16,0,0.66667
0.18819,0.02023,1.6937,-0.71965,-74.937,477.97,3.2504,-1.0835,-0.16142,4.3339,2.7007e-10,-0.080711,0,0,0.11111,-0,-0,0.66667
0.747,0.50918,6.723,0.013767,0.64914,60.194,-0.24682,0.082275,-1.9994,-0.3291,-1.2749e-12,-0.99968,0,0,0.11111,-0,-0,0.66667
0.34038,0.80899,3.0634,0.46348,44.089,338.63,-3.7862,1.2621,-1.2366,-5.0483,2.0399e-12,-0.61831,0,0,0.11111,-6.5791e-16,0,0.66667
0.7953,0.52375,7.1577,0.035631,1.3935,40.563,-0.6801,0.2267,-1.9974,-0.9068,-1.6396e-11,-0.99869,0,0,0.11111,-0,-0,0.66667
0.4879,0.56509,4.3911,0.097637,7.9786,217.94,-1.1433,0.3811,-1.9665,-1.5244,-1.7254e-12,-0.98326,0,0,0.11111,-2.1053e-15,0,0.66667
0.52567,0.96997,4.731,0.70495,55.049,191.21,-8.8937,2.9646,-0.23227,-11.858,1.0454e-12,-0.11614,0,0,0.11111,-2.1053e-15,0,0.66667
0.028491,0.57824,0.25642,0.11736,12.598,632.7,-0.080247,0.026749,-1.951,-0.107,2.3218e-07,-0.97551,0,0,0.11111,-0,-0,0.66667
0.64423,0.66446,5.7981,0.2467,15.457,113.13,-3.8143,1.2714,-1.7831,-5.0858,5.6133e-13,-0.89157,0,0,0.11111,-0,-0,0.66667
0.35066,0.41714,3.1559,-0.12428,-11.702,329.43,1.0459,-0.34865,-1.9426,1.3946,2.391e-12,-0.97128,0,0,0.11111,-0,-0,0.66667
0.22921,0.98754,2.0628,0.73131,74.812,439.43,-4.0229,1.341,-0.096478,-5.3639,6.1252e-11,-0.048239,0,0,0.11111,-5.2633e-16,0,0.66667
0.43388,0.23147,3.905,-0.40279,-35.145,260.23,4.1944,-1.3981,-1.4223,5.5925,2.78e-13,-0.71117,0,0,0.11111,-0,-0,0.66667
0.38247,0.74851,3.4422,0.37277,34.206,302.45,-3.4218,1.1406,-1.5046,-4.5623,2.1569e-12,-0.75228,0,0,0.11111,-1.3158e-16,0,0.66667
0.46979,0.99139,4.2281,0.73708,62.021,232.74,-8.3105,2.7702,-0.07085,-11.081,6.4482e-13,-0.035425,0,0,0.11111,5.2633e-16,0,0.66667
0.97948,0.35597,8.8154,-0.21605,-0.83205,0.85086,5.0789,-1.693,-1.8323,6.7718,1.6913e-07,-0.91613,0,0,0.11111,-0,-0,0.66667
0.36438,0.42522,3.2794,-0.11217,-10.442,317.62,0.98095,-0.32698,-1.9534,1.3079,2.8044e-13,-0.97671,0,0,0.11111,-5.2633e-16,0,0.66667
0.77441,0.93138,6.9697,0.64707,27.877,49.919,-12.026,4.0088,-0.50927,-16.035,-4.9952e-11,-0.25463,0,0,0.11111,1.0527e-15,0,0.66667
0.55277,0.45897,4.9749,-0.061552,-4.5807,171.14,0.81657,-0.27219,-1.9844,1.0888,1.641e-12,-0.9922,0,0,0.11111,5.2633e-16,0,0.66667
0.88913,0.82647,8.0022,0.48971,10.913,13.773,-10.45,3.4833,-1.1489,-13.933,1.5451e-08,-0.57445,0,0,0.11111,-0,-0,0.66667
0.35495,0.74497,3.1946,0.36746,34.523,325.89,-3.1304,1.0435,-1.5192,-4.1738,-6.5903e-13,-0.75958,0,0,0.11111,-7.8949e-16,0,0.66667
0.24552,0.12662,2.2097,-0.56008,-56.697,424.08,3.3002,-1.1001,-0.88448,4.4003,1.1116e-10,-0.44224,0,0,0.11111,-0,-0,0.66667
0.91102,0.49408,8.1992,-0.0088781,-0.15786,8.6023,0.19411,-0.064705,-1.9986,0.25882,1.1672e-07,-0.99931,0,0,0.11111,-1.579e-15,0,0.66667
0.043534,0.66162,0.39181,0.24243,26.006,617.92,-0.25329,0.084431,-1.7912,-0.33772,1.1869e-07,-0.89558,0,0,0.11111,1.3158e-16,0,0.66667
0.95075,0.70915,8.5568,0.31372,3.104,3.3209,-7.1586,2.3862,-1.6507,-9.5448,-4.6557e-08,-0.82537,0,0,0.11111,-1.0527e-15,0,0.66667
0.55641,0.5027,5.0077,0.0040521,0.29978,168.64,-0.054111,0.018037,-1.9987,-0.072148,-3.166e-12,-0.99933,0,0,0.11111,-0,-0,0.66667
0.37636,0.60035,3.3873,0.15052,13.869,307.43,-1.3596,0.4532,-1.9217,-1.8128,2.1448e-12,-0.96087,0,0,0.11111,-0,-0,0.66667
0.99505,0.896,8.9555,0.594,0.50406,1.4912,-14.185,4.7285,-0.74382,-18.914,4.242e-06,-0.37191,0,0,0.11111,-0,1.1602e-16,0.66667
0.058363,0.50854,0.52526,0.012815,1.3718,603.34,-0.017949,0.0059835,-1.9985,-0.023932,6.1464e-07,-0.99923,0,0,0.11111,-0,-0,0.66667
0.51671,0.80625,4.6504,0.45937,36.199,197.06,-5.6966,1.8989,-1.2525,-7.5955,-9.9476e-13,-0.62623,0,0,0.11111,-2.6316e-16,0,0.66667
0.031097,0.74523,0.27987,0.36785,39.526,630.15,-0.27454,0.091513,-1.5233,-0.36605,5.435e-07,-0.76164,0,0,0.11111,1.6448e-17,0,0.66667
0.57118,0.0011151,5.1406,-0.74833,-54.451,159.94,10.258,-3.4194,-0.0076982,13.678,-2.7445e-13,-0.0038491,0,0,0.11111,-0,-0,0.66667
0.18047,0.69963,1.6242,0.29944,31.14,485,-1.297,0.43232,-1.6786,-1.7293,-3.8617e-10,-0.83929,0,0,0.11111,2.6316e-16,0,0.66667
0.63096,0.3873,5.6786,-0.16904,-10.895,120.87,2.5598,-0.85328,-1.8961,3.4131,7.8315e-13,-0.94804,0,0,0.11111,-1.0527e-15,0,0.66667
0.98092,0.77526,8.8283,0.41289,1.5172,1.2636,-9.7203,3.2401,-1.3938,-12.96,-9.2869e-07,-0.6969,0,0,0.11111,-1.0527e-15,0,0.66667
0.8749,0.21868,7.8741,-0.42198,-10.521,16.795,8.8605,-2.9535,-1.3722,11.814,-7.717e-09,-0.68612,0,0,0.11111,-3.783e-16,0,0.66667
0.45184,0.39203,4.0665,-0.16195,-13.83,245.74,1.7562,-0.5854,-1.9086,2.3416,-1.2604e-12,-0.95429,0,0,0.11111,-0,-0,0.66667
0.70846,0.7781,6.3761,0.41715,22.272,78.797,-7.0928,2.3643,-1.3803,-9.4571,-4.7975e-12,-0.69013,0,0,0.11111,1.579e-15,0,0.66667
0.77747,0.31181,6.9972,-0.28228,-11.917,47.648,5.2672,-1.7557,-1.7172,7.0229,1.9642e-11,-0.85862,0,0,0.11111,-3.2895e-16,0,0.66667
0.49484,0.46284,4.4536,-0.055739,-4.5134,212.72,0.66197,-0.22066,-1.9876,0.88263,2.162e-12,-0.9938,0,0,0.11111,2.6316e-16,0,0.66667
0.52853,0.82472,4.7568,0.48708,37.745,188.61,-6.1785,2.0595,-1.1566,-8.238,-4.0057e-13,-0.57829,0,0,0.11111,-1.0527e-15,0,0.66667
0.15078,0.95618,1.3571,0.68427,72.154,513.66,-2.4762,0.82542,-0.3331,-3.3017,-8.5241e-09,-0.16655,0,0,0.11111,-0,-0,0.66667
0.3694,0.86627,3.3246,0.5494,51.09,313.76,-4.8708,1.6236,-0.92487,-6.4944,1.5326e-12,-0.46244,0,0,0.11111,-0,-0,0.66667
0.14222,0.52989,1.28,0.044832,4.7178,521.63,-0.15302,0.051008,-1.9957,-0.20403,5.3549e-10,-0.99784,0,0,0.11111,6.5791e-17,0,0.66667
0.72689,0.79734,6.542,0.44601,22.549,69.959,-7.7808,2.5936,-1.29,-10.374,-7.7227e-12,-0.64498,0,0,0.11111,-0,-0,0.66667
0.47701,0.11649,4.2931,-0.57526,-47.853,226.81,6.5857,-2.1952,-0.821,8.781,-8.491e-13,-0.4105,0,0,0.11111,-5.2633e-16,0,0.66667
0.44888,0.48481,4.0399,-0.02278,-1.9512,248.02,0.24541,-0.081802,-1.9968,0.32721,-3.223e-12,-0.99838,0,0,0.11111,-5.2633e-16,0,0.66667
0.886,0.36503,7.974,-0.20246,-4.5918,13.751,4.3051,-1.435,-1.8528,5.7402,-1.2743e-08,-0.9264,0,0,0.11111,-0,-0,0.66667
0.52762,0.20483,4.7486,-0.44276,-34.338,189.18,5.6066,-1.8689,-1.3021,7.4755,1.2834e-12,-0.65106,0,0,0.11111,-0,-0,0.66667
0.40909,0.21943,3.6818,-0.42085,-37.677,280.37,4.132,-1.3773,-1.3717,5.5093,3.2951e-12,-0.68586,0,0,0.11111,-0,-0,0.66667
0.26889,0.11081,2.42,-0.58378,-58.356,402.62,3.7674,-1.2558,-0.78773,5.0232,-3.8318e-12,-0.39386,0,0,0.11111,-5.2633e-16,0,0.66667
0.072012,0.5675,0.64811,0.10124,10.82,589.96,-0.17498,0.058327,-1.9619,-0.23331,-6.3389e-08,-0.98094,0,0,0.11111,-0,-0,0.66667
0.41814,0.52188,3.7632,0.032816,2.9054,272.68,-0.32932,0.10977,-1.9955,-0.43909,1.8319e-12,-0.99773,0,0,0.11111,-0,-0,0.66667
0.025753,0.45813,0.23178,-0.062798,-6.7413,635.39,0.038815,-0.012938,-1.984,0.051753,8.4459e-07,-0.99198,0,0,0.11111,-3.2895e-17,0,0.66667
0.29115,0.94646,2.6204,0.66969,66.116,382.55,-4.6796,1.5599,-0.40342,-6.2394,-2.959e-12,-0.20171,0,0,0.11111,5.2633e-16,0,0.66667
0.50351,0.52561,4.5316,0.03842,3.0751,206.28,-0.46428,0.15476,-1.9947,-0.61904,1.3322e-12,-0.99734,0,0,0.11111,-0,-0,0.66667
0.96593,0.65248,8.6934,0.22872,1.5334,1.7518,-5.3024,1.7675,-1.8149,-7.0699,-1.9109e-07,-0.90745,0,0,0.11111,8.123e-16,0,0.66667
0.10938,0.024019,0.98445,-0.71397,-76.147,553.68,1.8743,-0.62477,-0.19184,2.4991,2.9593e-07,-0.095921,0,0,0.11111,-0,-0,0.66667
0.67304,0.12264,6.0574,-0.56604,-33.298,97.615,9.1432,-3.0477,-0.86405,12.191,2.065e-12,-0.43202,0,0,0.11111,-1.1842e-15,0,0.66667
0.49993,0.27832,4.4994,-0.33252,-26.781,209.15,3.9897,-1.3299,-1.6117,5.3196,-9.6723e-13,-0.80585,0,0,0.11111,1.3322e-15,0,0.66667
0.7771,0.67419,6.9939,0.26129,11.044,47.76,-4.8731,1.6244,-1.756,-6.4974,-2.1114e-11,-0.87799,0,0,0.11111,1.0527e-15,0,0.66667
0.14361,0.50882,1.2925,0.013232,1.3919,520.29,-0.045605,0.015202,-1.9995,-0.060807,-8.0852e-10,-0.99973,0,0,0.11111,-5.2633e-16,0,0.66667
0.083203,0.96121,0.74882,0.69181,74.138,579.16,-1.3814,0.46048,-0.29681,-1.8419,4.7673e-07,-0.14841,0,0,0.11111,-1.6525e-17,0,0.66667
0.39922,0.32228,3.593,-0.26658,-24.067,288.35,2.5542,-0.8514,-1.7449,3.4056,9.5279e-13,-0.87243,0,0,0.11111,-0,-0,0.66667
0.79696,0.33682,7.1727,-0.24477,-9.5172,40.138,4.6817,-1.5606,-1.7912,6.2423,-4.4106e-11,-0.89559,0,0,0.11111,-0,-0,0.66667
0.19168,0.28407,1.7251,-0.32389,-33.542,474.36,1.49,-0.49666,-1.6268,1.9866,1.7928e-10,-0.8134,0,0,0.11111,-5.2633e-16,0,0.66667
0.76778,0.65575,6.91,0.23363,10.235,51.488,-4.305,1.435,-1.8082,-5.7401,-3.2019e-11,-0.90411,0,0,0.11111,1.3487e-15,0,0.66667
0.2903,0.98991,2.6127,0.73486,72.659,383.43,-5.1199,1.7066,-0.077539,-6.8265,3.0966e-12,-0.03877,0,0,0.11111,2.6316e-16,0,0.66667
0.21689,0.72754,1.952,0.34131,34.969,450.57,-1.7766,0.59222,-1.5872,-2.3689,2.3488e-11,-0.7936,0,0,0.11111,-0,-0,0.66667
0.016716,0.41989,0.15044,-0.12016,-12.906,644.29,0.048207,-0.016069,-1.9508,0.064275,7.564e-08,-0.9754,0,0,0.11111,-0,-0,0.66667
0.39866,0.24323,3.5879,-0.38515,-34.82,288.93,3.6851,-1.2284,-1.4703,4.9134,3.8343e-12,-0.73517,0,0,0.11111,-7.8949e-16,0,0.66667
0.38108,0.80404,3.4297,0.45606,41.934,303.73,-4.1711,1.3904,-1.2584,-5.5615,2.6779e-13,-0.6292,0,0,0.11111,-0,-0,0.66667
0.65934,0.70888,5.9341,0.31331,18.976,104.59,-4.958,1.6527,-1.6508,-6.6106,-4.1656e-13,-0.82542,0,0,0.11111,-0,-0,0.66667
0.070918,0.10029,0.63827,-0.59956,-64.301,591.13,1.0205,-0.34016,-0.71972,1.3606,3.4742e-07,-0.35986,0,0,0.11111,-0,-0,0.66667
0.1526,0.82149,1.3734,0.48223,50.703,511.77,-1.7662,0.58872,-1.1726,-2.3549,-1.3399e-09,-0.58629,0,0,0.11111,-0,-0,0.66667
0.016576,0.39518,0.14918,-0.15723,-16.889,644.43,0.062551,-0.02085,-1.9146,0.083401,-3.7119e-08,-0.95728,0,0,0.11111,-1.6448e-17,0,0.66667
0.1138,0.9323,1.0242,0.64844,69.03,549.36,-1.771,0.59032,-0.5042,-2.3613,-4.808e-08,-0.2521,0,0,0.11111,-0,-0,0.66667
0.65179,0.87058,5.8661,0.55587,34.383,109.42,-8.6954,2.8985,-0.9007,-11.594,1.5206e-12,-0.45035,0,0,0.11111,-1.0527e-15,0,0.66667
0.40266,0.8907,3.6239,0.58605,52.898,285.94,-5.6634,1.8878,-0.778,-7.5512,-2.2493e-12,-0.389,0,0,0.11111,5.2633e-16,0,0.66667
0.32103,0.24001,2.8892,-0.38998,-37.611,355.53,3.0046,-1.0015,-1.4568,4.0062,-2.9687e-13,-0.72839,0,0,0.11111,-2.6316e-16,0,0.66667
0.55791,0.011784,5.0212,-0.73232,-54.453,168.81,9.8057,-3.2686,-0.091621,13.074,2.9701e-12,-0.04581,0,0,0.11111,-0,-0,0.66667
0.99346,0.25567,8.9411,-0.36649,-0.35324,0.65862,8.7382,-2.9127,-1.5205,11.651,-7.2673e-07,-0.76027,0,0,0.11111,-0,-0,0.66667
0.83449,0.64213,7.5104,0.2132,6.8769,27.421,-4.2698,1.4233,-1.8359,-5.6931,1.146e-09,-0.91793,0,0,0.11111,-0,-0,0.66667
0.69962,0.47152,6.2966,-0.042723,-2.3308,82.754,0.71736,-0.23912,-1.9939,0.95648,3.6066e-13,-0.99695,0,0,0.11111,-0,-0,0.66667
0.91826,0.45531,8.2643,-0.067028,-1.0963,7.3763,1.4772,-0.49239,-1.9832,1.9696,-1.4786e-08,-0.9916,0,0,0.11111,1.0527e-15,0,0.66667
0.039729,0.58536,0.35756,0.12804,13.734,621.65,-0.12208,0.040695,-1.9394,-0.16278,7.3366e-08,-0.96968,0,0,0.11111,3.2895e-17,0,0.66667
0.070333,0.43132,0.633,-0.10302,-11.012,591.6,0.17389,-0.057965,-1.9601,0.23186,5.3034e-08,-0.98006,0,0,0.11111,4.1646e-17,0,0.66667
0.47401,0.72245,4.2661,0.33368,27.784,228.69,-3.796,1.2653,-1.6031,-5.0613,-1.0967e-12,-0.80153,0,0,0.11111,1.0527e-15,0,0.66667
0.34917,0.38147,3.1425,-0.1778,-16.763,330.74,1.4899,-0.49665,-1.886,1.9866,-6.4726e-13,-0.94302,0,0,0.11111,-0,-0,0.66667
0.93725,0.73267,8.4353,0.34901,4.4224,5.0037,-7.8506,2.6169,-1.5703,-10.467,7.2324e-08,-0.78517,0,0,0.11111,-0,-0,0.66667
0.48956,0.74759,4.4061,0.37139,30.333,216.94,-4.3636,1.4545,-1.5088,-5.8182,1.6831e-13,-0.7544,0,0,0.11111,3.9475e-16,0,0.66667
0.53965,0.95875,4.8568,0.68813,52.611,181.27,-8.9124,2.9708,-0.31386,-11.883,-1.6849e-12,-0.15693,0,0,0.11111,-0,-0,0.66667
0.89526,0.38722,8.0573,-0.16917,-3.5332,11.729,3.6349,-1.2116,-1.8966,4.8465,-1.5529e-08,-0.94832,0,0,0.11111,-0,-0,0.66667
0.44664,0.48058,4.0197,-0.029131,-2.5016,249.79,0.31227,-0.10409,-1.9945,0.41636,-2.3326e-12,-0.99725,0,0,0.11111,-1.0527e-15,0,0.66667
0.87703,0.93144,7.8933,0.64717,16.036,17.132,-13.622,4.5407,-0.51233,-18.163,1.4648e-07,-0.25617,0,0,0.11111,1.579e-15,0,0.66667
0.25358,0.91663,2.2822,0.62495,63.043,416.71,-3.8034,1.2678,-0.6107,-5.0712,1.3526e-11,-0.30535,0,0,0.11111,5.2633e-16,0,0.66667
0.27381,0.97812,2.4643,0.71719,71.613,398.33,-4.7129,1.571,-0.1687,-6.2839,-2.7107e-12,-0.084349,0,0,0.11111,-0,-0,0.66667
0.32836,0.54779,2.9553,0.071681,6.8654,348.87,-0.56489,0.1883,-1.9852,-0.75319,7.8959e-13,-0.99258,0,0,0.11111,-0,-0,0.66667
0.54756,0.32738,4.9281,-0.25893,-19.447,174.88,3.4027,-1.1342,-1.7643,4.5369,1.378e-12,-0.88217,0,0,0.11111,-0,-0,0.66667
0.22013,0.20872,1.9812,-0.43692,-44.732,447.6,2.3083,-0.76942,-1.3232,3.0777,-3.3623e-11,-0.66159,0,0,0.11111,-0,-0,0.66667
0.67143,0.24719,6.0429,-0.37921,-22.327,98.018,6.1108,-2.0369,-1.4929,8.1477,1.4255e-12,-0.74647,0,0,0.11111,2.6316e-16,0,0.66667
0.14279,0.63638,1.2851,0.20457,21.532,521.1,-0.70105,0.23368,-1.852,-0.93474,-3.7717e-09,-0.92601,0,0,0.11111,2.6316e-16,0,0.66667
0.0941,0.72147,0.8469,0.33221,35.405,568.4,-0.75026,0.25009,-1.612,-1.0003,-3.6181e-08,-0.80601,0,0,0.11111,-0,-0,0.66667
0.87019,0.14565,7.8317,-0.53152,-13.781,18.308,11.101,-3.7002,-0.99389,14.801,-4.4818e-09,-0.49694,0,0,0.11111,-0,-0,0.66667
0.23687,0.47229,2.1318,-0.04157,-4.2135,431.8,0.23632,-0.078774,-1.9952,0.3151,-6.1544e-12,-0.99758,0,0,0.11111,-0,-0,0.66667
0.386,0.6026,3.474,0.15389,14.058,299.3,-1.4257,0.47523,-1.9144,-1.9009,-3.4572e-13,-0.95722,0,0,0.11111,-0,-0,0.66667
0.57154,0.018526,5.1439,-0.72221,-52.489,159.61,9.9066,-3.3022,-0.14291,13.209,3.4905e-13,-0.071457,0,0,0.11111,-0,-0,0.66667
0.5258,0.25784,4.7322,-0.36324,-28.222,190.34,4.5838,-1.5279,-1.5291,6.1117,-9.1438e-13,-0.76457,0,0,0.11111,-0,-0,0.66667
0.076024,0.90391,0.68421,0.60587,64.933,586.14,-1.1055,0.36849,-0.69682,-1.4739,-2.685e-07,-0.34841,0,0,0.11111,6.5791e-17,0,0.66667
0.87413,0.35793,7.8671,-0.2131,-5.3151,16.518,4.4707,-1.4902,-1.841,5.9609,-8.6226e-09,-0.92049,0,0,0.11111,-0,-0,0.66667
0.95114,0.77545,8.5602,0.41317,4.0865,3.5556,-9.4315,3.1438,-1.3946,-12.575,6.8944e-08,-0.6973,0,0,0.11111,-0,-0,0.66667
0.81251,0.63958,7.3126,0.20937,7.5717,34.567,-4.0828,1.3609,-1.848,-5.4437,2.3571e-10,-0.92398,0,0,0.11111,-0,-0,0.66667
0.2838,0.19715,2.5542,-0.45428,-44.942,388.92,3.0942,-1.0314,-1.2667,4.1256,-3.6886e-12,-0.63336,0,0,0.11111,-0,-0,0.66667
0.52785,0.54238,4.7506,0.063566,4.9156,188.61,-0.80528,0.26843,-1.9851,-1.0737,-6.2722e-13,-0.99255,0,0,0.11111,-0,-0,0.66667
0.33942,0.6917,3.0548,0.28755,27.335,339.29,-2.3424,0.7808,-1.7055,-3.1232,1.2264e-12,-0.85273,0,0,0.11111,-0,-0,0.66667
0.55467,0.71557,4.992,0.32335,24.024,170.06,-4.3045,1.4348,-1.6266,-5.7393,6.1995e-13,-0.81328,0,0,0.11111,-1.0527e-15,0,0.66667
0.9744,0.85768,8.7696,0.53653,2.7756,2.0797,-12.547,4.1823,-0.97425,-16.729,-4.1582e-06,-0.48713,0,0,0.11111,-0,-0,0.66667
0.3117,0.86391,2.8053,0.54586,53.076,363.98,-4.0835,1.3612,-0.94326,-5.4447,-6.1284e-13,-0.47163,0,0,0.11111,2.6316e-16,0,0.66667
0.6688,0.99836,6.0192,0.74754,44.62,100.57,-11.999,3.9996,-0.014138,-15.998,2.9061e-12,-0.0070692,0,0,0.11111,-1.3158e-15,2.6206e-17,0.66667
0.32597,0.8812,2.9337,0.5718,55.053,351.4,-4.4734,1.4911,-0.83878,-5.9645,-4.2677e-13,-0.41939,0,0,0.11111,-0,-0,0.66667
0.77448,0.34938,6.9703,-0.22594,-9.6451,48.754,4.1996,-1.3999,-1.8165,5.5994,2.2405e-11,-0.90827,0,0,0.11111,-2.1053e-15,0,0.66667
0.32581,0.25011,2.9323,-0.37483,-36.02,351.3,2.9309,-0.97698,-1.5026,3.9079,6.084e-14,-0.75132,0,0,0.11111,-0,-0,0.66667
0.88983,0.0015812,8.0084,-0.74763,-16.809,14.759,15.966,-5.3221,-0.016557,21.288,-7.9557e-10,-0.0082787,0,0,0.11111,-0,-0,0.66667
0.75171,0.21483,6.7654,-0.42776,-19.925,58.679,7.7172,-2.5724,-1.3516,10.29,3.1554e-11,-0.67582,0,0,0.11111,-0,-0,0.66667
0.76263,0.35341,6.8637,-0.21989,-9.8187,53.607,4.0247,-1.3416,-1.8281,5.3662,2.346e-11,-0.91404,0,0,0.11111,-0,-0,0.66667
0.46948,0.0077026,4.2253,-0.73845,-62.161,232.98,8.3204,-2.7735,-0.064237,11.094,3.0589e-12,-0.032119,0,0,0.11111,-0,-0,0.66667
0.21076,0.13624,1.8969,-0.54563,-56.161,456.48,2.76,-0.92,-0.93883,3.68,2.2927e-10,-0.46941,0,0,0.11111,-0,-0,0.66667
0.041475,0.36969,0.37328,-0.19546,-20.967,619.94,0.19456,-0.064854,-1.8628,0.25942,-9.1276e-08,-0.93138,0,0,0.11111,-3.2895e-17,0,0.66667
0.32183,0.35233,2.8965,-0.22151,-21.327,354.69,1.7109,-0.5703,-1.8234,2.2812,1.3104e-12,-0.91169,0,0,0.11111,-0,-0,0.66667
0.037113,0.12597,0.33401,-0.56104,-60.365,624.27,0.49972,-0.16657,-0.87998,0.6663,1.2259e-06,-0.43999,0,0,0.11111,-0,-0,0.66667
0.69386,0.87005,6.2447,0.55508,30.941,86.562,-9.2435,3.0812,-0.90274,-12.325,1.3936e-12,-0.45137,0,0,0.11111,-1.0527e-15,0,0.66667
0.67035,0.64044,6.0332,0.21066,12.414,98.342,-3.3891,1.1297,-1.8437,-4.5188,-2.4039e-12,-0.92186,0,0,0.11111,1.0527e-15,0,0.66667
0.43047,0.45787,3.8742,-0.063189,-5.5232,262.69,0.65283,-0.21761,-1.9833,0.87043,4.1722e-13,-0.99163,0,0,0.11111,-5.2633e-16,0,0.66667
0.76779,0.47758,6.9101,-0.033629,-1.4713,51.319,0.61968,-0.20656,-1.997,0.82624,1.2646e-11,-0.99849,0,0,0.11111,-0,-0,0.66667
0.53601,0.77891,4.8241,0.41837,32.034,183.19,-5.382,1.794,-1.3771,-7.176,-1.7955e-12,-0.68857,0,0,0.11111,-1.3158e-16,0,0.66667
0.03986,0.82285,0.35874,0.48428,52.054,621.56,-0.46328,0.15443,-1.1636,-0.61771,-6.1633e-07,-0.58182,0,0,0.11111,6.5791e-17,0,0.66667
0.13479,0.60328,1.2131,0.15491,16.34,528.82,-0.50115,0.16705,-1.9126,-0.6682,-3.2806e-09,-0.9563,0,0,0.11111,-0,-0,0.66667
0.19342,0.20712,1.7407,-0.43933,-45.504,472.78,2.0393,-0.67978,-1.3115,2.7191,4.3546e-11,-0.65574,0,0,0.11111,-2.6316e-16,0,0.66667
0.33566,0.62815,3.021,0.19223,18.317,342.51,-1.5486,0.51619,-1.8669,-2.0648,1.0046e-11,-0.93347,0,0,0.11111,-1.0527e-15,0,0.66667
0.052313,0.9368,0.47082,0.6552,70.478,609.37,-0.82261,0.2742,-0.47303,-1.0968,4.174e-07,-0.23652,0,0,0.11111,2.8784e-17,0,0.66667
0.60512,0.9105,5.4461,0.61575,42.033,137.57,-8.9424,2.9808,-0.65143,-11.923,-9.6279e-13,-0.32572,0,0,0.11111,-0,-0,0.66667
0.51206,0.50377,4.6085,0.0056572,0.44747,200,-0.069524,0.023175,-2.0001,-0.092699,2.5716e-12,-1,0,0,0.11111,-0,-0,0.66667
0.61746,0.51516,5.5571,0.022739,1.5063,128.98,-0.33697,0.11232,-1.9954,-0.44929,1.7269e-12,-0.9977,0,0,0.11111,-2.1053e-15,0,0.66667
0.43236,0.26311,3.8912,-0.35534,-31.042,261.39,3.6872,-1.2291,-1.5491,4.9163,1.1739e-12,-0.77455,0,0,0.11111,-0,-0,0.66667
0.8477,0.69687,7.6293,0.29531,8.8292,23.639,-6.0079,2.0026,-1.6891,-8.0106,2.4e-09,-0.84453,0,0,0.11111,-0,-0,0.66667
0.45406,0.85927,4.0865,0.53891,46.051,244.47,-5.8727,1.9576,-0.96972,-7.8303,1.4539e-12,-0.48486,0,0,0.11111,-1.0527e-15,0,0.66667
0.015404,0.99473,0.13863,0.7421,80.119,645.62,-0.27422,0.091432,-0.046274,-0.36561,3.9749e-05,-0.023137,0,0,0.11111,-2.4672e-17,0,0.66667
0.87307,0.17672,7.8576,-0.48492,-12.287,17.438,10.161,-3.3869,-1.1651,13.548,-6.0023e-09,-0.58253,0,0,0.11111,-0,-0,0.66667
0.6562,0.87387,5.9058,0.56081,34.343,106.93,-8.8321,2.944,-0.88696,-11.776,3.5172e-13,-0.44348,0,0,0.11111,-4.6054e-16,1.8463e-17,0.66667
0.823,0.49634,7.407,-0.0054941,-0.18825,30.911,0.10852,-0.036174,-1.9989,0.14469,1.279e-10,-0.99945,0,0,0.11111,2.6316e-16,0,0.66667
0.95178,0.1885,8.566,-0.46724,-4.5829,3.6702,10.673,-3.5577,-1.227,14.231,-2.1079e-07,-0.6135,0,0,0.11111,4.2106e-15,0,0.66667
0.050912,0.22251,0.45821,-0.41624,-44.669,610.69,0.5086,-0.16953,-1.3837,0.67813,5.9372e-08,-0.69187,0,0,0.11111,-0,-0,0.66667
0.23507,0.51309,2.1156,0.019633,1.9917,433.47,-0.11076,0.036921,-2.0014,-0.14768,2.3864e-12,-1.0007,0,0,0.11111,-0,-0,0.66667
0.063343,0.78115,0.57009,0.42172,45.195,598.5,-0.64112,0.21371,-1.3718,-0.85483,-1.2411e-07,-0.6859,0,0,0.11111,-2.827e-17,0,0.66667
0.42166,0.10358,3.7949,-0.59463,-52.673,270.41,6.0176,-2.0059,-0.7465,8.0234,1.7093e-12,-0.37325,0,0,0.11111,-0,-0,0.66667
0.86383,0.76362,7.7745,0.39542,10.672,19.482,-8.1979,2.7326,-1.4425,-10.931,5.6967e-09,-0.72126,0,0,0.11111,-0,-0,0.66667
0.081624,0.43592,0.73462,-0.096121,-10.257,580.55,0.1883,-0.062766,-1.9678,0.25107,1.237e-08,-0.98389,0,0,0.11111,-1.8093e-16,0,0.66667
0.47311,0.50473,4.258,0.0070975,0.59081,229.16,-0.080589,0.026863,-1.9992,-0.10745,2.4229e-12,-0.99959,0,0,0.11111,-0,-0,0.66667
0.12554,0.2188,1.1299,-0.4218,-44.668,537.85,1.2709,-0.42363,-1.3721,1.6945,7.744e-09,-0.68603,0,0,0.11111,-0,-0,0.66667
0.77289,0.97313,6.956,0.7097,30.819,50.794,-13.164,4.3881,-0.2073,-17.553,-9.818e-11,-0.10365,0,0,0.11111,-0,-0,0.66667
0.84142,0.33555,7.5728,-0.24667,-7.6508,25.377,4.9813,-1.6604,-1.7845,6.6417,-1.7671e-09,-0.89226,0,0,0.11111,5.2633e-16,0,0.66667
0.043291,0.60541,0.38962,0.15811,16.956,618.15,-0.16428,0.054759,-1.9104,-0.21904,1.2574e-07,-0.95519,0,0,0.11111,-0,-0,0.66667
0.48644,0.0021087,4.378,-0.74684,-61.569,220.11,8.719,-2.9063,-0.018913,11.625,-7.736e-13,-0.0094563,0,0,0.11111,-0,-0,0.66667
0.23941,0.54655,2.1547,0.069826,7.0685,429.44,-0.40121,0.13374,-1.9807,-0.53494,7.1632e-12,-0.99037,0,0,0.11111,-0,-0,0.66667
0.95247,0.93191,8.5723,0.64786,6.3967,4.3658,-14.81,4.9366,-0.51111,-19.746,2.8596e-06,-0.25556,0,0,0.11111,1.0527e-15,-7.7329e-17,0.66667
0.94389,0.47782,8.495,-0.033265,-0.37247,3.7222,0.75357,-0.25119,-1.9938,1.0048,6.0062e-08,-0.99691,0,0,0.11111,-0,-0,0.66667
0.61393,0.085434,5.5254,-0.62185,-41.733,132.1,9.1626,-3.0542,-0.62383,12.217,1.5623e-12,-0.31192,0,0,0.11111,-5.2633e-16,0,0.66667
0.97349,0.61607,8.7614,0.1741,0.88773,1.1332,-4.0677,1.3559,-1.8908,-5.4236,-1.5606e-07,-0.9454,0,0,0.11111,-1.0527e-15,0,0.66667
0.34486,0.62972,3.1038,0.19458,18.409,334.49,-1.6105,0.53682,-1.8683,-2.1473,-1.8154e-12,-0.93415,0,0,0.11111,1.0527e-15,0,0.66667
0.89785,0.7549,8.0807,0.38236,7.8404,11.624,-8.2392,2.7464,-1.4783,-10.986,3.1082e-08,-0.73913,0,0,0.11111,-0,-0,0.66667
0.43459,0.35308,3.9114,-0.22038,-19.188,259.46,2.2986,-0.7662,-1.8274,3.0648,-1.5623e-12,-0.91371,0,0,0.11111,-0,-0,0.66667
0.23581,0.77529,2.1223,0.41293,41.949,432.94,-2.337,0.77901,-1.396,-3.116,2.6278e-11,-0.698,0,0,0.11111,1.3158e-16,0,0.66667
0.94083,0.010293,8.4675,-0.73456,-9.0933,6.1211,16.586,-5.5288,-0.081095,22.115,1.1708e-06,-0.040548,0,0,0.11111,4.2106e-15,0,0.66667
0.68422,0.89072,6.158,0.58607,33.53,91.69,-9.624,3.208,-0.77818,-12.832,-7.0166e-13,-0.38909,0,0,0.11111,-0,-0,0.66667
0.064912,0.063489,0.5842,-0.65477,-70.326,597.03,1.02,-0.34002,-0.47755,1.3601,-3.4297e-07,-0.23877,0,0,0.11111,-0,-0,0.66667
0.87042,0.46582,7.8338,-0.051275,-1.3123,17.276,1.0711,-0.35705,-1.9901,1.4282,-1.0509e-09,-0.99507,0,0,0.11111,2.6316e-16,0,0.66667
0.70138,0.054154,6.3124,-0.66877,-36.616,83.111,11.257,-3.7525,-0.41135,15.01,-7.2387e-13,-0.20567,0,0,0.11111,-1.0527e-15,0,0.66667
0.60493,0.14859,5.4443,-0.52712,-35.941,137.44,7.6529,-2.551,-1.011,10.204,-1.1293e-12,-0.50548,0,0,0.11111,-0,-0,0.66667
0.73237,0.14282,6.5914,-0.53576,-26.674,67.66,9.4171,-3.139,-0.98032,12.556,6.4926e-12,-0.49016,0,0,0.11111,-0,-2.4289e-17,0.66667
0.25344,0.051839,2.281,-0.67224,-67.862,416.91,4.0889,-1.363,-0.39269,5.4519,1.4562e-12,-0.19634,0,0,0.11111,2.6316e-16,0,0.66667
0.60049,0.24438,5.4044,-0.38344,-26.314,139.93,5.526,-1.842,-1.4753,7.368,-2.6201e-14,-0.73765,0,0,0.11111,2.6316e-16,0,0.66667
0.81462,0.36459,7.3316,-0.20311,-7.2694,33.838,3.971,-1.3237,-1.8542,5.2947,-2.1969e-10,-0.92712,0,0,0.11111,-0,-0,0.66667
0.054114,0.45881,0.48702,-0.061791,-6.6181,607.51,0.08025,-0.02675,-1.9839,0.107,1.2883e-07,-0.99196,0,0,0.11111,-0,-0,0.66667
0.13051,0.63453,1.1746,0.2018,21.314,532.97,-0.63208,0.21069,-1.8533,-0.84277,-7.1138e-09,-0.92664,0,0,0.11111,-0,-0,0.66667
0.84245,4.7129e-05,7.582,-0.74993,-23.511,26.765,15.163,-5.0542,-0.0038835,20.217,4.3509e-09,-0.0019417,0,0,0.11111,-0,-0,0.66667
0.61835,0.66994,5.5651,0.25492,16.873,128.6,-3.783,1.261,-1.7664,-5.0441,-3.1974e-13,-0.88318,0,0,0.11111,1.0527e-15,0,0.66667
0.53129,0.086083,4.7816,-0.62087,-48.013,186.97,7.9167,-2.6389,-0.63359,10.556,3.0869e-12,-0.31679,0,0,0.11111,-5.2633e-16,0,0.66667
0.24829,0.026404,2.2346,-0.71039,-71.95,421.71,4.2332,-1.4111,-0.20772,5.6443,3.9639e-11,-0.10386,0,0,0.11111,2.6316e-16,0,0.66667
0.29508,0.72698,2.6557,0.34047,33.411,378.63,-2.4112,0.80372,-1.5894,-3.2149,3.8867e-12,-0.79468,0,0,0.11111,-0,-0,0.66667
0.87269,0.29859,7.8542,-0.30212,-7.6317,17.028,6.3278,-2.1093,-1.676,8.437,-9.2635e-09,-0.83799,0,0,0.11111,-0,-0,0.66667
0.42167,0.72729,3.795,0.34093,30.116,270,-3.4502,1.1501,-1.5905,-4.6003,-1.0236e-12,-0.79527,0,0,0.11111,-0,-0,0.66667
0.06443,0.31593,0.57987,-0.2761,-29.556,597.41,0.42694,-0.14231,-1.731,0.56926,3.8572e-08,-0.86548,0,0,0.11111,-2.6316e-16,0,0.66667
0.89699,0.62131,8.0729,0.18196,3.7404,11.393,-3.9172,1.3057,-1.8807,-5.2229,2.0809e-08,-0.94037,0,0,0.11111,1.3158e-15,0,0.66667
0.20338,0.3474,1.8304,-0.2289,-23.577,463.24,1.1173,-0.37242,-1.8181,1.4897,3.844e-11,-0.90906,0,0,0.11111,-5.2633e-16,0,0.66667
0.82623,0.25483,7.436,-0.36776,-12.441,30.314,7.2924,-2.4308,-1.521,9.7232,-6.0894e-10,-0.76048,0,0,0.11111,2.1053e-15,0,0.66667
0.88177,0.8011,7.9359,0.45164,10.684,15.278,-9.5579,3.186,-1.2722,-12.744,9.3105e-09,-0.6361,0,0,0.11111,1.0527e-15,0,0.66667
0.48675,0.55523,4.3808,0.082852,6.7802,218.8,-0.96787,0.32262,-1.9765,-1.2905,-2.9158e-12,-0.98825,0,0,0.11111,-0,-0,0.66667
0.59846,0.63226,5.3862,0.19839,13.644,140.95,-2.8495,0.94983,-1.8588,-3.7993,5.3291e-15,-0.92941,0,0,0.11111,-0,-0,0.66667
0.52727,0.58199,4.7454,0.12298,9.5198,189.05,-1.5563,0.51876,-1.9451,-2.075,1.571e-13,-0.97257,0,0,0.11111,-0,-0,0.66667
0.62482,0.66038,5.6234,0.24058,15.713,124.64,-3.6076,1.2025,-1.7987,-4.8101,-2.2204e-14,-0.89933,0,0,0.11111,-0,-0,0.66667
0.85504,0.62513,7.6954,0.18769,5.3481,21.406,-3.8515,1.2838,-1.875,-5.1354,3.0356e-09,-0.93749,0,0,0.11111,-0,-0,0.66667
0.28214,0.20789,2.5393,-0.43816,-43.386,390.41,2.967,-0.98899,-1.3199,3.9559,-4.392e-12,-0.65997,0,0,0.11111,-2.6316e-16,0,0.66667
0.88376,0.97,7.9538,0.705,16.625,15.865,-14.953,4.9844,-0.2316,-19.937,-1.2528e-07,-0.1158,0,0,0.11111,-0,-0,0.66667
0.56769,0.21751,5.1092,-0.42374,-30.847,161.4,5.7733,-1.9244,-1.361,7.6977,1.8856e-12,-0.6805,0,0,0.11111,-1.3158e-15,0,0.66667
0.1151,0.30608,1.0359,-0.29087,-30.854,547.93,0.80353,-0.26784,-1.6975,1.0714,1.514e-08,-0.84873,0,0,0.11111,-0,-0,0.66667
0.227,0.74964,2.043,0.37446,38.194,441.13,-2.0401,0.68003,-1.5003,-2.7201,4.0877e-11,-0.75016,0,0,0.11111,1.4803e-16,0,0.66667
0.59598,0.053452,5.3638,-0.66982,-46.567,143.51,9.5809,-3.1936,-0.40565,12.774,-6.6258e-13,-0.20283,0,0,0.11111,-0,-0,0.66667
0.23945,0.71111,2.155,0.31667,32.088,429.5,-1.8198,0.60661,-1.6419,-2.4264,2.6963e-11,-0.82097,0,0,0.11111,-2.6316e-16,0,0.66667
0.13142,0.67167,1.1827,0.25751,27.198,532.11,-0.81217,0.27072,-1.7617,-1.0829,-7.1267e-09,-0.88084,0,0,0.11111,-0,-0,0.66667
0.16185,0.013474,1.4566,-0.72979,-76.73,503.09,2.8348,-0.94492,-0.10414,3.7797,7.0639e-10,-0.052068,0,0,0.11111,-5.2633e-16,0,0.66667
0.84487,0.75115,7.6039,0.37672,11.48,24.639,-7.6388,2.5463,-1.4989,-10.185,2.1501e-09,-0.74947,0,0,0.11111,-2.1053e-15,0,0.66667
0.60218,0.8277,5.4197,0.49155,33.673,139.08,-7.1041,2.368,-1.1382,-9.4721,9.8721e-13,-0.56909,0,0,0.11111,-0,-0,0.66667
0.96357,0.47857,8.6721,-0.032143,-0.22963,1.7431,0.74333,-0.24778,-1.9945,0.99111,-1.0353e-07,-0.99727,0,0,0.11111,-0,-0,0.66667
0.34568,0.0014392,3.1111,-0.74784,-71.113,334.5,6.2043,-2.0681,-0.013877,8.2724,2.9785e-12,-0.0069386,0,0,0.11111,-2.1053e-15,0,0.66667
0.59563,0.10487,5.3606,-0.59269,-41.172,143.51,8.4725,-2.8242,-0.75218,11.297,-5.7021e-13,-0.37609,0,0,0.11111,-0,-0,0.66667
0.59899,0.77424,5.3909,0.41136,28.32,140.93,-5.9136,1.9712,-1.3968,-7.8848,1.2945e-12,-0.6984,0,0,0.11111,-0,-0,0.66667
0.6157,0.73944,5.5413,0.35916,23.923,130.38,-5.3073,1.7691,-1.539,-7.0764,9.2726e-13,-0.7695,0,0,0.11111,-5.2633e-16,0,0.66667
0.059177,0.51101,0.53259,0.016521,1.7684,602.54,-0.023464,0.0078217,-1.9986,-0.031285,4.9208e-07,-0.99929,0,0,0.11111,-0,-0,0.66667
0.75032,0.86068,6.7529,0.54102,25.384,59.615,-9.7426,3.2475,-0.96257,-12.99,6.6924e-12,-0.48129,0,0,0.11111,-0,-0,0.66667
0.94821,0.24959,8.5339,-0.37562,-3.9289,3.7576,8.5479,-2.8493,-1.4981,11.397,-1.9283e-08,-0.74906,0,0,0.11111,-1.6448e-16,0,0.66667
0.53468,0.14703,4.8121,-0.52945,-40.679,184.35,6.794,-2.2647,-1.0029,9.0587,2.3159e-12,-0.50146,0,0,0.11111,5.2633e-16,0,0.66667
0.19256,0.040148,1.733,-0.68978,-71.672,473.81,3.1877,-1.0626,-0.30666,4.2503,-2.9523e-10,-0.15333,0,0,0.11111,-0,-0,0.66667
0.75293,0.76307,6.7763,0.39461,18.291,58.069,-7.1307,2.3769,-1.4462,-9.5076,-2.6413e-11,-0.7231,0,0,0.11111,1.0527e-15,0,0.66667
0.007319,0.80168,0.065871,0.45253,48.702,653.55,-0.079488,0.026495,-1.2693,-0.10598,-1.2122e-06,-0.63466,0,0,0.11111,8.2239e-18,0,0.66667
0.32826,0.30168,2.9543,-0.29748,-28.52,349.08,2.3436,-0.7812,-1.6891,3.1248,-4.1722e-13,-0.84456,0,0,0.11111,5.2633e-16,0,0.66667
0.91761,0.15324,8.2585,-0.52014,-8.7181,8.461,11.455,-3.8183,-1.0378,15.273,-2.0322e-08,-0.51888,0,0,0.11111,-1.579e-15,0,0.66667
0.58837,0.44391,5.2953,-0.084142,-5.8931,147.36,1.1882,-0.39605,-1.9733,1.5842,3.797e-13,-0.98665,0,0,0.11111,-0,-0,0.66667
0.85519,0.79561,7.6967,0.44341,12.697,21.918,-9.1008,3.0336,-1.2996,-12.134,3.126e-09,-0.6498,0,0,0.11111,-0,-0,0.66667
0.60467,0.0044579,5.442,-0.74331,-50.918,138.27,10.787,-3.5957,-0.034655,14.383,1.1475e-12,-0.017327,0,0,0.11111,-0,-0,0.66667
0.82258,0.77852,7.4032,0.41779,14.422,31.624,-8.2479,2.7493,-1.3783,-10.997,3.0491e-10,-0.68917,0,0,0.11111,-1.3158e-15,0,0.66667
0.87948,0.58716,7.9154,0.13073,3.1242,15.147,-2.7595,0.91983,-1.9382,-3.6793,9.136e-09,-0.96912,0,0,0.11111,5.2633e-16,0,0.66667
0.32099,0.4595,2.8889,-0.060748,-5.8496,355.38,0.46798,-0.15599,-1.9844,0.62397,-6.8445e-14,-0.99222,0,0,0.11111,-5.2633e-16,0,0.66667
0.12295,0.54798,1.1066,0.071976,7.6142,540.27,-0.21239,0.070798,-1.9824,-0.28319,-4.4351e-09,-0.99121,0,0,0.11111,2.6316e-16,0,0.66667
0.7213,0.26492,6.4917,-0.35262,-18.109,72.395,6.1043,-2.0348,-1.5581,8.1391,9.2726e-12,-0.77906,0,0,0.11111,-0,-0,0.66667
0.44035,0.10761,3.9631,-0.58859,-51.11,255.39,6.2204,-2.0735,-0.76814,8.2939,9.0949e-13,-0.38407,0,0,0.11111,-0,-0,0.66667
0.12674,0.14001,1.1406,-0.53999,-57.23,536.75,1.6425,-0.54748,-0.96448,2.1899,3.2605e-09,-0.48224,0,0,0.11111,-0,-0,0.66667
0.58982,0.35391,5.3084,-0.21914,-15.316,146.52,3.102,-1.034,-1.8283,4.136,-3.5749e-14,-0.91417,0,0,0.11111,-0,-0,0.66667
0.036068,0.35701,0.32461,-0.21448,-23.019,625.25,0.18567,-0.061889,-1.8347,0.24755,-1.5382e-07,-0.91734,0,0,0.11111,-0,-0,0.66667
0.20018,0.077774,1.8016,-0.63334,-65.554,466.54,3.0428,-1.0143,-0.5736,4.0571,9.2243e-11,-0.2868,0,0,0.11111,-0,-0,0.66667
0.7883,0.20315,7.0947,-0.44528,-18.038,43.812,8.4244,-2.8081,-1.2923,11.233,-2.4116e-11,-0.64616,0,0,0.11111,-1.0527e-15,0,0.66667
0.012097,0.52124,0.10887,0.031855,3.4213,648.84,-0.0092477,0.0030814,-1.9958,-0.012331,-1.7686e-06,-0.99791,0,0,0.11111,-0,-0,0.66667
0.30335,0.88383,2.7301,0.57574,56.32,371.48,-4.1916,1.3972,-0.81917,-5.5887,3.566e-12,-0.40958,0,0,0.11111,-0,-0,0.66667
0.021376,0.11118,0.19238,-0.58323,-62.825,639.73,0.29921,-0.099741,-0.78826,0.39894,-6.9608e-06,-0.39413,0,0,0.11111,-0,-0,0.66667
0.99748,0.9641,8.9774,0.69615,0.32145,1.9719,-16.666,5.5551,-0.27807,-22.221,-3.8812e-05,-0.13903,0,0,0.11111,-5.2633e-16,-2.0003e-16,0.66667
0.58203,0.92291,5.2383,0.63436,45.197,152.41,-8.8612,2.9537,-0.56808,-11.815,-1.2168e-13,-0.28404,0,0,0.11111,-0,-0,0.66667
0.29338,0.39278,2.6404,-0.16083,-15.785,380.06,1.1324,-0.37746,-1.9073,1.5098,-3.9941e-12,-0.95366,0,0,0.11111,-0,-0,0.66667
0.92895,0.99435,8.3605,0.74152,10.966,7.7396,-16.532,5.5107,-0.042945,-22.043,-2.0508e-07,-0.021473,0,0,0.11111,1.579e-15,0,0.66667
0.50712,0.12298,4.5641,-0.56553,-45.227,204.27,6.8829,-2.2943,-0.86144,9.1773,3.145e-12,-0.43072,0,0,0.11111,-1.3158e-15,0,0.66667
0.45469,0.27625,4.0922,-0.33562,-28.596,243.65,3.6625,-1.2208,-1.6017,4.8833,-1.0867e-12,-0.80087,0,0,0.11111,5.2633e-16,0,0.66667
0.58787,0.89535,5.2908,0.59303,41.783,148.5,-8.367,2.789,-0.74736,-11.156,1.4797e-12,-0.37368,0,0,0.11111,-5.2633e-16,0,0.66667
0.26414,0.19676,2.3772,-0.45486,-45.53,406.83,2.8835,-0.96116,-1.2662,3.8447,-1.5867e-11,-0.6331,0,0,0.11111,5.2633e-16,0,0.66667
0.30529,0.47737,2.7476,-0.033952,-3.3053,369.34,0.24877,-0.082922,-1.9935,0.33169,3.7609e-12,-0.99676,0,0,0.11111,-0,-0,0.66667
0.37165,0.14856,3.3449,-0.52715,-48.913,311.81,4.7021,-1.5674,-1.0118,6.2694,-4.8272e-13,-0.50588,0,0,0.11111,4.8323e-16,0,0.66667
0.24445,0.53233,2.2,0.04849,4.8958,424.76,-0.28448,0.094827,-1.9909,-0.37931,-7.477e-12,-0.99545,0,0,0.11111,1.0527e-15,0,0.66667
0.58455,0.081756,5.2609,-0.62737,-44.494,150.75,8.8014,-2.9338,-0.59811,11.735,9.9565e-13,-0.29906,0,0,0.11111,-0,-0,0.66667
0.69585,0.40395,6.2626,-0.14408,-7.9452,84.738,2.4062,-0.80206,-1.9247,3.2082,1.011e-12,-0.96235,0,0,0.11111,1.1842e-15,0,0.66667
0.071947,0.83129,0.64752,0.49693,53.228,590.09,-0.85807,0.28602,-1.1196,-1.1441,-1.6471e-07,-0.55979,0,0,0.11111,-0,-0,0.66667
0.97108,0.77531,8.7397,0.41296,2.3742,1.836,-9.6245,3.2082,-1.3948,-12.833,-9.8673e-07,-0.69738,0,0,0.11111,-0,-0,0.66667
0.75307,0.23297,6.7776,-0.40054,-18.559,58.02,7.2393,-2.4131,-1.4292,9.6524,2.8316e-11,-0.71462,0,0,0.11111,-0,-0,0.66667
0.80616,0.609,7.2555,0.1635,6.0911,36.719,-3.1633,1.0544,-1.9024,-4.2178,1.0286e-10,-0.95121,0,0,0.11111,-1.0527e-15,0,0.66667
0.75164,0.13543,6.7648,-0.54686,-25.544,59.057,9.8649,-3.2883,-0.93824,13.153,-3.8849e-11,-0.46912,0,0,0.11111,-0,-0,0.66667
0.080061,0.91817,0.72055,0.62725,67.199,582.2,-1.2052,0.40175,-0.60214,-1.607,-7.2907e-08,-0.30107,0,0,0.11111,-0,-0,0.66667
0.4817,0.97358,4.3353,0.71038,58.876,223.58,-8.2125,2.7375,-0.20663,-10.95,2.1263e-12,-0.10332,0,0,0.11111,1.0527e-15,0,0.66667
0.44567,0.80946,4.0111,0.46419,40.008,250.94,-4.965,1.655,-1.2322,-6.62,1.9096e-14,-0.61612,0,0,0.11111,-6.5791e-16,0,0.66667
0.67247,0.38704,6.0523,-0.16944,-9.9302,97.14,2.7346,-0.91153,-1.9009,3.6461,1.964e-12,-0.95043,0,0,0.11111,-1.0527e-15,0,0.66667
0.44874,0.41832,4.0386,-0.12252,-10.498,248.16,1.3195,-0.43983,-1.9452,1.7593,-4.0082e-12,-0.97261,0,0,0.11111,-0,-0,0.66667
0.70431,0.46385,6.3388,-0.054218,-2.9194,80.385,0.91648,-0.30549,-1.9923,1.222,-4.5586e-13,-0.99616,0,0,0.11111,1.3158e-15,0,0.66667
0.68165,0.037122,6.1348,-0.69432,-40.087,93.431,11.359,-3.7862,-0.28426,15.145,-7.8515e-13,-0.14213,0,0,0.11111,-0,-0,0.66667
0.69715,0.34295,6.2743,-0.23557,-12.953,84.167,3.9415,-1.3138,-1.8018,5.2553,3.533e-12,-0.90091,0,0,0.11111,-1.25e-15,0,0.66667
0.6186,0.92771,5.5674,0.64156,42.674,129.3,-9.5249,3.175,-0.5342,-12.7,-1.207e-12,-0.2671,0,0,0.11111,-5.2633e-16,0,0.66667
0.15098,0.015788,1.3588,-0.72632,-76.628,513.51,2.6318,-0.87728,-0.12224,3.5091,-9.0405e-09,-0.061121,0,0,0.11111,5.2633e-16,0,0.66667
0.7608,0.8971,6.8472,0.59565,26.966,55.309,-10.876,3.6254,-0.73697,-14.502,-3.8112e-11,-0.36849,0,0,0.11111,1.0527e-15,0,0.66667
0.78105,0.38766,7.0294,-0.16851,-7.0036,46.078,3.1587,-1.0529,-1.9026,4.2116,9.7413e-12,-0.95129,0,0,0.11111,-0,-0,0.66667
0.9041,0.31027,8.1369,-0.2846,-5.4703,10.169,6.1753,-2.0584,-1.714,8.2337,-3.2248e-08,-0.85699,0,0,0.11111,4.5043e-18,0,0.66667
0.23377,0.61386,2.1039,0.17079,17.343,434.71,-0.9582,0.3194,-1.8993,-1.2776,1.8253e-11,-0.94964,0,0,0.11111,-0,-0,0.66667
0.17668,0.77235,1.5901,0.40853,42.576,488.67,-1.7323,0.57742,-1.4051,-2.3097,-3.6737e-10,-0.70256,0,0,0.11111,-2.6316e-16,0,0.66667
0.3911,0.11183,3.5199,-0.58226,-53.13,295.53,5.4653,-1.8218,-0.79766,7.2871,2.7449e-12,-0.39883,0,0,0.11111,-0,-0,0.66667
0.32056,0.8923,2.8851,0.58845,56.89,356.19,-4.5273,1.5091,-0.76605,-6.0364,-2.4651e-12,-0.38302,0,0,0.11111,5.2633e-16,0,0.66667
0.81548,0.81432,7.3393,0.47148,16.892,34.137,-9.2276,3.0759,-1.2107,-12.303,5.943e-10,-0.60535,0,0,0.11111,-0,-0,0.66667
0.61353,0.76502,5.5217,0.39753,26.606,131.79,-5.8535,1.9512,-1.4368,-7.8046,-1.0836e-12,-0.7184,0,0,0.11111,1.0527e-15,0,0.66667
0.76,0.24454,6.84,-0.38319,-17.316,55.014,6.9895,-2.3298,-1.4764,9.3193,2.6638e-11,-0.73819,0,0,0.11111,-1.0527e-15,0,0.66667
0.42767,0.26015,3.849,-0.35978,-31.588,265.17,3.6927,-1.2309,-1.5377,4.9236,3.8778e-12,-0.76883,0,0,0.11111,-1.0527e-15,0,0.66667
0.099441,0.071717,0.89497,-0.64242,-68.596,563.31,1.5332,-0.51106,-0.53059,2.0443,-1.4836e-07,-0.2653,0,0,0.11111,2.6316e-16,0,0.66667
0.11504,0.106,1.0353,-0.59099,-62.852,548.12,1.6316,-0.54388,-0.75595,2.1755,-1.2632e-08,-0.37797,0,0,0.11111,2.6316e-16,0,0.66667
0.37341,0.33423,3.3607,-0.24865,-22.981,310,2.2284,-0.74278,-1.7818,2.9711,1.7364e-12,-0.89092,0,0,0.11111,-0,-0,0.66667
0.19385,0.43896,1.7446,-0.091567,-9.465,472.22,0.426,-0.142,-1.9691,0.568,1.5645e-10,-0.98453,0,0,0.11111,-0,-0,0.66667
0.82075,0.95153,7.3867,0.67729,23.801,33.157,-13.341,4.4471,-0.36626,-17.788,2.5867e-09,-0.18313,0,0,0.11111,-0,-0,0.66667
0.59964,0.34772,5.3967,-0.22842,-15.678,140.24,3.2873,-1.0958,-1.8131,4.383,-4.7184e-13,-0.90653,0,0,0.11111,-0,-0,0.66667
0.68885,0.57627,6.1996,0.1144,6.4275,88.349,-1.8913,0.63044,-1.9552,-2.5218,-1.4903e-12,-0.97762,0,0,0.11111,-0,-0,0.66667
0.49111,0.068886,4.42,-0.64667,-52.899,216.33,7.6221,-2.5407,-0.51108,10.163,-9.0905e-13,-0.25554,0,0,0.11111,-0,-0,0.66667
0.088174,0.35836,0.79356,-0.21246,-22.653,574.16,0.44959,-0.14986,-1.8373,0.59946,2.7855e-08,-0.91865,0,0,0.11111,-0,-0,0.66667
0.23508,0.11986,2.1157,-0.57021,-58.039,433.77,3.217,-1.0723,-0.84741,4.2894,-1.1211e-10,-0.4237,0,0,0.11111,-0,-0,0.66667
0.4616,0.87241,4.1544,0.55861,47.33,238.63,-6.1885,2.0628,-0.88898,-8.2514,-1.307e-12,-0.44449,0,0,0.11111,-0,-0,0.66667
0.19859,0.47505,1.7873,-0.037432,-3.8614,467.73,0.17841,-0.059469,-1.994,0.23788,-6.5546e-11,-0.99701,0,0,0.11111,-5.2633e-16,0,0.66667
0.025476,0.73998,0.22929,0.35997,38.689,635.68,-0.22009,0.073365,-1.5372,-0.29346,7.8981e-07,-0.76859,0,0,0.11111,3.2895e-17,0,0.66667
0.7294,0.12544,6.5646,-0.56185,-28.253,69.126,9.8354,-3.2785,-0.87733,13.114,-1.3154e-12,-0.43866,0,0,0.11111,-0,-0,0.66667
0.72492,0.70086,6.5243,0.30128,15.292,70.578,-5.2417,1.7472,-1.6748,-6.989,-1.0389e-11,-0.83741,0,0,0.11111,-1.0527e-15,0,0.66667
0.33039,0.98305,2.9735,0.72458,69.684,347.78,-5.7455,1.9152,-0.13385,-7.6606,-1.0441e-12,-0.066926,0,0,0.11111,-5.2633e-16,0,0.66667
0.84349,0.23808,7.5914,-0.39288,-12.076,25.082,7.9534,-2.6511,-1.4547,10.605,-1.8499e-09,-0.72734,0,0,0.11111,-0,-0,0.66667
0.42844,0.54071,3.856,0.061058,5.3484,264.33,-0.62784,0.20928,-1.9844,-0.83711,-1.1049e-12,-0.99221,0,0,0.11111,-0,-0,0.66667
0.86469,0.079441,7.7822,-0.63084,-17.083,20.096,13.091,-4.3638,-0.58296,17.455,3.2285e-08,-0.29148,0,0,0.11111,-2.0767e-15,0,0.66667
0.65707,0.87765,5.9136,0.56648,34.624,106.46,-8.9331,2.9777,-0.86273,-11.911,2.6956e-12,-0.43137,0,0,0.11111,-2.1053e-15,0,0.66667
0.58104,0.022094,5.2293,-0.71686,-51.247,153.32,9.9965,-3.3322,-0.17297,13.329,1.9886e-12,-0.086483,0,0,0.11111,-0,-0,0.66667
0.20073,0.024963,1.8065,-0.71255,-73.815,466.11,3.4327,-1.1442,-0.19573,4.5769,-3.7424e-10,-0.097866,0,0,0.11111,2.6316e-16,8.4582e-17,0.66667
0.52955,0.26288,4.7659,-0.35567,-27.48,187.66,4.5203,-1.5068,-1.5515,6.0271,4.7073e-14,-0.77576,0,0,0.11111,-0,-0,0.66667
0.89443,0.022617,8.0499,-0.71607,-15.43,13.632,15.372,-5.1238,-0.17615,20.495,-4.5555e-07,-0.088074,0,0,0.11111,-2.1053e-15,0,0.66667
0.30499,0.11459,2.7449,-0.57811,-56.492,370.01,4.2317,-1.4106,-0.80911,5.6423,1.9318e-12,-0.40455,0,0,0.11111,2.6316e-16,0,0.66667
0.87095,0.42729,7.8385,-0.10906,-2.7817,17.179,2.2796,-0.75988,-1.9567,3.0395,-4.9745e-09,-0.97834,0,0,0.11111,-0,-0,0.66667
0.90875,0.95096,8.1787,0.67643,12.651,10.675,-14.753,4.9177,-0.37343,-19.671,-4.1494e-07,-0.18671,0,0,0.11111,-0,-0,0.66667
0.32984,0.76248,2.9686,0.39373,37.73,347.77,-3.1168,1.0389,-1.4501,-4.1558,4.001e-12,-0.72506,0,0,0.11111,-0,-0,0.66667
0.68307,0.48428,6.1477,-0.023585,-1.345,91.358,0.38666,-0.12889,-1.9965,0.51554,4.4753e-13,-0.99825,0,0,0.11111,-0,-0,0.66667
0.89922,0.37635,8.093,-0.18548,-3.7325,10.949,4.0028,-1.3343,-1.8764,5.3371,-2.2653e-08,-0.9382,0,0,0.11111,-2.1053e-15,0,0.66667
0.075697,0.28745,0.68127,-0.31883,-34.084,586.38,0.57922,-0.19307,-1.6396,0.77229,7.0876e-08,-0.81978,0,0,0.11111,-0,-0,0.66667
0.87859,0.41294,7.9073,-0.13059,-3.1429,15.356,2.7536,-0.91786,-1.9391,3.6714,-8.8985e-09,-0.96954,0,0,0.11111,-2.1053e-15,0,0.66667
0.19084,0.084586,1.7176,-0.62312,-64.734,475.37,2.854,-0.95133,-0.61914,3.8053,-3.1124e-10,-0.30957,0,0,0.11111,-0,-0,0.66667
0.84977,0.55921,7.6479,0.088809,2.6143,22.781,-1.8112,0.60374,-1.9706,-2.415,2.2717e-11,-0.9853,0,0,0.11111,2.5158e-16,0,0.66667
0.66712,0.96114,6.0041,0.69171,41.398,101.28,-11.075,3.6916,-0.29747,-14.767,5.6222e-13,-0.14873,0,0,0.11111,-0,-7.5318e-17,0.66667
0.34434,0.78821,3.0991,0.43231,40.985,335.15,-3.5727,1.1909,-1.3389,-4.7635,1.0147e-12,-0.66945,0,0,0.11111,-0,-0,0.66667
0.15138,0.33955,1.3624,-0.24068,-25.271,512.84,0.87438,-0.29146,-1.7931,1.1658,2.7298e-09,-0.89656,0,0,0.11111,-4.195e-17,0,0.66667
0.63537,0.43423,5.7183,-0.098659,-6.2972,118.2,1.5044,-0.50148,-1.9644,2.0059,-1.6845e-12,-0.9822,0,0,0.11111,-2.6316e-16,0,0.66667
0.84779,0.51011,7.6301,0.01517,0.45195,23.319,-0.30867,0.10289,-1.9982,-0.41156,-1.7707e-09,-0.99908,0,0,0.11111,-0,-0,0.66667
0.82185,0.74238,7.3966,0.36357,12.582,31.723,-7.1712,2.3904,-1.5279,-9.5616,4.8206e-10,-0.76397,0,0,0.11111,-5.2633e-16,0,0.66667
0.62824,0.097251,5.6542,-0.60412,-39.37,123.35,9.1088,-3.0363,-0.70287,12.145,-4.2455e-13,-0.35143,0,0,0.11111,2.1053e-15,0,0.66667
0.9563,0.45302,8.6067,-0.070471,-0.60988,2.4051,1.6174,-0.53913,-1.9819,2.1565,2.4589e-07,-0.99095,0,0,0.11111,2.1053e-15,0,0.66667
0.58992,0.12933,5.3093,-0.55601,-39.005,147.07,7.8721,-2.624,-0.90066,10.496,-6.1551e-13,-0.45033,0,0,0.11111,-0,-0,0.66667
0.19783,0.60633,1.7805,0.15949,16.462,468.46,-0.75727,0.25242,-1.9075,-1.0097,-3.5784e-11,-0.95377,0,0,0.11111,-0,-0,0.66667
0.42933,0.40048,3.864,-0.14928,-13.067,263.64,1.5382,-0.51274,-1.9187,2.051,2.528e-13,-0.95934,0,0,0.11111,7.8949e-16,0,0.66667
0.33675,0.38567,3.0307,-0.17149,-16.326,341.55,1.386,-0.462,-1.8929,1.848,1.6734e-12,-0.94645,0,0,0.11111,-5.2633e-16,0,0.66667
0.99195,0.13328,8.9275,-0.55008,-0.80493,1.3662,13.096,-4.3652,-0.92174,17.461,-4.3592e-06,-0.46087,0,0,0.11111,-0,-0,0.66667
0.38024,0.51084,3.4221,0.016259,1.4926,304.12,-0.14837,0.049457,-1.9972,-0.19783,5.9163e-12,-0.99859,0,0,0.11111,-0,-0,0.66667
0.9927,0.34129,8.9343,-0.23806,-0.24907,0.36977,5.6718,-1.8906,-1.797,7.5624,-3.1492e-07,-0.89848,0,0,0.11111,-4.9559e-16,0,0.66667
0.5188,0.32209,4.6692,-0.26686,-20.928,195.25,3.3228,-1.1076,-1.7466,4.4304,1.001e-12,-0.8733,0,0,0.11111,-0,-0,0.66667
0.17228,0.28716,1.5505,-0.31926,-33.304,492.82,1.3201,-0.44002,-1.6414,1.7601,7.7701e-10,-0.82071,0,0,0.11111,-0,-0,0.66667
0.074574,0.84822,0.67117,0.52233,55.941,587.53,-0.93485,0.31162,-1.03,-1.2465,-1.3506e-07,-0.515,0,0,0.11111,-0,-0,0.66667
0.37031,0.054253,3.3328,-0.66862,-62.229,313.21,5.9423,-1.9808,-0.40914,7.923,7.9048e-14,-0.20457,0,0,0.11111,2.6316e-16,9.1634e-18,0.66667
0.12342,0.93093,1.1108,0.6464,68.651,540.03,-1.9147,0.63822,-0.51637,-2.5529,-1.3405e-07,-0.25818,0,0,0.11111,-1.3158e-16,0,0.66667
0.63452,0.92656,5.7107,0.63985,41.18,119.72,-9.7439,3.248,-0.54204,-12.992,-1.1005e-12,-0.27102,0,0,0.11111,-0,-0,0.66667
0.41392,0.58092,3.7253,0.12138,10.794,276.14,-1.2057,0.40192,-1.9449,-1.6077,-1.2116e-12,-0.97245,0,0,0.11111,-0,-0,0.66667
0.99092,0.82789,8.9182,0.49184,0.79716,1.1546,-11.697,3.8989,-1.1373,-15.596,1.8443e-06,-0.56865,0,0,0.11111,-0,-0,0.66667
0.92996,0.67625,8.3696,0.26437,3.7247,5.8105,-5.9005,1.9668,-1.7489,-7.8674,5.0168e-08,-0.87443,0,0,0.11111,1.0527e-15,0,0.66667
0.14924,0.067946,1.3431,-0.64808,-68.338,515.12,2.3212,-0.77374,-0.50466,3.0949,3.1583e-08,-0.25233,0,0,0.11111,-0,-0,0.66667
0.39488,0.58693,3.5539,0.13039,11.813,291.87,-1.2357,0.41191,-1.9387,-1.6477,5.9031e-13,-0.96934,0,0,0.11111,-0,-0,0.66667
0.46158,0.1635,4.1542,-0.50475,-42.738,238.54,5.5916,-1.8639,-1.0919,7.4554,2.6179e-12,-0.54595,0,0,0.11111,-1.0527e-15,0,0.66667
0.56095,0.38273,5.0485,-0.17591,-12.923,165.61,2.3683,-0.78942,-1.8919,3.1577,1.2732e-12,-0.94594,0,0,0.11111,-0,-0,0.66667
0.78036,0.11102,7.0233,-0.58348,-24.507,47.32,10.928,-3.6426,-0.79196,14.57,1.2376e-11,-0.39598,0,0,0.11111,-0,-0,0.66667
0.48719,0.051525,4.3847,-0.67271,-55.331,219.33,7.8658,-2.6219,-0.39104,10.488,-8.8374e-13,-0.19552,0,0,0.11111,-0,-0,0.66667
0.41999,0.21967,3.7799,-0.42049,-37.234,271.46,4.2385,-1.4128,-1.3739,5.6513,6.164e-13,-0.68694,0,0,0.11111,1.0527e-15,0,0.66667
0.262,0.083535,2.358,-0.6247,-62.724,408.98,3.9281,-1.3094,-0.61179,5.2375,3.5863e-11,-0.30589,0,0,0.11111,-0,-0,0.66667
0.91081,0.91739,8.1973,0.62609,11.414,10.068,-13.686,4.562,-0.60477,-18.248,1.3148e-07,-0.30239,0,0,0.11111,-2.1053e-15,0,0.66667
0.022272,0.87417,0.20044,0.56126,60.441,638.85,-0.3,0.1,-0.87888,-0.4,4.9128e-06,-0.43944,0,0,0.11111,-3.1247e-17,0,0.66667
0.82112,0.83692,7.3901,0.50538,17.619,32.367,-9.9595,3.3198,-1.0897,-13.279,-2.2885e-10,-0.54486,0,0,0.11111,-0,-0,0.66667
0.18847,0.50194,1.6962,0.0029144,0.30187,477.32,-0.013182,0.0043941,-2.0036,-0.017576,2.4357e-10,-1.0018,0,0,0.11111,-0,-0,0.66667
0.68576,0.925,6.1718,0.63749,36.369,91.051,-10.492,3.4973,-0.55631,-13.989,4.1744e-14,-0.27815,0,0,0.11111,-1.0527e-15,1.2633e-16,0.66667
0.35521,0.42421,3.1969,-0.11368,-10.663,325.5,0.96912,-0.32304,-1.9528,1.2922,2.8859e-12,-0.97638,0,0,0.11111,-5.2633e-16,0,0.66667
0.97421,0.21512,8.7679,-0.42733,-2.1812,1.6811,9.9914,-3.3305,-1.3496,13.322,1.3598e-06,-0.67478,0,0,0.11111,1.0527e-15,0,0.66667
0.12277,0.34332,1.1049,-0.23502,-24.876,540.48,0.6925,-0.23083,-1.8058,0.92333,1.1059e-08,-0.90291,0,0,0.11111,4.1119e-17,0,0.66667
0.18757,0.44768,1.6881,-0.078484,-8.1328,478.18,0.35331,-0.11777,-1.982,0.47108,2.7485e-11,-0.99101,0,0,0.11111,-0,-0,0.66667
0.88944,0.40668,8.005,-0.13999,-3.0793,12.922,2.9882,-0.99608,-1.9339,3.9843,-8.5105e-09,-0.96696,0,0,0.11111,-2.1053e-15,0,0.66667
0.58341,0.68299,5.2507,0.27449,19.416,150.75,-3.8433,1.2811,-1.7309,-5.1244,1.1382e-12,-0.86545,0,0,0.11111,2.6316e-16,0,0.66667
0.30925,0.49185,2.7832,-0.012222,-1.1866,365.8,0.090713,-0.030238,-1.9993,0.12095,5.0155e-12,-0.99967,0,0,0.11111,-0,-0,0.66667
0.00076439,0.73394,0.0068795,0.3509,37.738,660,-0.0064371,0.0021449,-1.5648,-0.0085831,-1.1817e-06,-0.7824,0,0,0.11111,-0,-0,0.66667
0.2276,0.98982,2.0484,0.73473,75.223,440.93,-4.0133,1.3378,-0.078173,-5.3511,4.4888e-11,-0.039086,0,0,0.11111,5.3269e-16,0,0.66667
0.1454,0.13307,1.3086,-0.5504,-58.038,518.74,1.9207,-0.64024,-0.9215,2.561,2.9653e-09,-0.46075,0,0,0.11111,-0,-0,0.66667
0.20343,0.76535,1.8309,0.39803,41.041,463.27,-1.9434,0.64778,-1.44,-2.5911,-2.2406e-11,-0.72001,0,0,0.11111,-2.6316e-16,0,0.66667
0.89632,0.42788,8.0669,-0.10818,-2.2353,11.451,2.3272,-0.77573,-1.9564,3.1029,-2.0413e-08,-0.97818,0,0,0.11111,-0,-0,0.66667
0.87309,0.6111,7.8578,0.16664,4.1857,16.707,-3.4919,1.164,-1.9023,-4.6559,6.7831e-09,-0.95114,0,0,0.11111,-0,-0,0.66667
0.70029,0.25598,6.3026,-0.36603,-19.982,82.785,6.1519,-2.0506,-1.5242,8.2025,4.392e-12,-0.76209,0,0,0.11111,-0,-0,0.66667
0.4705,0.89405,4.2345,0.59107,49.574,231.83,-6.6743,2.2248,-0.75911,-8.8991,2.9221e-13,-0.37956,0,0,0.11111,-0,-0,0.66667
0.82714,0.52335,7.4442,0.035019,1.1742,29.58,-0.69516,0.23172,-1.9983,-0.92688,-3.5772e-11,-0.99916,0,0,0.11111,-0,-0,0.66667
0.49583,0.3491,4.4624,-0.22635,-18.316,212.08,2.6936,-0.89786,-1.8172,3.5914,-8.9084e-13,-0.90861,0,0,0.11111,-0,-0,0.66667
0.36349,0.45188,3.2714,-0.072185,-6.7242,318.37,0.62972,-0.20991,-1.9802,0.83963,1.4011e-13,-0.9901,0,0,0.11111,-0,-0,0.66667
0.2756,0.65639,2.4804,0.23459,23.288,396.19,-1.5517,0.51723,-1.8037,-2.0689,1.1046e-11,-0.90187,0,0,0.11111,-0,-0,0.66667
0.92474,0.62771,8.3227,0.19157,2.8925,6.4625,-4.2517,1.4172,-1.8706,-5.6689,4.0387e-08,-0.93528,0,0,0.11111,-2.1053e-15,0,0.66667
0.38699,0.99597,3.4829,0.74395,68.307,299.3,-6.9096,2.3032,-0.032205,-9.2128,5.659e-12,-0.016102,0,0,0.11111,-6.5791e-16,0,0.66667
0.49288,0.73206,4.4359,0.34809,28.301,214.42,-4.1176,1.3725,-1.5665,-5.4901,-1.8603e-12,-0.78326,0,0,0.11111,-0,-0,0.66667
0.25444,0.01507,2.2899,-0.72739,-73.448,416.07,4.4418,-1.4806,-0.11721,5.9225,4.5977e-12,-0.058606,0,0,0.11111,-0,-0,0.66667
0.88497,0.41636,7.9647,-0.12545,-2.8668,13.891,2.6645,-0.88818,-1.942,3.5527,-8.2617e-09,-0.97099,0,0,0.11111,-0,-0,0.66667
0.38326,0.68616,3.4494,0.27924,25.588,301.69,-2.5685,0.85618,-1.7214,-3.4247,-3.3045e-12,-0.86072,0,0,0.11111,1.9737e-16,0,0.66667
0.29757,0.93383,2.6782,0.65074,63.963,376.75,-4.6475,1.5492,-0.49805,-6.1966,-2.4487e-12,-0.24903,0,0,0.11111,5.2633e-16,0,0.66667
0.71759,0.13389,6.4584,-0.54916,-28.62,74.688,9.4578,-3.1526,-0.93007,12.61,-7.0433e-13,-0.46503,0,0,0.11111,2.1053e-15,0,0.66667
0.19087,0.84168,1.7178,0.51252,53.176,475.24,-2.3478,0.7826,-1.0667,-3.1304,-7.6227e-11,-0.53334,0,0,0.11111,2.6316e-16,0,0.66667
0.11819,0.2356,1.0637,-0.3966,-42.068,544.97,1.125,-0.375,-1.4381,1.5,1.0967e-08,-0.71904,0,0,0.11111,-0,-0,0.66667
0.837,0.78453,7.533,0.4268,13.634,27.111,-8.5734,2.8578,-1.3508,-11.431,1.1434e-09,-0.67538,0,0,0.11111,-2.1053e-15,0,0.66667
0.74414,0.8335,6.6972,0.50025,23.948,62.213,-8.9341,2.978,-1.1081,-11.912,-2.1636e-12,-0.55403,0,0,0.11111,-1.0527e-15,0,0.66667
0.59052,0.41611,5.3147,-0.12584,-8.78,145.99,1.7834,-0.59448,-1.9434,2.3779,1.1717e-12,-0.97172,0,0,0.11111,-0,-0,0.66667
0.24289,0.32033,2.186,-0.2695,-27.252,426.28,1.571,-0.52368,-1.7395,2.0947,-2.2825e-11,-0.86973,0,0,0.11111,-0,-0,0.66667
0.62325,0.69466,5.6092,0.292,19.142,125.66,-4.3677,1.4559,-1.6985,-5.8236,9.0195e-13,-0.84927,0,0,0.11111,-0,-0,0.66667
0.63836,0.35986,5.7452,-0.21021,-13.339,116.52,3.2206,-1.0735,-1.8434,4.2941,-1.1813e-13,-0.92172,0,0,0.11111,-0,-0,0.66667
0.32757,0.96694,2.9481,0.70041,67.476,350.21,-5.5064,1.8355,-0.25998,-7.3419,1.1875e-12,-0.12999,0,0,0.11111,6.5791e-16,0,0.66667
0.067489,0.1757,0.6074,-0.48644,-52.132,594.45,0.78791,-0.26264,-1.1569,1.0506,1.669e-07,-0.57843,0,0,0.11111,-7.9923e-17,0,0.66667
0.88054,0.92236,7.9248,0.63354,15.265,16.256,-13.388,4.4628,-0.57071,-17.851,9.6568e-08,-0.28535,0,0,0.11111,-0,-0,0.66667
0.45996,0.381,4.1396,-0.17851,-15.102,239.39,1.9705,-0.65684,-1.8847,2.6274,-8.068e-13,-0.94234,0,0,0.11111,-0,-0,0.66667
0.76387,0.53964,6.8749,0.059463,2.6403,52.951,-1.0901,0.36338,-1.989,-1.4535,-1.0822e-11,-0.9945,0,0,0.11111,2.1053e-15,0,0.66667
0.25389,0.063164,2.285,-0.65525,-66.115,416.47,3.9927,-1.3309,-0.47386,5.3236,4.9596e-12,-0.23693,0,0,0.11111,-0,-0,0.66667
0.59139,0.72641,5.3225,0.33962,23.693,145.67,-4.8203,1.6068,-1.5908,-6.4271,1.3829e-12,-0.79539,0,0,0.11111,-0,-0,0.66667
0.4288,0.99946,3.8592,0.74918,66.034,265,-7.7099,2.57,-0.0032673,-10.28,-7.1587e-13,-0.0016337,0,0,0.11111,-2.6316e-16,0,0.66667
0.3821,0.59825,3.4389,0.14738,13.51,302.58,-1.3515,0.4505,-1.9209,-1.802,-4.9916e-13,-0.96046,0,0,0.11111,1.0527e-15,0,0.66667
0.12671,0.80338,1.1404,0.45507,48.191,536.73,-1.3839,0.46131,-1.2652,-1.8452,-6.7825e-09,-0.63262,0,0,0.11111,-0,-0,0.66667
0.24427,0.52402,2.1984,0.036033,3.6384,424.93,-0.21124,0.070413,-1.9936,-0.28165,-9.6551e-13,-0.99679,0,0,0.11111,-0,-0,0.66667
0.079342,0.41414,0.71407,-0.1288,-13.75,582.79,0.24525,-0.081751,-1.9434,0.32701,1.2162e-08,-0.97168,0,0,0.11111,-0,-0,0.66667
0.30286,0.37385,2.7257,-0.18922,-18.458,371.55,1.3753,-0.45845,-1.8718,1.8338,2.2359e-12,-0.93588,0,0,0.11111,-1.6448e-16,0,0.66667
0.7417,0.10543,6.6753,-0.59185,-28.626,63.597,10.536,-3.5119,-0.75189,14.047,-5.1861e-12,-0.37594,0,0,0.11111,-2.1053e-15,0,0.66667
0.61502,0.43358,5.5351,-0.09963,-6.633,130.51,1.4706,-0.49019,-1.9634,1.9608,5.1759e-13,-0.9817,0,0,0.11111,5.2633e-16,0,0.66667
0.67241,0.95375,6.0517,0.68062,40.202,98.342,-10.984,3.6613,-0.35585,-14.645,3.304e-13,-0.17793,0,0,0.11111,-0,-0,0.66667
0.0083831,0.50704,0.075448,0.010559,1.1341,652.49,-0.0021243,0.00070649,-1.9974,-0.0028333,-2.4297e-06,-0.99869,0,0,0.11111,-3.2895e-17,0,0.66667
0.67838,0.84177,6.1054,0.51266,29.728,94.58,-8.3467,2.7822,-1.0642,-11.129,1.7852e-13,-0.53212,0,0,0.11111,-1.4474e-15,0,0.66667
0.50318,0.15561,4.5286,-0.51659,-41.507,207.06,6.2385,-2.0795,-1.0523,8.318,2.482e-12,-0.52613,0,0,0.11111,-4.2764e-16,0,0.66667
0.23091,0.63245,2.0782,0.19867,20.205,437.39,-1.101,0.367,-1.8594,-1.468,1.5031e-11,-0.9297,0,0,0.11111,-0,-0,0.66667
0.1749,0.64107,1.5741,0.21161,22.041,490.28,-0.88824,0.29608,-1.8405,-1.1843,-5.8551e-10,-0.92025,0,0,0.11111,2.6316e-16,0,0.66667
0.18498,0.40717,1.6648,-0.13925,-14.446,480.65,0.61821,-0.20607,-1.9328,0.82429,4.4259e-10,-0.96642,0,0,0.11111,-0,-0,0.66667
0.84426,0.26408,7.5983,-0.35388,-10.817,24.76,7.1705,-2.3902,-1.5577,9.5606,-2.0618e-09,-0.77887,0,0,0.11111,-0,-0,0.66667
0.98259,0.46884,8.8433,-0.046741,-0.14708,0.52353,1.1023,-0.36742,-1.9951,1.4697,1.4612e-06,-0.99754,0,0,0.11111,-0,-0,0.66667
0.91374,0.66289,8.2237,0.24434,4.2288,8.3425,-5.3582,1.7861,-1.7855,-7.1443,3.654e-08,-0.89277,0,0,0.11111,-0,-0,0.66667
0.34737,0.86339,3.1263,0.54509,51.616,332.67,-4.5444,1.5148,-0.9428,-6.0591,2.0512e-12,-0.4714,0,0,0.11111,-0,-0,0.66667
0.78022,0.19649,7.022,-0.45526,-19.069,46.958,8.5249,-2.8416,-1.2656,11.367,4.1878e-12,-0.6328,0,0,0.11111,-0,-0,0.66667
0.54645,0.37227,4.9181,-0.1916,-14.409,175.58,2.5128,-0.8376,-1.8738,3.3504,1.9911e-12,-0.93689,0,0,0.11111,-1.1842e-15,0,0.66667
0.81644,0.069679,7.348,-0.64548,-23.146,34.447,12.648,-4.216,-0.51794,16.864,-3.8124e-09,-0.25897,0,0,0.11111,-2.1053e-15,0,0.66667
0.48373,0.58321,4.3535,0.12482,10.255,221.1,-1.4491,0.48303,-1.9476,-1.9321,-2.2113e-12,-0.97378,0,0,0.11111,-0,-0,0.66667
0.58995,0.62996,5.3096,0.19494,13.62,146.41,-2.7601,0.92004,-1.8647,-3.6802,1.1271e-12,-0.93233,0,0,0.11111,-0,-0,0.66667
0.78726,0.50972,7.0854,0.014579,0.59015,43.583,-0.27546,0.091819,-1.9971,-0.36728,-4.3964e-11,-0.99854,0,0,0.11111,-0,-0,0.66667
0.10023,0.81408,0.90211,0.47111,50.203,562.46,-1.1333,0.37778,-1.2097,-1.5111,-3.2259e-08,-0.60483,0,0,0.11111,-0,-0,0.66667
0.53701,0.45522,4.8331,-0.067177,-5.124,182.12,0.86578,-0.28859,-1.9817,1.1544,9.9121e-13,-0.99084,0,0,0.11111,-1.6886e-15,0,0.66667
0.36598,0.14457,3.2939,-0.53315,-49.714,316.65,4.683,-1.561,-0.98684,6.2439,1.4073e-12,-0.49342,0,0,0.11111,5.2633e-16,0,0.66667
0.60431,0.53407,5.4388,0.051103,3.4739,137.17,-0.74116,0.24705,-1.9899,-0.98821,2.4109e-12,-0.99495,0,0,0.11111,-0,-0,0.66667
0.9588,0.20666,8.6292,-0.44,-3.6664,2.8948,10.125,-3.375,-1.3094,13.5,-2.7776e-07,-0.65472,0,0,0.11111,-0,-0,0.66667
0.39282,0.35104,3.5354,-0.22344,-20.289,293.64,2.1065,-0.70217,-1.8236,2.8087,-8.642e-13,-0.91181,0,0,0.11111,-0,-0,0.66667
0.39297,0.49951,3.5368,-0.00074152,-0.067284,293.43,0.0069935,-0.0023312,-2.0021,0.0093247,4.502e-12,-1.001,0,0,0.11111,6.7436e-16,0,0.66667
0.79064,0.72275,7.1157,0.33412,13.372,42.655,-6.34,2.1133,-1.6015,-8.4533,3.6775e-12,-0.80076,0,0,0.11111,2.1053e-15,0,0.66667
0.64508,0.77431,5.8057,0.41147,25.779,112.92,-6.3703,2.1234,-1.397,-8.4938,-5.107e-13,-0.6985,0,0,0.11111,-5.2633e-16,0,0.66667
0.39388,0.72085,3.545,0.33127,30.071,292.84,-3.1316,1.0439,-1.6106,-4.1754,1.3129e-12,-0.80528,0,0,0.11111,1.0527e-15,0,0.66667
0.68896,0.11224,6.2006,-0.58164,-32.865,89.188,9.6175,-3.2058,-0.79877,12.823,-4.3965e-13,-0.39939,0,0,0.11111,-1.0527e-15,0,0.66667
0.404,0.86863,3.636,0.55295,49.824,284.77,-5.3614,1.7871,-0.91407,-7.1485,6.1462e-13,-0.45704,0,0,0.11111,7.8949e-16,0,0.66667
0.13611,0.82788,1.225,0.49181,51.968,527.66,-1.6066,0.53554,-1.1384,-2.1422,-7.3322e-09,-0.56919,0,0,0.11111,-0,-0,0.66667
0.45064,0.73024,4.0558,0.34536,29.565,246.85,-3.7352,1.2451,-1.5763,-4.9803,-1.086e-12,-0.78817,0,0,0.11111,-0,-0,0.66667
0.33442,0.15612,3.0098,-0.51582,-49.32,343.9,4.14,-1.38,-1.0531,5.5201,-2.5886e-12,-0.52656,0,0,0.11111,7.5248e-16,0,0.66667
0.21797,0.098926,1.9617,-0.60161,-61.762,449.78,3.1472,-1.0491,-0.71645,4.1962,-5.2433e-10,-0.35823,0,0,0.11111,-5.2633e-16,-7.2735e-17,0.66667
0.92577,0.86853,8.332,0.55279,8.3865,7.3005,-12.282,4.0941,-0.91298,-16.376,2.0251e-08,-0.45649,0,0,0.11111,-1.0527e-15,0,0.66667
0.68964,0.32787,6.2068,-0.25819,-14.49,88.081,4.2734,-1.4245,-1.7637,5.6979,2.5668e-12,-0.88184,0,0,0.11111,-0,-0,0.66667
0.59882,0.26376,5.3894,-0.35436,-24.387,140.93,5.0928,-1.6976,-1.5516,6.7904,8.038e-14,-0.77579,0,0,0.11111,1.0527e-15,0,0.66667
0.74666,0.4945,6.7199,-0.0082528,-0.38958,60.347,0.14789,-0.049296,-1.9999,0.19718,9.2823e-13,-0.99993,0,0,0.11111,1.579e-15,0,0.66667
0.54197,0.058228,4.8777,-0.66266,-50.461,179.57,8.6194,-2.8731,-0.43775,11.493,2.5455e-12,-0.21887,0,0,0.11111,8.4724e-16,0,0.66667
0.70053,0.023018,6.3048,-0.71547,-39.313,83.72,12.029,-4.0097,-0.18047,16.039,3.3307e-13,-0.090233,0,0,0.11111,-0,-1.0212e-16,0.66667
0.93056,0.8719,8.375,0.55786,7.9314,6.6222,-12.459,4.153,-0.89191,-16.612,6.0629e-08,-0.44595,0,0,0.11111,1.2337e-17,0,0.66667
0.86262,0.84342,7.7636,0.51514,14.078,20.173,-10.665,3.5549,-1.0576,-14.22,1.1208e-08,-0.5288,0,0,0.11111,-4.2764e-16,0,0.66667
0.16744,0.97023,1.507,0.70534,73.994,497.72,-2.8345,0.94483,-0.23094,-3.7793,-2.1335e-09,-0.11547,0,0,0.11111,-0,-0,0.66667
0.26314,0.15943,2.3683,-0.51085,-51.192,407.8,3.2262,-1.0754,-1.0735,4.3016,1.2339e-11,-0.53674,0,0,0.11111,-0,-0,0.66667
0.07161,0.39395,0.64449,-0.15908,-17.004,590.36,0.2734,-0.091133,-1.9075,0.36453,7.8769e-09,-0.95376,0,0,0.11111,-0,-0,0.66667
0.97867,0.66819,8.8081,0.25229,1.0193,0.9601,-5.9259,1.9753,-1.7715,-7.9012,-2.5242e-07,-0.88575,0,0,0.11111,-0,-0,0.66667
0.23638,0.23406,2.1275,-0.39891,-40.508,432.4,2.2631,-0.75437,-1.4351,3.0175,-2.5656e-11,-0.71754,0,0,0.11111,-0,-0,0.66667
0.6606,0.52562,5.9454,0.038434,2.3171,103.63,-0.60935,0.20312,-1.994,-0.81247,1.9358e-12,-0.99699,0,0,0.11111,-1.0527e-15,0,0.66667
0.089631,0.50405,0.80668,0.00607,0.64675,572.72,-0.013057,0.0043526,-1.9995,-0.01741,1.3007e-07,-0.99976,0,0,0.11111,-0,-0,0.66667
0.21077,0.30052,1.8969,-0.29922,-30.734,456.3,1.5136,-0.50454,-1.679,2.0181,1.3443e-12,-0.83949,0,0,0.11111,-2.6316e-16,0,0.66667
0.50282,0.76648,4.5254,0.39971,32.088,207.1,-4.8237,1.6079,-1.4319,-6.4315,-2.6872e-12,-0.71593,0,0,0.11111,1.0527e-15,0,0.66667
0.10495,0.58318,0.94458,0.12477,13.256,557.78,-0.31428,0.10476,-1.9433,-0.41903,-1.2268e-08,-0.97165,0,0,0.11111,-0,-0,0.66667
0.38887,0.039187,3.4999,-0.69122,-63.302,297.6,6.4511,-2.1504,-0.30282,8.6015,3.2618e-12,-0.15141,0,0,0.11111,-0,-9.9726e-17,0.66667
0.53799,0.91496,4.8419,0.62244,47.654,182.25,-8.0368,2.6789,-0.62014,-10.716,-4.1389e-13,-0.31007,0,0,0.11111,-0,-0,0.66667
0.3392,0.51534,3.0528,0.023016,2.1863,339.36,-0.18737,0.062458,-1.9965,-0.24983,5.4583e-13,-0.99825,0,0,0.11111,-0,-0,0.66667
0.5559,0.82919,5.0031,0.49379,36.686,169.53,-6.5879,2.196,-1.1305,-8.7839,-2.176e-12,-0.56523,0,0,0.11111,1.0527e-15,0,0.66667
0.53677,0.033895,4.8309,-0.69916,-53.7,183.32,9.0068,-3.0023,-0.26095,12.009,3.7321e-12,-0.13048,0,0,0.11111,-0,-0,0.66667
0.39061,0.83169,3.5155,0.49753,45.372,295.79,-4.6642,1.5547,-1.1238,-6.2189,-1.7755e-12,-0.56188,0,0,0.11111,5.2633e-16,4.9598e-17,0.66667
0.69627,0.89243,6.2664,0.58864,32.621,85.428,-9.8364,3.2788,-0.76537,-13.115,-5.0804e-13,-0.38269,0,0,0.11111,-1.0527e-15,0,0.66667
0.67848,0.79131,6.1063,0.43697,25.3,94.328,-7.1155,2.3718,-1.3187,-9.4873,-4.5208e-13,-0.65935,0,0,0.11111,-0,-0,0.66667
0.6873,0.86386,6.1857,0.54579,30.95,89.941,-9.0029,3.001,-0.94449,-12.004,-1.4309e-12,-0.47225,0,0,0.11111,-0,1.3747e-16,0.66667
0.56149,0.65652,5.0534,0.23478,17.238,165.3,-3.1638,1.0546,-1.8079,-4.2184,7.2453e-13,-0.90395,0,0,0.11111,-0,-0,0.66667
0.35808,0.30396,3.2227,-0.29406,-27.541,323.13,2.5271,-0.84238,-1.6947,3.3695,5.9197e-13,-0.84736,0,0,0.11111,-2.6316e-16,0,0.66667
0.61311,0.44538,5.518,-0.081924,-5.4746,131.68,1.2055,-0.40183,-1.9756,1.6073,1.397e-12,-0.98779,0,0,0.11111,-0,-0,0.66667
0.93574,0.63888,8.4216,0.20832,2.6866,4.91,-4.6783,1.5594,-1.8469,-6.2377,1.41e-08,-0.92346,0,0,0.11111,-0,-0,0.66667
0.59689,0.69919,5.372,0.29879,20.626,142.08,-4.2802,1.4267,-1.6823,-5.7069,7.6872e-13,-0.84114,0,0,0.11111,-0,-0,0.66667
0.97959,0.40312,8.8163,-0.14533,-0.55253,0.74516,3.4166,-1.1389,-1.9242,4.5555,2.2032e-08,-0.96211,0,0,0.11111,-0,-0,0.66667
0.44101,0.15857,3.9691,-0.51215,-44.395,254.72,5.4207,-1.8069,-1.0679,7.2275,-6.5148e-13,-0.53393,0,0,0.11111,1.0527e-15,0,0.66667
0.73961,0.24531,6.6565,-0.38203,-18.524,63.935,6.7813,-2.2604,-1.4799,9.0417,1.7424e-11,-0.73993,0,0,0.11111,2.6316e-16,0,0.66667
0.037604,0.66383,0.33843,0.24574,26.375,623.75,-0.22178,0.073927,-1.7832,-0.29571,1.7175e-07,-0.8916,0,0,0.11111,-0,-0,0.66667
0.76473,0.82381,6.8825,0.48571,21.615,53.305,-8.9145,2.9715,-1.1637,-11.886,-3.4323e-11,-0.58186,0,0,0.11111,-0,-0,0.66667
0.51828,0.58915,4.6645,0.13373,10.487,195.52,-1.6634,0.55446,-1.9374,-2.2178,-2.0064e-12,-0.96869,0,0,0.11111,7.8949e-16,0,0.66667
0.0053165,0.49178,0.047849,-0.012323,-1.3237,655.51,0.0015725,-0.00053116,-1.9977,0.0020932,-1.047e-05,-0.99887,0,0,0.11111,-8.2239e-18,0,0.66667
0.2772,0.27363,2.4948,-0.33955,-33.696,394.81,2.259,-0.75299,-1.5893,3.0119,-4.527e-12,-0.79464,0,0,0.11111,-0,-0,0.66667
0.53483,0.061645,4.8135,-0.65753,-50.612,184.57,8.4401,-2.8134,-0.46346,11.253,1.7399e-12,-0.23173,0,0,0.11111,1.3816e-15,0,0.66667
0.76796,0.28539,6.9117,-0.32192,-14.109,51.563,5.9333,-1.9778,-1.6329,7.9111,2.6624e-11,-0.81646,0,0,0.11111,-2.1053e-15,0,0.66667
0.053093,0.26418,0.47783,-0.35374,-37.935,608.54,0.45074,-0.15025,-1.5526,0.60099,1.278e-08,-0.77631,0,0,0.11111,-0,-0,0.66667
0.54905,0.97093,4.9415,0.7064,53.246,174.79,-9.3084,3.1028,-0.22773,-12.411,3.3387e-12,-0.11386,0,0,0.11111,-0,-0,0.66667
0.80099,0.05329,7.209,-0.67007,-25.858,39.916,12.881,-4.2937,-0.40259,17.175,1.655e-09,-0.2013,0,0,0.11111,-0,-0,0.66667
0.64958,0.23505,5.8462,-0.39742,-24.644,110.29,6.1958,-2.0653,-1.4358,8.2611,6.6569e-13,-0.7179,0,0,0.11111,-0,-0,0.66667
0.93145,0.64322,8.383,0.21483,2.957,5.5096,-4.8025,1.6008,-1.8335,-6.4034,3.216e-08,-0.91676,0,0,0.11111,-1.0527e-15,0,0.66667
0.074731,0.15584,0.67258,-0.51624,-55.284,587.37,0.9259,-0.30863,-1.0534,1.2345,1.5371e-07,-0.5267,0,0,0.11111,1.4803e-16,0,0.66667
0.27681,0.99839,2.4913,0.74758,74.55,395.66,-4.9665,1.6555,-0.012699,-6.622,-1.3917e-11,-0.0063496,0,0,0.11111,2.6316e-16,0,0.66667
0.91924,0.32394,8.2731,-0.26409,-4.286,7.4555,5.8263,-1.9421,-1.7523,7.7684,-4.3887e-08,-0.87614,0,0,0.11111,-0,-0,0.66667
0.76501,0.06597,6.885,-0.65104,-29.07,53.765,11.953,-3.9844,-0.4968,15.938,3.7081e-11,-0.2484,0,0,0.11111,-0,5.1959e-17,0.66667
0.59974,0.042532,5.3977,-0.6862,-47.388,141.18,9.877,-3.2923,-0.32351,13.169,2.2027e-13,-0.16175,0,0,0.11111,-1.0527e-15,0,0.66667
0.83297,0.96011,7.4967,0.69017,22.759,29.325,-13.797,4.5991,-0.3049,-18.396,-3.1556e-09,-0.15245,0,0,0.11111,-0,-0,0.66667
0.89604,0.64772,8.0644,0.22158,4.599,11.642,-4.7651,1.5884,-1.8236,-6.3535,2.102e-08,-0.91182,0,0,0.11111,-1.0527e-15,0,0.66667
0.97272,0.57326,8.7545,0.10989,0.57594,1.1115,-2.5654,0.85512,-1.9561,-3.4205,-3.4286e-07,-0.97803,0,0,0.11111,-0,-0,0.66667
0.99852,0.68117,8.9867,0.27176,-0.050938,0.316,-6.5125,2.1708,-1.7396,-8.6833,6.2341e-07,-0.86979,0,0,0.11111,1.579e-15,-8.3679e-17,0.66667
0.13965,0.89621,1.2568,0.59431,62.805,524.31,-1.9919,0.66396,-0.74667,-2.6558,-1.1076e-08,-0.37333,0,0,0.11111,-0,-1.148e-16,0.66667
0.070542,0.73936,0.63488,0.35904,38.422,591.43,-0.60786,0.20262,-1.5391,-0.81048,-9.6574e-08,-0.76953,0,0,0.11111,-0,-0,0.66667
0.073467,0.59449,0.6612,0.14173,15.145,588.54,-0.2499,0.083299,-1.9284,-0.3332,9.4352e-09,-0.96422,0,0,0.11111,-0,-0,0.66667
0.014744,0.80366,0.13269,0.45549,49.015,646.24,-0.16118,0.053725,-1.2651,-0.2149,2.3862e-07,-0.63253,0,0,0.11111,-0,-0,0.66667
0.97182,0.12439,8.7464,-0.56341,-3.2379,2.3578,13.141,-4.3803,-0.8726,17.521,4.4156e-06,-0.4363,0,0,0.11111,-6.5791e-17,0,0.66667
0.094767,0.71652,0.8529,0.32478,34.607,567.74,-0.73868,0.24623,-1.6284,-0.98491,-3.5536e-08,-0.81421,0,0,0.11111,1.6448e-17,0,0.66667
0.84174,0.65233,7.5756,0.22849,7.0719,25.255,-4.6159,1.5386,-1.8162,-6.1545,1.8005e-09,-0.9081,0,0,0.11111,4.9841e-16,0,0.66667
0.68517,0.82537,6.1666,0.48805,27.8,90.897,-8.0255,2.6752,-1.1536,-10.701,-1.1067e-12,-0.57682,0,0,0.11111,-0,-0,0.66667
0.48756,0.3318,4.388,-0.2523,-20.641,218.3,2.9523,-0.98409,-1.7733,3.9364,1.8718e-13,-0.88665,0,0,0.11111,-0,-0,0.66667
0.34669,0.97758,3.1203,0.71637,68.031,333.56,-5.9606,1.9869,-0.17547,-7.9475,-4.6096e-13,-0.087737,0,0,0.11111,-0,-0,0.66667
0.35365,0.2922,3.1828,-0.3117,-29.303,326.96,2.6455,-0.88185,-1.6524,3.5274,5.8265e-13,-0.82621,0,0,0.11111,-0,-0,0.66667
0.25384,0.15639,2.2845,-0.51542,-51.92,416.35,3.14,-1.0467,-1.0561,4.1867,-1.1471e-11,-0.52803,0,0,0.11111,1.0527e-15,0,0.66667
0.91102,0.86635,8.1992,0.54953,9.9436,9.7027,-12.015,4.005,-0.92486,-16.02,6.6746e-08,-0.46243,0,0,0.11111,-1.0527e-15,0,0.66667
0.72564,0.35065,6.5308,-0.22403,-11.336,70.117,3.9015,-1.3005,-1.8194,5.202,1.1068e-11,-0.90971,0,0,0.11111,-2.1053e-15,0,0.66667
0.025926,0.00039345,0.23333,-0.74941,-80.881,635.28,0.46627,-0.15542,-0.0025223,0.62169,2.6799e-06,-0.0012612,0,0,0.11111,1.3158e-16,0,0.66667
0.46152,0.83977,4.1537,0.50966,43.159,238.6,-5.6452,1.8817,-1.0747,-7.527,-5.4179e-13,-0.53733,0,0,0.11111,-2.6316e-16,0,0.66667
0.2813,0.90316,2.5317,0.60475,60.021,391.36,-4.0828,1.3609,-0.7045,-5.4437,7.3355e-12,-0.35225,0,0,0.11111,1.9737e-16,0,0.66667
0.028966,0.825,0.2607,0.4875,52.441,632.26,-0.3389,0.11297,-1.1556,-0.45187,1.8309e-06,-0.57781,0,0,0.11111,-0,-0,0.66667
0.88468,0.16394,7.9621,-0.50409,-11.671,14.799,10.703,-3.5677,-1.0945,14.271,-3.1005e-10,-0.54727,0,0,0.11111,-0,-0,0.66667
0.77101,0.79759,6.939,0.44638,19.383,50.614,-8.2599,2.7533,-1.2894,-11.013,-4.6125e-11,-0.64471,0,0,0.11111,-0,-0,0.66667
0.32974,0.76462,2.9676,0.39694,38.041,347.87,-3.1412,1.0471,-1.4412,-4.1883,3.7785e-12,-0.72059,0,0,0.11111,-5.2633e-16,0,0.66667
0.79656,0.31838,7.169,-0.27242,-10.615,40.332,5.208,-1.736,-1.7401,6.944,-5.6118e-11,-0.87005,0,0,0.11111,-0,-0,0.66667
0.32464,0.45433,2.9217,-0.0685,-6.5787,352.15,0.5337,-0.1779,-1.9826,0.71161,-2.1085e-12,-0.99129,0,0,0.11111,-0,-0,0.66667
0.30788,0.95063,2.7709,0.67594,66.008,367.58,-4.9946,1.6649,-0.37386,-6.6595,1.509e-12,-0.18693,0,0,0.11111,-0,-2.3218e-17,0.66667
0.92811,0.17568,8.353,-0.48648,-7.1184,6.6984,10.836,-3.6121,-1.1561,14.448,-1.522e-07,-0.57806,0,0,0.11111,-1.0527e-15,0,0.66667
0.97692,0.72747,8.7922,0.34121,1.5238,1.2632,-8,2.6667,-1.5836,-10.667,-6.5751e-07,-0.79181,0,0,0.11111,-0,-0,0.66667
0.52356,0.16551,4.712,-0.50174,-39.173,192.2,6.3046,-2.1015,-1.1024,8.4061,1.9242e-12,-0.55121,0,0,0.11111,-0,-0,0.66667
0.95194,0.62382,8.5674,0.18573,1.7802,2.9538,-4.2433,1.4144,-1.8808,-5.6577,-6.6084e-08,-0.94039,0,0,0.11111,1.0527e-15,0,0.66667
0.888,0.75097,7.992,0.37645,8.4331,13.67,-8.0229,2.6743,-1.4978,-10.697,1.8238e-08,-0.74888,0,0,0.11111,2.1053e-15,0,0.66667
0.51803,0.80664,4.6623,0.45996,36.177,196.1,-5.7185,1.9062,-1.2488,-7.6247,-9.0106e-13,-0.62442,0,0,0.11111,-0,-0,0.66667
0.37275,0.30877,3.3547,-0.28685,-26.532,310.59,2.5661,-0.85537,-1.709,3.4215,2.5491e-12,-0.8545,0,0,0.11111,-6.5791e-16,0,0.66667
0.71035,0.43003,6.3932,-0.10495,-5.5551,77.396,1.7892,-0.59641,-1.9586,2.3856,2.3189e-12,-0.97929,0,0,0.11111,5.2633e-16,0,0.66667
0.45564,0.57075,4.1008,0.10612,9.0212,242.72,-1.1605,0.38684,-1.9606,-1.5473,3.0131e-13,-0.9803,0,0,0.11111,-0,-0,0.66667
0.60521,0.28434,5.4469,-0.32348,-21.986,136.84,4.6986,-1.5662,-1.6277,6.2649,2.1552e-12,-0.81386,0,0,0.11111,-2.1053e-15,0,0.66667
0.99041,0.13647,8.9137,-0.54529,-0.97461,1.3894,12.961,-4.3205,-0.94047,17.282,-4.326e-06,-0.47024,0,0,0.11111,2.1053e-15,0,0.66667
0.77392,0.72618,6.9652,0.33927,14.538,49.177,-6.3017,2.1006,-1.5885,-8.4022,-2.6495e-11,-0.79423,0,0,0.11111,-0,-0,0.66667
0.33428,0.54121,3.0085,0.061818,5.8945,343.68,-0.49595,0.16532,-1.9842,-0.66126,-3.0961e-13,-0.99208,0,0,0.11111,-0,-0,0.66667
0.088998,0.1752,0.80098,-0.4872,-52.036,573.42,1.0406,-0.34688,-1.1544,1.3875,9.7271e-09,-0.57718,0,0,0.11111,-0,-0,0.66667
0.18491,0.37657,1.6642,-0.18514,-19.21,480.74,0.82159,-0.27386,-1.8797,1.0955,1.5984e-10,-0.93984,0,0,0.11111,-0,-0,0.66667
0.52685,0.65911,4.7417,0.23866,18.496,189.43,-3.0178,1.0059,-1.7971,-4.0237,-2.9381e-12,-0.89855,0,0,0.11111,2.1053e-15,0,0.66667
0.4171,0.082519,3.7539,-0.62622,-55.755,274.17,6.2688,-2.0896,-0.60405,8.3583,9.6856e-13,-0.30202,0,0,0.11111,-0,-0,0.66667
0.80066,0.55304,7.2059,0.079561,3.0384,38.619,-1.5288,0.50961,-1.9767,-2.0384,9.8005e-11,-0.98837,0,0,0.11111,-0,-0,0.66667
0.9332,0.76516,8.3988,0.39774,5.3802,5.6826,-8.9081,2.9694,-1.4361,-11.877,1.1967e-07,-0.71805,0,0,0.11111,-2.1053e-15,0,0.66667
0.17786,0.86688,1.6008,0.55031,57.405,487.64,-2.3492,0.78305,-0.9212,-3.1322,-9.238e-10,-0.4606,0,0,0.11111,-0,-0,0.66667
0.86007,0.54226,7.7406,0.06339,1.7452,19.943,-1.3085,0.43616,-1.9886,-1.7446,4.8698e-10,-0.99429,0,0,0.11111,2.1053e-15,0,0.66667
0.95739,0.25631,8.6166,-0.36553,-3.1296,2.7941,8.399,-2.7997,-1.5241,11.199,1.0346e-08,-0.76206,0,0,0.11111,-0,-0,0.66667
0.95947,0.92697,8.6352,0.64046,5.392,3.666,-14.748,4.916,-0.53921,-19.664,7.1231e-06,-0.26961,0,0,0.11111,-0,-0,0.66667
0.037863,0.65843,0.34076,0.23765,25.504,623.49,-0.21595,0.071984,-1.7978,-0.28793,1.6785e-07,-0.89892,0,0,0.11111,-0,-0,0.66667
0.057584,0.57954,0.51825,0.11931,12.775,604.11,-0.16488,0.054962,-1.9475,-0.21985,4.9477e-08,-0.97377,0,0,0.11111,6.5791e-17,0,0.66667
0.0057974,0.91742,0.052177,0.62614,67.51,655.05,-0.087113,0.029032,-0.60388,-0.11615,-7.6916e-06,-0.30194,0,0,0.11111,-0,2.4182e-16,0.66667
0.31268,0.087831,2.8141,-0.61825,-60.128,363.22,4.6396,-1.5465,-0.64511,6.1861,2.7609e-12,-0.32256,0,0,0.11111,-0,-0,0.66667
0.055698,0.099408,0.50129,-0.60089,-64.569,606.04,0.80324,-0.26775,-0.71425,1.071,-1.0779e-06,-0.35712,0,0,0.11111,-0,-0,0.66667
0.29386,0.77346,2.6448,0.41018,40.307,379.79,-2.8929,0.9643,-1.4019,-3.8572,3.5483e-12,-0.70096,0,0,0.11111,-2.6316e-16,0,0.66667
0.35602,0.66579,3.2041,0.24868,23.325,324.87,-2.1249,0.70829,-1.7797,-2.8331,1.3984e-12,-0.88987,0,0,0.11111,-0,-0,0.66667
0.95368,0.36139,8.5831,-0.20791,-1.9202,2.809,4.7587,-1.5862,-1.8493,6.345,8.5759e-08,-0.92463,0,0,0.11111,1.0527e-15,0,0.66667
0.47695,0.64475,4.2926,0.21712,17.999,226.32,-2.4854,0.82845,-1.8298,-3.3138,-1.6513e-12,-0.91488,0,0,0.11111,5.2633e-16,0,0.66667
0.27824,0.46086,2.5041,-0.058716,-5.8163,393.74,0.39209,-0.1307,-1.9879,0.52278,1.4992e-12,-0.99394,0,0,0.11111,-0,-0,0.66667
0.50301,0.026034,4.527,-0.71095,-57.313,207.67,8.5827,-2.8609,-0.20334,11.444,2.3181e-13,-0.10167,0,0,0.11111,-5.2633e-16,0,0.66667
0.64336,0.010162,5.7902,-0.73476,-46.491,114.87,11.345,-3.7817,-0.080696,15.127,3.0154e-12,-0.040348,0,0,0.11111,-2.1053e-15,0,0.66667
0.11125,0.8304,1.0012,0.4956,52.699,551.76,-1.3232,0.44106,-1.1278,-1.7643,-1.4317e-08,-0.56389,0,0,0.11111,1.3158e-16,0,0.66667
0.75806,0.53119,6.8226,0.046778,2.1217,55.398,-0.85105,0.28368,-1.9912,-1.1347,2.8944e-12,-0.99558,0,0,0.11111,4.6922e-17,0,0.66667
0.85195,0.94539,7.6675,0.66809,19.703,23.663,-13.66,4.5534,-0.41067,-18.214,2.1164e-08,-0.20533,0,0,0.11111,-0,-0,0.66667
0.84425,0.93885,7.5982,0.65828,20.333,25.804,-13.338,4.446,-0.46369,-17.784,2.9103e-08,-0.23185,0,0,0.11111,2.1053e-15,0,0.66667
0.89051,0.89533,8.0146,0.593,13.127,13.876,-12.674,4.2245,-0.75349,-16.898,-8.4445e-11,-0.37675,0,0,0.11111,-0,-0,0.66667
0.38184,0.47507,3.4366,-0.0374,-3.4285,302.77,0.34274,-0.11425,-1.993,0.45699,-3.789e-12,-0.99648,0,0,0.11111,1.0527e-15,0,0.66667
0.44381,0.55685,3.9942,0.08528,7.347,252.05,-0.90834,0.30278,-1.9723,-1.2111,2.0082e-12,-0.98616,0,0,0.11111,7.8949e-16,0,0.66667
0.10158,0.86618,0.91423,0.54926,58.56,561.18,-1.3391,0.44636,-0.92488,-1.7854,-2.955e-09,-0.46244,0,0,0.11111,-0,-0,0.66667
0.22581,0.08274,2.0323,-0.62589,-64.039,442.47,3.3919,-1.1306,-0.60459,4.5226,1.15e-10,-0.3023,0,0,0.11111,-0,-0,0.66667
0.97132,0.04688,8.7419,-0.67968,-4.0792,2.9523,15.844,-5.2815,-0.35768,21.126,2.846e-05,-0.17884,0,0,0.11111,-2.1053e-15,0,0.66667
0.28462,0.30902,2.5616,-0.28648,-28.29,388.03,1.9569,-0.6523,-1.7086,2.6092,-6.8117e-12,-0.8543,0,0,0.11111,1.3158e-16,0,0.66667
0.9074,0.24996,8.1666,-0.37507,-6.9908,9.7693,8.168,-2.7227,-1.5036,10.891,-3.5906e-08,-0.75178,0,0,0.11111,2.1382e-16,0,0.66667
0.89055,0.6129,8.015,0.16935,3.6907,12.716,-3.6196,1.2065,-1.9018,-4.8261,1.4358e-08,-0.95091,0,0,0.11111,-0,-0,0.66667
0.9225,0.56707,8.3025,0.10061,1.5612,6.712,-2.2275,0.74248,-1.9677,-2.9699,4.8104e-08,-0.98384,0,0,0.11111,-0,-0,0.66667
0.15615,0.86908,1.4053,0.55363,58.187,508.41,-2.0748,0.69159,-0.91453,-2.7664,-1.98e-09,-0.45726,0,0,0.11111,-1.3158e-16,8.5484e-17,0.66667
0.87972,0.90605,7.9175,0.60908,14.751,16.337,-12.86,4.2865,-0.68092,-17.146,-3.4371e-08,-0.34046,0,0,0.11111,1.579e-15,0,0.66667
0.63199,0.72483,5.688,0.33724,21.717,120.47,-5.1152,1.7051,-1.5936,-6.8203,-3.8547e-13,-0.79678,0,0,0.11111,-0,-0,0.66667
0.21063,0.48226,1.8957,-0.026605,-2.7304,456.36,0.13449,-0.04483,-1.9948,0.17932,-1.0518e-12,-0.99738,0,0,0.11111,-0,-0,0.66667
0.34512,0.46624,3.106,-0.050647,-4.7889,334.22,0.4195,-0.13983,-1.9938,0.55933,3.1747e-12,-0.9969,0,0,0.11111,1.3158e-16,0,0.66667
0.15992,0.33473,1.4393,-0.2479,-25.96,504.63,0.95146,-0.31715,-1.7809,1.2686,1.6056e-09,-0.89044,0,0,0.11111,-0,-0,0.66667
0.44435,0.066272,3.9991,-0.65059,-56.297,252.36,6.9382,-2.3127,-0.49335,9.2509,2.2986e-12,-0.24668,0,0,0.11111,-0,-0,0.66667
0.083775,0.15423,0.75397,-0.51865,-55.463,578.53,1.0428,-0.3476,-1.0426,1.3904,6.32e-09,-0.5213,0,0,0.11111,1.6448e-16,0,0.66667
0.16532,0.40922,1.4879,-0.13616,-14.227,499.43,0.54025,-0.18008,-1.9326,0.72033,4.4194e-10,-0.9663,0,0,0.11111,-0,-0,0.66667
0.1972,0.04087,1.7748,-0.68869,-71.424,469.42,3.2594,-1.0865,-0.31147,4.3459,-9.7567e-10,-0.15573,0,0,0.11111,5.2633e-16,0,0.66667
0.69103,0.95754,6.2192,0.68632,38.662,88.476,-11.382,3.7941,-0.32458,-15.176,-1.6716e-12,-0.16229,0,0,0.11111,1.0527e-15,0,0.66667
0.5738,0.73962,5.1642,0.35943,25.876,157.21,-4.9499,1.65,-1.5394,-6.5998,1.5525e-12,-0.7697,0,0,0.11111,-0,-0,0.66667
0.87332,0.79489,7.8599,0.44233,11.168,17.238,-9.2711,3.0904,-1.3057,-12.361,7.0025e-09,-0.65283,0,0,0.11111,-0,-0,0.66667
0.24463,0.058835,2.2017,-0.66175,-67.106,425.02,3.8853,-1.2951,-0.44187,5.1804,3.2383e-11,-0.22093,0,0,0.11111,-1.3158e-16,0,0.66667
0.62961,0.32692,5.6665,-0.25962,-16.791,121.78,3.9231,-1.3077,-1.7587,5.2308,-2.558e-13,-0.87935,0,0,0.11111,-0,-0,0.66667
0.034431,0.034899,0.30988,-0.69765,-75.202,626.92,0.57651,-0.19217,-0.27003,0.76868,3.7473e-06,-0.13501,0,0,0.11111,-0,-0,0.66667
0.5162,0.20014,4.6458,-0.4498,-35.466,197.41,5.5724,-1.8575,-1.2836,7.4299,3.4639e-13,-0.6418,0,0,0.11111,-0,-0,0.66667
0.86323,0.043143,7.769,-0.68528,-18.795,20.719,14.197,-4.7324,-0.32928,18.93,9.6881e-10,-0.16464,0,0,0.11111,-0,-0,0.66667
0.98413,0.86776,8.8571,0.55164,1.7287,1.6439,-13.029,4.3431,-0.92191,-17.372,2.9194e-07,-0.46096,0,0,0.11111,-0,-1.0074e-16,0.66667
0.009873,0.063451,0.088857,-0.65482,-70.623,651.04,0.15516,-0.0517,-0.47461,0.20688,2.8545e-05,-0.2373,0,0,0.11111,-0,-0,0.66667
0.25284,0.92044,2.2756,0.63067,63.65,417.4,-3.827,1.2757,-0.58573,-5.1027,1.8828e-11,-0.29287,0,0,0.11111,-5.2633e-16,0,0.66667
0.22385,0.49,2.0146,-0.015003,-1.5304,443.95,0.080604,-0.026868,-1.9974,0.10747,1.346e-11,-0.99872,0,0,0.11111,-5.2633e-16,0,0.66667
0.047538,0.057416,0.42784,-0.66388,-71.453,614.06,0.75741,-0.25247,-0.43648,1.0099,3.6559e-06,-0.21824,0,0,0.11111,9.8686e-17,0,0.66667
0.010172,0.97438,0.091552,0.71158,76.801,650.75,-0.17374,0.057871,-0.19827,-0.23167,-6.2693e-05,-0.099135,0,0,0.11111,-0,-0,0.66667
0.4902,0.23232,4.4118,-0.40152,-32.777,216.51,4.7238,-1.5746,-1.4245,6.2984,6.2927e-13,-0.71223,0,0,0.11111,-0,-0,0.66667
0.045482,0.75299,0.40934,0.37948,40.735,616.02,-0.41423,0.13808,-1.4908,-0.55231,-2.7087e-08,-0.74539,0,0,0.11111,-0,-0,0.66667
0.27833,0.47333,2.505,-0.040001,-3.9622,393.65,0.2672,-0.089068,-1.995,0.35627,3.9763e-12,-0.99749,0,0,0.11111,-0,-0,0.66667
0.63997,0.40484,5.7598,-0.14274,-9.0218,115.51,2.1924,-0.7308,-1.9317,2.9232,-2.6383e-12,-0.96587,0,0,0.11111,1.3158e-15,0,0.66667
0.29469,0.98686,2.6522,0.73029,72,379.47,-5.1651,1.7217,-0.10443,-6.8868,1.7568e-12,-0.052213,0,0,0.11111,5.2633e-16,0,0.66667
0.26965,0.55357,2.4269,0.080356,8.001,401.57,-0.52004,0.17335,-1.9761,-0.69339,4.7927e-12,-0.98807,0,0,0.11111,2.6316e-16,0,0.66667
0.59055,0.94633,5.3149,0.66949,47.01,147,-9.4888,3.1629,-0.40618,-12.652,-1.5188e-13,-0.20309,0,0,0.11111,-0,-0,0.66667
0.38053,0.73494,3.4248,0.35241,32.389,304.06,-3.2185,1.0728,-1.5562,-4.2913,1.5405e-12,-0.77811,0,0,0.11111,-5.2633e-16,0,0.66667
0.70252,0.079398,6.3227,-0.6309,-34.401,82.397,10.637,-3.5458,-0.58761,14.183,5.7288e-13,-0.29381,0,0,0.11111,-1.0527e-15,1.3071e-16,0.66667
0.49612,0.76159,4.4651,0.39239,31.781,212.06,-4.6721,1.5574,-1.4516,-6.2295,-5.671e-13,-0.72579,0,0,0.11111,-0,-0,0.66667
0.63321,0.63443,5.6989,0.20165,12.937,119.56,-3.0645,1.0215,-1.8529,-4.086,-2.8533e-13,-0.92647,0,0,0.11111,-0,-0,0.66667
0.35339,0.3823,3.1805,-0.17655,-16.588,327.09,1.4974,-0.49912,-1.8873,1.9965,8.7186e-13,-0.94363,0,0,0.11111,-0,-0,0.66667
0.28704,0.1526,2.5834,-0.5211,-51.485,386.06,3.5899,-1.1966,-1.0332,4.7866,1.5048e-12,-0.51658,0,0,0.11111,-0,-0,0.66667
0.13321,0.33248,1.1989,-0.25128,-26.527,530.37,0.80335,-0.26778,-1.7729,1.0711,6.3747e-09,-0.88644,0,0,0.11111,1.3158e-16,0,0.66667
0.93708,0.22866,8.4337,-0.40701,-5.19,5.1905,9.1536,-3.0512,-1.4144,12.205,-1.1118e-07,-0.70718,0,0,0.11111,-0,-0,0.66667
0.80484,0.9553,7.2435,0.68296,25.913,38.604,-13.192,4.3973,-0.33885,-17.589,-9.219e-10,-0.16943,0,0,0.11111,-0,-0,0.66667
0.93803,0.6871,8.4423,0.28065,3.4996,4.7414,-6.3182,2.1061,-1.7245,-8.4243,2.7523e-08,-0.86226,0,0,0.11111,-3.0593e-15,0,0.66667
0.18538,0.96154,1.6684,0.69231,72.14,480.62,-3.0802,1.0267,-0.29707,-4.1069,-1.5944e-09,-0.14854,0,0,0.11111,1.3158e-16,9.3414e-17,0.66667
0.93316,0.26448,8.3984,-0.35328,-4.7699,5.5644,7.9119,-2.6373,-1.5548,10.549,-9.0052e-08,-0.7774,0,0,0.11111,-0,-0,0.66667
0.93575,0.86991,8.4218,0.55487,7.3062,5.8977,-12.461,4.1538,-0.9073,-16.615,1.4134e-07,-0.45365,0,0,0.11111,-0,-0,0.66667
0.28354,0.31681,2.5519,-0.27478,-27.152,389,1.8699,-0.6233,-1.733,2.4932,-7.188e-12,-0.86648,0,0,0.11111,-0,-0,0.66667
0.27463,0.91549,2.4717,0.62324,62.121,397.44,-4.1079,1.3693,-0.6166,-5.4772,1.6112e-11,-0.3083,0,0,0.11111,-0,-0,0.66667
0.55143,0.79023,4.9629,0.43535,32.552,172.47,-5.7616,1.9205,-1.3248,-7.6821,1.1773e-12,-0.6624,0,0,0.11111,-1.0527e-15,0,0.66667
0.18529,0.0098651,1.6676,-0.7352,-76.659,480.75,3.2694,-1.0898,-0.078997,4.3592,-3.9496e-10,-0.039498,0,0,0.11111,-0,-0,0.66667
0.4421,0.6481,3.9789,0.22215,19.185,253.47,-2.3571,0.7857,-1.8233,-3.1428,-9.126e-14,-0.91163,0,0,0.11111,-0,-0,0.66667
0.18532,0.44149,1.6679,-0.087767,-9.1028,480.33,0.39036,-0.13012,-1.9742,0.52047,-7.9072e-11,-0.98711,0,0,0.11111,-0,-0,0.66667
0.94738,0.48968,8.5264,-0.015483,-0.16233,3.3164,0.35204,-0.11735,-1.997,0.46939,2.7102e-07,-0.99852,0,0,0.11111,-2.036e-15,0,0.66667
0.49382,0.18125,4.4444,-0.47812,-38.879,213.93,5.6666,-1.8889,-1.1853,7.5554,1.3549e-12,-0.59267,0,0,0.11111,-5.2633e-16,0,0.66667
0.96392,0.863,8.6753,0.5445,4.0169,2.8535,-12.596,4.1988,-0.94413,-16.795,6.6811e-07,-0.47207,0,0,0.11111,1.0527e-15,0,0.66667
0.64494,0.24706,5.8045,-0.37941,-23.768,112.93,5.8728,-1.9576,-1.4878,7.8304,5.3824e-13,-0.74392,0,0,0.11111,-0,-0,0.66667
0.48432,0.030589,4.3588,-0.70412,-58.159,221.59,8.1844,-2.7281,-0.24252,10.912,-2.0624e-12,-0.12126,0,0,0.11111,1.0527e-15,1.0903e-17,0.66667
0.9677,0.57131,8.7093,0.10697,0.6732,1.4596,-2.4843,0.82809,-1.9618,-3.3124,-1.6906e-07,-0.9809,0,0,0.11111,-2.1053e-15,0,0.66667
0.14319,0.12282,1.2887,-0.56577,-59.708,520.88,1.9443,-0.6481,-0.86334,2.5924,5.4929e-10,-0.43167,0,0,0.11111,6.5791e-17,0,0.66667
0.63233,0.16212,5.691,-0.50683,-32.69,120.63,7.6916,-2.5639,-1.0846,10.255,2.3603e-12,-0.5423,0,0,0.11111,-0,-0,0.66667
0.66189,0.45049,5.957,-0.074261,-4.4637,102.92,1.1797,-0.39322,-1.9782,1.5729,1.4011e-13,-0.98909,0,0,0.11111,-0,-0,0.66667
0.43384,0.045179,3.9046,-0.68223,-59.744,260.79,7.1035,-2.3678,-0.34422,9.4713,-6.2261e-13,-0.17211,0,0,0.11111,-0,-0,0.66667
0.059357,0.21843,0.53422,-0.42235,-45.285,602.41,0.60168,-0.20056,-1.367,0.80223,7.8418e-08,-0.68349,0,0,0.11111,-1.6448e-16,0,0.66667
0.49272,0.24179,4.4345,-0.38731,-31.509,214.59,4.5801,-1.5267,-1.4643,6.1068,-6.8789e-13,-0.73214,0,0,0.11111,-0,-0,0.66667
0.46513,0.3874,4.1862,-0.16891,-14.202,235.37,1.8855,-0.62851,-1.8978,2.5141,1.0327e-12,-0.94888,0,0,0.11111,-0,-0,0.66667
0.80675,0.077218,7.2607,-0.63417,-23.809,37.724,12.279,-4.0929,-0.56774,16.372,1.8602e-10,-0.28387,0,0,0.11111,-1.0527e-15,0,0.66667
0.25666,0.18852,2.3099,-0.46722,-46.969,413.7,2.878,-0.95934,-1.2227,3.8374,-2.282e-11,-0.61135,0,0,0.11111,-0,-0,0.66667
0.39143,0.80879,3.5229,0.46318,42.192,295.06,-4.3513,1.4504,-1.2407,-5.8017,-3.1277e-12,-0.62037,0,0,0.11111,6.5791e-16,0,0.66667
0.24017,0.85135,2.1615,0.52702,53.48,429,-3.0378,1.0126,-1.0106,-4.0505,2.5172e-11,-0.50528,0,0,0.11111,-5.2633e-16,0,0.66667
0.68644,0.19003,6.178,-0.46495,-26.386,90.168,7.6599,-2.5533,-1.2347,10.213,-3.9435e-13,-0.61736,0,0,0.11111,2.1053e-15,0,0.66667
0.98988,0.85641,8.909,0.53462,1.0089,1.3598,-12.701,4.2337,-0.98163,-16.935,3.6056e-06,-0.49082,0,0,0.11111,-2.1053e-15,0,0.66667
0.17743,0.94361,1.5969,0.66541,69.52,488.15,-2.8335,0.94451,-0.4241,-3.7781,-1.8898e-09,-0.21205,0,0,0.11111,5.2633e-16,0,0.66667
0.82145,0.48853,7.393,-0.017201,-0.59414,31.422,0.33911,-0.11304,-1.9964,0.45215,1.2635e-10,-0.99822,0,0,0.11111,1.0527e-15,0,0.66667
0.23099,0.85755,2.0789,0.53632,54.679,437.54,-2.9732,0.99107,-0.97666,-3.9643,7.5161e-11,-0.48833,0,0,0.11111,-0,-0,0.66667
0.057976,0.97748,0.52178,0.71622,77.054,603.84,-0.99656,0.33219,-0.17486,-1.3287,7.8088e-06,-0.087431,0,0,0.11111,-0,-0,0.66667
0.13882,0.34127,1.2493,-0.23809,-25.093,524.95,0.79322,-0.26441,-1.8008,1.0576,4.6443e-09,-0.90039,0,0,0.11111,-2.6316e-16,0,0.66667
0.93515,0.11339,8.4164,-0.57991,-7.7233,6.0838,13.015,-4.3384,-0.80485,17.354,-9.0255e-08,-0.40243,0,0,0.11111,1.0527e-15,0,0.66667
0.88854,0.56128,7.9969,0.09192,2.0368,13.078,-1.9602,0.65339,-1.9722,-2.6136,1.1176e-08,-0.98609,0,0,0.11111,-1.3158e-16,0,0.66667
0.28926,0.57546,2.6033,0.11319,11.137,383.76,-0.7858,0.26193,-1.9517,-1.0477,2.9576e-12,-0.97587,0,0,0.11111,-0,-0,0.66667
0.94776,0.4443,8.5299,-0.083545,-0.86989,3.2985,1.9003,-0.63345,-1.9736,2.5338,2.7738e-08,-0.9868,0,0,0.11111,-0,-0,0.66667
0.84993,0.76718,7.6494,0.40077,11.849,23.255,-8.175,2.725,-1.4265,-10.9,2.2445e-09,-0.71323,0,0,0.11111,4.6136e-17,0,0.66667
0.43465,0.48949,3.9119,-0.015766,-1.3719,259.33,0.16447,-0.054823,-1.9992,0.21929,-1.6523e-12,-0.9996,0,0,0.11111,-1.0527e-15,0,0.66667
0.46805,0.087219,4.2124,-0.61917,-52.106,233.78,6.9553,-2.3184,-0.64017,9.2737,3.8636e-13,-0.32008,0,0,0.11111,-0,8.7013e-17,0.66667
0.62985,0.41685,5.6687,-0.12472,-8.0553,121.5,1.8853,-0.62843,-1.943,2.5137,-2.7645e-13,-0.97152,0,0,0.11111,-0,-0,0.66667
0.15803,0.44023,1.4223,-0.089652,-9.3891,506.41,0.34003,-0.11334,-1.9737,0.45337,4.5099e-10,-0.98687,0,0,0.11111,-0,-0,0.66667
0.014782,0.88683,0.13304,0.58024,62.517,646.21,-0.20585,0.068613,-0.80548,-0.27447,-4.2098e-06,-0.40274,0,0,0.11111,-0,-0,0.66667
0.26551,0.85934,2.3896,0.53901,53.957,405.66,-3.4347,1.1449,-0.97062,-4.5797,1.2701e-11,-0.48531,0,0,0.11111,-5.2633e-16,-1.6462e-16,0.66667
0.015444,0.038171,0.13899,-0.69274,-74.739,645.57,0.25675,-0.085566,-0.2977,0.34235,2.8104e-05,-0.14885,0,0,0.11111,-0,-0,0.66667
0.6745,0.69593,6.0705,0.2939,17.156,96.194,-4.7577,1.5859,-1.6934,-6.3435,-1.3762e-12,-0.84669,0,0,0.11111,-0,-0,0.66667
0.55147,0.95866,4.9632,0.68798,51.642,173.07,-9.1056,3.0352,-0.31564,-12.141,2.8377e-12,-0.15782,0,0,0.11111,-5.2633e-16,0,0.66667
0.32165,0.38164,2.8948,-0.17753,-17.092,354.83,1.3705,-0.45683,-1.8859,1.8273,-1.3259e-12,-0.94296,0,0,0.11111,-0,-0,0.66667
0.7802,0.66475,7.0218,0.24713,10.315,46.511,-4.6275,1.5425,-1.7854,-6.17,-1.0108e-11,-0.89269,0,0,0.11111,-0,-0,0.66667
0.14579,0.21052,1.3121,-0.43423,-45.731,518.3,1.5193,-0.50643,-1.328,2.0257,2.8872e-09,-0.66398,0,0,0.11111,-0,-0,0.66667
0.24488,0.48967,2.2039,-0.015494,-1.564,424.36,0.091061,-0.030354,-1.9974,0.12142,-1.0123e-11,-0.99868,0,0,0.11111,-7.8949e-16,0,0.66667
0.29231,0.29424,2.6308,-0.30865,-30.336,381.1,2.1653,-0.72177,-1.6597,2.8871,-6.7333e-12,-0.82986,0,0,0.11111,5.2633e-16,0,0.66667
0.19593,0.96608,1.7634,0.69912,72.553,470.63,-3.2875,1.0958,-0.26062,-4.3833,5.8869e-10,-0.13031,0,0,0.11111,-1.3158e-16,0,0.66667
0.087939,0.69379,0.79145,0.29068,31.007,574.4,-0.61349,0.2045,-1.6978,-0.81799,-3.694e-08,-0.84892,0,0,0.11111,2.6316e-16,0,0.66667
0.86998,0.84083,7.8298,0.51125,13.265,18.288,-10.675,3.5582,-1.0699,-14.233,8.3057e-09,-0.53493,0,0,0.11111,1.0527e-15,0,0.66667
0.088189,0.71431,0.7937,0.32146,34.295,574.16,-0.68038,0.22679,-1.6312,-0.90717,-3.87e-08,-0.81562,0,0,0.11111,6.5791e-17,0,0.66667
0.68371,0.98802,6.1534,0.73203,42.082,92.484,-12.012,4.004,-0.093785,-16.016,-7.6206e-13,-0.046892,0,0,0.11111,-0,-0,0.66667
0.1204,0.8729,1.0836,0.55935,59.389,542.9,-1.6163,0.53877,-0.88721,-2.1551,-1.9741e-08,-0.44361,0,0,0.11111,-2.6316e-16,0,0.66667
0.010699,0.77678,0.096291,0.41517,44.665,650.22,-0.10661,0.035535,-1.3861,-0.14214,-4.1722e-07,-0.69307,0,0,0.11111,2.6895e-17,0,0.66667
0.55727,0.74736,5.0154,0.37104,27.465,168.36,-4.9625,1.6542,-1.5096,-6.6166,-6.0352e-13,-0.75482,0,0,0.11111,5.2633e-16,0,0.66667
0.90711,0.68399,8.164,0.27598,5.141,9.5881,-6.0083,2.0028,-1.7327,-8.011,3.3271e-08,-0.86634,0,0,0.11111,-1.3158e-15,0,0.66667
0.86046,0.46222,7.7441,-0.056668,-1.556,19.837,1.1703,-0.39009,-1.9913,1.5603,9.0853e-10,-0.99564,0,0,0.11111,5.2633e-16,0,0.66667
0.33845,0.13298,3.0461,-0.55053,-52.498,340.43,4.4718,-1.4906,-0.92071,5.9624,2.5775e-12,-0.46036,0,0,0.11111,-0,-0,0.66667
0.027159,0.41957,0.24443,-0.12065,-12.952,634.01,0.078641,-0.026214,-1.947,0.10485,-2.112e-07,-0.9735,0,0,0.11111,-0,-0,0.66667
0.80086,0.91678,7.2077,0.62517,24.102,39.779,-12.016,4.0054,-0.60937,-16.021,8.2079e-10,-0.30469,0,0,0.11111,-0,-0,0.66667
0.80598,0.82866,7.2539,0.49299,18.492,37.479,-9.5363,3.1788,-1.1333,-12.715,1.3103e-10,-0.56663,0,0,0.11111,1.0527e-15,0,0.66667
0.86849,0.85845,7.8164,0.53768,14.117,18.755,-11.207,3.7357,-0.96952,-14.943,3.5218e-09,-0.48476,0,0,0.11111,-0,-0,0.66667
0.66965,0.98154,6.0268,0.72232,42.998,100.01,-11.609,3.8696,-0.14558,-15.478,9.5568e-13,-0.072789,0,0,0.11111,-1.0527e-15,1.2726e-16,0.66667
0.80778,0.31826,7.27,-0.27262,-10.093,36.304,5.2851,-1.7617,-1.7347,7.0469,-1.7121e-10,-0.86735,0,0,0.11111,-0,-0,0.66667
0.8975,0.81972,8.0775,0.47957,9.9084,11.996,-10.33,3.4433,-1.1801,-13.773,3.444e-08,-0.59004,0,0,0.11111,2.1053e-15,0,0.66667
0.45383,0.59213,4.0845,0.1382,11.773,244.16,-1.5052,0.50174,-1.9362,-2.007,-1.9349e-12,-0.96808,0,0,0.11111,7.237e-16,0,0.66667
0.55783,0.037263,5.0204,-0.6941,-51.579,168.75,9.2925,-3.0975,-0.28594,12.39,5.3442e-12,-0.14297,0,0,0.11111,-0,-8.5814e-17,0.66667
0.50613,0.7783,4.5552,0.41745,33.367,204.7,-5.0709,1.6903,-1.379,-6.7611,-1.3598e-12,-0.68952,0,0,0.11111,-1.3158e-15,0,0.66667
0.69198,0.25839,6.2279,-0.36242,-20.237,87.04,6.0189,-2.0063,-1.5318,8.0252,3.296e-12,-0.76589,0,0,0.11111,-0,-0,0.66667
0.68291,0.80952,6.1462,0.46427,26.59,92.034,-7.6093,2.5364,-1.2331,-10.146,-2.4438e-12,-0.61653,0,0,0.11111,1.579e-15,0,0.66667
0.52031,0.51394,4.6828,0.020906,1.6344,194.01,-0.26107,0.087023,-1.9968,-0.34809,-3.6607e-12,-0.99838,0,0,0.11111,-0,-0,0.66667
0.82847,0.8045,7.4562,0.45675,15.304,29.842,-9.0817,3.0272,-1.2619,-12.109,1.5609e-10,-0.63095,0,0,0.11111,1.0527e-15,0,0.66667
0.50578,0.61833,4.552,0.1775,14.168,204.67,-2.1546,0.71819,-1.8862,-2.8728,1.1213e-13,-0.94311,0,0,0.11111,-0,-0,0.66667
0.82486,0.461,7.4237,-0.058505,-1.9855,30.319,1.1582,-0.38607,-1.9877,1.5443,-2.0949e-10,-0.99386,0,0,0.11111,-0,-0,0.66667
0.28185,0.84183,2.5366,0.51274,50.818,390.75,-3.4683,1.1561,-1.0694,-4.6245,1.3632e-11,-0.5347,0,0,0.11111,-1.3158e-16,0,0.66667
0.17849,0.86814,1.6065,0.55221,57.591,487.04,-2.3656,0.78853,-0.91371,-3.1541,-1.0562e-09,-0.45686,0,0,0.11111,3.6885e-16,0,0.66667
0.96987,0.034845,8.7288,-0.69773,-4.4176,3.1463,16.241,-5.4137,-0.27216,21.655,3.0138e-05,-0.13608,0,0,0.11111,-0,-0,0.66667
0.74194,0.28037,6.6775,-0.32945,-15.839,62.775,5.8664,-1.9555,-1.6129,7.8218,1.7745e-11,-0.80643,0,0,0.11111,2.5229e-16,0,0.66667
0.25979,0.94876,2.3381,0.67314,67.716,411.07,-4.197,1.399,-0.3867,-5.596,9.9756e-12,-0.19335,0,0,0.11111,-0,-0,0.66667
0.58124,0.77911,5.2311,0.41866,29.772,152.41,-5.8402,1.9467,-1.3777,-7.7869,7.1587e-13,-0.68884,0,0,0.11111,-1.3158e-16,0,0.66667
0.95526,0.45898,8.5974,-0.06153,-0.54563,2.5012,1.4107,-0.47022,-1.9875,1.8809,3.827e-07,-0.99375,0,0,0.11111,-1.0527e-15,0,0.66667
0.080754,0.12323,0.72679,-0.56515,-60.496,581.5,1.0953,-0.3651,-0.86586,1.4604,2.6938e-09,-0.43293,0,0,0.11111,-1.4803e-16,0,0.66667
0.083534,0.64099,0.75181,0.21149,22.568,578.69,-0.424,0.14133,-1.8388,-0.56534,-3.0079e-08,-0.91941,0,0,0.11111,-1.3158e-16,0,0.66667
0.61913,0.73643,5.5722,0.35464,23.459,128.26,-5.2697,1.7566,-1.5505,-7.0263,-2.5402e-13,-0.77524,0,0,0.11111,-0,-0,0.66667
0.22449,0.55256,2.0204,0.078845,8.0406,443.35,-0.42481,0.1416,-1.9758,-0.56641,4.2843e-12,-0.98791,0,0,0.11111,-0,-0,0.66667
0.76518,0.56241,6.8867,0.093611,4.1368,52.42,-1.7191,0.57304,-1.9736,-2.2922,3.6363e-12,-0.98682,0,0,0.11111,-1.1267e-15,0,0.66667
0.56815,0.94366,5.1134,0.66549,48.59,161.69,-9.0744,3.0248,-0.4237,-12.099,-1.549e-12,-0.21185,0,0,0.11111,-0,-0,0.66667
0.66619,0.25035,5.9957,-0.37448,-22.33,100.89,5.9873,-1.9958,-1.5007,7.9831,3.0824e-12,-0.75037,0,0,0.11111,-2.1053e-15,0,0.66667
0.10781,0.23544,0.97033,-0.39683,-42.193,555.05,1.0268,-0.34227,-1.4415,1.3691,2.4795e-08,-0.72077,0,0,0.11111,-1.3158e-16,0,0.66667
0.084283,0.89781,0.75855,0.59672,63.86,578.07,-1.207,0.40235,-0.73185,-1.6094,3.7137e-08,-0.36592,0,0,0.11111,-6.5791e-17,0,0.66667
0.62512,0.98917,5.6261,0.73376,48.26,125.66,-11.008,3.6695,-0.08948,-14.678,-7.6472e-13,-0.04474,0,0,0.11111,-5.2633e-16,0,0.66667
0.40973,0.45098,3.6876,-0.073524,-6.565,279.56,0.723,-0.241,-1.9801,0.964,-2.6801e-13,-0.99004,0,0,0.11111,-0,-0,0.66667
0.087253,0.96616,0.78527,0.69923,74.889,575.21,-1.4642,0.48808,-0.26019,-1.9523,1.6627e-06,-0.1301,0,0,0.11111,5.8727e-17,0,0.66667
0.37106,0.93628,3.3396,0.65442,60.855,312.53,-5.8279,1.9426,-0.4776,-7.7706,3.5745e-12,-0.2388,0,0,0.11111,1.3158e-16,1.215e-16,0.66667
0.67214,0.63611,6.0493,0.20417,11.978,97.354,-3.2935,1.0978,-1.8553,-4.3913,-9.5279e-13,-0.92766,0,0,0.11111,-1.0527e-15,0,0.66667
0.18959,0.13587,1.7063,-0.54619,-56.719,476.49,2.4852,-0.82841,-0.94023,3.3136,6.7734e-11,-0.47011,0,0,0.11111,-0,-0,0.66667
0.89573,0.64069,8.0616,0.21103,4.3918,11.69,-4.5366,1.5122,-1.8397,-6.0488,2.12e-08,-0.91984,0,0,0.11111,2.1053e-15,0,0.66667
0.94985,0.518,8.5486,0.026995,0.26938,3.0463,-0.61539,0.20513,-1.9969,-0.82052,-5.9172e-09,-0.99845,0,0,0.11111,-0,-0,0.66667
0.96157,0.58244,8.6542,0.12366,0.93655,1.9657,-2.8539,0.95129,-1.943,-3.8052,-4.4301e-08,-0.97152,0,0,0.11111,-0,-0,0.66667
0.73008,0.1254,6.5707,-0.5619,-28.195,68.807,9.8457,-3.2819,-0.87758,13.128,3.1006e-12,-0.43879,0,0,0.11111,-0,-0,0.66667
0.40629,0.42644,3.6566,-0.11034,-9.8867,282.41,1.0759,-0.35864,-1.9606,1.4346,8.0491e-13,-0.98031,0,0,0.11111,-0,-0,0.66667
0.74375,0.13895,6.6937,-0.54158,-25.985,62.514,9.6672,-3.2224,-0.95464,12.89,2.6033e-11,-0.47732,0,0,0.11111,-0,-0,0.66667
0.28799,0.83096,2.5919,0.49643,49.005,385.18,-3.4312,1.1437,-1.1212,-4.5749,3.6311e-12,-0.56058,0,0,0.11111,5.2633e-16,0,0.66667
0.31442,0.091493,2.8298,-0.61276,-59.517,361.67,4.6239,-1.5413,-0.66721,6.1652,2.379e-12,-0.33361,0,0,0.11111,-0,-0,0.66667
0.6059,0.17256,5.4531,-0.49116,-33.408,136.75,7.1422,-2.3807,-1.1415,9.5229,8.0203e-13,-0.57077,0,0,0.11111,-1.0527e-15,0,0.66667
0.59485,0.28744,5.3536,-0.31884,-22.098,143.41,4.5519,-1.5173,-1.6413,6.0692,1.0636e-12,-0.82064,0,0,0.11111,-0,-0,0.66667
0.87866,0.75332,7.9079,0.37999,9.1901,15.787,-8.0131,2.671,-1.4868,-10.684,1.08e-08,-0.74338,0,0,0.11111,2.1053e-15,0,0.66667
0.2546,0.31942,2.2914,-0.27088,-27.221,415.45,1.6552,-0.55172,-1.738,2.2069,-1.8323e-11,-0.869,0,0,0.11111,-0,-0,0.66667
0.76619,0.078077,6.8957,-0.63289,-28.12,53.204,11.638,-3.8793,-0.57875,15.517,-9.6394e-11,-0.28938,0,0,0.11111,1.0527e-15,0,0.66667
0.94101,0.51154,8.4691,0.017305,0.20389,4.0686,-0.39082,0.13027,-1.9983,-0.52109,-4.7631e-07,-0.99914,0,0,0.11111,-0,-0,0.66667
0.0010329,0.5002,0.0092964,0.00029469,0.031654,659.73,-7.3183e-06,4.1409e-05,-2.0039,9.7271e-06,5.8455e-05,-1.0019,0,0,0.11111,-8.2239e-18,0,0.66667
0.47609,0.0022496,4.2848,-0.74663,-62.355,227.95,8.531,-2.8437,-0.016466,11.375,3.153e-13,-0.0082331,0,0,0.11111,-0,-0,0.66667
0.65704,0.39292,5.9134,-0.16062,-9.769,105.7,2.5329,-0.84429,-1.9109,3.3771,-2.407e-13,-0.95543,0,0,0.11111,-0,-0,0.66667
0.84332,0.68375,7.5899,0.27563,8.4581,24.868,-5.5787,1.8596,-1.734,-7.4382,1.9846e-09,-0.867,0,0,0.11111,2.6316e-16,0,0.66667
0.18374,0.3694,1.6537,-0.19589,-20.336,481.85,0.86384,-0.28795,-1.8633,1.1518,2.0203e-10,-0.93163,0,0,0.11111,-3.9475e-16,0,0.66667
0.85616,0.21676,7.7054,-0.42486,-12.083,21.599,8.73,-2.91,-1.359,11.64,-3.2572e-09,-0.67951,0,0,0.11111,3.9475e-16,0,0.66667
0.36437,0.2435,3.2793,-0.38475,-35.871,317.83,3.3646,-1.1215,-1.4723,4.4861,4.2635e-12,-0.73616,0,0,0.11111,-0,-0,0.66667
0.89227,0.051908,8.0305,-0.67214,-14.72,13.861,14.394,-4.7978,-0.39523,19.191,6.1782e-08,-0.19761,0,0,0.11111,1.0527e-15,0,0.66667
0.027712,0.30475,0.24941,-0.29288,-31.462,633.48,0.19479,-0.06493,-1.6947,0.25972,-4.4512e-07,-0.84733,0,0,0.11111,-3.2895e-17,0,0.66667
0.08539,0.79016,0.76851,0.43524,46.495,576.93,-0.89197,0.29732,-1.324,-1.1893,-3.3699e-08,-0.66202,0,0,0.11111,-0,-0,0.66667
0.98141,0.81811,8.8327,0.47717,1.7325,1.4647,-11.239,3.7464,-1.1909,-14.986,-1.4814e-06,-0.59545,0,0,0.11111,-0,-0,0.66667
0.6095,0.99872,5.4855,0.74808,50.776,135.27,-10.943,3.6476,-0.015289,-14.591,-6.0929e-13,-0.0076445,0,0,0.11111,3.2895e-16,0,0.66667
0.41763,0.48497,3.7587,-0.022552,-1.9977,273.09,0.22605,-0.075349,-1.9968,0.30139,-3.9921e-12,-0.9984,0,0,0.11111,-0,-0,0.66667
0.16921,0.92122,1.5229,0.63183,66.177,495.96,-2.566,0.85532,-0.58069,-3.4213,2.4848e-09,-0.29034,0,0,0.11111,2.6316e-16,0,0.66667
0.6499,0.91786,5.8491,0.62678,38.991,110.72,-9.7763,3.2588,-0.60075,-13.035,-6.5192e-13,-0.30037,0,0,0.11111,-0,-0,0.66667
0.036975,0.71269,0.33278,0.31903,34.256,624.37,-0.28311,0.094369,-1.6365,-0.37748,1.9461e-07,-0.81823,0,0,0.11111,-3.2895e-17,0,0.66667
0.31161,0.23791,2.8045,-0.39314,-38.17,363.88,2.9402,-0.98006,-1.453,3.9202,2.5751e-12,-0.72648,0,0,0.11111,-5.2633e-16,0,0.66667
0.32348,0.62892,2.9113,0.19338,18.595,353.22,-1.5013,0.50045,-1.8663,-2.0018,2.7335e-12,-0.93315,0,0,0.11111,-0,-0,0.66667
0.60744,0.66326,5.467,0.2449,16.562,135.34,-3.5702,1.1901,-1.7882,-4.7603,-3.9524e-14,-0.89412,0,0,0.11111,-0,-0,0.66667
0.65083,0.04386,5.8575,-0.68421,-42.527,110.38,10.687,-3.5624,-0.33341,14.25,8.3045e-13,-0.1667,0,0,0.11111,1.0527e-15,0,0.66667
0.84605,0.47027,7.6145,-0.044588,-1.3426,23.823,0.90538,-0.30179,-1.9948,1.2072,-2.3554e-09,-0.99742,0,0,0.11111,-0,-0,0.66667
0.92758,0.47058,8.3482,-0.044137,-0.63976,5.9051,0.98258,-0.32753,-1.9921,1.3101,1.0795e-07,-0.99606,0,0,0.11111,-0,-0,0.66667
0.66046,0.88105,5.9441,0.57157,34.663,104.57,-9.06,3.02,-0.83769,-12.08,2.8511e-13,-0.41885,0,0,0.11111,-0,-0,0.66667
0.57817,0.20679,5.2036,-0.43982,-31.453,154.46,6.103,-2.0343,-1.316,8.1373,1.7861e-12,-0.65802,0,0,0.11111,5.2633e-16,0,0.66667
0.39872,0.31854,3.5884,-0.27219,-24.585,288.77,2.6046,-0.86821,-1.7345,3.4728,1.0201e-12,-0.86723,0,0,0.11111,-0,-0,0.66667
0.96661,0.9752,8.6995,0.7128,5.0144,3.4617,-16.536,5.512,-0.19479,-22.048,-3.6163e-06,-0.097397,0,0,0.11111,-0,-0,0.66667
0.15408,0.1192,1.3867,-0.5712,-60.085,510.41,2.1122,-0.70408,-0.84128,2.8163,1.5884e-09,-0.42064,0,0,0.11111,-0,-1.6682e-16,0.66667
0.89509,0.2356,8.0558,-0.39661,-8.3495,12.225,8.5199,-2.84,-1.4392,11.36,-2.9354e-08,-0.71959,0,0,0.11111,-0,-0,0.66667
0.31101,0.59706,2.7991,0.1456,14.122,364.25,-1.0868,0.36226,-1.9272,-1.449,2.0545e-12,-0.96362,0,0,0.11111,1.0527e-15,0,0.66667
0.54849,0.67908,4.9364,0.26862,20.147,174.25,-3.5361,1.1787,-1.7452,-4.7148,2.0559e-12,-0.87259,0,0,0.11111,-5.2633e-16,0,0.66667
0.68207,0.7577,6.1386,0.38655,22.16,92.3,-6.3276,2.1092,-1.467,-8.4369,1.0121e-12,-0.73351,0,0,0.11111,-2.1053e-15,0,0.66667
0.23647,0.16106,2.1282,-0.5084,-51.677,432.41,2.8853,-0.96178,-1.0826,3.8471,-1.17e-11,-0.54128,0,0,0.11111,-0,-0,0.66667
0.16774,0.67084,1.5096,0.25626,26.766,497.14,-1.0316,0.34388,-1.7652,-1.3755,-9.609e-10,-0.8826,0,0,0.11111,2.6316e-16,0,0.66667
0.50848,0.47845,4.5763,-0.032325,-2.5696,202.62,0.39448,-0.13149,-1.9938,0.52597,2.1183e-13,-0.99691,0,0,0.11111,-0,-0,0.66667
0.79186,0.48576,7.1268,-0.021359,-0.84787,41.841,0.40593,-0.13531,-1.9965,0.54123,7.152e-12,-0.99824,0,0,0.11111,-1.0527e-15,0,0.66667
0.69241,0.62988,6.2317,0.19482,10.847,86.558,-3.2375,1.0792,-1.864,-4.3167,-4.043e-12,-0.932,0,0,0.11111,2.1053e-15,0,0.66667
0.11897,0.57724,1.0708,0.11586,12.27,544.14,-0.33084,0.11028,-1.9499,-0.44111,-4.6041e-09,-0.97493,0,0,0.11111,-2.6316e-16,0,0.66667
0.90074,0.34296,8.1067,-0.23556,-4.6758,10.725,5.0922,-1.6974,-1.8021,6.7897,-2.4834e-08,-0.90103,0,0,0.11111,3.2895e-16,0,0.66667
0.47974,0.87081,4.3176,0.55622,46.1,224.7,-6.4041,2.1347,-0.89923,-8.5388,8.6953e-13,-0.44961,0,0,0.11111,2.0898e-17,0,0.66667
0.94668,0.024201,8.5201,-0.7137,-7.9617,5.3233,16.215,-5.4051,-0.18686,21.621,5.5198e-06,-0.093432,0,0,0.11111,-0,-0,0.66667
0.55343,0.97461,4.9809,0.71192,53.297,171.8,-9.456,3.152,-0.196,-12.608,3.2392e-12,-0.098,0,0,0.11111,-0,-0,0.66667
0.084802,0.096035,0.76322,-0.60595,-64.849,577.56,1.2333,-0.41108,-0.69311,1.6443,-6.7222e-08,-0.34656,0,0,0.11111,-0,-0,0.66667
0.20246,0.23104,1.8222,-0.40343,-41.618,464.19,1.9603,-0.65344,-1.4241,2.6138,4.9686e-11,-0.71207,0,0,0.11111,-0,-0,0.66667
0.85424,0.84177,7.6881,0.51266,14.805,22.405,-10.51,3.5035,-1.0648,-14.014,2.0915e-10,-0.53242,0,0,0.11111,-3.9475e-16,0,0.66667
0.70593,0.004859,6.3533,-0.74271,-40.232,81.125,12.583,-4.1944,-0.039438,16.778,7.7343e-12,-0.019719,0,0,0.11111,-4.2106e-15,0,0.66667
0.89494,0.46809,8.0545,-0.047868,-1.0014,11.701,1.0281,-0.34271,-1.992,1.3708,2.2793e-08,-0.99599,0,0,0.11111,1.5132e-15,0,0.66667
0.32915,0.75698,2.9623,0.38547,36.956,348.37,-3.0451,1.015,-1.4744,-4.0601,2.9801e-12,-0.73721,0,0,0.11111,-0,-0,0.66667
0.528,0.79567,4.752,0.44351,34.377,188.91,-5.6202,1.8734,-1.3001,-7.4936,1.0281e-12,-0.65005,0,0,0.11111,-1.0527e-15,0,0.66667
0.6504,0.75362,5.8536,0.38043,23.541,109.79,-5.9384,1.9795,-1.4841,-7.9178,1.6041e-12,-0.74203,0,0,0.11111,-2.1053e-15,0,0.66667
0.59429,0.13512,5.3486,-0.54731,-38.084,144.24,7.8063,-2.6021,-0.93808,10.408,-8.2556e-13,-0.46904,0,0,0.11111,-0,-0,0.66667
0.23146,0.73631,2.0832,0.35447,36.071,436.95,-1.9691,0.65637,-1.5531,-2.6255,3.172e-11,-0.77655,0,0,0.11111,-2.6316e-16,0,0.66667
0.42682,0.53126,3.8414,0.046883,4.1137,265.63,-0.48026,0.16009,-1.992,-0.64035,-2.0027e-12,-0.99601,0,0,0.11111,1.0527e-15,0,0.66667
0.24811,0.18445,2.233,-0.47333,-47.807,421.59,2.8185,-0.93951,-1.2055,3.758,2.6799e-12,-0.60277,0,0,0.11111,-4.5287e-16,0,0.66667
0.84561,0.17353,7.6105,-0.4897,-14.906,24.755,9.9384,-3.3128,-1.1484,13.251,-6.4215e-10,-0.57421,0,0,0.11111,-0,-0,0.66667
0.98668,0.11002,8.8801,-0.58498,-1.5385,1.6921,13.852,-4.6175,-0.78381,18.47,-7.7457e-06,-0.3919,0,0,0.11111,-0,-0,0.66667
0.066571,0.30555,0.59914,-0.29168,-31.217,595.31,0.46601,-0.15534,-1.6968,0.62135,5.5502e-08,-0.84839,0,0,0.11111,6.5791e-17,0,0.66667
0.71393,0.62743,6.4254,0.19115,10.018,75.712,-3.2753,1.0918,-1.8695,-4.367,-3.7781e-12,-0.93475,0,0,0.11111,-2.1053e-15,0,0.66667
0.33012,0.37162,2.971,-0.19257,-18.427,347.37,1.5257,-0.50857,-1.8701,2.0343,3.1586e-13,-0.93504,0,0,0.11111,-6.5791e-16,0,0.66667
0.62544,0.072902,5.6289,-0.64065,-42.024,125.15,9.6164,-3.2055,-0.544,12.822,1.2612e-12,-0.272,0,0,0.11111,-0,-0,0.66667
0.25813,0.57542,2.3232,0.11313,11.34,412.14,-0.70087,0.23362,-1.9518,-0.93449,7.4784e-12,-0.97589,0,0,0.11111,-0,-0,0.66667
0.65101,0.80118,5.8591,0.45176,27.945,109.59,-7.0584,2.3528,-1.2724,-9.4113,-1.3811e-12,-0.63621,0,0,0.11111,1.0527e-15,0,0.66667
0.37115,0.73905,3.3403,0.35858,33.231,312.02,-3.1941,1.0647,-1.5419,-4.2587,4.0523e-13,-0.77096,0,0,0.11111,5.2633e-16,0,0.66667
0.29482,0.13208,2.6534,-0.55189,-54.275,379.09,3.905,-1.3017,-0.91838,5.2066,-3.9977e-12,-0.45919,0,0,0.11111,-0,-7.8736e-17,0.66667
0.91176,0.66366,8.2059,0.24549,4.3446,8.6899,-5.3719,1.7906,-1.784,-7.1626,3.5289e-08,-0.892,0,0,0.11111,-0,-0,0.66667
0.9425,0.05954,8.4825,-0.66069,-7.8837,5.5309,14.945,-4.9816,-0.44717,19.926,2.6605e-06,-0.22358,0,0,0.11111,1.5872e-17,0,0.66667
0.61355,0.56185,5.522,0.092771,6.1943,131.41,-1.3661,0.45536,-1.9696,-1.8214,-6.9e-13,-0.98482,0,0,0.11111,-4.6054e-16,0,0.66667
0.21447,0.81936,1.9302,0.47905,49.192,452.95,-2.4658,0.82192,-1.1832,-3.2877,-4.6093e-11,-0.59159,0,0,0.11111,-0,-0,0.66667
0.93942,0.099735,8.4548,-0.6004,-7.4927,5.6222,13.537,-4.5122,-0.71994,18.049,7.8192e-07,-0.35997,0,0,0.11111,-0,-0,0.66667
0.75045,0.25306,6.7541,-0.3704,-17.311,59.088,6.6713,-2.2238,-1.5164,8.895,1.7448e-11,-0.75818,0,0,0.11111,2.1053e-15,0,0.66667
0.75109,0.39933,6.7598,-0.151,-7.0237,58.467,2.722,-0.90734,-1.9216,3.6293,9.972e-12,-0.96079,0,0,0.11111,5.2633e-16,0,0.66667
0.21172,0.16181,1.9055,-0.50729,-52.171,455.55,2.5777,-0.85923,-1.083,3.4369,-1.5552e-10,-0.54151,0,0,0.11111,-0,-0,0.66667
0.83016,0.75935,7.4714,0.38903,12.894,29.12,-7.7509,2.5836,-1.463,-10.335,7.2297e-10,-0.73151,0,0,0.11111,2.1053e-15,0,0.66667
0.2401,0.054716,2.1609,-0.66793,-67.897,429.23,3.8488,-1.2829,-0.41191,5.1317,1.3111e-11,-0.20596,0,0,0.11111,1.4216e-16,0,0.66667
0.63162,0.51658,5.6846,0.024872,1.6,120.4,-0.37702,0.12567,-1.9952,-0.5027,1.4259e-12,-0.9976,0,0,0.11111,-0,-0,0.66667
0.71074,0.039451,6.3967,-0.69082,-36.859,78.532,11.784,-3.928,-0.30078,15.712,-3.7126e-13,-0.15039,0,0,0.11111,2.1053e-15,0,0.66667
0.74238,0.0051089,6.6815,-0.74234,-35.978,63.89,13.226,-4.4088,-0.038674,17.635,1.2657e-11,-0.019337,0,0,0.11111,-0,-0,0.66667
0.39026,0.51603,3.5124,0.024048,2.1876,295.7,-0.22524,0.075082,-2.0012,-0.30033,2.085e-12,-1.0006,0,0,0.11111,-0,-0,0.66667
0.75983,0.1383,6.8384,-0.54255,-24.615,55.537,9.8939,-3.298,-0.95109,13.192,-1.8972e-11,-0.47554,0,0,0.11111,-0,-0,0.66667
0.90294,0.30782,8.1264,-0.28827,-5.6072,10.399,6.2469,-2.0823,-1.7048,8.3292,-3.1589e-08,-0.8524,0,0,0.11111,1.0527e-15,0,0.66667
0.58742,0.1235,5.2868,-0.56475,-39.804,148.71,7.9618,-2.6539,-0.86486,10.616,1.7213e-12,-0.43243,0,0,0.11111,-1.1842e-15,0,0.66667
0.09041,0.72567,0.81369,0.3385,36.102,572,-0.73449,0.24483,-1.5925,-0.97932,-3.6672e-08,-0.79626,0,0,0.11111,-0,-0,0.66667
0.12898,0.73047,1.1608,0.3457,36.556,534.5,-1.0701,0.35669,-1.574,-1.4268,-8.3621e-09,-0.78701,0,0,0.11111,-2.6316e-16,0,0.66667
0.10526,0.92111,0.94736,0.63166,67.356,557.64,-1.5958,0.53192,-0.58007,-2.1277,1.4962e-07,-0.29003,0,0,0.11111,-1.3158e-16,0,0.66667
0.17273,0.0034784,1.5545,-0.74478,-78.031,492.71,3.0875,-1.0292,-0.031228,4.1166,1.4792e-09,-0.015614,0,0,0.11111,-0,-0,0.66667
0.12643,0.37235,1.1379,-0.19148,-20.245,536.92,0.58102,-0.19367,-1.8724,0.7747,7.4173e-09,-0.93622,0,0,0.11111,6.5791e-17,0,0.66667
0.7783,0.32348,7.0047,-0.26478,-11.139,47.289,4.9458,-1.6486,-1.7507,6.5944,1.8538e-11,-0.87533,0,0,0.11111,-0,-0,0.66667
0.039412,0.10507,0.3547,-0.59239,-63.749,622.01,0.56033,-0.18677,-0.74962,0.74711,3.9196e-06,-0.37481,0,0,0.11111,6.5791e-17,0,0.66667
0.24156,0.083162,2.174,-0.62526,-63.476,427.82,3.6249,-1.2083,-0.60742,4.8332,-6.5276e-11,-0.30371,0,0,0.11111,2.6316e-16,0,0.66667
0.87907,0.67981,7.9116,0.26972,6.4825,15.44,-5.6904,1.8968,-1.7405,-7.5873,1.1513e-08,-0.87026,0,0,0.11111,-0,-0,0.66667
0.97352,0.082767,8.7617,-0.62585,-3.4215,2.5384,14.623,-4.8742,-0.60571,19.497,1.4505e-05,-0.30286,0,0,0.11111,1.0527e-15,0,0.66667
0.60542,0.22161,5.4488,-0.41759,-28.401,136.88,6.0676,-2.0225,-1.38,8.0901,7.363e-13,-0.68998,0,0,0.11111,-0,-0,0.66667
0.97624,0.70405,8.7861,0.30608,1.4035,1.2132,-7.1714,2.3905,-1.6641,-9.5619,-4.9999e-07,-0.83207,0,0,0.11111,-3.2614e-15,0,0.66667
0.043452,0.4648,0.39106,-0.052801,-5.6611,617.99,0.055063,-0.018355,-1.9904,0.073417,-6.1693e-07,-0.99518,0,0,0.11111,8.2239e-17,0,0.66667
0.94857,0.022026,8.5372,-0.71696,-7.7233,5.1328,16.322,-5.4407,-0.17098,21.763,1.8926e-06,-0.085492,0,0,0.11111,-0,1.7487e-16,0.66667
0.3113,0.94095,2.8017,0.66142,64.426,364.52,-4.9416,1.6472,-0.4475,-6.5887,4.0448e-12,-0.22375,0,0,0.11111,-0,5.1674e-17,0.66667
0.79897,0.10573,7.1908,-0.5914,-22.968,40.329,11.34,-3.7801,-0.75727,15.12,-8.3507e-10,-0.37864,0,0,0.11111,-0,-0,0.66667
0.81063,0.70618,7.2957,0.30926,11.303,35.381,-6.0167,2.0056,-1.661,-8.0223,2.1569e-10,-0.83052,0,0,0.11111,-0,-0,0.66667
0.86,0.018908,7.74,-0.72164,-20.264,21.739,14.895,-4.9649,-0.15129,19.859,-2.5692e-08,-0.075647,0,0,0.11111,-0,-0,0.66667
0.45855,0.92955,4.127,0.64433,54.857,241.19,-7.091,2.3637,-0.52215,-9.4546,4.1345e-13,-0.26107,0,0,0.11111,-0,-0,0.66667
0.93064,0.47833,8.3758,-0.032503,-0.45112,5.4556,0.72597,-0.24199,-1.9938,0.96796,-2.385e-08,-0.99692,0,0,0.11111,-2.1053e-15,0,0.66667
0.25789,0.0080365,2.321,-0.73795,-74.384,412.91,4.5675,-1.5225,-0.061412,6.0899,-1.0047e-11,-0.030706,0,0,0.11111,1.0527e-15,0,0.66667
0.93445,0.98795,8.41,0.73192,10.004,6.924,-16.415,5.4715,-0.095024,-21.886,-1.5103e-07,-0.047512,0,0,0.11111,-1.0527e-15,0,0.66667
0.61912,0.65454,5.5721,0.2318,15.316,128.09,-3.4443,1.1481,-1.8079,-4.5924,5.1625e-13,-0.90397,0,0,0.11111,-3.9475e-16,0,0.66667
0.98544,0.82198,8.869,0.48298,1.3424,1.3099,-11.423,3.8076,-1.173,-15.23,1.4714e-08,-0.58651,0,0,0.11111,-0,-0,0.66667
0.032644,0.10689,0.29379,-0.58967,-63.485,628.66,0.46198,-0.15399,-0.76543,0.61597,-1.4483e-06,-0.38271,0,0,0.11111,-0,-0,0.66667
0.72517,0.34428,6.5265,-0.23358,-11.838,70.355,4.0653,-1.3551,-1.805,5.4204,7.9194e-12,-0.90252,0,0,0.11111,2.1053e-15,0,0.66667
0.56555,0.20203,5.09,-0.44696,-32.664,162.88,6.0667,-2.0222,-1.2894,8.089,2.0486e-12,-0.64469,0,0,0.11111,-0,-0,0.66667
0.49242,0.65104,4.4318,0.22656,18.416,214.62,-2.6776,0.89253,-1.8155,-3.5701,-1.7082e-12,-0.90774,0,0,0.11111,-5.2633e-16,0,0.66667
0.25922,0.49867,2.333,-0.0020014,-0.20046,411.13,0.012451,-0.0041504,-1.9989,0.016602,1.1496e-11,-0.99943,0,0,0.11111,-1.3158e-16,0,0.66667
0.32683,0.52068,2.9415,0.031027,2.9749,350.22,-0.24337,0.081124,-1.9986,-0.3245,5.1072e-13,-0.99929,0,0,0.11111,-0,-0,0.66667
0.24946,0.52909,2.2452,0.04363,4.3934,420.12,-0.26121,0.087071,-1.9974,-0.34829,-1.3401e-12,-0.99872,0,0,0.11111,-0,-0,0.66667
0.21927,0.23406,1.9734,-0.39891,-40.844,448.38,2.0992,-0.69974,-1.4372,2.7989,-2.8886e-11,-0.7186,0,0,0.11111,-0,-0,0.66667
0.79966,0.25893,7.1969,-0.3616,-13.918,39.379,6.9398,-2.3133,-1.5354,9.2531,-3.752e-11,-0.76768,0,0,0.11111,-0,-0,0.66667
0.5024,0.67891,4.5216,0.26836,21.531,207.25,-3.2357,1.0786,-1.7447,-4.3143,-2.0719e-12,-0.87234,0,0,0.11111,5.2633e-16,0,0.66667
0.08319,0.23104,0.74871,-0.40344,-43.103,579.07,0.80549,-0.2685,-1.4194,1.074,4.6658e-08,-0.7097,0,0,0.11111,-0,-0,0.66667
0.77698,0.10713,6.9929,-0.5893,-25.09,48.672,10.989,-3.663,-0.76388,14.652,-2.8759e-11,-0.38194,0,0,0.11111,-1.0527e-15,0,0.66667
0.53365,0.54138,4.8028,0.062073,4.7588,184.49,-0.79501,0.265,-1.9869,-1.06,1.2643e-12,-0.99345,0,0,0.11111,-0,-0,0.66667
0.73939,0.45409,6.6545,-0.068865,-3.3316,63.619,1.222,-0.40734,-1.9812,1.6294,5.5632e-12,-0.99061,0,0,0.11111,-0,-0,0.66667
0.51539,0.29858,4.6385,-0.30214,-23.815,197.76,3.7372,-1.2457,-1.6789,4.983,9.6878e-13,-0.83944,0,0,0.11111,1.0527e-15,0,0.66667
0.39995,0.87552,3.5995,0.56327,50.96,288.14,-5.4067,1.8022,-0.87098,-7.2089,-1.1546e-14,-0.43549,0,0,0.11111,1.0527e-15,0,0.66667
0.98625,0.67703,8.8762,0.26555,0.64794,0.63649,-6.2855,2.0952,-1.7505,-8.3807,6.6849e-08,-0.87525,0,0,0.11111,1.0527e-15,0,0.66667
0.028243,0.26881,0.25418,-0.34679,-37.264,632.96,0.23506,-0.078354,-1.5722,0.31342,-6.4875e-07,-0.7861,0,0,0.11111,-0,-0,0.66667
0.93276,0.78051,8.3949,0.42076,5.7371,5.8135,-9.4194,3.1398,-1.3703,-12.559,1.381e-07,-0.68516,0,0,0.11111,-1.9737e-16,0,0.66667
0.93085,0.95752,8.3777,0.68628,9.8302,7.1753,-15.332,5.1106,-0.32294,-20.442,2.3179e-06,-0.16147,0,0,0.11111,-1.0527e-15,0,0.66667
0.39092,0.035116,3.5183,-0.69733,-63.747,295.91,6.5424,-2.1808,-0.27537,8.7231,3.5771e-12,-0.13768,0,0,0.11111,-1.0527e-15,0,0.66667
0.21446,0.23879,1.9302,-0.39182,-40.204,452.88,2.0168,-0.67225,-1.4529,2.689,-2.4884e-11,-0.72643,0,0,0.11111,2.6316e-16,0,0.66667
0.61921,0.54579,5.5729,0.068688,4.5342,127.92,-1.0208,0.34026,-1.9809,-1.361,-1.2786e-12,-0.99045,0,0,0.11111,1.0527e-15,0,0.66667
0.17797,0.027285,1.6018,-0.70907,-74.11,487.68,3.0287,-1.0096,-0.21083,4.0382,2.2806e-10,-0.10541,0,0,0.11111,1.3158e-16,0,0.66667
0.80321,0.82878,7.2289,0.49317,18.737,38.464,-9.5068,3.1689,-1.1327,-12.676,1.1058e-10,-0.56636,0,0,0.11111,-0,-0,0.66667
0.25393,0.60618,2.2854,0.15928,16.004,416.02,-0.9707,0.32357,-1.9087,-1.2943,1.6952e-11,-0.95436,0,0,0.11111,-0,-0,0.66667
0.29081,0.30107,2.6173,-0.2984,-29.355,382.45,2.0826,-0.69421,-1.6811,2.7768,-6.6269e-12,-0.84055,0,0,0.11111,-0,-0,0.66667
0.91592,0.45719,8.2432,-0.064211,-1.08,7.7668,1.4115,-0.47049,-1.9831,1.882,-2.7836e-08,-0.99153,0,0,0.11111,-0,-0,0.66667
0.90292,0.17205,8.1263,-0.49192,-9.6512,10.977,10.66,-3.5533,-1.139,14.213,-3.5946e-08,-0.56951,0,0,0.11111,-1.0693e-15,0,0.66667
0.53538,0.76354,4.8184,0.39531,30.29,183.59,-5.0794,1.6931,-1.4431,-6.7725,-1.3713e-12,-0.72155,0,0,0.11111,-0,-0,0.66667
0.86284,0.96779,7.7656,0.70169,19.312,20.898,-14.531,4.8435,-0.25016,-19.374,5.6285e-08,-0.12508,0,0,0.11111,-1.1842e-15,0,0.66667
0.35253,0.057412,3.1728,-0.66388,-62.705,328.41,5.617,-1.8723,-0.43104,7.4893,4.8468e-12,-0.21552,0,0,0.11111,-5.2633e-16,0,0.66667
0.99788,0.27712,8.981,-0.33433,0.0036663,0.47753,8.0069,-2.669,-1.6042,10.676,-9.4929e-07,-0.80212,0,0,0.11111,5.2633e-16,-1.5949e-16,0.66667
0.43369,0.56475,3.9032,0.097129,8.4612,260.12,-1.011,0.33699,-1.9667,-1.348,4.7216e-12,-0.98334,0,0,0.11111,-1.0527e-15,0,0.66667
0.29481,0.87567,2.6533,0.5635,55.425,379.11,-3.987,1.329,-0.87337,-5.316,9.9354e-12,-0.43668,0,0,0.11111,-1.0527e-15,0,0.66667
0.041574,0.025527,0.37417,-0.71171,-76.69,619.92,0.71013,-0.2367,-0.1976,0.94685,2.0985e-05,-0.098802,0,0,0.11111,-0,-0,0.66667
0.98971,0.39489,8.9074,-0.15766,-0.26081,0.33222,3.7449,-1.2483,-1.9096,4.9932,-5.3706e-08,-0.95482,0,0,0.11111,-0,-0,0.66667
0.46489,0.39844,4.184,-0.15234,-12.812,235.55,1.6998,-0.56659,-1.9168,2.2663,1.1335e-13,-0.95841,0,0,0.11111,5.2633e-16,0,0.66667
0.73459,0.069634,6.6113,-0.64555,-32,67.023,11.381,-3.7937,-0.52226,15.175,-6.0254e-12,-0.26113,0,0,0.11111,-0,-0,0.66667
0.64081,0.48597,5.7673,-0.021039,-1.3269,114.97,0.32357,-0.10786,-2.002,0.43143,-1.4055e-13,-1.001,0,0,0.11111,1.0527e-15,0,0.66667
0.72309,0.824,6.5078,0.486,24.88,71.865,-8.4342,2.8114,-1.1588,-11.246,-8.1233e-12,-0.57941,0,0,0.11111,-0,-0,0.66667
0.051111,0.13883,0.46,-0.54175,-58.205,610.52,0.66454,-0.22151,-0.9551,0.88606,2.6904e-07,-0.47755,0,0,0.11111,-0,-0,0.66667
0.92005,0.70973,8.2804,0.3146,5.0648,7.4318,-6.9467,2.3156,-1.6495,-9.2623,5.5201e-08,-0.82475,0,0,0.11111,1.0527e-15,0,0.66667
0.92684,0.90289,8.3416,0.60434,9.0769,7.3622,-13.443,4.481,-0.70059,-17.924,3.8328e-07,-0.35029,0,0,0.11111,2.6316e-16,0,0.66667
0.552,0.351,4.968,-0.2235,-16.665,171.78,2.961,-0.98698,-1.8209,3.9479,1.4215e-12,-0.91045,0,0,0.11111,-0,-0,0.66667
0.96392,0.17268,8.6752,-0.49098,-3.594,2.6399,11.358,-3.7861,-1.1411,15.144,-2.2024e-07,-0.57055,0,0,0.11111,-0,-0,0.66667
0.28096,0.26945,2.5286,-0.34583,-34.242,391.4,2.3319,-0.7773,-1.5782,3.1092,-7.7929e-12,-0.7891,0,0,0.11111,-0,-0,0.66667
0.60215,0.10684,5.4193,-0.58975,-40.468,139.36,8.5227,-2.8409,-0.76069,11.364,-2.5722e-12,-0.38035,0,0,0.11111,1.0527e-15,0,0.66667
0.39646,0.74668,3.5682,0.37002,33.518,290.74,-3.5208,1.1736,-1.5119,-4.6944,-1.6736e-12,-0.75595,0,0,0.11111,-6.5791e-16,0,0.66667
0.62802,0.93906,5.6522,0.6586,42.986,123.65,-9.9267,3.3089,-0.45887,-13.236,-7.5762e-13,-0.22944,0,0,0.11111,-0,-0,0.66667
0.30063,0.61927,2.7057,0.1789,17.476,373.54,-1.2908,0.43026,-1.8859,-1.7211,7.2627e-12,-0.94295,0,0,0.11111,-0,-0,0.66667
0.81936,0.65098,7.3742,0.22647,7.9184,32.279,-4.4535,1.4845,-1.8157,-5.938,4.3628e-10,-0.90786,0,0,0.11111,-1.0527e-15,0,0.66667
0.069786,0.25627,0.62807,-0.36559,-39.129,592.18,0.61231,-0.2041,-1.5227,0.81641,1.0052e-07,-0.76133,0,0,0.11111,-0,-0,0.66667
0.041878,0.59076,0.3769,0.13614,14.601,619.54,-0.13683,0.045611,-1.9333,-0.18244,1.365e-07,-0.96665,0,0,0.11111,6.5791e-17,0,0.66667
0.049396,0.098127,0.44457,-0.60281,-64.82,612.22,0.71464,-0.23821,-0.70913,0.95285,7.311e-07,-0.35456,0,0,0.11111,-0,-0,0.66667
0.15046,0.30816,1.3541,-0.28776,-30.231,513.74,1.0391,-0.34636,-1.7041,1.3854,2.6496e-09,-0.85207,0,0,0.11111,6.5791e-17,0,0.66667
0.39535,0.42659,3.5582,-0.11012,-9.9713,291.47,1.0449,-0.34829,-1.9553,1.3932,2.373e-12,-0.97765,0,0,0.11111,-0,-0,0.66667
0.95539,0.83906,8.5985,0.50859,4.6311,3.4628,-11.662,3.8872,-1.0817,-15.549,8.9293e-07,-0.54084,0,0,0.11111,-0,-0,0.66667
0.1108,0.81344,0.99716,0.47016,49.987,552.18,-1.2502,0.41673,-1.2172,-1.6669,-1.6311e-08,-0.6086,0,0,0.11111,-0,-0,0.66667
0.64755,0.082432,5.828,-0.62635,-39.17,112.07,9.7343,-3.2448,-0.60255,12.979,7.6383e-13,-0.30127,0,0,0.11111,1.0527e-15,0,0.66667
0.52762,0.49316,4.7486,-0.010262,-0.79375,188.76,0.12994,-0.043314,-1.9993,0.17326,2.0874e-12,-0.99964,0,0,0.11111,-5.2633e-16,0,0.66667
0.35324,0.91869,3.1792,0.62803,59.254,327.73,-5.3243,1.7748,-0.59521,-7.0991,1.954e-14,-0.29761,0,0,0.11111,5.2633e-16,0,0.66667
0.1982,0.10858,1.7838,-0.58714,-60.787,468.37,2.7929,-0.93096,-0.77244,3.7238,7.6156e-10,-0.38622,0,0,0.11111,-0,-0,0.66667
0.22059,0.94728,1.9853,0.67092,68.855,447.39,-3.552,1.184,-0.40086,-4.736,-1.2522e-10,-0.20043,0,0,0.11111,-0,-0,0.66667
0.043822,0.39758,0.39439,-0.15362,-16.474,617.63,0.16157,-0.053856,-1.9161,0.21543,-1.3031e-07,-0.95805,0,0,0.11111,-6.5791e-17,0,0.66667
0.71316,0.25558,6.4185,-0.36662,-19.294,76.366,6.2751,-2.0917,-1.5206,8.3668,5.2185e-12,-0.76028,0,0,0.11111,2.1053e-15,0,0.66667
0.65384,0.50928,5.8846,0.013915,0.85221,107.45,-0.21835,0.072784,-2,-0.29113,8.6779e-13,-0.99999,0,0,0.11111,-0,-0,0.66667
0.44377,0.84921,3.9939,0.52382,45.275,252.55,-5.5789,1.8596,-1.0226,-7.4386,-1.6609e-13,-0.5113,0,0,0.11111,-0,-0,0.66667
0.71894,0.19793,6.4705,-0.4531,-23.474,73.763,7.8181,-2.606,-1.2737,10.424,5.1812e-12,-0.63687,0,0,0.11111,2.1053e-15,0,0.66667
0.10998,0.9803,0.98978,0.72044,76.834,553.11,-1.9016,0.63385,-0.15749,-2.5354,-2.0313e-07,-0.078746,0,0,0.11111,-0,-0,0.66667
0.93872,0.75618,8.4485,0.38426,4.7652,4.9113,-8.6572,2.8857,-1.4775,-11.543,8.4022e-08,-0.73877,0,0,0.11111,-2.1053e-15,0,0.66667
0.84763,0.72608,7.6286,0.33912,10.153,23.754,-6.8987,2.2996,-1.5905,-9.1982,2.4245e-09,-0.79525,0,0,0.11111,-0,-0,0.66667
0.65904,0.61266,5.9313,0.169,10.231,104.58,-2.673,0.89099,-1.8985,-3.564,-1.0696e-12,-0.94925,0,0,0.11111,1.0527e-15,0,0.66667
0.37883,0.84554,3.4095,0.51832,47.786,305.72,-4.7125,1.5708,-1.0451,-6.2833,1.5317e-12,-0.52254,0,0,0.11111,-0,-0,0.66667
0.41657,0.50484,3.7491,0.0072589,0.64369,273.96,-0.072572,0.024191,-1.9985,-0.096763,4.3928e-12,-0.99927,0,0,0.11111,-0,-0,0.66667
0.48215,0.83986,4.3394,0.50979,42.098,222.77,-5.8991,1.9664,-1.0776,-7.8654,6.7812e-13,-0.53878,0,0,0.11111,7.8949e-16,0,0.66667
0.93528,0.52966,8.4176,0.044485,0.57586,4.8157,-0.99854,0.33285,-1.995,-1.3314,6.1671e-08,-0.99748,0,0,0.11111,1.0527e-15,0,0.66667
0.86359,0.77173,7.7723,0.4076,11.023,19.577,-8.448,2.816,-1.4082,-11.264,5.8198e-09,-0.70409,0,0,0.11111,-1.0527e-15,0,0.66667
0.47792,0.60191,4.3013,0.15286,12.653,225.53,-1.7534,0.58445,-1.9147,-2.3378,-1.0318e-12,-0.95737,0,0,0.11111,-0,-0,0.66667
0.55452,0.99925,4.9907,0.74888,56.008,171.18,-9.9664,3.3221,-0.0047684,-13.289,2.6859e-12,-0.0023842,0,0,0.11111,-3.2567e-15,0,0.66667
0.8754,0.50913,7.8786,0.0137,0.33774,16.052,-0.28783,0.095943,-2.0028,-0.38377,-8.0702e-09,-1.0014,0,0,0.11111,-0,-0,0.66667
0.94926,0.84801,8.5434,0.52202,5.4186,4.1413,-11.893,3.9643,-1.0309,-15.857,2.2575e-07,-0.51546,0,0,0.11111,-2.1053e-15,0,0.66667
0.63918,0.92265,5.7527,0.63397,40.39,116.95,-9.7254,3.2418,-0.57257,-12.967,-1.0498e-12,-0.28628,0,0,0.11111,-0,-0,0.66667
0.74852,0.89278,6.7367,0.58917,27.848,60.564,-10.584,3.5281,-0.76737,-14.112,-9.8233e-12,-0.38368,0,0,0.11111,1.0527e-15,0,0.66667
0.35162,0.34528,3.1646,-0.23209,-21.844,328.65,1.9586,-0.65286,-1.8071,2.6114,3.8692e-12,-0.90355,0,0,0.11111,-0,-0,0.66667
0.91803,0.11432,8.2623,-0.57852,-9.6867,8.6269,12.746,-4.2488,-0.80911,16.995,-3.1559e-09,-0.40456,0,0,0.11111,-0,-0,0.66667
0.83675,0.5015,7.5308,0.0022474,0.071467,26.575,-0.045133,0.015044,-1.9987,-0.060178,9.8001e-10,-0.99934,0,0,0.11111,-0,-0,0.66667
0.55206,0.80849,4.9685,0.46273,34.577,172.1,-6.1309,2.0436,-1.2376,-8.1745,1.8652e-13,-0.6188,0,0,0.11111,-2.6316e-16,0,0.66667
0.86763,0.79823,7.8086,0.44734,11.776,18.663,-9.315,3.105,-1.2857,-12.42,5.4004e-09,-0.64287,0,0,0.11111,1.0527e-15,0,0.66667
0.84987,0.34178,7.6488,-0.23733,-6.9938,22.917,4.8409,-1.6136,-1.7986,6.4545,-2.9106e-09,-0.89929,0,0,0.11111,-1.4313e-16,0,0.66667
0.80841,0.63881,7.2757,0.20822,7.6792,35.983,-4.0398,1.3466,-1.8446,-5.3864,1.87e-10,-0.9223,0,0,0.11111,-0,-0,0.66667
0.13069,0.59766,1.1762,0.14649,15.468,532.78,-0.45947,0.15316,-1.9224,-0.61263,-4.213e-09,-0.96119,0,0,0.11111,-5.2633e-16,0,0.66667
0.536,0.071404,4.824,-0.64289,-49.385,183.7,8.2702,-2.7567,-0.529,11.027,3.6051e-12,-0.2645,0,0,0.11111,-0,-0,0.66667
0.90078,0.69106,8.107,0.28659,5.6943,10.813,-6.1957,2.0652,-1.7068,-8.2609,2.984e-08,-0.85341,0,0,0.11111,-0,-0,0.66667
0.77083,0.62552,6.9375,0.18828,8.1492,50.179,-3.4832,1.1611,-1.8735,-4.6443,-1.3265e-12,-0.93676,0,0,0.11111,-2.1053e-15,0,0.66667
0.42071,0.054666,3.7864,-0.668,-59.294,271.33,6.7449,-2.2483,-0.41586,8.9932,5.409e-13,-0.20793,0,0,0.11111,2.6316e-16,0,0.66667
0.97788,0.3858,8.8009,-0.17131,-0.7147,0.8689,4.0204,-1.3401,-1.8932,5.3606,1.013e-07,-0.94662,0,0,0.11111,-0,-0,0.66667
0.25077,0.43402,2.257,-0.098967,-9.9596,418.92,0.59564,-0.19855,-1.9688,0.79419,-1.1307e-11,-0.9844,0,0,0.11111,5.2633e-16,0,0.66667
0.33361,0.76528,3.0025,0.39792,38.026,344.47,-3.186,1.062,-1.4348,-4.248,5.4008e-12,-0.71742,0,0,0.11111,-5.2633e-16,0,0.66667
0.9542,0.5192,8.5878,0.028797,0.26158,2.5948,-0.65946,0.21982,-1.9993,-0.87929,2.7793e-07,-0.99964,0,0,0.11111,-0,-0,0.66667
0.80872,0.7709,7.2784,0.40635,15.016,36.271,-7.887,2.629,-1.4121,-10.516,1.5836e-10,-0.70604,0,0,0.11111,-1.0527e-15,0,0.66667
0.90034,0.82369,8.1031,0.48554,9.7667,11.453,-10.492,3.4972,-1.1595,-13.989,3.7977e-08,-0.57977,0,0,0.11111,-2.1053e-15,0,0.66667
0.01159,0.9442,0.10431,0.66631,71.869,649.36,-0.18533,0.06175,-0.42078,-0.24712,-3.8186e-05,-0.21039,0,0,0.11111,-3.2895e-17,0,0.66667
0.37976,0.85097,3.4179,0.52646,48.502,304.94,-4.7983,1.5994,-1.0133,-6.3978,8.0069e-13,-0.50664,0,0,0.11111,-0,-0,0.66667
0.23552,0.65821,2.1197,0.23732,24.084,433.11,-1.3414,0.44714,-1.8031,-1.7886,2.8475e-11,-0.90155,0,0,0.11111,5.2633e-16,0,0.66667
0.29594,0.39715,2.6634,-0.15428,-15.117,377.75,1.0958,-0.36525,-1.918,1.461,-2.2725e-12,-0.959,0,0,0.11111,2.6316e-16,0,0.66667
0.738,0.88047,6.642,0.57071,27.927,65.199,-10.108,3.3694,-0.84178,-13.478,-4.5784e-11,-0.42089,0,0,0.11111,-2.1053e-15,0,0.66667
0.72408,0.13761,6.5168,-0.54358,-27.776,71.565,9.4464,-3.1488,-0.94736,12.595,-3.5527e-12,-0.47368,0,0,0.11111,-0,-0,0.66667
0.4618,0.40829,4.1562,-0.13757,-11.611,237.94,1.5247,-0.50824,-1.9313,2.0329,-1.7808e-13,-0.96566,0,0,0.11111,1.0527e-15,0,0.66667
0.36527,0.60157,3.2875,0.15235,14.173,316.87,-1.3356,0.4452,-1.9155,-1.7808,4.4531e-13,-0.95776,0,0,0.11111,-0,-0,0.66667
0.58469,0.65981,5.2622,0.23972,16.913,149.87,-3.3639,1.1213,-1.7941,-4.4852,2.8519e-12,-0.89705,0,0,0.11111,-0,-0,0.66667
0.53371,0.97983,4.8034,0.71974,55.557,185.54,-9.2192,3.0731,-0.15859,-12.292,-1.009e-12,-0.079297,0,0,0.11111,-0,-0,0.66667
0.55058,0.79119,4.9552,0.43678,32.704,173.06,-5.7716,1.9239,-1.321,-7.6954,1.1808e-12,-0.66048,0,0,0.11111,-1.0527e-15,0,0.66667
0.61548,0.080558,5.5393,-0.62916,-42.101,131.17,9.2937,-3.0979,-0.59014,12.392,7.5051e-13,-0.29507,0,0,0.11111,-0,-0,0.66667
0.39565,0.51625,3.5608,0.024378,2.2065,291.2,-0.23148,0.077162,-1.996,-0.30865,-1.1672e-12,-0.99798,0,0,0.11111,-0,-0,0.66667
0.77172,0.86542,6.9455,0.54813,23.793,50.637,-10.152,3.384,-0.92957,-13.536,-1.7817e-10,-0.46479,0,0,0.11111,1.0527e-15,0,0.66667
0.2512,0.54343,2.2608,0.065152,6.5546,418.52,-0.39279,0.13093,-1.9869,-0.52372,9.8155e-12,-0.99347,0,0,0.11111,-0,-0,0.66667
0.65576,0.19345,5.9018,-0.45983,-28.139,106.91,7.2369,-2.4123,-1.2519,9.6492,9.4458e-13,-0.62594,0,0,0.11111,-0,-0,0.66667
0.9604,0.34749,8.6436,-0.22877,-1.7972,2.2103,5.2731,-1.7577,-1.8122,7.0308,1.4549e-07,-0.90608,0,0,0.11111,-0,-0,0.66667
0.0035548,0.57727,0.031993,0.1159,12.451,657.25,-0.0098883,0.0032966,-1.9514,-0.013184,6.7357e-07,-0.97572,0,0,0.11111,-0,-0,0.66667
0.72336,0.56502,6.5102,0.09753,4.9658,71.081,-1.6932,0.56439,-1.9657,-2.2576,-6.1284e-12,-0.98286,0,0,0.11111,-0,-0,0.66667
0.109,0.47879,0.98096,-0.031812,-3.3764,553.84,0.083216,-0.027739,-1.9998,0.11096,1.181e-09,-0.99991,0,0,0.11111,-0,-0,0.66667
0.54379,0.48529,4.8941,-0.022063,-1.6653,177.36,0.28794,-0.09598,-1.9979,0.38392,-3.167e-12,-0.99896,0,0,0.11111,-0,-0,0.66667
0.62692,0.93346,5.6422,0.65019,42.528,124.29,-9.7827,3.2609,-0.49885,-13.044,-1.3474e-12,-0.24942,0,0,0.11111,1.0527e-15,0,0.66667
0.24295,0.0050485,2.1865,-0.74243,-75.441,426.69,4.3289,-1.443,-0.038262,5.7719,2.2254e-11,-0.019131,0,0,0.11111,1.0527e-15,0,0.66667
0.91384,0.8233,8.2246,0.48495,8.4714,8.9659,-10.636,3.5454,-1.1612,-14.181,1.4681e-08,-0.5806,0,0,0.11111,-0,-0,0.66667
0.62231,0.65042,5.6008,0.22563,14.811,126.14,-3.3698,1.1233,-1.8197,-4.4931,5.2558e-13,-0.90987,0,0,0.11111,-5.2633e-16,0,0.66667
0.23169,0.051629,2.0853,-0.67256,-68.66,437.04,3.7399,-1.2466,-0.39195,4.9865,-1.3786e-10,-0.19597,0,0,0.11111,-2.6316e-16,0,0.66667
0.77013,0.68277,6.9312,0.27415,11.909,50.587,-5.0672,1.6891,-1.732,-6.7562,-2.3615e-11,-0.86601,0,0,0.11111,-1.579e-15,0,0.66667
0.10551,0.28883,0.94956,-0.31676,-33.677,557.27,0.80208,-0.26736,-1.6426,1.0694,2.5309e-08,-0.82131,0,0,0.11111,-0,-0,0.66667
0.55523,0.22381,4.997,-0.41429,-30.782,169.83,5.5205,-1.8402,-1.3878,7.3607,2.2427e-13,-0.6939,0,0,0.11111,2.1053e-15,0,0.66667
0.094956,0.23585,0.8546,-0.39623,-42.24,567.58,0.90298,-0.30099,-1.4438,1.204,3.4956e-08,-0.72188,0,0,0.11111,1.3158e-16,0,0.66667
0.58098,0.9953,5.2289,0.74295,53.146,153.45,-10.359,3.4531,-0.038158,-13.812,2.1316e-14,-0.019079,0,0,0.11111,-3.158e-15,0,0.66667
0.25298,0.54846,2.2768,0.072683,7.3054,416.88,-0.4413,0.1471,-1.981,-0.5884,1.1315e-11,-0.99049,0,0,0.11111,-0,-0,0.66667
0.64947,0.9985,5.8452,0.74775,46.69,111.4,-11.655,3.8851,-0.010745,-15.54,-6.6258e-13,-0.0053724,0,0,0.11111,-1.6702e-16,0,0.66667
0.71583,0.086208,6.4424,-0.62069,-32.571,75.784,10.663,-3.5544,-0.63048,14.218,3.6957e-12,-0.31524,0,0,0.11111,1.0527e-15,0,0.66667
0.52419,0.62285,4.7177,0.18428,14.333,191.3,-2.3184,0.77279,-1.8778,-3.0911,-7.7871e-13,-0.93891,0,0,0.11111,1.4474e-15,0,0.66667
0.65752,0.25229,5.9177,-0.37156,-22.616,105.72,5.8635,-1.9545,-1.5122,7.818,1.3318e-12,-0.75611,0,0,0.11111,-0,-0,0.66667
0.81329,0.72625,7.3196,0.33938,12.252,34.529,-6.6244,2.2081,-1.5935,-8.8325,2.4315e-10,-0.79674,0,0,0.11111,-0,-0,0.66667
0.80751,0.60856,7.2676,0.16283,6.028,36.243,-3.1557,1.0519,-1.9038,-4.2077,1.2117e-10,-0.95191,0,0,0.11111,1.0527e-15,0,0.66667
0.61968,0.4162,5.5771,-0.1257,-8.291,127.66,1.8694,-0.62314,-1.942,2.4926,7.3108e-13,-0.97098,0,0,0.11111,-0,-0,0.66667
0.4511,0.030396,4.0599,-0.70441,-60.546,247.16,7.6262,-2.5421,-0.23816,10.168,-2.1951e-12,-0.11908,0,0,0.11111,5.2633e-16,0,0.66667
0.40795,7.8936e-05,3.6715,-0.74988,-67.509,281.94,7.3419,-2.4473,-0.0035915,9.7893,-2.3728e-12,-0.0017957,0,0,0.11111,-0,-0,0.66667
0.87475,0.32057,7.8727,-0.26914,-6.6886,16.463,5.6503,-1.8834,-1.7463,7.5337,-9.88e-09,-0.87313,0,0,0.11111,-0,-0,0.66667
0.70293,0.94575,6.3264,0.66862,36.451,82.329,-11.28,3.76,-0.41435,-15.04,8.118e-13,-0.20718,0,0,0.11111,-0,-0,0.66667
0.18494,0.10528,1.6644,-0.59208,-61.627,480.94,2.6279,-0.87597,-0.75389,3.5039,-2.117e-09,-0.37695,0,0,0.11111,-0,-0,0.66667
0.56573,0.46482,5.0916,-0.052771,-3.8446,162.32,0.71651,-0.23884,-1.9906,0.95534,1.2007e-12,-0.99528,0,0,0.11111,-2.6316e-16,0,0.66667
0.90881,0.71955,8.1793,0.32933,6.0361,9.3943,-7.1832,2.3944,-1.6161,-9.5776,3.6642e-08,-0.80806,0,0,0.11111,-0,-0,0.66667
0.15069,0.92776,1.3562,0.64164,67.623,513.71,-2.3205,0.77351,-0.53421,-3.094,-2.6063e-08,-0.26711,0,0,0.11111,-0,-0,0.66667
0.84552,0.59636,7.6097,0.14453,4.3691,24.042,-2.9329,0.97765,-1.9281,-3.9106,2.3845e-09,-0.96405,0,0,0.11111,-2.1053e-15,0,0.66667
0.8202,0.73389,7.3818,0.35084,12.24,32.235,-6.9062,2.3021,-1.5596,-9.2083,4.2647e-10,-0.7798,0,0,0.11111,-0,-0,0.66667
0.49934,0.42485,4.4941,-0.11272,-9.0743,209.39,1.3509,-0.4503,-1.9576,1.8012,-3.4406e-13,-0.97882,0,0,0.11111,-0,-0,0.66667
0.037584,0.2307,0.33825,-0.40395,-43.398,623.78,0.36437,-0.12146,-1.4174,0.48582,-5.3692e-08,-0.70869,0,0,0.11111,6.5791e-17,0,0.66667
0.1475,0.010517,1.3275,-0.73422,-77.553,516.85,2.5992,-0.8664,-0.080764,3.4656,-3.7103e-09,-0.040382,0,0,0.11111,-0,-0,0.66667
0.92264,0.22123,8.3037,-0.41816,-6.549,7.2988,9.2594,-3.0865,-1.3821,12.346,-9.2555e-08,-0.69105,0,0,0.11111,2.1053e-15,0,0.66667
0.044155,0.73004,0.39739,0.34506,37.035,617.32,-0.36566,0.12189,-1.5768,-0.48755,3.4846e-08,-0.78842,0,0,0.11111,-0,-0,0.66667
0.3725,0.76511,3.3525,0.39767,36.822,310.91,-3.5552,1.1851,-1.438,-4.7402,2.9527e-12,-0.719,0,0,0.11111,-5.2633e-16,0,0.66667
0.61904,0.72466,5.5714,0.33699,22.291,128.29,-5.0066,1.6689,-1.5945,-6.6755,-8.5976e-13,-0.79724,0,0,0.11111,-0,-0,0.66667
0.19695,0.47846,1.7725,-0.032305,-3.3348,469.28,0.1527,-0.050899,-1.9941,0.2036,-1.2662e-11,-0.99703,0,0,0.11111,-0,-0,0.66667
0.98108,0.74575,8.8297,0.36862,1.3291,1.1203,-8.6795,2.8932,-1.5172,-11.573,-5.9818e-07,-0.7586,0,0,0.11111,5.8092e-16,0,0.66667
0.15598,0.58103,1.4038,0.12155,12.739,508.39,-0.455,0.15167,-1.9509,-0.60667,-1.3966e-09,-0.97545,0,0,0.11111,-2.6316e-16,0,0.66667
0.53968,0.01942,4.8571,-0.72087,-55.147,181.35,9.3369,-3.1123,-0.14972,12.449,2.0206e-12,-0.07486,0,0,0.11111,-0,-0,0.66667
0.61801,0.79139,5.5621,0.43708,29.007,129.11,-6.4829,2.161,-1.3183,-8.6439,-8.1357e-13,-0.65913,0,0,0.11111,-0,-0,0.66667
0.23099,0.092722,2.0789,-0.61092,-62.339,437.62,3.3868,-1.1289,-0.67384,4.5157,3.8013e-10,-0.33692,0,0,0.11111,3.2895e-17,1.4252e-19,0.66667
0.46631,0.95131,4.1968,0.67696,57.141,235.26,-7.5762,2.5254,-0.37095,-10.102,1.7204e-12,-0.18547,0,0,0.11111,-0,-1.298e-16,0.66667
0.49101,0.89664,4.4191,0.59496,48.635,216.28,-7.0111,2.337,-0.73907,-9.3481,-1.7431e-12,-0.36953,0,0,0.11111,-0,-0,0.66667
0.76686,0.34878,6.9018,-0.22683,-9.9707,51.856,4.1747,-1.3916,-1.8198,5.5662,2.7259e-11,-0.90988,0,0,0.11111,-0,-0,0.66667
0.63428,0.42487,5.7085,-0.1127,-7.2104,118.85,1.7156,-0.57185,-1.9524,2.2874,-1.1749e-12,-0.97619,0,0,0.11111,-0,-0,0.66667
0.46755,0.81144,4.208,0.46716,39.257,233.85,-5.2421,1.7474,-1.2275,-6.9895,1.5952e-12,-0.61374,0,0,0.11111,3.9475e-16,0,0.66667
0.66694,0.55931,6.0025,0.08897,5.2835,100.12,-1.4241,0.4747,-1.9711,-1.8988,-3.5139e-13,-0.98553,0,0,0.11111,-3.2887e-16,0,0.66667
0.45338,0.79708,4.0804,0.44562,38.066,244.84,-4.8488,1.6163,-1.2974,-6.4651,2.6334e-13,-0.64868,0,0,0.11111,-0,-0,0.66667
0.52571,0.23067,4.7314,-0.404,-31.406,190.47,5.0973,-1.6991,-1.4176,6.7964,1.1364e-12,-0.70878,0,0,0.11111,-1.0527e-15,0,0.66667
0.65857,0.084514,5.9271,-0.62323,-38.004,105.79,9.8505,-3.2835,-0.61975,13.134,1.5206e-12,-0.30987,0,0,0.11111,5.2633e-16,0,0.66667
0.1812,0.9867,1.6308,0.73005,76.234,484.63,-3.1748,1.0583,-0.10251,-4.233,4.2533e-10,-0.051254,0,0,0.11111,2.6316e-16,0,0.66667
0.78805,0.58696,7.0924,0.13045,5.2653,43.336,-2.4671,0.82238,-1.9374,-3.2895,3.1707e-11,-0.96869,0,0,0.11111,1.0527e-15,0,0.66667
0.60287,0.88024,5.4258,0.57037,39.071,138.85,-8.2525,2.7508,-0.84148,-11.003,-1.5197e-12,-0.42074,0,0,0.11111,-0,-0,0.66667
0.98033,0.026902,8.823,-0.70965,-2.9416,2.5991,16.697,-5.5655,-0.20904,22.262,1.833e-05,-0.10452,0,0,0.11111,-1.0527e-15,-6.3045e-17,0.66667
0.22238,0.37855,2.0014,-0.18218,-18.602,445.35,0.97231,-0.3241,-1.8821,1.2964,-1.3084e-11,-0.94107,0,0,0.11111,-5.2633e-16,0,0.66667
0.46627,0.28498,4.1964,-0.32254,-27.107,234.63,3.6093,-1.2031,-1.6314,4.8124,1.1875e-12,-0.8157,0,0,0.11111,-1.0527e-15,0,0.66667
0.89564,0.66299,8.0608,0.24449,5.096,11.762,-5.2553,1.7518,-1.7861,-7.0071,2.1321e-08,-0.89305,0,0,0.11111,-2.1053e-15,0,0.66667
0.60143,0.13909,5.4129,-0.54136,-37.167,139.68,7.8142,-2.6047,-0.95521,10.419,-2.0415e-12,-0.47761,0,0,0.11111,1.0527e-15,0,0.66667
0.72596,0.54431,6.5336,0.066464,3.3567,69.835,-1.158,0.386,-1.9816,-1.544,-2.1625e-12,-0.99081,0,0,0.11111,-0,-0,0.66667
0.41367,0.0111,3.723,-0.73335,-65.63,277.21,7.2808,-2.4269,-0.08521,9.7077,4.2952e-12,-0.042605,0,0,0.11111,-0,-0,0.66667
0.68431,0.48235,6.1588,-0.026469,-1.5046,90.703,0.43472,-0.14491,-1.9971,0.57962,1.6218e-12,-0.99854,0,0,0.11111,-1.0527e-15,0,0.66667
0.94606,0.62019,8.5145,0.18029,1.945,3.5885,-4.0935,1.3645,-1.8825,-5.458,-4.1245e-08,-0.94127,0,0,0.11111,-1.579e-15,0,0.66667
0.20019,0.039015,1.8017,-0.69148,-71.626,466.6,3.3222,-1.1074,-0.30017,4.4296,-8.6516e-10,-0.15009,0,0,0.11111,-0,9.8284e-17,0.66667
0.80737,0.37334,7.2663,-0.18998,-7.0399,36.326,3.6813,-1.2271,-1.871,4.9084,-1.8191e-10,-0.93552,0,0,0.11111,1.3158e-16,0,0.66667
0.96954,0.73929,8.7258,0.35894,2.1643,1.7808,-8.3521,2.784,-1.5446,-11.136,-5.7026e-07,-0.77232,0,0,0.11111,-0,-0,0.66667
0.014569,0.13907,0.13112,-0.5414,-58.307,646.42,0.1893,-0.063098,-0.95999,0.2524,1.5507e-06,-0.48,0,0,0.11111,-0,1.5694e-16,0.66667
0.21521,0.82021,1.9369,0.48031,49.306,452.25,-2.4808,0.82694,-1.1794,-3.3078,-3.4807e-11,-0.58969,0,0,0.11111,-0,-0,0.66667
0.11738,0.64385,1.0564,0.21577,22.867,545.71,-0.60785,0.20262,-1.8318,-0.81046,-1.1672e-08,-0.91588,0,0,0.11111,-1.39e-16,0,0.66667
0.76742,0.097061,6.9068,-0.60441,-26.709,52.588,11.132,-3.7107,-0.70332,14.843,-2.7101e-10,-0.35166,0,0,0.11111,2.1053e-15,0,0.66667
0.081217,0.84402,0.73095,0.51603,55.206,581.03,-1.0059,0.33528,-1.0545,-1.3411,-2.9017e-08,-0.52724,0,0,0.11111,-0,-0,0.66667
0.99841,0.88199,8.9857,0.57298,0.056997,1.3339,-13.73,4.5766,-0.83464,-18.306,-5.3189e-06,-0.41732,0,0,0.11111,-2.1053e-15,0,0.66667
0.38961,0.052719,3.5065,-0.67092,-61.382,296.94,6.2736,-2.0912,-0.40199,8.3648,1.0747e-12,-0.20099,0,0,0.11111,-0,1.1317e-16,0.66667
0.9052,0.029718,8.1468,-0.70542,-13.712,11.469,15.325,-5.1084,-0.23425,20.434,7.5384e-07,-0.11712,0,0,0.11111,-2.6316e-16,0,0.66667
0.18858,0.53137,1.6972,0.047056,4.874,477.22,-0.21297,0.070989,-1.9959,-0.28396,-2.204e-10,-0.99797,0,0,0.11111,-0,-0,0.66667
0.44087,0.55179,3.9678,0.077681,6.7141,254.38,-0.82194,0.27398,-1.9781,-1.0959,3.5427e-12,-0.98904,0,0,0.11111,-5.2633e-16,0,0.66667
0.84481,0.54198,7.6033,0.062974,1.9106,24.19,-1.2768,0.42561,-1.9882,-1.7024,1.2693e-09,-0.99411,0,0,0.11111,-0,-0,0.66667
0.59527,0.9668,5.3574,0.70019,48.773,144.07,-10.003,3.3344,-0.25963,-13.338,-2.216e-12,-0.12981,0,0,0.11111,1.3158e-15,0,0.66667
0.46216,0.1416,4.1594,-0.53761,-45.508,238.16,5.963,-1.9877,-0.96977,7.9507,2.8484e-12,-0.48489,0,0,0.11111,-5.2633e-16,0,0.66667
0.51265,0.72997,4.6138,0.34495,27.305,199.81,-4.2441,1.4147,-1.5768,-5.6588,3.5527e-14,-0.78841,0,0,0.11111,-1.0527e-15,0,0.66667
0.57389,0.35246,5.165,-0.2213,-15.911,156.97,3.0481,-1.016,-1.8248,4.0641,1.5752e-12,-0.91241,0,0,0.11111,-0,-0,0.66667
0.44032,0.031125,3.9629,-0.70331,-61.181,255.68,7.4324,-2.4775,-0.24286,9.9098,-3.848e-12,-0.12143,0,0,0.11111,1.9737e-16,0,0.66667
0.19356,0.15228,1.742,-0.52159,-54.064,472.7,2.423,-0.80766,-1.0312,3.2306,1.4262e-10,-0.51561,0,0,0.11111,-2.8014e-16,0,0.66667
0.11397,0.72152,1.0257,0.33227,35.264,549.05,-0.90883,0.30294,-1.607,-1.2118,-1.6566e-08,-0.80348,0,0,0.11111,-0,-0,0.66667
0.15123,0.92531,1.3611,0.63796,67.221,513.19,-2.3155,0.77182,-0.55105,-3.0873,-2.1265e-08,-0.27553,0,0,0.11111,-0,-0,0.66667
0.052491,0.52225,0.47242,0.033374,3.575,609.11,-0.042044,0.014015,-1.9941,-0.056059,5.2212e-08,-0.99705,0,0,0.11111,-0,-0,0.66667
0.55868,0.15299,5.0281,-0.52052,-38.513,167.7,6.9793,-2.3264,-1.0367,9.3057,5.3566e-12,-0.51833,0,0,0.11111,-2.6316e-16,0,0.66667
0.84772,0.018594,7.6295,-0.72211,-21.913,25.105,14.692,-4.8972,-0.14487,19.589,1.003e-08,-0.072436,0,0,0.11111,-2.1053e-15,0,0.66667
0.35912,0.44182,3.2321,-0.08727,-8.1594,322.12,0.75217,-0.25072,-1.9772,1.0029,1.0558e-12,-0.98861,0,0,0.11111,1.0527e-15,0,0.66667
0.075311,0.74036,0.6778,0.36053,38.555,586.76,-0.65165,0.21722,-1.538,-0.86887,-8.6417e-08,-0.76901,0,0,0.11111,-0,-0,0.66667
0.42572,0.52558,3.8315,0.038375,3.371,266.52,-0.39209,0.1307,-1.9944,-0.52279,-2.2374e-13,-0.99719,0,0,0.11111,-5.2633e-16,0,0.66667
0.60201,0.12138,5.4181,-0.56792,-38.966,139.39,8.2055,-2.7352,-0.85146,10.941,6.5015e-13,-0.42573,0,0,0.11111,-1.0527e-15,0,0.66667
0.4254,0.76747,3.8286,0.40121,35.322,267.05,-4.0962,1.3654,-1.4269,-5.4616,-1.06e-12,-0.71345,0,0,0.11111,-0,-0,0.66667
0.81072,0.40872,7.2965,-0.13693,-4.9911,35.1,2.6642,-0.88808,-1.9357,3.5523,-2.3009e-10,-0.96786,0,0,0.11111,-0,-0,0.66667
0.94189,0.77915,8.477,0.41873,4.9353,4.6205,-9.4655,3.1552,-1.3764,-12.621,6.6833e-08,-0.68819,0,0,0.11111,1.3158e-15,0,0.66667
0.86991,0.85735,7.8292,0.53603,13.929,18.394,-11.191,3.7304,-0.97646,-14.921,3.7093e-09,-0.48823,0,0,0.11111,-0,-0,0.66667
0.704,0.99253,6.336,0.73879,40.232,82.071,-12.483,4.1609,-0.062225,-16.644,-7.0344e-13,-0.031112,0,0,0.11111,-2.1053e-15,0,0.66667
0.4703,0.56065,4.2327,0.090975,7.5998,231.34,-1.0268,0.34228,-1.9734,-1.3691,-1.6749e-12,-0.98669,0,0,0.11111,-2.6316e-16,0,0.66667
0.6827,0.3637,6.1443,-0.20445,-11.679,91.671,3.3499,-1.1166,-1.8497,4.4666,1.0125e-12,-0.92486,0,0,0.11111,1.0527e-15,0,0.66667
0.013418,0.92086,0.12076,0.63129,68.06,647.56,-0.20329,0.067753,-0.58363,-0.27106,-1.7976e-05,-0.29182,0,0,0.11111,-0,-0,0.66667
0.98248,0.33626,8.8423,-0.24561,-0.79351,0.7572,5.7914,-1.9305,-1.787,7.7219,1.0239e-07,-0.89349,0,0,0.11111,-1.0527e-15,0,0.66667
0.17208,0.80707,1.5487,0.46061,48.105,493.09,-1.9022,0.63408,-1.2499,-2.5363,-1.186e-10,-0.62494,0,0,0.11111,-3.9475e-16,0,0.66667
0.90626,0.67173,8.1563,0.25759,4.8386,9.7099,-5.6027,1.8676,-1.7679,-7.4702,3.1922e-08,-0.88394,0,0,0.11111,-2.1053e-15,0,0.66667
0.80711,0.65161,7.264,0.22742,8.441,36.466,-4.4053,1.4684,-1.8148,-5.8737,1.553e-10,-0.90741,0,0,0.11111,-1.0527e-15,0,0.66667
0.80014,0.16455,7.2013,-0.50318,-19.39,39.598,9.6628,-3.2209,-1.0996,12.884,-2.0235e-10,-0.5498,0,0,0.11111,-0,-0,0.66667
0.26894,0.28425,2.4204,-0.32362,-32.269,402.33,2.0888,-0.69626,-1.6282,2.785,-9.0006e-12,-0.81408,0,0,0.11111,-0,-0,0.66667
0.21915,0.7287,1.9724,0.34305,35.112,448.45,-1.8043,0.60145,-1.585,-2.4058,2.4309e-11,-0.79248,0,0,0.11111,5.2633e-16,0,0.66667
0.4288,0.18844,3.8592,-0.46735,-41.026,264.41,4.8096,-1.6032,-1.2223,6.4127,3.1299e-12,-0.61113,0,0,0.11111,-1.0527e-15,0,0.66667
0.84937,0.6116,7.6443,0.16739,4.9433,22.962,-3.4123,1.1374,-1.8982,-4.5497,2.2775e-09,-0.94908,0,0,0.11111,-1.0527e-15,0,0.66667
0.45038,0.84148,4.0534,0.51222,43.939,247.31,-5.5367,1.8456,-1.0684,-7.3822,-1.7675e-13,-0.53419,0,0,0.11111,-0,-0,0.66667
0.93542,0.86102,8.4188,0.54152,7.1587,5.8872,-12.157,4.0524,-0.95814,-16.21,1.2421e-07,-0.47907,0,0,0.11111,1.0527e-15,-4.0167e-17,0.66667
0.35268,0.9976,3.1741,0.7464,70.581,328.45,-6.3178,2.1059,-0.017727,-8.4237,-3.4772e-13,-0.0088633,0,0,0.11111,8.5528e-16,0,0.66667
0.61939,0.70947,5.5745,0.31421,20.764,128.04,-4.6708,1.5569,-1.647,-6.2277,2.2204e-15,-0.82351,0,0,0.11111,-0,-0,0.66667
0.9807,0.23522,8.8263,-0.39716,-1.4731,1.2247,9.348,-3.116,-1.4382,12.464,8.3011e-07,-0.71912,0,0,0.11111,-0,-0,0.66667
0.64346,0.24047,5.7912,-0.38929,-24.47,113.81,6.0119,-2.004,-1.4613,8.0158,-2.5357e-13,-0.73066,0,0,0.11111,1.0527e-15,0,0.66667
0.045498,0.82771,0.40948,0.49156,52.815,616.02,-0.53677,0.17892,-1.1426,-0.71569,-6.0529e-07,-0.57128,0,0,0.11111,6.5791e-17,0,0.66667
0.46356,0.81284,4.172,0.46927,39.624,236.94,-5.2208,1.7403,-1.2166,-6.961,2.0481e-12,-0.60832,0,0,0.11111,-2.1053e-15,0,0.66667
0.33475,0.47733,3.0128,-0.034,-3.2407,343.26,0.27316,-0.091052,-1.9936,0.36421,2.8744e-13,-0.99681,0,0,0.11111,1.0527e-15,0,0.66667
0.53218,0.91172,4.7896,0.61758,47.692,186.33,-7.8879,2.6293,-0.64698,-10.517,-7.5229e-13,-0.32349,0,0,0.11111,1.0527e-15,0,0.66667
0.28475,0.85375,2.5627,0.53062,52.506,388.15,-3.6262,1.2087,-0.99838,-4.8349,4.8679e-12,-0.49919,0,0,0.11111,-0,-0,0.66667
0.12226,0.55383,1.1004,0.080749,8.544,540.95,-0.23694,0.07898,-1.9772,-0.31592,-1.7303e-09,-0.98858,0,0,0.11111,-0,-0,0.66667
0.66829,0.66226,6.0146,0.24339,14.42,99.513,-3.9038,1.3013,-1.7892,-5.205,-9.8788e-13,-0.89459,0,0,0.11111,-0,-0,0.66667
0.68136,0.011367,6.1322,-0.73295,-42.39,93.733,11.986,-3.9952,-0.087562,15.981,-1.3918e-12,-0.043781,0,0,0.11111,2.1053e-15,0,0.66667
0.86714,0.58087,7.8043,0.12131,3.1811,18.143,-2.5246,0.84153,-1.945,-3.3661,4.4085e-09,-0.97248,0,0,0.11111,-0,-0,0.66667
0.13238,0.30419,1.1914,-0.29372,-31.02,531.18,0.93318,-0.31106,-1.6909,1.2442,7.3392e-09,-0.84545,0,0,0.11111,-0,-0,0.66667
0.79862,0.13824,7.1876,-0.54264,-21.076,40.28,10.401,-3.4669,-0.95427,13.868,2.8671e-10,-0.47714,0,0,0.11111,-2.1053e-15,0,0.66667
0.82677,0.76499,7.4409,0.39749,13.418,30.216,-7.8871,2.629,-1.44,-10.516,5.6293e-10,-0.71999,0,0,0.11111,1.0527e-15,0,0.66667
0.64655,0.9649,5.8189,0.69735,43.775,112.89,-10.821,3.607,-0.26954,-14.428,8.8463e-13,-0.13477,0,0,0.11111,-1.3158e-15,0,0.66667
0.20492,0.44138,1.8443,-0.087934,-9.0475,461.75,0.43247,-0.14416,-1.9746,0.57663,5.9818e-11,-0.98731,0,0,0.11111,-0,-0,0.66667
0.26142,0.82186,2.3528,0.48279,48.413,409.35,-3.0291,1.0097,-1.1702,-4.0388,1.4591e-11,-0.58508,0,0,0.11111,-0,-0,0.66667
0.4185,0.92308,3.7665,0.63463,56.43,273.06,-6.3741,2.1247,-0.56737,-8.4988,-2.5486e-12,-0.28368,0,0,0.11111,-5.2633e-16,0,0.66667
0.5418,0.27956,4.8762,-0.33066,-25.073,178.98,4.2996,-1.4332,-1.6107,5.7328,1.0356e-12,-0.80533,0,0,0.11111,1.3158e-16,0,0.66667
0.47744,0.035454,4.2969,-0.69682,-58.046,226.78,7.9845,-2.6615,-0.2718,10.646,-3.932e-12,-0.1359,0,0,0.11111,-0,-0,0.66667
0.46746,0.45925,4.2071,-0.06112,-5.1231,233.52,0.68571,-0.22857,-1.9888,0.91428,7.3119e-13,-0.9944,0,0,0.11111,-5.2633e-16,0,0.66667
0.83984,0.81635,7.5586,0.47452,14.935,26.4,-9.5645,3.1882,-1.1993,-12.753,9.5087e-10,-0.59963,0,0,0.11111,-2.1053e-15,0,0.66667
0.8701,0.53944,7.8309,0.059161,1.5178,17.359,-1.2354,0.41181,-1.9861,-1.6472,1.1332e-09,-0.99305,0,0,0.11111,-0,-0,0.66667
0.81675,0.19377,7.3508,-0.45935,-16.348,33.671,9.0043,-3.0014,-1.249,12.006,-5.806e-10,-0.62449,0,0,0.11111,-0,-0,0.66667
0.8778,0.82405,7.9002,0.48608,11.882,16.311,-10.24,3.4134,-1.16,-13.654,2.1868e-09,-0.57999,0,0,0.11111,-0,-0,0.66667
0.57101,0.2837,5.1391,-0.32445,-23.461,159.01,4.4463,-1.4821,-1.6242,5.9284,-1.0658e-14,-0.81211,0,0,0.11111,2.1053e-15,0,0.66667
0.96404,0.96126,8.6763,0.69189,5.218,3.5467,-16.008,5.3361,-0.29664,-21.344,1.129e-05,-0.14832,0,0,0.11111,-1.0527e-15,7.6082e-17,0.66667
0.60654,0.54728,5.4589,0.07092,4.8005,135.77,-1.0324,0.34413,-1.982,-1.3765,5.6954e-13,-0.99102,0,0,0.11111,1.0527e-15,0,0.66667
0.60395,0.028511,5.4355,-0.70723,-48.475,138.6,10.251,-3.4171,-0.2206,13.668,-1.1244e-12,-0.1103,0,0,0.11111,2.6316e-16,0,0.66667
0.3193,0.62087,2.8737,0.18131,17.486,356.91,-1.3894,0.46314,-1.8814,-1.8525,4.2091e-12,-0.94069,0,0,0.11111,1.3158e-16,0,0.66667
0.6812,0.86354,6.1308,0.5453,31.414,93.162,-8.9151,2.9717,-0.94034,-11.887,-1.6342e-12,-0.47017,0,0,0.11111,-0,-0,0.66667
0.051966,0.71068,0.46769,0.31601,33.886,609.64,-0.39412,0.13137,-1.6434,-0.5255,2.1134e-08,-0.82168,0,0,0.11111,-3.2895e-17,0,0.66667
0.13455,0.95185,1.2109,0.67777,71.802,529.29,-2.1886,0.72954,-0.36423,-2.9181,2.3364e-08,-0.18211,0,0,0.11111,-2.6316e-16,0,0.66667
0.13024,0.96413,1.1722,0.6962,73.858,533.46,-2.1762,0.7254,-0.27543,-2.9016,-9.802e-09,-0.13771,0,0,0.11111,1.9737e-16,0,0.66667
0.6552,0.63891,5.8968,0.20836,12.73,106.79,-3.2764,1.0921,-1.8478,-4.3685,-6.5015e-13,-0.92392,0,0,0.11111,1.0527e-15,0,0.66667
0.17533,0.66059,1.578,0.24089,25.09,489.88,-1.0136,0.33788,-1.7939,-1.3515,-6.2186e-10,-0.89693,0,0,0.11111,-0,-0,0.66667
0.34115,0.24595,3.0703,-0.38108,-36.201,337.87,3.1201,-1.04,-1.4848,4.1601,-2.7218e-12,-0.74238,0,0,0.11111,6.5791e-16,0,0.66667
0.044312,0.12878,0.3988,-0.55684,-59.874,617.2,0.59218,-0.19739,-0.89874,0.78958,1.5744e-06,-0.44937,0,0,0.11111,-1.3158e-16,0,0.66667
0.23373,0.73166,2.1036,0.34749,35.319,434.83,-1.9493,0.64976,-1.5735,-2.599,2.9979e-11,-0.78675,0,0,0.11111,-0,-0,0.66667
0.96422,0.46068,8.678,-0.058979,-0.41341,1.6988,1.3649,-0.45495,-1.9864,1.8198,1.64e-07,-0.99322,0,0,0.11111,1.0527e-15,0,0.66667
0.50914,0.06572,4.5823,-0.65142,-52.023,203,7.9599,-2.6533,-0.48971,10.613,2.0219e-12,-0.24485,0,0,0.11111,-0,-0,0.66667
0.15107,0.61272,1.3597,0.16909,17.751,513.11,-0.61307,0.20436,-1.8964,-0.81742,-2.1708e-09,-0.9482,0,0,0.11111,-0,-0,0.66667
0.52301,0.87148,4.7071,0.55723,43.573,192.72,-6.9944,2.3315,-0.89428,-9.3259,-1.7337e-12,-0.44714,0,0,0.11111,1.3158e-15,0,0.66667
0.94351,0.70272,8.4916,0.30408,3.4573,4.1126,-6.8857,2.2952,-1.6688,-9.1809,7.9879e-09,-0.83441,0,0,0.11111,-0,-0,0.66667
0.86569,0.88042,7.7912,0.57063,15.303,19.59,-11.856,3.9519,-0.84046,-15.807,5.7312e-10,-0.42023,0,0,0.11111,-2.1053e-15,0,0.66667
0.39207,0.75642,3.5286,0.38463,34.989,294.42,-3.6192,1.2064,-1.4762,-4.8256,-1.4797e-12,-0.7381,0,0,0.11111,-0,-0,0.66667
0.28387,0.50436,2.5548,0.0065333,0.64492,388.62,-0.04451,0.014837,-2.0009,-0.059347,7.6126e-12,-1.0004,0,0,0.11111,-0,-0,0.66667
0.76173,0.81043,6.8556,0.46565,20.943,54.499,-8.5127,2.8376,-1.2292,-11.35,-1.9207e-11,-0.61462,0,0,0.11111,-0,-0,0.66667
0.24048,0.032041,2.1644,-0.70194,-71.374,428.91,4.0513,-1.3504,-0.2472,5.4018,2.0704e-11,-0.1236,0,0,0.11111,-1.0527e-15,0,0.66667
0.25423,0.79581,2.2881,0.44372,44.656,415.92,-2.7074,0.90246,-1.2986,-3.6098,2.0804e-11,-0.6493,0,0,0.11111,-5.2633e-16,0,0.66667
0.084086,0.81966,0.75678,0.4795,51.254,578.22,-0.96766,0.32255,-1.1806,-1.2902,-2.7421e-08,-0.59031,0,0,0.11111,-0,-0,0.66667
0.86414,0.49605,7.7773,-0.0059298,-0.15873,18.86,0.12298,-0.040994,-1.9991,0.16398,-8.4471e-09,-0.99953,0,0,0.11111,-2.1053e-15,0,0.66667
0.4479,0.29596,4.0311,-0.30606,-26.274,248.96,3.29,-1.0967,-1.6649,4.3866,8.3134e-13,-0.83246,0,0,0.11111,-0,-0,0.66667
0.56179,0.29995,5.0561,-0.30008,-22.033,165.18,4.046,-1.3487,-1.6826,5.3946,1.4966e-12,-0.84128,0,0,0.11111,1.0527e-15,0,0.66667
0.73671,0.42966,6.6304,-0.10552,-5.1505,64.856,1.8656,-0.62188,-1.9613,2.4875,5.1699e-12,-0.98065,0,0,0.11111,-0,-0,0.66667
0.79649,0.48507,7.1684,-0.022395,-0.87121,40.122,0.42809,-0.1427,-2.0014,0.57079,-2.4778e-11,-1.0007,0,0,0.11111,1.0527e-15,0,0.66667
0.44751,0.69123,4.0276,0.28684,24.632,249.25,-3.0807,1.0269,-1.7062,-4.1077,3.0373e-12,-0.8531,0,0,0.11111,-1.0527e-15,0,0.66667
0.18413,0.0044013,1.6571,-0.7434,-77.557,481.86,3.2851,-1.095,-0.0353,4.3802,-7.8115e-10,-0.01765,0,0,0.11111,-1.0527e-15,6.3689e-17,0.66667
0.82873,0.32398,7.4586,-0.26403,-8.7961,29.298,5.2514,-1.7505,-1.7551,7.0019,-8.3321e-10,-0.87755,0,0,0.11111,-2.1053e-15,0,0.66667
0.030998,0.3266,0.27898,-0.2601,-27.931,630.24,0.1935,-0.064502,-1.7629,0.25801,-2.8471e-07,-0.88144,0,0,0.11111,-6.5791e-17,0,0.66667
0.94673,0.68627,8.5206,0.2794,2.989,3.6843,-6.3484,2.1161,-1.7213,-8.4645,-2.85e-08,-0.86067,0,0,0.11111,7.8949e-16,0,0.66667
0.57698,0.042983,5.1928,-0.68553,-49.324,155.89,9.4928,-3.1643,-0.33122,12.657,1.6476e-12,-0.16561,0,0,0.11111,-0,-1.2342e-16,0.66667
0.87539,0.58041,7.8785,0.12061,2.9755,16.106,-2.5339,0.84464,-1.9515,-3.3785,5.9459e-09,-0.97575,0,0,0.11111,-1.0527e-15,0,0.66667
0.60857,0.13023,5.4771,-0.55466,-37.571,135.24,8.1011,-2.7004,-0.90944,10.801,-1.5401e-12,-0.45472,0,0,0.11111,2.1053e-15,0,0.66667
0.25166,0.26359,2.2649,-0.35462,-35.712,418.22,2.1418,-0.71394,-1.5542,2.8558,-2.146e-11,-0.77711,0,0,0.11111,-5.2633e-16,0,0.66667
0.29613,0.71143,2.6652,0.31715,31.096,377.67,-2.254,0.75134,-1.6455,-3.0053,5.2283e-12,-0.82274,0,0,0.11111,-5.2633e-16,0,0.66667
0.53292,0.073298,4.7963,-0.64005,-49.392,185.87,8.1864,-2.7288,-0.54487,10.915,2.8866e-12,-0.27243,0,0,0.11111,-0,-0,0.66667
0.96208,0.35193,8.6587,-0.22211,-1.6666,2.0535,5.1285,-1.7095,-1.8224,6.8379,1.4906e-07,-0.91118,0,0,0.11111,2.1053e-15,0,0.66667
0.1845,0.1729,1.6605,-0.49066,-51.023,481.28,2.1726,-0.72419,-1.1438,2.8968,8.7188e-11,-0.57188,0,0,0.11111,-0,-0,0.66667
0.5099,0.76365,4.5891,0.39548,31.44,201.9,-4.8397,1.6132,-1.4416,-6.453,-4.9916e-13,-0.72081,0,0,0.11111,-0,-0,0.66667
0.34379,0.25253,3.0941,-0.3712,-35.188,335.56,3.0628,-1.0209,-1.515,4.0837,-2.9154e-13,-0.75752,0,0,0.11111,1.0527e-15,0,0.66667
0.76973,0.073439,6.9275,-0.63984,-28.059,51.782,11.82,-3.94,-0.54324,15.76,-2.5153e-11,-0.27162,0,0,0.11111,-0,-0,0.66667
0.80287,0.86783,7.2258,0.55175,21.031,38.782,-10.632,3.5439,-0.91568,-14.175,-6.6302e-10,-0.45784,0,0,0.11111,1.0017e-15,0,0.66667
0.42456,0.58573,3.821,0.12859,11.312,267.49,-1.3103,0.43676,-1.9417,-1.7471,-4.9782e-13,-0.97084,0,0,0.11111,-0,-0,0.66667
0.20412,0.39374,1.8371,-0.1594,-16.409,462.52,0.78087,-0.26029,-1.912,1.0412,3.4728e-11,-0.95599,0,0,0.11111,-0,-0,0.66667
0.067089,0.71998,0.60381,0.32998,35.322,594.81,-0.53131,0.1771,-1.6127,-0.70841,-7.7156e-08,-0.80633,0,0,0.11111,-0,-0,0.66667
0.19865,0.22176,1.7878,-0.41736,-43.128,467.81,1.9898,-0.66326,-1.3802,2.653,1.2647e-10,-0.6901,0,0,0.11111,-0,-0,0.66667
0.2724,0.77203,2.4516,0.40805,40.632,399.23,-2.6677,0.88922,-1.4056,-3.5569,1.1107e-11,-0.70281,0,0,0.11111,-0,-0,0.66667
0.59879,0.40738,5.3891,-0.13893,-9.5463,140.7,1.9965,-0.66551,-1.9309,2.6621,-2.0917e-12,-0.96545,0,0,0.11111,2.1053e-15,0,0.66667
0.87308,0.074503,7.8578,-0.63825,-16.284,18.035,13.374,-4.4579,-0.5527,17.832,-2.4465e-08,-0.27635,0,0,0.11111,-0,1.2451e-16,0.66667
0.12823,0.93562,1.1541,0.65343,69.318,535.38,-2.011,0.67032,-0.48271,-2.6813,-1.3971e-08,-0.24135,0,0,0.11111,-3.6185e-16,0,0.66667
0.95819,0.43692,8.6237,-0.09462,-0.78235,2.2429,2.1759,-0.72531,-1.9678,2.9012,-1.9195e-07,-0.9839,0,0,0.11111,-4.6054e-16,0,0.66667
0.68317,0.010479,6.1485,-0.73428,-42.272,92.779,12.039,-4.0131,-0.081681,16.052,9.0417e-13,-0.04084,0,0,0.11111,-0,1.321e-16,0.66667
0.74196,0.93562,6.6777,0.65344,31.629,63.709,-11.636,3.8786,-0.48042,-15.514,9.5568e-13,-0.24021,0,0,0.11111,-1.3158e-15,0,0.66667
0.98288,0.31946,8.8459,-0.27081,-0.85543,0.78987,6.3881,-2.1294,-1.7413,8.5175,1.2477e-07,-0.87066,0,0,0.11111,-0,-0,0.66667
0.4161,0.19303,3.7449,-0.46046,-40.952,274.69,4.5983,-1.5328,-1.2445,6.1311,3.4022e-12,-0.62227,0,0,0.11111,-1.0527e-15,0,0.66667
0.53158,0.66128,4.7843,0.24192,18.618,186.07,-3.0864,1.0288,-1.796,-4.1152,-1.7564e-12,-0.89799,0,0,0.11111,-0,-0,0.66667
0.67921,0.25117,6.1129,-0.37325,-21.551,93.796,6.0844,-2.0281,-1.5034,8.1125,1.6827e-12,-0.75169,0,0,0.11111,-0,-0,0.66667
0.51288,0.12661,4.6159,-0.56008,-44.433,200.05,6.8941,-2.298,-0.88603,9.1921,-5.0671e-13,-0.44301,0,0,0.11111,2.1053e-15,0,0.66667
0.29911,0.79074,2.692,0.43611,42.717,375.1,-3.1307,1.0436,-1.3246,-4.1742,3.6715e-12,-0.66231,0,0,0.11111,-0,-0,0.66667
0.10538,0.15424,0.94846,-0.51865,-55.234,557.46,1.3118,-0.43726,-1.0437,1.749,4.3061e-08,-0.52184,0,0,0.11111,3.2895e-17,0,0.66667
0.28493,0.5065,2.5644,0.0097506,0.96188,387.66,-0.066678,0.022226,-1.9993,-0.088904,5.789e-12,-0.99966,0,0,0.11111,-0,-0,0.66667
0.76885,0.78659,6.9197,0.42988,18.814,51.447,-7.9324,2.6441,-1.3432,-10.577,-1.0887e-11,-0.67159,0,0,0.11111,-0,-0,0.66667
0.64078,0.23237,5.767,-0.40144,-25.387,115.4,6.1737,-2.0579,-1.4306,8.2316,1.1093e-12,-0.7153,0,0,0.11111,-0,-0,0.66667
0.80133,0.75652,7.212,0.38477,14.706,38.831,-7.3999,2.4666,-1.4726,-9.8666,5.1736e-11,-0.73631,0,0,0.11111,-0,-0,0.66667
0.51712,0.86078,4.6541,0.54117,42.666,196.93,-6.7164,2.2388,-0.96025,-8.9552,-1.4482e-12,-0.48013,0,0,0.11111,-0,-0,0.66667
0.2321,0.45242,2.0889,-0.071375,-7.252,436.25,0.39759,-0.13253,-1.9824,0.53012,-1.3471e-12,-0.99122,0,0,0.11111,-0,-0,0.66667
0.62796,0.61361,5.6517,0.17041,11.053,122.67,-2.5683,0.85611,-1.8966,-3.4244,2.0273e-13,-0.94832,0,0,0.11111,-0,-0,0.66667
0.30401,0.75399,2.736,0.38098,37.178,370.66,-2.7797,0.92656,-1.4822,-3.7062,6.1617e-13,-0.74108,0,0,0.11111,-0,-0,0.66667
0.029529,0.3851,0.26576,-0.17236,-18.503,631.68,0.12215,-0.040716,-1.8958,0.16286,-1.5457e-07,-0.94792,0,0,0.11111,-6.5791e-17,0,0.66667
0.90333,0.76211,8.13,0.39316,7.6463,10.582,-8.5238,2.8413,-1.4503,-11.365,3.5083e-08,-0.72515,0,0,0.11111,-0,-0,0.66667
0.42037,0.25116,3.7833,-0.37326,-33.024,271.09,3.7657,-1.2552,-1.5076,5.021,9.9698e-14,-0.75382,0,0,0.11111,-1.0527e-15,0,0.66667
0.42613,0.98626,3.8352,0.72939,64.447,267.1,-7.4596,2.4865,-0.10704,-9.9461,-8.6242e-13,-0.053518,0,0,0.11111,5.2633e-16,0,0.66667
0.74125,0.92708,6.6713,0.64063,31.071,63.979,-11.397,3.7989,-0.53831,-15.196,1.2293e-11,-0.26916,0,0,0.11111,-1.0527e-15,0,0.66667
0.94846,0.77605,8.5361,0.41408,4.3232,3.8455,-9.4257,3.1419,-1.3894,-12.568,5.4476e-08,-0.69471,0,0,0.11111,-5.2633e-16,0,0.66667
0.072516,0.58975,0.65264,0.13462,14.387,589.47,-0.2343,0.078099,-1.9343,-0.31239,-4.0343e-10,-0.96713,0,0,0.11111,1.0042e-17,0,0.66667
0.1727,0.31226,1.5543,-0.2816,-29.365,492.41,1.1672,-0.38907,-1.7222,1.5563,7.955e-10,-0.8611,0,0,0.11111,2.9606e-16,0,0.66667
0.32236,0.69023,2.9012,0.28534,27.472,354.27,-2.2076,0.73585,-1.7094,-2.9434,-2.3275e-12,-0.85468,0,0,0.11111,1.0527e-15,0,0.66667
0.24842,0.2848,2.2358,-0.3228,-32.557,421.18,1.9246,-0.64153,-1.632,2.5661,-2.1991e-11,-0.81599,0,0,0.11111,-0,-0,0.66667
0.49549,0.43646,4.4595,-0.095311,-7.7116,212.24,1.1334,-0.37781,-1.9676,1.5112,-4.6785e-13,-0.9838,0,0,0.11111,5.2633e-16,0,0.66667
0.82446,0.8192,7.4201,0.4788,16.395,31.193,-9.474,3.158,-1.1846,-12.632,2.9055e-10,-0.59228,0,0,0.11111,-2.1053e-15,0,0.66667
0.85397,0.03393,7.6858,-0.6991,-20.388,23.249,14.328,-4.7761,-0.26127,19.105,1.4483e-09,-0.13063,0,0,0.11111,-0,-0,0.66667
0.59583,0.3374,5.3625,-0.2439,-16.862,142.68,3.4877,-1.1626,-1.7899,4.6502,-4.13e-13,-0.89494,0,0,0.11111,-0,-0,0.66667
0.24017,0.436,2.1616,-0.096,-9.7148,428.74,0.55336,-0.18445,-1.9663,0.73781,-1.1932e-11,-0.98315,0,0,0.11111,3.6185e-16,0,0.66667
0.18649,0.28082,1.6784,-0.32877,-34.118,479.28,1.4715,-0.49051,-1.6195,1.962,2.4598e-10,-0.80976,0,0,0.11111,1.6448e-17,0,0.66667
0.74339,0.94737,6.6905,0.67106,32.345,63.141,-11.973,3.9909,-0.39649,-15.963,-7.5664e-12,-0.19824,0,0,0.11111,-0,-0,0.66667
0.23721,0.38557,2.1349,-0.17164,-17.399,431.51,0.97719,-0.32573,-1.8953,1.3029,-1.6311e-11,-0.94767,0,0,0.11111,-0,-0,0.66667
0.53949,0.81336,4.8554,0.47003,35.822,180.84,-6.0859,2.0286,-1.2132,-8.1145,-2.9972e-12,-0.60662,0,0,0.11111,2.1053e-15,0,0.66667
0.74928,0.94237,6.7435,0.66355,31.346,60.51,-11.932,3.9775,-0.43796,-15.91,4.7935e-12,-0.21898,0,0,0.11111,-0,-0,0.66667
0.22825,0.064902,2.0542,-0.65265,-66.721,440.22,3.5752,-1.1917,-0.48428,4.7669,-1.2802e-10,-0.24214,0,0,0.11111,5.2633e-16,0,0.66667
0.1745,0.1187,1.5705,-0.57195,-59.75,490.86,2.3954,-0.79845,-0.83762,3.1938,-1.1109e-10,-0.41881,0,0,0.11111,-0,-0,0.66667
0.039736,0.94292,0.35762,0.66438,71.556,621.71,-0.63359,0.21119,-0.4286,-0.84479,-1.0997e-05,-0.2143,0,0,0.11111,-0,-0,0.66667
0.14757,0.19773,1.3281,-0.45341,-47.734,516.59,1.6058,-0.53527,-1.2666,2.1411,2.9457e-09,-0.63328,0,0,0.11111,-0,-0,0.66667
0.85144,0.42452,7.663,-0.11322,-3.2986,22.328,2.3135,-0.77117,-1.9517,3.0847,-1.1839e-09,-0.97585,0,0,0.11111,-0,-0,0.66667
0.10464,0.32075,0.94172,-0.26888,-28.584,558.11,0.67522,-0.22507,-1.7416,0.9003,2.3732e-08,-0.87079,0,0,0.11111,-0,-0,0.66667
0.22365,0.90258,2.0128,0.60387,61.832,444.47,-3.2412,1.0804,-0.70261,-4.3216,-7.9549e-11,-0.3513,0,0,0.11111,-3.9475e-16,0,0.66667
0.032757,0.79283,0.29481,0.43924,47.219,628.53,-0.34532,0.11511,-1.3157,-0.46043,5.2064e-07,-0.65783,0,0,0.11111,-0,-0,0.66667
0.67636,0.40079,6.0872,-0.14882,-8.6364,95.015,2.4157,-0.80522,-1.9204,3.2209,1.8778e-12,-0.96021,0,0,0.11111,-1.0527e-15,0,0.66667
0.2317,0.71796,2.0853,0.32695,33.26,436.71,-1.8181,0.60604,-1.6216,-2.4241,2.474e-11,-0.81078,0,0,0.11111,-6.5791e-17,0,0.66667
0.41359,0.80115,3.7223,0.45172,40.273,276.73,-4.4839,1.4946,-1.2719,-5.9785,6.164e-13,-0.63593,0,0,0.11111,-0,-0,0.66667
0.1393,0.71115,1.2537,0.31672,33.391,524.5,-1.0589,0.35296,-1.6456,-1.4118,-5.1434e-09,-0.82278,0,0,0.11111,-0,-0,0.66667
0.37722,0.66142,3.395,0.24214,22.303,306.76,-2.1921,0.73071,-1.7929,-2.9228,5.9797e-13,-0.89646,0,0,0.11111,-0,-0,0.66667
0.42444,0.45268,3.8199,-0.070977,-6.2436,267.57,0.72301,-0.241,-1.9823,0.96401,-3.1919e-13,-0.99115,0,0,0.11111,-0,-0,0.66667
0.47296,0.58658,4.2567,0.12986,10.814,229.31,-1.4741,0.49137,-1.9392,-1.9655,-1.1025e-13,-0.96958,0,0,0.11111,-2.6316e-16,0,0.66667
0.42284,0.63929,3.8056,0.20893,18.418,268.93,-2.1203,0.70676,-1.8471,-2.827,7.9359e-13,-0.92355,0,0,0.11111,-0,-0,0.66667
0.10276,0.34249,0.92481,-0.23627,-25.124,559.93,0.58268,-0.19423,-1.8003,0.7769,2.1731e-08,-0.90017,0,0,0.11111,-1.4803e-16,0,0.66667
0.77258,0.81601,6.9532,0.47402,20.471,50.055,-8.7892,2.9297,-1.1994,-11.719,-6.9407e-11,-0.59971,0,0,0.11111,2.1053e-15,0,0.66667
0.13721,0.82864,1.2349,0.49296,52.074,526.61,-1.6233,0.5411,-1.1353,-2.1644,-7.005e-09,-0.56764,0,0,0.11111,-2.6316e-16,0,0.66667
0.42429,0.023122,3.8186,-0.71532,-63.309,268.54,7.2841,-2.428,-0.18147,9.7121,1.3727e-12,-0.090736,0,0,0.11111,-5.2633e-16,0,0.66667
0.27196,0.75338,2.4476,0.38008,37.848,399.61,-2.4807,0.82691,-1.4849,-3.3077,5.7689e-12,-0.74244,0,0,0.11111,-0,-0,0.66667
0.30101,0.57008,2.7091,0.10512,10.264,373.18,-0.75939,0.25313,-1.9599,-1.0125,2.5956e-12,-0.97993,0,0,0.11111,-0,-0,0.66667
0.67242,0.41213,6.0518,-0.1318,-7.7239,97.138,2.127,-0.70901,-1.9418,2.836,1.1171e-12,-0.97092,0,0,0.11111,-0,-0,0.66667
0.51779,0.71978,4.6601,0.32968,25.904,196.06,-4.0968,1.3656,-1.6157,-5.4625,-2.025e-13,-0.80787,0,0,0.11111,-2.1053e-15,0,0.66667
0.19009,0.16025,1.7108,-0.50962,-52.89,475.98,2.3249,-0.77498,-1.0777,3.0999,3.9868e-11,-0.53885,0,0,0.11111,-0,-0,0.66667
0.46913,0.18239,4.2222,-0.47641,-39.963,232.65,5.3641,-1.788,-1.197,7.1521,-1.0925e-12,-0.59848,0,0,0.11111,2.6316e-16,0,0.66667
0.33954,0.93038,3.0559,0.64557,61.586,339.64,-5.2607,1.7536,-0.51734,-7.0143,-1.0862e-12,-0.25867,0,0,0.11111,5.2633e-16,0,0.66667
0.7045,0.6643,6.3405,0.24644,13.278,80.455,-4.1668,1.3889,-1.7862,-5.5558,-4.583e-12,-0.89309,0,0,0.11111,-0,-0,0.66667
0.2261,0.091557,2.0349,-0.61266,-62.666,442.19,3.3245,-1.1082,-0.66391,4.4327,2.5452e-10,-0.33196,0,0,0.11111,2.6316e-16,0,0.66667
0.84499,0.34797,7.6049,-0.22804,-6.9229,24.301,4.6246,-1.5415,-1.8179,6.1662,-2.1958e-09,-0.90896,0,0,0.11111,-2.1053e-15,0,0.66667
0.52623,0.059024,4.7361,-0.66146,-51.57,190.68,8.354,-2.7847,-0.44343,11.139,-1.8652e-14,-0.22171,0,0,0.11111,1.3158e-15,0,0.66667
0.50062,0.94457,4.5056,0.66685,53.889,209.31,-8.0121,2.6707,-0.42223,-10.683,-1.0996e-12,-0.21111,0,0,0.11111,-0,-0,0.66667
0.25369,0.24199,2.2832,-0.38701,-38.942,416.37,2.3563,-0.78543,-1.4669,3.1417,-2.2301e-11,-0.73347,0,0,0.11111,-0,-0,0.66667
0.18616,0.96162,1.6754,0.69243,72.131,479.88,-3.0936,1.0312,-0.29751,-4.1248,-1.4603e-09,-0.14875,0,0,0.11111,-0,-0,0.66667
0.47182,0.81109,4.2464,0.46664,39.011,230.57,-5.284,1.7613,-1.2269,-7.0454,1.6689e-12,-0.61343,0,0,0.11111,-7.8949e-16,0,0.66667
0.98182,0.50909,8.8364,0.01364,0.045103,0.55167,-0.32141,0.10714,-1.9999,-0.42854,2.291e-06,-0.99993,0,0,0.11111,4.2106e-15,0,0.66667
0.13291,0.039477,1.1962,-0.69078,-73.226,530.88,2.2034,-0.73448,-0.30096,2.9379,1.7652e-08,-0.15048,0,0,0.11111,-0,-0,0.66667
0.28346,0.057857,2.5512,-0.66321,-65.787,389.49,4.5119,-1.504,-0.43754,6.0159,2.1032e-12,-0.21877,0,0,0.11111,-2.6316e-16,0,0.66667
0.80064,0.10194,7.2058,-0.59708,-23.021,39.747,11.473,-3.8244,-0.7318,15.298,-1.4173e-09,-0.3659,0,0,0.11111,-0,-0,0.66667
0.66478,0.52854,5.983,0.042809,2.5553,101.3,-0.68301,0.22767,-1.9919,-0.91068,5.3879e-13,-0.99597,0,0,0.11111,5.2633e-16,0,0.66667
0.27876,0.71308,2.5088,0.31962,31.684,393.37,-2.1383,0.71278,-1.6378,-2.8511,7.3497e-12,-0.81888,0,0,0.11111,6.5791e-16,0,0.66667
0.31465,0.99113,2.8318,0.73669,71.671,361.68,-5.5632,1.8544,-0.071368,-7.4175,-1.7337e-12,-0.035684,0,0,0.11111,7.8949e-16,0,0.66667
0.41995,0.23498,3.7795,-0.39753,-35.195,271.47,4.0067,-1.3356,-1.4391,5.3422,1.4477e-13,-0.71954,0,0,0.11111,5.2633e-16,0,0.66667
0.60279,0.77115,5.4251,0.40672,27.798,138.52,-5.884,1.9613,-1.4094,-7.8453,4.8095e-13,-0.70472,0,0,0.11111,5.2633e-16,0,0.66667
0.71934,0.47355,6.474,-0.039673,-2.0445,72.985,0.68491,-0.2283,-1.9981,0.91322,7.9292e-13,-0.99905,0,0,0.11111,-0,-0,0.66667
0.8573,0.41572,7.7157,-0.12642,-3.5469,20.726,2.601,-0.86701,-1.9442,3.4681,-2.3359e-09,-0.97212,0,0,0.11111,-2.1053e-15,0,0.66667
0.68111,0.25069,6.13,-0.37396,-21.487,92.783,6.113,-2.0377,-1.5018,8.1506,1.9895e-12,-0.75089,0,0,0.11111,-0,-0,0.66667
0.23698,0.83918,2.1328,0.50878,51.702,431.94,-2.8937,0.96457,-1.0806,-3.8583,1.9123e-11,-0.54032,0,0,0.11111,-0,-0,0.66667
0.92572,0.51923,8.3315,0.028851,0.42891,6.1802,-0.641,0.21367,-1.9961,-0.85467,6.1612e-08,-0.99803,0,0,0.11111,-0,-0,0.66667
0.7812,0.11394,7.0308,-0.57909,-24.238,46.978,10.857,-3.6191,-0.81154,14.476,-5.5871e-11,-0.40577,0,0,0.11111,-0,-1.2035e-16,0.66667
0.30738,0.49613,2.7664,-0.0057996,-0.56378,367.47,0.042784,-0.014261,-1.9989,0.057046,5.8863e-14,-0.99943,0,0,0.11111,-1.488e-15,0,0.66667
0.30497,0.48863,2.7447,-0.01706,-1.6612,369.62,0.12487,-0.041622,-1.9963,0.16649,3.9374e-12,-0.99817,0,0,0.11111,-0,-0,0.66667
0.88117,0.86905,7.9305,0.55357,13.218,15.777,-11.707,3.9023,-0.90861,-15.609,1.5859e-08,-0.4543,0,0,0.11111,1.0527e-15,0,0.66667
0.12608,0.013482,1.1347,-0.72978,-77.54,537.51,2.2082,-0.73607,-0.10856,2.9443,-4.1311e-08,-0.054282,0,0,0.11111,-0,-0,0.66667
0.63346,0.53289,5.7011,0.049335,3.1614,119.31,-0.75004,0.25001,-1.99,-1.0001,6.9367e-13,-0.995,0,0,0.11111,2.1053e-15,0,0.66667
0.27771,0.88961,2.4994,0.58441,58.115,394.59,-3.8952,1.2984,-0.78485,-5.1936,-3.7608e-12,-0.39242,0,0,0.11111,-5.2633e-16,0,0.66667
0.8272,0.52638,7.4448,0.039564,1.3261,29.56,-0.78545,0.26182,-1.9976,-1.0473,-1.0923e-10,-0.9988,0,0,0.11111,-0,-0,0.66667
0.36452,0.116,3.2807,-0.576,-53.804,317.96,5.0392,-1.6797,-0.81866,6.7189,4.0457e-13,-0.40933,0,0,0.11111,2.6316e-16,0,0.66667
0.73337,0.36189,6.6003,-0.20717,-10.229,66.487,3.6463,-1.2154,-1.8497,4.8618,1.3133e-11,-0.92484,0,0,0.11111,-1.0527e-15,0,0.66667
0.19242,0.32021,1.7318,-0.26968,-27.91,473.63,1.2454,-0.41513,-1.74,1.6605,1.6602e-10,-0.87,0,0,0.11111,-0,-0,0.66667
0.48145,0.39505,4.333,-0.15742,-12.973,222.85,1.8189,-0.60631,-1.9118,2.4252,1.3882e-12,-0.95592,0,0,0.11111,-5.2633e-16,0,0.66667
0.80359,0.072667,7.2324,-0.641,-24.422,38.865,12.362,-4.1208,-0.53666,16.483,7.3223e-10,-0.26833,0,0,0.11111,-2.1053e-15,0,0.66667
0.39699,0.93731,3.5729,0.65596,59.589,290.77,-6.2498,2.0833,-0.46922,-8.3331,2.2551e-12,-0.23461,0,0,0.11111,2.0472e-16,0,0.66667
0.16157,0.78485,1.4542,0.42728,44.773,503.12,-1.6569,0.5523,-1.3498,-2.2092,-1.2049e-09,-0.67489,0,0,0.11111,-0,-0,0.66667
0.64898,0.91393,5.8408,0.6209,38.7,111.23,-9.6709,3.2236,-0.62698,-12.894,-4.3521e-14,-0.31349,0,0,0.11111,-0,-0,0.66667
0.75333,0.81254,6.7799,0.46881,21.731,58.088,-8.4759,2.8253,-1.2197,-11.301,1.0547e-11,-0.60984,0,0,0.11111,-0,-0,0.66667
0.28019,0.73733,2.5217,0.35599,35.268,392.1,-2.3939,0.79797,-1.5516,-3.1919,8.7197e-12,-0.77581,0,0,0.11111,-8.5814e-16,0,0.66667
0.45136,0.10988,4.0623,-0.58519,-50.191,246.68,6.3391,-2.113,-0.78361,8.4522,2.7711e-12,-0.39181,0,0,0.11111,-5.2633e-16,-1.6648e-16,0.66667
0.90045,0.57259,8.104,0.10888,2.1625,10.625,-2.353,0.78433,-1.9557,-3.1373,1.841e-08,-0.97787,0,0,0.11111,-0,-0,0.66667
0.87199,0.004456,7.8479,-0.74332,-19.23,18.808,15.556,-5.1853,-0.036082,20.741,1.2289e-08,-0.018041,0,0,0.11111,-0,-0,0.66667
0.70719,0.87298,6.3647,0.55947,30.06,79.823,-9.4955,3.1652,-0.88715,-12.661,-1.1496e-11,-0.44357,0,0,0.11111,-2.6316e-16,0,0.66667
0.5909,0.40418,5.3181,-0.14373,-10.022,145.76,2.0384,-0.67946,-1.9277,2.7178,8.1068e-13,-0.96386,0,0,0.11111,-5.2633e-16,0,0.66667
0.81738,0.75078,7.3564,0.37617,13.319,33.233,-7.3794,2.4598,-1.4966,-9.8392,3.6309e-10,-0.74829,0,0,0.11111,-0,-0,0.66667
0.90764,0.010909,8.1688,-0.73364,-13.941,11.167,15.981,-5.327,-0.088161,21.308,3.2672e-07,-0.044081,0,0,0.11111,-0,-0,0.66667
0.0025076,0.92261,0.022568,0.63392,68.357,658.28,-0.038144,0.012726,-0.5715,-0.050853,1.7457e-05,-0.28575,0,0,0.11111,4.1119e-18,0,0.66667
0.39723,0.48711,3.575,-0.019334,-1.7473,289.89,0.18432,-0.06144,-1.9961,0.24576,3.1411e-12,-0.99806,0,0,0.11111,-5.2633e-16,0,0.66667
0.56141,0.24989,5.0527,-0.37516,-27.583,165.55,5.0548,-1.6849,-1.5034,6.7398,1.1298e-12,-0.75169,0,0,0.11111,-1.1842e-15,0,0.66667
0.73392,0.44019,6.6053,-0.089712,-4.4184,66.127,1.5802,-0.52673,-1.9756,2.1069,2.3896e-12,-0.98782,0,0,0.11111,2.1053e-15,0,0.66667
0.087473,0.34063,0.78725,-0.23905,-25.495,574.85,0.50186,-0.16729,-1.7954,0.66915,3.5704e-08,-0.8977,0,0,0.11111,1.6448e-16,0,0.66667
0.39975,0.93919,3.5978,0.65879,59.691,288.48,-6.3205,2.1068,-0.45567,-8.4273,3.4768e-12,-0.22783,0,0,0.11111,-1.0527e-15,0,0.66667
0.27962,0.30149,2.5166,-0.29777,-29.498,392.58,1.9983,-0.6661,-1.6863,2.6644,-6.3229e-12,-0.84313,0,0,0.11111,-0,-0,0.66667
0.42351,0.045443,3.8116,-0.68183,-60.361,269.1,6.9303,-2.3101,-0.3484,9.2404,1.5961e-12,-0.1742,0,0,0.11111,-0,-0,0.66667
0.49798,0.49162,4.4818,-0.012567,-1.0133,210.38,0.15019,-0.050063,-2.0007,0.20025,5.1098e-14,-1.0003,0,0,0.11111,-0,-0,0.66667
0.66002,0.99133,5.9401,0.73699,44.907,105.39,-11.674,3.8914,-0.068106,-15.566,8.8818e-16,-0.034053,0,0,0.11111,1.579e-15,0,0.66667
0.49624,0.47526,4.4661,-0.037117,-2.9999,211.68,0.44205,-0.14735,-1.9947,0.5894,2.5757e-12,-0.99734,0,0,0.11111,-0,-0,0.66667
0.62047,0.63776,5.5842,0.20664,13.614,127.24,-3.0772,1.0257,-1.8466,-4.1029,6.1462e-13,-0.92331,0,0,0.11111,-0,-0,0.66667
0.58244,0.67442,5.242,0.26162,18.536,151.37,-3.6571,1.219,-1.7552,-4.8761,2.3814e-12,-0.87762,0,0,0.11111,-0,-0,0.66667
0.42833,0.77768,3.855,0.41652,36.563,264.71,-4.2818,1.4273,-1.3816,-5.7091,-1.8527e-12,-0.6908,0,0,0.11111,1.3158e-16,0,0.66667
0.0049764,0.32716,0.044787,-0.25926,-27.866,655.85,0.030964,-0.010321,-1.7591,0.041285,4.4868e-07,-0.87956,0,0,0.11111,-0,-0,0.66667
0.19452,0.8919,1.7506,0.58785,60.954,471.85,-2.7443,0.91478,-0.76861,-3.6591,-6.9057e-10,-0.38431,0,0,0.11111,-0,-0,0.66667
0.32021,0.038666,2.8819,-0.692,-67.013,356.68,5.318,-1.7727,-0.29507,7.0907,1.5024e-12,-0.14754,0,0,0.11111,-1.0527e-15,0,0.66667
0.14698,0.086344,1.3228,-0.62048,-65.45,517.27,2.1887,-0.72958,-0.62904,2.9183,4.3699e-11,-0.31452,0,0,0.11111,-0,-0,0.66667
0.59866,0.59796,5.388,0.14693,10.099,140.78,-2.1111,0.70372,-1.9223,-2.8149,2.5235e-12,-0.96114,0,0,0.11111,-2.1053e-15,0,0.66667
0.6115,0.027467,5.5035,-0.7088,-47.881,133.89,10.402,-3.4674,-0.21541,13.87,1.4042e-12,-0.10771,0,0,0.11111,-0,-0,0.66667
0.50009,0.58909,4.5008,0.13363,10.748,208.84,-1.6039,0.53464,-1.941,-2.1385,-6.6469e-13,-0.97051,0,0,0.11111,-0,-0,0.66667
0.32085,0.72846,2.8876,0.3427,33.043,355.65,-2.6389,0.87963,-1.5799,-3.5185,1.9431e-12,-0.78997,0,0,0.11111,-0,-0,0.66667
0.65326,0.81442,5.8793,0.47163,29.033,108.36,-7.3943,2.4648,-1.2102,-9.859,1.898e-12,-0.60509,0,0,0.11111,-2.1053e-15,0,0.66667
0.19028,0.88368,1.7126,0.57551,59.767,475.85,-2.6283,0.87609,-0.82265,-3.5043,-1.6276e-10,-0.41132,0,0,0.11111,-0,-0,0.66667
0.005881,0.86649,0.052929,0.54974,59.221,654.97,-0.07759,0.025861,-0.92346,-0.10345,-3.0868e-06,-0.46173,0,0,0.11111,-4.1119e-18,-1.3937e-16,0.66667
0.73494,0.94806,6.6145,0.67209,33.302,66.962,-11.855,3.9516,-0.397,-15.806,-1.9789e-12,-0.1985,0,0,0.11111,-0,-0,0.66667
0.4435,0.12524,3.9915,-0.56214,-48.626,252.83,5.9835,-1.9945,-0.87568,7.978,2.0179e-12,-0.43784,0,0,0.11111,-1.0527e-15,0,0.66667
0.69784,0.71755,6.2806,0.32633,17.926,83.955,-5.4654,1.8218,-1.6207,-7.2872,-4.4942e-12,-0.81037,0,0,0.11111,3.9475e-16,0,0.66667
0.18504,0.80562,1.6654,0.45842,47.647,480.74,-2.0359,0.67862,-1.2537,-2.7145,-4.8653e-10,-0.62683,0,0,0.11111,-1.3158e-16,0,0.66667
0.06262,0.48742,0.56358,-0.018872,-2.0192,599.16,0.028363,-0.0094544,-2.0024,0.037817,-2.2211e-07,-1.0012,0,0,0.11111,-0,-0,0.66667
0.37811,0.25503,3.403,-0.36746,-33.849,306.13,3.3346,-1.1115,-1.5203,4.4461,-2.4314e-13,-0.76016,0,0,0.11111,-1.0527e-15,0,0.66667
0.696,0.35236,6.264,-0.22147,-12.214,84.74,3.6993,-1.2331,-1.8232,4.9325,1.025e-12,-0.91162,0,0,0.11111,2.1053e-15,0,0.66667
0.10282,0.38054,0.92537,-0.17919,-19.05,559.86,0.44218,-0.14739,-1.8839,0.58957,1.9891e-08,-0.94197,0,0,0.11111,2.6316e-16,0,0.66667
0.19583,0.081027,1.7625,-0.62846,-65.161,470.64,2.9538,-0.98459,-0.59302,3.9384,3.2031e-10,-0.29651,0,0,0.11111,-2.6316e-16,0,0.66667
0.45395,0.55058,4.0856,0.07587,6.4616,244.04,-0.8266,0.27553,-1.9821,-1.1021,2.0901e-12,-0.99107,0,0,0.11111,-5.2633e-16,0,0.66667
0.62115,0.86793,5.5903,0.5519,36.46,127.48,-8.2275,2.7425,-0.91644,-10.97,-5.0981e-13,-0.45822,0,0,0.11111,-5.2633e-16,0,0.66667
0.75012,0.59935,6.7511,0.14902,6.9549,58.887,-2.6829,0.8943,-1.9254,-3.5772,-9.8337e-12,-0.96268,0,0,0.11111,-2.1053e-15,0,0.66667
0.10974,0.20433,0.98762,-0.44351,-47.154,553.2,1.168,-0.38934,-1.3039,1.5574,2.0563e-08,-0.65194,0,0,0.11111,-1.3158e-16,0,0.66667
0.62462,0.058156,5.6216,-0.66277,-43.567,125.71,9.9355,-3.3118,-0.44229,13.247,6.1107e-13,-0.22114,0,0,0.11111,5.2633e-16,6.2992e-17,0.66667
0.38736,0.64797,3.4862,0.22195,20.256,298.2,-2.0634,0.6878,-1.8247,-2.7512,1.0107e-12,-0.91234,0,0,0.11111,5.2633e-16,0,0.66667
0.67009,0.59954,6.0308,0.1493,8.8007,98.425,-2.4011,0.80037,-1.9226,-3.2015,-2.4292e-13,-0.96129,0,0,0.11111,-0,-0,0.66667
0.20356,0.092263,1.832,-0.61161,-63.197,463.33,2.988,-0.99599,-0.67451,3.984,1.1427e-09,-0.33726,0,0,0.11111,-2.6316e-16,0,0.66667
0.52792,0.88719,4.7513,0.58078,45.107,189.26,-7.3585,2.4528,-0.80018,-9.8114,-7.0921e-13,-0.40009,0,0,0.11111,-0,-0,0.66667
0.17216,0.54261,1.5495,0.063922,6.6619,492.87,-0.26412,0.08804,-1.9889,-0.35216,-1.7441e-10,-0.99447,0,0,0.11111,-2.6316e-16,0,0.66667
0.018681,0.21477,0.16813,-0.42784,-46.023,642.37,0.19182,-0.063941,-1.3498,0.25576,-9.9568e-07,-0.67489,0,0,0.11111,-8.2239e-18,0,0.66667
0.48695,0.3608,4.3826,-0.2088,-17.091,218.72,2.4402,-0.81341,-1.8452,3.2537,1.108e-13,-0.9226,0,0,0.11111,-0,-0,0.66667
0.18418,0.015697,1.6576,-0.72646,-75.77,481.79,3.2111,-1.0704,-0.12301,4.2815,-2.0651e-10,-0.061506,0,0,0.11111,-5.2633e-16,-1.3158e-16,0.66667
0.63834,0.33396,5.7451,-0.24906,-15.809,116.58,3.8157,-1.2719,-1.7802,5.0876,-4.7629e-13,-0.89011,0,0,0.11111,-0,-0,0.66667
0.53657,0.61863,4.8292,0.17794,13.587,182.48,-2.2915,0.76382,-1.8859,-3.0553,1.1589e-12,-0.94296,0,0,0.11111,7.8949e-16,0,0.66667
0.77495,0.14834,6.9745,-0.52749,-22.601,49.27,9.8107,-3.2702,-1.0086,13.081,2.6517e-11,-0.50428,0,0,0.11111,-0,-0,0.66667
0.39296,0.65092,3.5366,0.22637,20.553,293.52,-2.1349,0.71164,-1.819,-2.8466,1.3496e-12,-0.90951,0,0,0.11111,-0,-0,0.66667
0.98945,0.018834,8.9051,-0.72175,-1.6046,2.3039,17.139,-5.7131,-0.14609,22.852,-5.1191e-05,-0.073045,0,0,0.11111,-0,-0,0.66667
0.51521,0.15826,4.6369,-0.5126,-40.506,198.24,6.3384,-2.1128,-1.0702,8.4512,3.4497e-12,-0.53509,0,0,0.11111,-0,-1.1516e-16,0.66667
0.47882,0.23182,4.3094,-0.40227,-33.317,225.11,4.6228,-1.5409,-1.4225,6.1637,-5.2491e-13,-0.71123,0,0,0.11111,-0,-0,0.66667
0.74944,0.96057,6.745,0.69086,32.645,60.55,-12.426,4.1421,-0.30628,-16.568,1.2896e-11,-0.15314,0,0,0.11111,5.2633e-16,0,0.66667
0.57269,0.078966,5.1542,-0.63155,-45.73,158.56,8.6804,-2.8935,-0.57969,11.574,1.3314e-12,-0.28985,0,0,0.11111,1.0527e-15,0,0.66667
0.36247,0.14557,3.2622,-0.53165,-49.72,319.65,4.6249,-1.5416,-0.99483,6.1665,2.0997e-12,-0.49742,0,0,0.11111,5.2633e-16,0,0.66667
0.48924,0.76299,4.4032,0.39448,32.24,217.21,-4.6319,1.544,-1.4449,-6.1759,2.3448e-13,-0.72246,0,0,0.11111,-0,-0,0.66667
0.18914,0.049393,1.7022,-0.67591,-70.313,477.03,3.0682,-1.0227,-0.37702,4.0909,1.2733e-09,-0.18851,0,0,0.11111,2.6316e-16,0,0.66667
0.39358,0.03785,3.5423,-0.69323,-63.212,293.68,6.5482,-2.1827,-0.29168,8.7309,1.4655e-14,-0.14584,0,0,0.11111,-0,-0,0.66667
0.029962,0.78925,0.26966,0.43387,46.648,631.28,-0.31199,0.104,-1.3329,-0.41599,9.973e-07,-0.66646,0,0,0.11111,6.5791e-17,0,0.66667
0.46253,0.54319,4.1628,0.064779,5.4619,237.34,-0.71909,0.2397,-1.9827,-0.95879,-2.3058e-12,-0.99134,0,0,0.11111,1.0527e-15,0,0.66667
0.27447,0.1732,2.4703,-0.49019,-48.789,397.42,3.2291,-1.0764,-1.143,4.3055,-8.5367e-12,-0.5715,0,0,0.11111,-0,-0,0.66667
0.52672,0.24332,4.7404,-0.38502,-29.881,189.72,4.8671,-1.6224,-1.4719,6.4895,-4.0457e-13,-0.73594,0,0,0.11111,-0,-0,0.66667
0.029272,0.34476,0.26345,-0.23287,-25.005,631.94,0.1636,-0.054532,-1.8096,0.21813,-2.5038e-07,-0.9048,0,0,0.11111,-0,-0,0.66667
0.55509,0.75952,4.9958,0.38928,28.922,169.88,-5.186,1.7287,-1.4587,-6.9147,5.9197e-13,-0.72935,0,0,0.11111,-0,-0,0.66667
0.293,0.15396,2.637,-0.51905,-51.088,380.69,3.65,-1.2167,-1.0422,4.8666,8.3946e-12,-0.52111,0,0,0.11111,1.9737e-16,0,0.66667
0.57749,0.82766,5.1974,0.49149,35.215,155.02,-6.812,2.2707,-1.1439,-9.0827,4.2766e-13,-0.57195,0,0,0.11111,-0,-0,0.66667
0.73277,0.38579,6.5949,-0.17131,-8.4724,66.723,3.0128,-1.0043,-1.8972,4.017,1.0053e-11,-0.94861,0,0,0.11111,-0,-0,0.66667
0.44034,0.74866,3.963,0.37299,32.308,255.04,-3.9418,1.3139,-1.5067,-5.2557,-3.0014e-12,-0.75334,0,0,0.11111,6.5791e-16,0,0.66667
0.66316,0.62919,5.9684,0.19379,11.62,102.3,-3.0843,1.0281,-1.8647,-4.1125,-3.7792e-13,-0.93235,0,0,0.11111,-0,-0,0.66667
0.23891,0.21644,2.1502,-0.42534,-43.147,430.07,2.4389,-0.81295,-1.3564,3.2518,-2.6743e-11,-0.67819,0,0,0.11111,1.3158e-16,0,0.66667
0.9986,0.98727,8.9874,0.7309,0.19955,2.1537,-17.517,5.8389,-0.10193,-23.356,-6.54e-05,-0.050967,0,0,0.11111,1.0527e-15,0,0.66667
0.24288,0.21943,2.1859,-0.42085,-42.603,426.39,2.4532,-0.81773,-1.3691,3.2709,-3.8006e-11,-0.68455,0,0,0.11111,-0,-0,0.66667
0.94083,0.90488,8.4675,0.60732,7.4105,5.4785,-13.713,4.5711,-0.68941,-18.284,-1.2011e-06,-0.34471,0,0,0.11111,-5.2633e-16,0,0.66667
0.21722,0.6298,1.955,0.1947,19.929,450.2,-1.015,0.33834,-1.8675,-1.3533,2.6674e-11,-0.93377,0,0,0.11111,5.2633e-16,0,0.66667
0.49756,0.75145,4.4781,0.37717,30.486,210.97,-4.504,1.5013,-1.4959,-6.0054,1.1555e-12,-0.74797,0,0,0.11111,-0,-0,0.66667
0.82118,0.56522,7.3906,0.097829,3.3848,31.541,-1.928,0.64268,-1.9645,-2.5707,4.8585e-11,-0.98223,0,0,0.11111,2.1053e-15,0,0.66667
0.71659,0.62571,6.4493,0.18856,9.8042,74.413,-3.2429,1.081,-1.8758,-4.3238,-6.2494e-12,-0.93791,0,0,0.11111,-0,-0,0.66667
0.70558,0.075836,6.3502,-0.63625,-34.401,80.883,10.774,-3.5914,-0.56105,14.366,-1.9593e-12,-0.28052,0,0,0.11111,-0,-0,0.66667
0.44044,0.58317,3.964,0.12475,10.789,254.74,-1.3187,0.43956,-1.9446,-1.7582,8.9362e-13,-0.97232,0,0,0.11111,5.2633e-16,0,0.66667
0.75418,0.18171,6.7876,-0.47743,-22.069,57.747,8.6416,-2.8805,-1.1889,11.522,2.6938e-12,-0.59445,0,0,0.11111,5.2633e-16,0,0.66667
0.91995,0.63514,8.2796,0.20271,3.2549,7.2337,-4.4755,1.4918,-1.8551,-5.9674,3.1893e-08,-0.92755,0,0,0.11111,-0,-0,0.66667
0.44135,0.94394,3.9722,0.66591,57.827,254.77,-7.0536,2.3512,-0.42285,-9.4048,8.1757e-13,-0.21142,0,0,0.11111,-1.0527e-15,0,0.66667
0.52797,0.39689,4.7517,-0.15466,-11.961,188.57,1.9597,-0.65325,-1.9147,2.613,1.2715e-12,-0.95734,0,0,0.11111,-0,-0,0.66667
0.066036,0.1883,0.59432,-0.46756,-50.109,595.87,0.74101,-0.247,-1.2235,0.98801,1.5637e-07,-0.61173,0,0,0.11111,2.6316e-16,0,0.66667
0.39077,0.48207,3.517,-0.026899,-2.4458,295.27,0.25227,-0.084091,-2.001,0.33636,-1.6952e-12,-1.0005,0,0,0.11111,-0,-0,0.66667
0.46724,0.66215,4.2051,0.24322,20.406,233.8,-2.7274,0.90913,-1.7919,-3.6365,6.084e-13,-0.89593,0,0,0.11111,1.0527e-15,0,0.66667
0.89514,0.65452,8.0562,0.23177,4.8522,11.844,-4.9793,1.6598,-1.8088,-6.639,2.0004e-08,-0.90438,0,0,0.11111,1.3158e-16,0,0.66667
0.11056,0.3013,0.99502,-0.29806,-31.65,552.36,0.79086,-0.26362,-1.6863,1.0545,1.9432e-08,-0.84313,0,0,0.11111,-1.3158e-16,0,0.66667
0.73114,0.51735,6.5802,0.026019,1.2927,67.396,-0.45656,0.15219,-1.9971,-0.60874,-7.6938e-13,-0.99855,0,0,0.11111,-0,-0,0.66667
0.54547,0.94781,4.9092,0.67172,50.883,177.17,-8.7936,2.9312,-0.39759,-11.725,-1.1253e-12,-0.19879,0,0,0.11111,-0,-0,0.66667
0.60654,0.59221,5.4588,0.13832,9.3649,135.81,-2.0135,0.67116,-1.9333,-2.6847,1.09e-12,-0.96663,0,0,0.11111,2.6316e-16,0,0.66667
0.029783,0.4091,0.26805,-0.13635,-14.636,631.43,0.09746,-0.032487,-1.9366,0.12995,-3.501e-08,-0.96831,0,0,0.11111,-0,-0,0.66667
0.14675,0.22104,1.3207,-0.41844,-44.051,517.37,1.4737,-0.49125,-1.3762,1.965,2.4963e-09,-0.68811,0,0,0.11111,-5.2633e-16,0,0.66667
0.28398,0.21564,2.5558,-0.42655,-42.183,388.72,2.9072,-0.96905,-1.3542,3.8762,-3.1577e-12,-0.67711,0,0,0.11111,2.6316e-16,0,0.66667
0.004872,0.14516,0.043848,-0.53225,-57.328,655.96,0.062234,-0.020743,-0.99105,0.082979,2.1401e-06,-0.49552,0,0,0.11111,-0,2.4095e-16,0.66667
0.66916,0.64221,6.0224,0.21332,12.608,98.999,-3.4258,1.1419,-1.8383,-4.5678,-1.9407e-12,-0.91913,0,0,0.11111,2.6021e-16,0,0.66667
0.87026,0.40426,7.8323,-0.14361,-3.6828,17.38,2.9994,-0.99981,-1.9262,3.9993,-4.7041e-09,-0.96311,0,0,0.11111,-5.2633e-16,0,0.66667
0.54697,0.56226,4.9227,0.093392,7.0151,175.16,-1.226,0.40866,-1.9743,-1.6346,3.0672e-12,-0.98716,0,0,0.11111,-1.2007e-15,0,0.66667
0.54316,0.57776,4.8885,0.11664,8.8145,177.82,-1.5206,0.50685,-1.9507,-2.0274,2.3272e-12,-0.97534,0,0,0.11111,-1.0527e-15,0,0.66667
0.61573,0.47887,5.5415,-0.031693,-2.1068,130.05,0.46835,-0.15612,-1.9941,0.62446,-1.4211e-13,-0.99705,0,0,0.11111,-0,-0,0.66667
0.30218,0.58409,2.7196,0.12614,12.308,372.14,-0.91481,0.30494,-1.9416,-1.2197,9.3592e-13,-0.97079,0,0,0.11111,-0,-0,0.66667
0.36673,0.30941,3.3006,-0.28588,-26.58,315.71,2.5162,-0.83874,-1.7078,3.355,3.0809e-12,-0.85388,0,0,0.11111,-4.1775e-16,0,0.66667
0.57494,0.057366,5.1745,-0.66395,-47.92,157.17,9.1616,-3.0539,-0.43292,12.215,2.24e-12,-0.21646,0,0,0.11111,-7.8949e-16,0,0.66667
0.80922,0.8387,7.2829,0.50805,18.779,36.397,-9.867,3.289,-1.0825,-13.156,9.788e-11,-0.54124,0,0,0.11111,-1.579e-15,0,0.66667
0.2016,0.013761,1.8144,-0.72936,-75.546,465.31,3.5289,-1.1763,-0.1101,4.7052,-1.2771e-10,-0.055048,0,0,0.11111,-0,1.2971e-16,0.66667
0.32752,0.86471,2.9477,0.54707,52.596,350,-4.3003,1.4334,-0.93894,-5.7337,1.1946e-13,-0.46947,0,0,0.11111,-0,1.305e-16,0.66667
0.74292,0.040584,6.6863,-0.68912,-33.285,63.423,12.287,-4.0957,-0.30906,16.383,1.2561e-11,-0.15453,0,0,0.11111,-0,-0,0.66667
0.34092,0.65421,3.0683,0.23131,21.956,337.94,-1.8926,0.63088,-1.811,-2.5235,9.9143e-13,-0.90548,0,0,0.11111,-1.3158e-16,0,0.66667
0.047611,0.94025,0.4285,0.66037,71.072,613.98,-0.75458,0.25152,-0.45324,-1.0061,-3.2002e-06,-0.22662,0,0,0.11111,-0,-0,0.66667
0.15636,0.26646,1.4072,-0.35032,-36.75,508.09,1.3146,-0.4382,-1.5673,1.7528,2.0036e-09,-0.78365,0,0,0.11111,2.6316e-16,0,0.66667
0.19386,0.58058,1.7448,0.12086,12.494,472.21,-0.56235,0.18745,-1.9456,-0.7498,-1.0278e-10,-0.97278,0,0,0.11111,2.6316e-16,0,0.66667
0.49511,0.78932,4.456,0.43398,35.212,212.88,-5.1569,1.719,-1.3289,-6.8759,-2.8733e-13,-0.66445,0,0,0.11111,-0,-0,0.66667
0.63512,0.63286,5.7161,0.19929,12.733,118.42,-3.0377,1.0126,-1.857,-4.0503,-5.3402e-13,-0.92851,0,0,0.11111,-0,-0,0.66667
0.88022,0.0020914,7.922,-0.74686,-18.162,16.88,15.778,-5.2592,-0.015937,21.037,-8.0546e-09,-0.0079687,0,0,0.11111,-0,-0,0.66667
0.90254,0.40366,8.1228,-0.14451,-2.8128,10.251,3.1302,-1.0434,-1.926,4.1736,-1.6272e-08,-0.96299,0,0,0.11111,1.3158e-15,0,0.66667
0.30716,0.062185,2.7644,-0.65672,-64.145,368.19,4.8413,-1.6138,-0.46608,6.455,3.5838e-13,-0.23304,0,0,0.11111,-1.9737e-16,0,0.66667
0.75338,0.33584,6.7804,-0.24625,-11.372,57.585,4.4524,-1.4841,-1.7842,5.9365,1.8141e-11,-0.89209,0,0,0.11111,1.0527e-15,0,0.66667
0.28243,0.7144,2.5419,0.3216,31.809,390.04,-2.1799,0.72662,-1.6351,-2.9065,5.7152e-12,-0.81757,0,0,0.11111,-2.6316e-16,0,0.66667
0.36858,0.63641,3.3172,0.20461,18.985,314.08,-1.81,0.60332,-1.8487,-2.4133,1.3395e-12,-0.92436,0,0,0.11111,-1.0527e-15,0,0.66667
0.29273,0.73827,2.6345,0.3574,35.131,380.76,-2.5109,0.83697,-1.5446,-3.3479,5.7068e-12,-0.77231,0,0,0.11111,-0,-0,0.66667
0.41369,0.29463,3.7232,-0.30806,-27.427,276.46,3.0586,-1.0195,-1.6599,4.0781,-1.4742e-12,-0.82993,0,0,0.11111,1.0527e-15,0,0.66667
0.21472,0.87385,1.9324,0.56078,57.628,452.79,-2.8898,0.96326,-0.88212,-3.8531,-4.9304e-10,-0.44106,0,0,0.11111,-3.9475e-16,0,0.66667
0.31899,0.42615,2.8709,-0.11077,-10.682,357.16,0.848,-0.28267,-1.9539,1.1307,-3.9435e-13,-0.97696,0,0,0.11111,-0,-0,0.66667
0.12192,0.71705,1.0973,0.32558,34.486,541.33,-0.95266,0.31755,-1.6241,-1.2702,-1.1353e-08,-0.81206,0,0,0.11111,-1.8093e-16,0,0.66667
0.96302,0.1153,8.6672,-0.57705,-4.3869,3.0672,13.337,-4.4457,-0.81399,17.783,-1.9793e-06,-0.407,0,0,0.11111,1.0527e-15,0,0.66667
0.50398,0.67603,4.5358,0.26404,21.138,206.07,-3.1937,1.0646,-1.7511,-4.2583,-1.5226e-12,-0.87553,0,0,0.11111,5.2633e-16,0,0.66667
0.9231,0.88493,8.3079,0.5774,9.0848,7.812,-12.792,4.264,-0.81675,-17.056,2.9018e-08,-0.40837,0,0,0.11111,-0,-0,0.66667
0.74616,0.9877,6.7154,0.73155,34.999,62.165,-13.1,4.3668,-0.096214,-17.467,1.3651e-12,-0.048107,0,0,0.11111,-0,-0,0.66667
0.45771,0.88457,4.1193,0.57686,49.112,241.7,-6.3368,2.1123,-0.81544,-8.4491,-7.5095e-13,-0.40772,0,0,0.11111,-0,-0,0.66667
0.75462,0.99464,6.7916,0.74197,34.491,58.528,-13.438,4.4792,-0.041685,-17.917,2.1616e-11,-0.020843,0,0,0.11111,4.4683e-16,0,0.66667
0.62802,0.44552,5.6522,-0.081714,-5.2972,122.58,1.2316,-0.41054,-1.9764,1.6422,-6.3605e-13,-0.98819,0,0,0.11111,-0,-0,0.66667
0.30376,0.47262,2.7338,-0.041073,-4.0027,370.71,0.29943,-0.099809,-1.9923,0.39924,5.5289e-12,-0.99615,0,0,0.11111,-0,-0,0.66667
0.52166,0.73312,4.6949,0.34968,27.329,193.3,-4.3779,1.4593,-1.5628,-5.8372,-2.5109e-12,-0.78141,0,0,0.11111,-0,-0,0.66667
0.71231,0.97797,6.4108,0.71696,38.108,77.865,-12.257,4.0856,-0.17005,-16.342,-1.0303e-13,-0.085023,0,0,0.11111,-2.1053e-15,0,0.66667
0.30531,0.19038,2.7478,-0.46442,-45.315,369.58,3.4031,-1.1344,-1.2315,4.5374,-1.7235e-12,-0.61576,0,0,0.11111,-0,-0,0.66667
0.012523,0.6668,0.11271,0.2502,26.888,648.42,-0.075199,0.025066,-1.7772,-0.10026,-1.225e-07,-0.88861,0,0,0.11111,-0,-0,0.66667
0.26826,0.88778,2.4144,0.58167,58.164,403.2,-3.7449,1.2483,-0.79721,-4.9933,9.758e-12,-0.39861,0,0,0.11111,-0,-0,0.66667
0.79675,0.20249,7.1707,-0.44626,-17.433,40.661,8.5333,-2.8444,-1.2955,11.378,1.8292e-11,-0.64777,0,0,0.11111,-0,-0,0.66667
0.92999,0.8512,8.3699,0.52679,7.5313,6.5775,-11.758,3.9193,-1.011,-15.677,1.5342e-07,-0.5055,0,0,0.11111,-2.1053e-15,0,0.66667
0.62533,0.44,5.628,-0.089998,-5.8672,124.2,1.3507,-0.45023,-1.9757,1.8009,-1.5266e-13,-0.98784,0,0,0.11111,-0,-0,0.66667
0.13281,0.95638,1.1953,0.68456,72.562,530.98,-2.182,0.72732,-0.33108,-2.9093,-1.3164e-09,-0.16554,0,0,0.11111,-1.3158e-16,0,0.66667
0.75757,0.0092579,6.8181,-0.73611,-33.858,57.243,13.384,-4.4613,-0.070901,17.845,-1.9643e-11,-0.03545,0,0,0.11111,-0,-0,0.66667
0.52691,0.42966,4.7421,-0.10552,-8.1716,189.3,1.3343,-0.44478,-1.9594,1.7791,3.9879e-12,-0.97968,0,0,0.11111,-0,-0,0.66667
0.75387,0.1487,6.7848,-0.52696,-24.412,58.028,9.5341,-3.178,-1.0121,12.712,2.8598e-11,-0.50603,0,0,0.11111,-0,-0,0.66667
0.85861,0.76819,7.7275,0.40229,11.25,20.874,-8.2898,2.7633,-1.4272,-11.053,4.0463e-09,-0.71362,0,0,0.11111,-0,-0,0.66667
0.94754,0.89185,8.5279,0.58778,6.3531,4.6064,-13.367,4.4556,-0.76939,-17.822,-2.5845e-07,-0.38469,0,0,0.11111,-0,-0,0.66667
0.65454,0.021498,5.8908,-0.71775,-44.272,108.4,11.275,-3.7584,-0.16978,15.033,2.3208e-12,-0.084892,0,0,0.11111,-1.0527e-15,0,0.66667
0.85426,0.1742,7.6883,-0.4887,-14.099,22.317,10.019,-3.3398,-1.1489,13.359,-1.5025e-09,-0.57445,0,0,0.11111,-1.0527e-15,0,0.66667
0.74259,0.27224,6.6833,-0.34164,-16.393,62.508,6.0887,-2.0296,-1.5826,8.1182,1.8867e-11,-0.79128,0,0,0.11111,-0,-0,0.66667
0.7271,0.47237,6.5439,-0.041443,-2.0855,69.288,0.72319,-0.24106,-1.9922,0.96426,1.2271e-12,-0.99608,0,0,0.11111,-0,-0,0.66667
0.85879,0.72938,7.7291,0.34407,9.595,20.676,-7.0915,2.3638,-1.5821,-9.4554,4.5321e-09,-0.79107,0,0,0.11111,-0,-0,0.66667
0.923,0.33756,8.307,-0.24366,-3.7692,6.8155,5.3975,-1.7992,-1.7916,7.1966,-4.2064e-08,-0.8958,0,0,0.11111,-1.0527e-15,0,0.66667
0.90208,0.11229,8.1187,-0.58156,-11.563,11.485,12.591,-4.1969,-0.79618,16.788,-3.73e-08,-0.39809,0,0,0.11111,-0,-0,0.66667
0.39575,0.53705,3.5618,0.055571,5.0294,291.12,-0.52781,0.17594,-1.9877,-0.70375,-4.0318e-12,-0.99385,0,0,0.11111,1.0527e-15,0,0.66667
0.084021,0.70793,0.75619,0.3119,33.297,578.23,-0.62895,0.20965,-1.6519,-0.8386,-4.4526e-08,-0.82595,0,0,0.11111,1.3158e-16,0,0.66667
0.82957,0.33773,7.4662,-0.24341,-8.0699,28.997,4.8463,-1.6154,-1.7916,6.4617,-7.8717e-10,-0.89579,0,0,0.11111,5.2633e-16,0,0.66667
0.53893,0.70795,4.8504,0.31193,23.753,180.96,-4.0346,1.3449,-1.6514,-5.3795,-4.7962e-14,-0.82572,0,0,0.11111,-0,-0,0.66667
0.54208,0.18818,4.8787,-0.46772,-35.504,179.02,6.085,-2.0283,-1.2219,8.1134,1.3278e-13,-0.61097,0,0,0.11111,-0,-0,0.66667
0.82518,0.04348,7.4266,-0.68478,-23.532,31.753,13.562,-4.5205,-0.33259,18.082,9.3652e-10,-0.16629,0,0,0.11111,-0,-0,0.66667
0.031984,0.64623,0.28786,0.21934,23.547,629.27,-0.16837,0.056123,-1.8318,-0.22449,1.9847e-07,-0.9159,0,0,0.11111,-0,-0,0.66667
0.87796,0.85818,7.9016,0.53727,13.146,16.457,-11.321,3.7736,-0.97343,-15.095,3.5345e-09,-0.48672,0,0,0.11111,-0,-0,0.66667
0.034634,0.10827,0.31171,-0.5876,-63.253,626.71,0.48843,-0.16281,-0.77172,0.65124,7.2822e-07,-0.38586,0,0,0.11111,-0,-0,0.66667
0.69319,0.75452,6.2388,0.38179,21.255,86.453,-6.3517,2.1172,-1.4803,-8.4689,-2.212e-12,-0.74016,0,0,0.11111,-0,-0,0.66667
0.58748,0.6131,5.2874,0.16966,11.905,147.99,-2.3921,0.79737,-1.8952,-3.1895,9.841e-13,-0.94762,0,0,0.11111,1.0527e-15,0,0.66667
0.64175,0.98961,5.7757,0.73441,46.633,115.8,-11.311,3.7705,-0.084533,-15.082,-6.7324e-13,-0.042267,0,0,0.11111,-0,-0,0.66667
0.37408,0.89815,3.3667,0.59722,55.347,309.87,-5.3618,1.7873,-0.73457,-7.1491,6.3149e-13,-0.36729,0,0,0.11111,2.6316e-16,1.0106e-16,0.66667
0.27546,0.88701,2.4792,0.58051,57.802,396.63,-3.8378,1.2793,-0.79957,-5.1171,-7.1696e-12,-0.39979,0,0,0.11111,-0,-0,0.66667
0.50941,0.79628,4.5847,0.44442,35.374,202.34,-5.4334,1.8111,-1.2953,-7.2445,-2.5251e-12,-0.64763,0,0,0.11111,-0,-0,0.66667
0.88582,0.53092,7.9724,0.046373,1.0514,13.652,-0.98587,0.32862,-1.9922,-1.3145,6.364e-09,-0.9961,0,0,0.11111,2.6316e-16,0,0.66667
0.56529,0.80762,5.0876,0.46144,33.743,163.09,-6.2603,2.0868,-1.2437,-8.3471,9.801e-13,-0.62185,0,0,0.11111,-2.6316e-16,0,0.66667
0.66315,0.6661,5.9683,0.24915,14.945,102.37,-3.9653,1.3218,-1.7768,-5.2871,-1.1695e-12,-0.88842,0,0,0.11111,-0,-0,0.66667
0.44138,0.72586,3.9724,0.33878,29.303,254.16,-3.5888,1.1963,-1.5913,-4.785,-7.9314e-13,-0.79566,0,0,0.11111,-1.0527e-15,0,0.66667
0.97214,0.95255,8.7493,0.67883,3.9566,2.8945,-15.838,5.2793,-0.36095,-21.117,-3.0966e-05,-0.18047,0,0,0.11111,2.1053e-15,0,0.66667
0.74252,0.69855,6.6827,0.29783,14.285,62.454,-5.3074,1.7691,-1.682,-7.0766,-1.78e-11,-0.84101,0,0,0.11111,-0,-0,0.66667
0.3549,0.034236,3.1941,-0.69865,-65.896,326.44,5.9508,-1.9836,-0.26407,7.9344,4.9734e-12,-0.13204,0,0,0.11111,-0,-1.0763e-16,0.66667
0.65353,0.85951,5.8818,0.53926,33.214,108.38,-8.4581,2.8194,-0.96608,-11.278,1.8678e-12,-0.48304,0,0,0.11111,-1.8266e-15,0,0.66667
0.54262,0.68063,4.8835,0.27094,20.509,178.33,-3.5284,1.1761,-1.7381,-4.7046,-1.9429e-13,-0.86906,0,0,0.11111,5.2633e-16,0,0.66667
0.88406,0.56841,7.9565,0.10262,2.3622,14.077,-2.1773,0.72576,-1.9606,-2.903,2.8279e-09,-0.98031,0,0,0.11111,2.1053e-15,0,0.66667
0.27505,0.7112,2.4755,0.3168,31.474,396.74,-2.0913,0.69711,-1.6411,-2.7884,1.3227e-11,-0.82056,0,0,0.11111,-2.6316e-16,0,0.66667
0.10807,0.49788,0.97261,-0.0031736,-0.33689,554.74,0.0082312,-0.0027437,-2.003,0.010975,4.6372e-08,-1.0015,0,0,0.11111,-9.8686e-17,0,0.66667
0.19127,0.27824,1.7214,-0.33264,-34.455,474.75,1.527,-0.509,-1.6067,2.036,1.7428e-10,-0.80335,0,0,0.11111,6.5791e-17,0,0.66667
0.38705,0.027195,3.4834,-0.70921,-65.076,299.17,6.5879,-2.196,-0.21175,8.7839,1.4828e-12,-0.10587,0,0,0.11111,5.2633e-16,0,0.66667
0.85406,0.008419,7.6865,-0.73737,-21.534,23.413,15.114,-5.0381,-0.065055,20.152,3.5548e-10,-0.032528,0,0,0.11111,4.2106e-15,0,0.66667
0.27084,0.34259,2.4376,-0.23611,-23.505,400.53,1.5348,-0.51159,-1.8012,2.0464,-1.0631e-11,-0.90061,0,0,0.11111,-5.5922e-16,0,0.66667
0.62636,0.29184,5.6372,-0.31224,-20.341,123.81,4.6937,-1.5646,-1.6553,6.2583,4.3388e-13,-0.82763,0,0,0.11111,-0,-0,0.66667
0.62355,0.55158,5.612,0.077368,5.0623,125.28,-1.1578,0.38595,-1.9805,-1.5438,3.8192e-13,-0.99024,0,0,0.11111,-0,-0,0.66667
0.40805,0.34272,3.6724,-0.23591,-21.112,281.03,2.3103,-0.77011,-1.8047,3.0804,-1.5512e-12,-0.90237,0,0,0.11111,2.6316e-16,0,0.66667
0.050335,0.80148,0.45302,0.45223,48.549,611.26,-0.54631,0.1821,-1.2723,-0.72841,-1.3132e-07,-0.63614,0,0,0.11111,6.5791e-17,0,0.66667
0.74483,0.34505,6.7035,-0.23243,-11.053,61.318,4.1549,-1.385,-1.8073,5.5398,1.6258e-11,-0.90367,0,0,0.11111,2.1053e-15,0,0.66667
0.29573,0.0011921,2.6615,-0.74821,-73.738,378.58,5.3104,-1.7701,-0.013012,7.0805,-7.5429e-12,-0.0065058,0,0,0.11111,-0,-0,0.66667
0.39846,0.50377,3.5861,0.0056558,0.51054,288.87,-0.054086,0.018029,-1.9981,-0.072115,3.8808e-12,-0.99905,0,0,0.11111,-0,-0,0.66667
0.37724,0.090199,3.3952,-0.6147,-56.822,307.23,5.5653,-1.8551,-0.65812,7.4205,3.6642e-12,-0.32906,0,0,0.11111,1.3158e-16,0,0.66667
0.6636,0.65591,5.9724,0.23387,14.012,102.09,-3.7247,1.2416,-1.8044,-4.9663,-2.482e-12,-0.90221,0,0,0.11111,1.1842e-15,0,0.66667
0.086333,0.94906,0.777,0.67359,72.13,576.1,-1.3957,0.46523,-0.38411,-1.8609,3.7989e-07,-0.19206,0,0,0.11111,-0,-0,0.66667
0.54989,0.84911,4.949,0.52366,39.298,173.72,-6.9109,2.3036,-1.0254,-9.2146,-2.9132e-13,-0.51272,0,0,0.11111,-0,-0,0.66667
0.015422,0.066782,0.1388,-0.64983,-70.07,645.59,0.24051,-0.080161,-0.50293,0.32068,1.2277e-05,-0.25147,0,0,0.11111,-0,-0,0.66667
0.98304,0.22499,8.8474,-0.41252,-1.3306,1.1635,9.7324,-3.2441,-1.3973,12.977,6.2342e-07,-0.69867,0,0,0.11111,-0,-0,0.66667
0.59843,0.68225,5.3858,0.27337,18.813,141.06,-3.9262,1.3087,-1.7333,-5.2349,1.1933e-12,-0.86667,0,0,0.11111,-7.8949e-16,0,0.66667
0.38411,0.18432,3.457,-0.47351,-43.428,301.2,4.3652,-1.4551,-1.2013,5.8203,-3.233e-13,-0.60064,0,0,0.11111,-0,-0,0.66667
0.14675,0.18052,1.3207,-0.47922,-50.476,517.4,1.6878,-0.56259,-1.1815,2.2504,2.0991e-09,-0.59077,0,0,0.11111,-2.6316e-16,0,0.66667
0.69688,0.70564,6.2719,0.30847,16.986,84.416,-5.1591,1.7197,-1.6592,-6.8788,-4.7762e-12,-0.82961,0,0,0.11111,1.0527e-15,0,0.66667
0.90581,0.105,8.1523,-0.5925,-11.357,10.826,12.881,-4.2935,-0.75503,17.174,-4.5233e-08,-0.37752,0,0,0.11111,-0,-0,0.66667
0.31811,0.035867,2.863,-0.6962,-67.525,358.54,5.3152,-1.7717,-0.27525,7.0869,1.6249e-12,-0.13763,0,0,0.11111,-0,-0,0.66667
0.76649,0.77633,6.8984,0.41449,18.297,52.378,-7.6249,2.5416,-1.3924,-10.167,-1.0314e-11,-0.69619,0,0,0.11111,-5.2633e-16,0,0.66667
0.2875,0.49678,2.5875,-0.0048277,-0.47548,385.34,0.033311,-0.011104,-1.9985,0.044415,-2.5645e-12,-0.99925,0,0,0.11111,-1.3158e-16,0,0.66667
0.95723,0.087171,8.615,-0.61924,-5.484,3.7666,14.226,-4.742,-0.63587,18.968,-5.8481e-06,-0.31794,0,0,0.11111,-5.2633e-16,0,0.66667
0.70232,0.87702,6.3208,0.56552,30.808,82.282,-9.5322,3.1774,-0.86669,-12.71,-6.728e-12,-0.43335,0,0,0.11111,-0,3.1773e-17,0.66667
0.62502,0.99442,5.6251,0.74162,48.797,125.75,-11.125,3.7082,-0.048935,-14.833,2.629e-13,-0.024467,0,0,0.11111,-5.2633e-16,0,0.66667
0.93073,0.56922,8.3766,0.10383,1.4402,5.4789,-2.3192,0.77307,-1.9596,-3.0923,4.4611e-08,-0.97979,0,0,0.11111,-0,-0,0.66667
0.26904,0.060942,2.4214,-0.65859,-65.891,402.59,4.2525,-1.4175,-0.45853,5.67,-5.369e-13,-0.22926,0,0,0.11111,5.9212e-16,0,0.66667
0.92362,0.47562,8.3125,-0.036571,-0.55906,6.5056,0.81067,-0.27022,-1.997,1.0809,2.6332e-08,-0.9985,0,0,0.11111,-0,-0,0.66667
0.67808,0.036546,6.1027,-0.69518,-40.501,95.335,11.313,-3.7711,-0.27994,15.084,-1.1369e-13,-0.13997,0,0,0.11111,-0,-0,0.66667
0.77136,0.4331,6.9423,-0.10035,-4.3318,49.885,1.8578,-0.61925,-1.9628,2.477,-9.895e-12,-0.98139,0,0,0.11111,-1.3158e-15,0,0.66667
0.57164,0.27649,5.1447,-0.33526,-24.22,158.61,4.5995,-1.5332,-1.5986,6.1327,3.5358e-12,-0.79931,0,0,0.11111,-2.6316e-16,0,0.66667
0.8339,0.78749,7.5051,0.43123,14.018,28.068,-8.6305,2.8768,-1.3371,-11.507,8.5032e-10,-0.66855,0,0,0.11111,-0,-0,0.66667
0.69828,0.39135,6.2845,-0.16297,-8.9281,83.507,2.7312,-0.91039,-1.9038,3.6416,1.6693e-12,-0.95188,0,0,0.11111,1.0527e-15,0,0.66667
0.14661,0.36408,1.3195,-0.20388,-21.435,517.42,0.71736,-0.23912,-1.85,0.95648,2.8059e-09,-0.92498,0,0,0.11111,-0,-0,0.66667
0.61246,0.20542,5.5122,-0.44187,-29.653,132.54,6.4951,-2.165,-1.3055,8.6602,-1.5565e-12,-0.65273,0,0,0.11111,1.0527e-15,0,0.66667
0.27932,0.22966,2.5139,-0.40551,-40.211,392.93,2.7184,-0.90614,-1.4165,3.6246,-5.7314e-12,-0.70823,0,0,0.11111,-5.2633e-16,0,0.66667
0.91588,0.58691,8.2429,0.13036,2.1954,7.8202,-2.8655,0.95518,-1.9377,-3.8207,1.9943e-08,-0.96885,0,0,0.11111,5.4231e-16,0,0.66667
0.19823,0.49436,1.7841,-0.008458,-0.87263,468.06,0.04024,-0.013413,-1.9986,0.053653,1.7545e-10,-0.9993,0,0,0.11111,-0,-0,0.66667
0.28572,0.16717,2.5714,-0.49924,-49.354,387.23,3.4234,-1.1411,-1.1124,4.5645,-1.9946e-12,-0.55621,0,0,0.11111,-0,-0,0.66667
0.047655,0.83148,0.42889,0.49722,53.415,613.9,-0.56868,0.18956,-1.1236,-0.75823,-3.9094e-07,-0.56181,0,0,0.11111,-0,-0,0.66667
0.44758,0.19944,4.0282,-0.45084,-38.769,249.41,4.8429,-1.6143,-1.2752,6.4572,1.2839e-12,-0.63759,0,0,0.11111,-0,-0,0.66667
0.55759,0.7771,5.0183,0.41565,30.765,168.22,-5.5622,1.8541,-1.3848,-7.4163,-1.914e-13,-0.6924,0,0,0.11111,3.3016e-16,0,0.66667
0.57356,0.51667,5.162,0.024998,1.7971,157.07,-0.34411,0.1147,-1.9962,-0.45882,5.792e-13,-0.99808,0,0,0.11111,2.1053e-15,0,0.66667
0.90538,0.20224,8.1484,-0.44664,-8.5287,10.357,9.7051,-3.235,-1.2931,12.94,-3.1435e-08,-0.64657,0,0,0.11111,-0,-0,0.66667
0.34741,0.90464,3.1267,0.60696,57.518,332.73,-5.0608,1.6869,-0.6906,-6.7477,6.195e-13,-0.3453,0,0,0.11111,1.3158e-16,0,0.66667
0.44753,0.45731,4.0278,-0.06404,-5.494,249.09,0.68783,-0.22928,-1.9833,0.91711,-2.5411e-12,-0.99165,0,0,0.11111,-5.2633e-16,0,0.66667
0.85124,0.61128,7.6611,0.16691,4.8719,22.435,-3.41,1.1367,-1.8982,-4.5466,2.5305e-09,-0.94911,0,0,0.11111,1.0527e-15,0,0.66667
0.57683,0.091069,5.1915,-0.6134,-44.086,155.77,8.4918,-2.8306,-0.6652,11.322,2.5269e-12,-0.3326,0,0,0.11111,3.9475e-16,0,0.66667
0.65399,0.08345,5.8859,-0.62483,-38.507,108.38,9.8072,-3.2691,-0.61265,13.076,1.5223e-12,-0.30633,0,0,0.11111,5.2633e-16,-1.163e-16,0.66667
0.27836,0.55505,2.5052,0.082573,8.1793,393.63,-0.55164,0.18388,-1.9761,-0.73552,2.9298e-12,-0.98804,0,0,0.11111,-0,-0,0.66667
0.48747,0.0074161,4.3872,-0.73888,-60.823,219.31,8.6443,-2.8814,-0.058995,11.526,2.8528e-12,-0.029498,0,0,0.11111,-2.1053e-15,0,0.66667
0.62095,0.24362,5.5886,-0.38457,-25.353,127.21,5.7312,-1.9104,-1.4735,7.6415,1.1413e-13,-0.73676,0,0,0.11111,-5.2633e-16,0,0.66667
0.13339,0.17423,1.2005,-0.48866,-51.672,530.29,1.5644,-0.52148,-1.1483,2.0859,7.4256e-09,-0.57414,0,0,0.11111,-0,-0,0.66667
0.032909,0.9427,0.29618,0.66404,71.555,628.41,-0.52447,0.17483,-0.43427,-0.6993,2.9332e-06,-0.21713,0,0,0.11111,6.5791e-17,0,0.66667
0.11341,0.72853,1.0207,0.3428,36.388,549.59,-0.93305,0.31102,-1.5812,-1.2441,-1.7043e-08,-0.7906,0,0,0.11111,-2.6316e-16,0,0.66667
0.47746,0.4321,4.2971,-0.10185,-8.4338,225.86,1.1671,-0.38903,-1.9612,1.5561,-1.022e-12,-0.98058,0,0,0.11111,-0,-0,0.66667
0.024027,0.41009,0.21624,-0.13487,-14.481,637.1,0.077769,-0.025923,-1.9336,0.10369,-4.5253e-08,-0.96679,0,0,0.11111,-0,-0,0.66667
0.62621,0.93658,5.6359,0.65487,42.901,124.73,-9.842,3.2807,-0.47865,-13.123,2.2649e-13,-0.23933,0,0,0.11111,-1.3158e-15,0,0.66667
0.097583,0.47113,0.87824,-0.043299,-4.6066,564.96,0.10141,-0.033802,-1.9935,0.13521,6.4805e-09,-0.99675,0,0,0.11111,-0,-0,0.66667
0.25096,0.46193,2.2587,-0.057099,-5.7451,418.74,0.34391,-0.11464,-1.9913,0.45854,-4.6514e-12,-0.99563,0,0,0.11111,1.3158e-16,0,0.66667
0.42649,0.58072,3.8384,0.12108,10.63,265.92,-1.2394,0.41313,-1.9463,-1.6525,5.7065e-13,-0.97313,0,0,0.11111,-0,-0,0.66667
0.11583,0.15506,1.0424,-0.51741,-54.972,547.32,1.4383,-0.47944,-1.047,1.9177,-3.1045e-09,-0.52352,0,0,0.11111,2.7961e-16,0,0.66667
0.27055,0.64958,2.435,0.22436,22.338,400.79,-1.4569,0.48562,-1.8197,-1.9425,1.2808e-11,-0.90985,0,0,0.11111,1.602e-16,0,0.66667
0.02108,0.41103,0.18972,-0.13346,-14.332,640,0.06752,-0.022507,-1.9353,0.090027,-5.9613e-08,-0.96766,0,0,0.11111,-0,-0,0.66667
0.98505,0.91164,8.8654,0.61746,1.8635,1.9091,-14.597,4.8658,-0.64789,-19.463,9.4243e-06,-0.32395,0,0,0.11111,-2.1053e-15,0,0.66667
0.61157,0.91266,5.5042,0.61899,41.732,133.55,-9.0853,3.0284,-0.63894,-12.114,-2.2213e-12,-0.31947,0,0,0.11111,2.1053e-15,0,0.66667
0.37835,0.31733,3.4052,-0.27401,-25.218,305.83,2.4882,-0.82939,-1.7332,3.3176,1.1191e-12,-0.86662,0,0,0.11111,-1.0527e-15,0,0.66667
0.026528,0.47707,0.23876,-0.034398,-3.6924,634.63,0.021901,-0.0073004,-1.9944,0.029201,-3.1682e-07,-0.99722,0,0,0.11111,-0,-0,0.66667
0.38984,0.1005,3.5085,-0.59925,-54.757,296.61,5.6067,-1.8689,-0.7263,7.4756,4.4968e-12,-0.36315,0,0,0.11111,-1.0527e-15,-8.9116e-17,0.66667
0.45256,0.60277,4.073,0.15416,13.153,245.17,-1.6744,0.55813,-1.9187,-2.2325,4.3743e-13,-0.95936,0,0,0.11111,-1.0527e-15,0,0.66667
0.931,0.20014,8.379,-0.44978,-6.304,6.1539,10.05,-3.35,-1.2782,13.4,-1.4196e-07,-0.63909,0,0,0.11111,-0,-0,0.66667
0.2785,0.23484,2.5065,-0.39774,-39.457,393.67,2.6585,-0.88617,-1.4375,3.5447,-6.6442e-12,-0.71877,0,0,0.11111,-0,-0,0.66667
0.61478,0.45624,5.533,-0.065639,-4.3717,130.64,0.96849,-0.32283,-1.9826,1.2913,1.016e-12,-0.9913,0,0,0.11111,-0,-0,0.66667
0.66517,0.4662,5.9865,-0.050705,-3.0238,101.09,0.80945,-0.26982,-1.9894,1.0793,7.2398e-13,-0.99471,0,0,0.11111,-1.0527e-15,0,0.66667
0.18596,0.22814,1.6736,-0.40778,-42.35,479.83,1.82,-0.60665,-1.4105,2.4266,1.5268e-10,-0.70526,0,0,0.11111,-0,-0,0.66667
0.50576,0.12311,4.5519,-0.56534,-45.296,205.26,6.8622,-2.2874,-0.86263,9.1497,-1.4659e-12,-0.43131,0,0,0.11111,1.3158e-15,0,0.66667
0.7865,0.58694,7.0785,0.13041,5.2984,43.928,-2.4617,0.82057,-1.938,-3.2823,3.1218e-11,-0.96901,0,0,0.11111,5.2633e-16,0,0.66667
0.096579,0.3125,0.86921,-0.28125,-29.951,565.97,0.65191,-0.2173,-1.7204,0.86921,3.162e-08,-0.86019,0,0,0.11111,-2.6316e-16,0,0.66667
0.60604,0.021674,5.4543,-0.71749,-48.993,137.32,10.436,-3.4786,-0.16929,13.914,-1.6014e-12,-0.084643,0,0,0.11111,-0,1.1186e-16,0.66667
0.02606,0.10322,0.23454,-0.59518,-64.107,635.13,0.37225,-0.12409,-0.73873,0.49633,-1.0028e-05,-0.36937,0,0,0.11111,6.5791e-17,0,0.66667
0.0070467,0.81731,0.063421,0.47597,51.236,653.82,-0.080496,0.026831,-1.1926,-0.10733,-1.5875e-06,-0.59631,0,0,0.11111,-0,-0,0.66667
0.059529,0.029081,0.53576,-0.70638,-75.972,602.32,1.0092,-0.3364,-0.22692,1.3456,-1.0654e-05,-0.11346,0,0,0.11111,6.5791e-17,0,0.66667
0.4814,0.75066,4.3326,0.376,31.033,223.11,-4.3441,1.448,-1.4987,-5.7922,8.562e-13,-0.74933,0,0,0.11111,-0,-0,0.66667
0.9257,0.30437,8.3313,-0.29345,-4.3894,6.4985,6.5196,-2.1732,-1.6932,8.6928,-6.4806e-08,-0.84658,0,0,0.11111,-1.0527e-15,0,0.66667
0.40556,0.40507,3.65,-0.1424,-12.769,283.02,1.386,-0.46201,-1.9321,1.848,1.7201e-12,-0.96604,0,0,0.11111,-1.9737e-16,0,0.66667
0.075033,0.5209,0.67529,0.031349,3.3484,587,-0.056453,0.018818,-1.9963,-0.07527,-3.0135e-08,-0.99817,0,0,0.11111,-0,-0,0.66667
0.86135,0.6872,7.7522,0.2808,7.6856,19.861,-5.8049,1.935,-1.7222,-7.7398,5.455e-09,-0.8611,0,0,0.11111,-1.579e-15,0,0.66667
0.5193,0.30955,4.6737,-0.28568,-22.391,194.91,3.5605,-1.1868,-1.71,4.7473,2.2138e-12,-0.85501,0,0,0.11111,-6.5791e-16,0,0.66667
0.31894,0.62751,2.8704,0.19127,18.451,357.24,-1.4641,0.48802,-1.8686,-1.9521,-1.3902e-12,-0.93428,0,0,0.11111,1.0527e-15,0,0.66667
0.96303,0.80991,8.6673,0.46486,3.4763,2.6158,-10.744,3.5814,-1.2306,-14.326,1.2524e-07,-0.61528,0,0,0.11111,1.3158e-15,0,0.66667
0.93826,0.4091,8.4444,-0.13635,-1.6853,4.4855,3.0704,-1.0235,-1.9376,4.0938,-2.0347e-08,-0.96882,0,0,0.11111,2.1053e-15,0,0.66667
0.26002,0.97233,2.3402,0.7085,71.3,410.91,-4.4214,1.4738,-0.21399,-5.8951,2.3689e-11,-0.107,0,0,0.11111,-0,-0,0.66667
0.20139,0.64727,1.8125,0.22091,22.773,465.11,-1.0677,0.35591,-1.828,-1.4236,-5.1595e-11,-0.91401,0,0,0.11111,-2.6316e-16,0,0.66667
0.58891,0.78847,5.3002,0.4327,30.356,147.44,-6.1158,2.0386,-1.333,-8.1543,6.8834e-13,-0.66648,0,0,0.11111,-0,-0,0.66667
0.84252,0.0061131,7.5827,-0.74083,-23.205,26.698,14.98,-4.9933,-0.051149,19.973,3.4964e-09,-0.025575,0,0,0.11111,-4.2106e-15,0,0.66667
0.33672,0.21691,3.0305,-0.42464,-40.493,341.78,3.4316,-1.1439,-1.3575,4.5755,1.2355e-12,-0.67875,0,0,0.11111,-0,-0,0.66667
0.58643,0.57577,5.2779,0.11366,7.989,148.64,-1.5997,0.53323,-1.9514,-2.1329,3.017e-12,-0.97568,0,0,0.11111,-0,-0,0.66667
0.16224,0.9534,1.4602,0.6801,71.447,502.66,-2.6482,0.88274,-0.35302,-3.531,3.098e-09,-0.17651,0,0,0.11111,2.6316e-16,0,0.66667
0.19459,0.060445,1.7513,-0.65933,-68.424,471.85,3.0792,-1.0264,-0.45291,4.1057,-1.3725e-09,-0.22645,0,0,0.11111,-3.2895e-17,0,0.66667
0.76134,0.9671,6.852,0.70065,31.757,55.499,-12.802,4.2674,-0.2545,-17.07,7.1765e-12,-0.12725,0,0,0.11111,-2.6316e-16,0,0.66667
0.1501,0.4822,1.3509,-0.026707,-2.8038,514.04,0.096207,-0.032069,-1.995,0.12828,-7.6258e-11,-0.99751,0,0,0.11111,-0,-0,0.66667
0.26591,0.28937,2.3932,-0.31595,-31.558,405.1,2.0163,-0.6721,-1.6488,2.6884,-1.0185e-11,-0.82441,0,0,0.11111,-5.2633e-16,0,0.66667
0.68949,0.45338,6.2055,-0.06993,-3.9216,87.987,1.1572,-0.38573,-1.9835,1.5429,1.0929e-12,-0.99175,0,0,0.11111,-0,-0,0.66667
0.015089,0.70277,0.1358,0.30415,32.693,645.9,-0.11015,0.036716,-1.674,-0.14686,4.8524e-08,-0.83701,0,0,0.11111,3.2895e-17,0,0.66667
0.032194,0.21036,0.28975,-0.43446,-46.705,629.08,0.3357,-0.1119,-1.3316,0.44759,-6.0209e-07,-0.66578,0,0,0.11111,-0,-0,0.66667
0.28753,0.13666,2.5877,-0.54502,-53.846,385.65,3.761,-1.2537,-0.94144,5.0146,-2.9292e-12,-0.47072,0,0,0.11111,-5.2633e-16,0,0.66667
0.33662,0.26819,3.0296,-0.34771,-33.138,341.78,2.8091,-0.93638,-1.5675,3.7455,1.0876e-12,-0.78373,0,0,0.11111,-0,-0,0.66667
0.36222,0.8167,3.2599,0.47505,44.408,319.78,-4.1297,1.3766,-1.1984,-5.5062,1.9513e-12,-0.59922,0,0,0.11111,-0,-0,0.66667
0.80719,0.88738,7.2647,0.58106,21.731,37.361,-11.257,3.7522,-0.7975,-15.009,2.8253e-10,-0.39875,0,0,0.11111,-0,-0,0.66667
0.035981,0.10633,0.32383,-0.59051,-63.562,625.38,0.50993,-0.16998,-0.75849,0.67991,1.9658e-06,-0.37924,0,0,0.11111,6.5791e-17,0,0.66667
0.3584,0.41538,3.2256,-0.12693,-11.876,322.76,1.0918,-0.36394,-1.9453,1.4557,-7.776e-13,-0.97264,0,0,0.11111,-0,-0,0.66667
0.63828,0.69615,5.7445,0.29422,18.685,116.68,-4.5071,1.5024,-1.693,-6.0095,-1.692e-13,-0.8465,0,0,0.11111,-0,-0,0.66667
0.143,0.43995,1.287,-0.09007,-9.4769,520.88,0.30913,-0.10304,-1.9728,0.41217,2.614e-09,-0.9864,0,0,0.11111,-5.2633e-16,0,0.66667
0.85774,0.92906,7.7196,0.64359,18.271,21.974,-13.249,4.4163,-0.52896,-17.665,-1.7022e-08,-0.26448,0,0,0.11111,-0,-1.0374e-16,0.66667
0.64556,0.89482,5.8101,0.59223,37.175,113.11,-9.1757,3.0586,-0.75119,-12.234,-1.1831e-12,-0.37559,0,0,0.11111,1.0527e-15,0,0.66667
0.11529,0.65348,1.0376,0.23022,24.411,547.74,-0.63702,0.21234,-1.8103,-0.84936,-1.4108e-08,-0.90517,0,0,0.11111,-3.2895e-17,0,0.66667
0.2081,0.95595,1.8729,0.68393,70.599,459.13,-3.4158,1.1386,-0.33501,-4.5544,-1.1649e-10,-0.1675,0,0,0.11111,-0,-0,0.66667
0.7455,0.23223,6.7095,-0.40166,-19.103,61.343,7.1865,-2.3955,-1.4248,9.582,1.701e-11,-0.71241,0,0,0.11111,-1.0527e-15,0,0.66667
0.40341,0.77653,3.6307,0.41479,37.34,285.04,-4.0159,1.3386,-1.389,-5.3546,-1.1799e-12,-0.69449,0,0,0.11111,5.0203e-16,0,0.66667
0.48447,0.70486,4.3602,0.30728,25.248,220.69,-3.5729,1.191,-1.668,-4.7638,-1.16e-12,-0.83398,0,0,0.11111,-0,-0,0.66667
0.88746,0.48642,7.9871,-0.020371,-0.45547,13.286,0.43389,-0.14463,-1.9981,0.57851,-2.3175e-09,-0.99906,0,0,0.11111,1.0527e-15,0,0.66667
0.13744,0.35178,1.237,-0.22233,-23.44,526.27,0.73339,-0.24446,-1.8242,0.97786,5.0172e-09,-0.9121,0,0,0.11111,-0,-0,0.66667
0.96437,0.15595,8.6794,-0.51608,-3.7422,2.7008,11.945,-3.9816,-1.0532,15.926,-3.3002e-07,-0.52658,0,0,0.11111,-1.3158e-16,0,0.66667
0.04263,0.63231,0.38367,0.19847,21.288,618.8,-0.20306,0.067685,-1.859,-0.27074,8.9209e-08,-0.92952,0,0,0.11111,-0,-0,0.66667
0.09944,0.69079,0.89496,0.28618,30.459,563.18,-0.68299,0.22766,-1.7076,-0.91065,-2.9674e-08,-0.85379,0,0,0.11111,-2.6316e-16,0,0.66667
0.22324,0.15437,2.0091,-0.51845,-53.044,444.76,2.7777,-0.9259,-1.0441,3.7036,-6.3336e-12,-0.52203,0,0,0.11111,1.3158e-16,0,0.66667
0.80659,0.14196,7.2593,-0.53706,-20.114,37.414,10.396,-3.4655,-0.9721,13.862,1.8656e-10,-0.48605,0,0,0.11111,1.0527e-15,0,0.66667
0.45587,0.70461,4.1029,0.30691,26.109,242.7,-3.3579,1.1193,-1.6651,-4.4773,1.92e-12,-0.83255,0,0,0.11111,-0,-0,0.66667
0.65325,0.76015,5.8793,0.39022,23.994,108.18,-6.1179,2.0393,-1.4585,-8.1572,-5.9153e-13,-0.72926,0,0,0.11111,-0,-0,0.66667
0.17432,0.64782,1.5689,0.22173,23.101,490.84,-0.92763,0.30921,-1.8259,-1.2368,-6.2075e-10,-0.91295,0,0,0.11111,-0,-0,0.66667
0.16672,0.18163,1.5005,-0.47756,-49.977,498.22,1.9109,-0.63696,-1.1878,2.5478,2.3789e-10,-0.59388,0,0,0.11111,-3.2863e-17,0,0.66667
0.52085,0.11611,4.6876,-0.57583,-45.181,194.32,7.1981,-2.3994,-0.81933,9.5974,3.5971e-14,-0.40966,0,0,0.11111,5.2633e-16,0,0.66667
0.74029,0.50936,6.6626,0.014033,0.67677,63.195,-0.24932,0.083106,-1.9972,-0.33242,3.2966e-12,-0.9986,0,0,0.11111,-0,-0,0.66667
0.46247,0.45731,4.1623,-0.064035,-5.3995,237.38,0.71075,-0.23692,-1.983,0.94766,5.7271e-13,-0.99152,0,0,0.11111,5.2633e-16,0,0.66667
0.86961,0.95095,7.8265,0.67642,17.735,19.06,-14.117,4.7058,-0.37106,-18.823,-6.6139e-09,-0.18553,0,0,0.11111,-0,-0,0.66667
0.66041,0.42284,5.9437,-0.11573,-6.9818,103.77,1.8344,-0.61145,-1.9511,2.4458,-1.8274e-13,-0.97553,0,0,0.11111,1.0527e-15,0,0.66667
0.24909,0.48536,2.2418,-0.021962,-2.212,420.47,0.13129,-0.043765,-2.0007,0.17506,-4.3863e-12,-1.0003,0,0,0.11111,-0,-0,0.66667
0.2349,0.11236,2.1141,-0.58147,-59.198,433.95,3.2781,-1.0927,-0.80088,4.3708,-4.4839e-11,-0.40044,0,0,0.11111,-2.6316e-16,0,0.66667
0.37405,0.95986,3.3664,0.6898,64.013,310.08,-6.1924,2.0641,-0.31083,-8.2565,7.061e-14,-0.15542,0,0,0.11111,-5.2633e-16,0,0.66667
0.75662,0.29089,6.8095,-0.31367,-14.332,56.307,5.6958,-1.8986,-1.6478,7.5944,2.7271e-11,-0.82391,0,0,0.11111,-0,-0,0.66667
0.93794,0.59003,8.4414,0.13505,1.6779,4.5261,-3.0399,1.0133,-1.9393,-4.0532,1.7479e-08,-0.96963,0,0,0.11111,-1.0527e-15,0,0.66667
0.86191,0.86889,7.7572,0.55334,15.218,20.499,-11.446,3.8154,-0.91223,-15.262,-1.8165e-09,-0.45612,0,0,0.11111,1.579e-15,0,0.66667
0.26161,0.10899,2.3545,-0.58651,-58.875,409.29,3.6825,-1.2275,-0.7757,4.91,-3.9604e-12,-0.38785,0,0,0.11111,-5.2633e-16,0,0.66667
0.41228,0.82737,3.7105,0.49105,43.855,277.86,-4.8588,1.6196,-1.1402,-6.4784,-1.1742e-12,-0.57012,0,0,0.11111,-0,-0,0.66667
0.61154,0.33883,5.5039,-0.24176,-16.219,132.78,3.5483,-1.1828,-1.7937,4.7311,-8.6597e-14,-0.89683,0,0,0.11111,2.6316e-16,0,0.66667
0.54683,0.62379,4.9215,0.18569,13.956,175.31,-2.437,0.81234,-1.8826,-3.2494,1.6542e-12,-0.94131,0,0,0.11111,-3.9475e-16,0,0.66667
0.38927,0.98299,3.5035,0.72448,66.359,297.34,-6.7686,2.2562,-0.13553,-9.0247,-1.7386e-12,-0.067766,0,0,0.11111,-0,-0,0.66667
0.10142,0.62979,0.91279,0.19469,20.705,561.23,-0.4739,0.15797,-1.8633,-0.63187,-2.3268e-08,-0.93164,0,0,0.11111,-0,-0,0.66667
0.71224,0.91716,6.4102,0.62575,33.187,77.549,-10.696,3.5655,-0.60536,-14.262,1.668e-12,-0.30268,0,0,0.11111,-0,-0,0.66667
0.088135,0.25882,0.79322,-0.36176,-38.605,574.23,0.76522,-0.25507,-1.5328,1.0203,3.8325e-08,-0.76638,0,0,0.11111,-0,-0,0.66667
0.86608,0.13337,7.7947,-0.54994,-14.695,19.41,11.431,-3.8103,-0.9224,15.241,7.9527e-10,-0.4612,0,0,0.11111,-0,-0,0.66667
0.86345,0.45144,7.771,-0.072843,-1.9597,19.059,1.5095,-0.50317,-1.9799,2.0127,-1.914e-09,-0.98995,0,0,0.11111,-0,-0,0.66667
0.70845,0.56295,6.3761,0.094423,5.0252,78.334,-1.6055,0.53515,-1.9678,-2.1406,-2.2163e-12,-0.98391,0,0,0.11111,-0,-0,0.66667
0.48642,0.019851,4.3778,-0.72022,-59.347,220.04,8.408,-2.8027,-0.1566,11.211,-3.0465e-13,-0.078299,0,0,0.11111,-1.0527e-15,0,0.66667
0.69915,0.99142,6.2923,0.73713,40.682,84.511,-12.369,4.1229,-0.067215,-16.492,1.1706e-12,-0.033608,0,0,0.11111,-1.579e-15,0,0.66667
0.39499,0.35642,3.5549,-0.21538,-19.516,291.83,2.0417,-0.68057,-1.8336,2.7223,-1.0343e-12,-0.91682,0,0,0.11111,-0,-0,0.66667
0.7975,0.047867,7.1775,-0.6782,-26.589,41.218,12.981,-4.3269,-0.36743,17.308,9.1163e-10,-0.18372,0,0,0.11111,-0,-0,0.66667
0.78642,0.17392,7.0778,-0.48912,-19.991,44.659,9.2316,-3.0772,-1.1474,12.309,2.9171e-11,-0.5737,0,0,0.11111,1.0527e-15,0,0.66667
0.15553,0.89369,1.3998,0.59053,62.103,509.03,-2.2043,0.73475,-0.76282,-2.939,4.4906e-09,-0.38141,0,0,0.11111,-4.4735e-16,1.2653e-16,0.66667
0.31782,0.39291,2.8604,-0.16064,-15.507,358.21,1.2253,-0.40842,-1.9062,1.6337,-1.1056e-12,-0.9531,0,0,0.11111,-0,-0,0.66667
0.34398,0.73087,3.0958,0.3463,32.816,335.36,-2.8589,0.95297,-1.5771,-3.8119,3.0773e-12,-0.78856,0,0,0.11111,-0,-0,0.66667
0.36417,0.16084,3.2775,-0.50873,-47.496,318.16,4.4464,-1.4821,-1.0789,5.9285,1.4313e-12,-0.53943,0,0,0.11111,1.0527e-15,0,0.66667
0.56665,0.61345,5.0998,0.17017,12.383,161.76,-2.3142,0.7714,-1.8958,-3.0856,1.8763e-13,-0.94792,0,0,0.11111,5.2633e-16,0,0.66667
0.041687,0.76339,0.37519,0.39508,42.428,619.75,-0.39528,0.13176,-1.443,-0.52704,-7.3804e-08,-0.72151,0,0,0.11111,6.5791e-17,0,0.66667
0.65997,0.70672,5.9397,0.31009,18.753,104.23,-4.9116,1.6372,-1.6573,-6.5487,-8.4466e-13,-0.82863,0,0,0.11111,-0,-0,0.66667
0.20163,0.8168,1.8147,0.4752,49.07,465.03,-2.2996,0.76653,-1.1995,-3.0661,1.5258e-10,-0.59977,0,0,0.11111,-0,-0,0.66667
0.41646,0.2235,3.7482,-0.41476,-36.857,274.33,4.1455,-1.3818,-1.387,5.5274,3.7041e-12,-0.69352,0,0,0.11111,-0,-0,0.66667
0.45089,0.16681,4.058,-0.49979,-42.841,246.88,5.4084,-1.8028,-1.1126,7.2112,1.3065e-12,-0.55632,0,0,0.11111,-0,-0,0.66667
0.34873,0.88002,3.1385,0.57003,53.936,331.53,-4.7708,1.5903,-0.84357,-6.3611,2.4736e-13,-0.42178,0,0,0.11111,1.0527e-15,0,0.66667
0.38328,0.36035,3.4495,-0.20947,-19.187,301.62,1.9269,-0.64229,-1.8413,2.5692,7.2609e-13,-0.92063,0,0,0.11111,5.2633e-16,0,0.66667
0.18031,0.54288,1.6228,0.064326,6.6841,485.1,-0.27836,0.092787,-1.9827,-0.37115,-2.7873e-10,-0.99134,0,0,0.11111,-0,-0,0.66667
0.06813,0.81761,0.61317,0.47642,51.049,593.82,-0.77901,0.25967,-1.1915,-1.0387,-1.5816e-07,-0.59575,0,0,0.11111,-0,-0,0.66667
0.55126,0.16418,4.9613,-0.50373,-37.71,172.74,6.6645,-2.2215,-1.0967,8.8859,3.9693e-12,-0.54836,0,0,0.11111,-0,-0,0.66667
0.59587,0.4447,5.3628,-0.082947,-5.7298,142.53,1.1862,-0.3954,-1.9768,1.5816,9.9276e-13,-0.98839,0,0,0.11111,-0,-0,0.66667
0.1455,0.37933,1.3095,-0.181,-19.035,518.49,0.63207,-0.21069,-1.8826,0.84276,2.9223e-09,-0.94128,0,0,0.11111,-0,-0,0.66667
0.23094,0.15872,2.0785,-0.51192,-52.179,437.56,2.8374,-0.94579,-1.0687,3.7832,6.8733e-11,-0.53437,0,0,0.11111,-5.2633e-16,0,0.66667
0.28638,0.74191,2.5774,0.36287,35.813,386.5,-2.494,0.83133,-1.5302,-3.3253,9.494e-12,-0.76512,0,0,0.11111,2.6316e-16,0,0.66667
0.83075,0.99515,7.4768,0.74273,24.846,30.263,-14.809,4.9362,-0.039542,-19.745,2.3205e-09,-0.019771,0,0,0.11111,5.2633e-16,0,0.66667
0.15342,0.031936,1.3808,-0.7021,-73.991,511.14,2.5852,-0.86173,-0.2488,3.4469,-1.2421e-08,-0.1244,0,0,0.11111,5.2633e-16,0,0.66667
0.55214,0.032638,4.9692,-0.70104,-52.579,172.65,9.2898,-3.0966,-0.25193,12.386,7.5655e-12,-0.12597,0,0,0.11111,-2.1053e-15,0,0.66667
0.56814,0.19799,5.1133,-0.45302,-32.966,161.16,6.1771,-2.059,-1.2682,8.2361,1.4406e-12,-0.63412,0,0,0.11111,-0,-0,0.66667
0.34342,0.76378,3.0908,0.39568,37.527,335.9,-3.2612,1.0871,-1.4466,-4.3483,3.1508e-12,-0.72332,0,0,0.11111,-5.2633e-16,0,0.66667
0.35062,0.99772,3.1556,0.74658,70.714,330.23,-6.2823,2.0941,-0.016784,-8.3764,-1.5379e-12,-0.0083918,0,0,0.11111,-3.2895e-16,0,0.66667
0.95911,0.57855,8.632,0.11782,0.95224,2.1774,-2.712,0.90401,-1.9482,-3.616,6.3129e-09,-0.97412,0,0,0.11111,-2.1053e-15,0,0.66667
0.55334,0.21879,4.9801,-0.42181,-31.438,171.13,5.6017,-1.8672,-1.3665,7.469,2.5064e-12,-0.68326,0,0,0.11111,-0,-0,0.66667
0.65273,0.84955,5.8746,0.52433,32.344,108.8,-8.2139,2.738,-1.0224,-10.952,3.8725e-13,-0.5112,0,0,0.11111,-0,-0,0.66667
0.49074,0.44587,4.4167,-0.081192,-6.6102,215.8,0.95626,-0.31875,-1.9744,1.275,1.5912e-12,-0.98719,0,0,0.11111,-0,-0,0.66667
0.64665,0.085672,5.8198,-0.62149,-38.94,112.57,9.6453,-3.2151,-0.62464,12.86,1.9389e-12,-0.31232,0,0,0.11111,5.2633e-16,0,0.66667
0.60525,0.7387,5.4473,0.35805,24.342,136.88,-5.201,1.7337,-1.543,-6.9347,-6.0973e-13,-0.77151,0,0,0.11111,5.2633e-16,0,0.66667
0.14517,0.082599,1.3066,-0.6261,-66.083,519.01,2.1814,-0.72715,-0.60474,2.9086,3.5472e-09,-0.30237,0,0,0.11111,1.3158e-16,0,0.66667
0.33468,0.095343,3.0121,-0.60699,-58.089,343.81,4.8755,-1.6252,-0.6888,6.5007,-2.5326e-12,-0.3444,0,0,0.11111,-0,-0,0.66667
0.46043,0.92953,4.1439,0.64429,54.733,239.73,-7.1197,2.3732,-0.52173,-9.4929,9.7833e-13,-0.26087,0,0,0.11111,-0,-0,0.66667
0.12782,0.81493,1.1504,0.47239,50.018,535.67,-1.4492,0.48305,-1.2077,-1.9322,-6.2612e-09,-0.60386,0,0,0.11111,-0,-0,0.66667
0.36307,0.98364,3.2677,0.72547,67.995,319.48,-6.3215,2.1072,-0.12777,-8.4287,3.2427e-12,-0.063885,0,0,0.11111,-5.2633e-16,0,0.66667
0.22814,0.20279,2.0533,-0.44581,-45.473,440.12,2.441,-0.81366,-1.2908,3.2547,-4.7139e-11,-0.64542,0,0,0.11111,-0,-0,0.66667
0.8475,0.71505,7.6275,0.32258,9.6621,23.752,-6.5613,2.1871,-1.63,-8.7484,2.3989e-09,-0.81501,0,0,0.11111,-2.6316e-16,0,0.66667
0.34147,0.44094,3.0733,-0.08859,-8.4011,337.39,0.72603,-0.24201,-1.9737,0.96804,2.0154e-12,-0.98684,0,0,0.11111,-0,-0,0.66667
0.22679,0.76364,2.0411,0.39547,40.347,441.34,-2.1525,0.7175,-1.4412,-2.87,2.1439e-11,-0.7206,0,0,0.11111,-0,-0,0.66667
0.40818,0.28952,3.6736,-0.31572,-28.265,280.99,3.0929,-1.031,-1.6469,4.1239,8.2712e-13,-0.82346,0,0,0.11111,-0,-0,0.66667
0.68306,0.37592,6.1476,-0.18612,-10.62,91.457,3.0511,-1.017,-1.8768,4.0682,3.0462e-12,-0.93841,0,0,0.11111,-2.1053e-15,0,0.66667
0.065622,0.75153,0.5906,0.3773,40.408,596.26,-0.59422,0.19807,-1.4948,-0.79229,-1.0329e-07,-0.74742,0,0,0.11111,-0,-0,0.66667
0.18073,0.67955,1.6266,0.26933,28,484.74,-1.1682,0.3894,-1.7399,-1.5576,-4.0974e-10,-0.86993,0,0,0.11111,-1.3158e-16,0,0.66667
0.69431,0.14693,6.2488,-0.5296,-29.47,86.253,8.825,-2.9417,-1.0004,11.767,2.5659e-12,-0.50018,0,0,0.11111,-0,-0,0.66667
0.75226,0.021328,6.7703,-0.71801,-33.628,59.441,12.963,-4.321,-0.16778,17.284,-3.879e-11,-0.083891,0,0,0.11111,-2.1053e-15,0,0.66667
0.61775,0.20667,5.5598,-0.43999,-29.217,129.28,6.5234,-2.1745,-1.309,8.6978,-1.827e-12,-0.65451,0,0,0.11111,1.0527e-15,0,0.66667
0.8792,0.47542,7.9128,-0.036873,-0.88257,15.158,0.77805,-0.25935,-1.9944,1.0374,-6.544e-09,-0.99719,0,0,0.11111,-0,-0,0.66667
0.1688,0.90146,1.5192,0.6022,63.059,496.33,-2.4396,0.81321,-0.71109,-3.2528,-7.5754e-09,-0.35554,0,0,0.11111,3.4159e-17,-9.437e-17,0.66667
0.70355,0.018279,6.3319,-0.72258,-39.381,82.231,12.201,-4.067,-0.14674,16.268,9.6456e-13,-0.073368,0,0,0.11111,2.1053e-15,0,0.66667
0.91726,0.070885,8.2553,-0.64367,-10.929,9.0458,14.17,-4.7233,-0.52559,18.893,-2.0987e-07,-0.26279,0,0,0.11111,-0,-0,0.66667
0.15074,0.52781,1.3567,0.041709,4.378,513.42,-0.15089,0.050298,-1.9927,-0.20119,-2.1473e-09,-0.99633,0,0,0.11111,1.3158e-16,0,0.66667
0.24376,0.012721,2.1939,-0.73092,-74.227,425.92,4.2761,-1.4254,-0.098035,5.7015,3.1029e-11,-0.049018,0,0,0.11111,-0,-0,0.66667
0.54668,0.99856,4.9202,0.74785,56.626,176.56,-9.8121,3.2707,-0.016391,-13.083,-4.0394e-12,-0.0081956,0,0,0.11111,1.1842e-15,0,0.66667
0.34412,0.48962,3.0971,-0.01557,-1.4733,335.08,0.12859,-0.042863,-2.0025,0.17145,1.465e-12,-1.0013,0,0,0.11111,-1.0527e-15,0,0.66667
0.69064,0.82371,6.2158,0.48556,27.263,88.027,-8.0484,2.6828,-1.1614,-10.731,-1.6449e-12,-0.58071,0,0,0.11111,-0,-0,0.66667
0.057568,0.96696,0.51811,0.70045,75.345,604.23,-0.96775,0.32259,-0.25503,-1.2903,1.1987e-05,-0.12751,0,0,0.11111,9.0463e-17,0,0.66667
0.16076,0.2414,1.4469,-0.3879,-40.644,503.88,1.4966,-0.49888,-1.4638,1.9955,1.4224e-09,-0.73189,0,0,0.11111,1.3158e-16,0,0.66667
0.71624,0.22011,6.4461,-0.41983,-21.914,74.986,7.2168,-2.4056,-1.375,9.6224,8.6691e-12,-0.68749,0,0,0.11111,-0,-0,0.66667
0.97062,0.96997,8.7356,0.70495,4.3602,3.1349,-16.422,5.4739,-0.23556,-21.896,-3.7148e-05,-0.11778,0,0,0.11111,-0,-0,0.66667
0.92955,0.34051,8.366,-0.23924,-3.387,5.8219,5.3373,-1.7791,-1.7948,7.1164,-3.798e-08,-0.8974,0,0,0.11111,2.6316e-16,0,0.66667
0.90107,0.20697,8.1096,-0.43954,-8.7597,11.158,9.5053,-3.1684,-1.3112,12.674,-3.3869e-08,-0.65559,0,0,0.11111,1.0527e-15,0,0.66667
0.12774,0.17241,1.1497,-0.49138,-52.04,535.75,1.5065,-0.50217,-1.1415,2.0087,6.0918e-09,-0.57075,0,0,0.11111,-2.6316e-16,0,0.66667
0.14593,0.30722,1.3134,-0.28918,-30.422,518.1,1.0128,-0.33759,-1.7013,1.3504,3.4987e-09,-0.85067,0,0,0.11111,-6.5791e-17,0,0.66667
0.072265,0.42631,0.65038,-0.11053,-11.812,589.71,0.1917,-0.063899,-1.9543,0.25559,4.6744e-08,-0.97717,0,0,0.11111,-0,-0,0.66667
0.54254,0.11519,4.8829,-0.57721,-43.852,178.95,7.5158,-2.5053,-0.81418,10.021,4.4418e-12,-0.40709,0,0,0.11111,-0,-0,0.66667
0.88249,0.37526,7.9424,-0.18711,-4.3681,14.519,3.963,-1.321,-1.8744,5.284,-9.1156e-09,-0.93721,0,0,0.11111,2.1053e-15,0,0.66667
0.53179,0.78252,4.7861,0.42378,32.656,186.18,-5.4087,1.8029,-1.3658,-7.2116,-5.3038e-12,-0.68292,0,0,0.11111,2.1053e-15,0,0.66667
0.78172,0.38596,7.0354,-0.17106,-7.0907,45.819,3.2094,-1.0698,-1.8992,4.2791,1.1295e-11,-0.94958,0,0,0.11111,-0,-0,0.66667
0.18845,0.301,1.6961,-0.2985,-30.946,477.41,1.3501,-0.45003,-1.6856,1.8001,2.3267e-10,-0.84281,0,0,0.11111,-2.6316e-16,0,0.66667
0.86311,0.71527,7.768,0.32291,8.7408,19.488,-6.6889,2.2296,-1.6293,-8.9186,5.8142e-09,-0.81466,0,0,0.11111,-1.0527e-15,0,0.66667
0.18742,0.90243,1.6868,0.60365,62.78,478.59,-2.7153,0.90512,-0.70904,-3.6205,2.4356e-09,-0.35452,0,0,0.11111,-3.9475e-16,5.6412e-17,0.66667
0.054764,0.79497,0.49288,0.44246,47.474,606.92,-0.58154,0.19385,-1.3012,-0.77539,-7.1324e-08,-0.65059,0,0,0.11111,-0,-0,0.66667
0.42149,0.62865,3.7934,0.19298,17.034,270.01,-1.9521,0.6507,-1.8718,-2.6028,-1.8675e-12,-0.93589,0,0,0.11111,1.0527e-15,0,0.66667
0.5551,0.16386,4.9959,-0.50421,-37.514,170.1,6.7173,-2.2391,-1.0938,8.9564,4.2122e-12,-0.54689,0,0,0.11111,-0,-0,0.66667
0.97074,0.74895,8.7367,0.37342,2.1616,1.7384,-8.6999,2.9,-1.5066,-11.6,-7.1394e-07,-0.75329,0,0,0.11111,5.2633e-16,0,0.66667
0.091754,0.59239,0.82578,0.13858,14.762,570.65,-0.30516,0.10172,-1.934,-0.40688,-3.1208e-08,-0.96701,0,0,0.11111,1.8093e-16,0,0.66667
0.27392,0.28359,2.4653,-0.32461,-32.274,397.78,2.134,-0.71134,-1.6238,2.8454,-4.3032e-12,-0.81191,0,0,0.11111,-0,-0,0.66667
0.10511,0.48108,0.94596,-0.028376,-3.0142,557.62,0.071581,-0.02386,-1.9958,0.095441,1.0742e-08,-0.9979,0,0,0.11111,-0,-0,0.66667
0.39044,0.77681,3.514,0.41522,37.839,295.82,-3.8908,1.2969,-1.3914,-5.1877,-1.7142e-13,-0.6957,0,0,0.11111,6.5791e-16,0,0.66667
0.28901,0.22681,2.6011,-0.40979,-40.393,384.16,2.8424,-0.94747,-1.4006,3.7899,-1.0416e-12,-0.70028,0,0,0.11111,-5.2633e-16,0,0.66667
0.5133,0.075364,4.6197,-0.63695,-50.563,199.93,7.8468,-2.6156,-0.55801,10.462,2.0837e-12,-0.27901,0,0,0.11111,-0,1.4977e-16,0.66667
0.34826,0.67315,3.1343,0.25972,24.514,331.58,-2.1708,0.72359,-1.7586,-2.8943,9.6678e-13,-0.8793,0,0,0.11111,-5.2633e-16,0,0.66667
0.92823,0.41132,8.3541,-0.13302,-1.9131,5.8679,2.9634,-0.98781,-1.9353,3.9512,-3.5332e-09,-0.96766,0,0,0.11111,2.1053e-15,0,0.66667
0.78995,0.43275,7.1095,-0.10088,-4.0384,42.594,1.9125,-0.6375,-1.962,2.55,2.224e-11,-0.98098,0,0,0.11111,-0,-0,0.66667
0.86101,0.8875,7.7491,0.58124,16.102,20.843,-12.011,4.0037,-0.8002,-16.015,4.567e-09,-0.4001,0,0,0.11111,-0,-0,0.66667
0.1295,0.053844,1.1655,-0.66923,-70.985,534.16,2.08,-0.69333,-0.40632,2.7733,-4.6517e-09,-0.20316,0,0,0.11111,1.3158e-16,0,0.66667
0.57507,0.27064,5.1756,-0.34403,-24.71,156.34,4.7482,-1.5827,-1.579,6.331,2.033e-12,-0.78951,0,0,0.11111,-0,-0,0.66667
0.21478,0.17028,1.933,-0.49458,-50.788,452.66,2.5495,-0.84982,-1.1291,3.3993,-6.554e-11,-0.56456,0,0,0.11111,-0,-0,0.66667
0.86824,0.10273,7.8141,-0.59591,-15.714,19.047,12.417,-4.1391,-0.73507,16.556,-1.7084e-08,-0.36753,0,0,0.11111,-0,-0,0.66667
0.015019,0.60019,0.13517,0.15028,16.143,645.96,-0.054172,0.018057,-1.9231,-0.07223,7.9458e-08,-0.96156,0,0,0.11111,3.2895e-17,0,0.66667
0.10574,0.29871,0.9517,-0.30193,-32.096,557.04,0.76626,-0.25542,-1.675,1.0217,2.4584e-08,-0.83751,0,0,0.11111,-1.2523e-16,0,0.66667
0.37606,0.61931,3.3845,0.17896,16.496,307.71,-1.6152,0.5384,-1.889,-2.1536,4.3199e-13,-0.94449,0,0,0.11111,5.2633e-16,0,0.66667
0.40209,0.93865,3.6188,0.65798,59.484,286.55,-6.3496,2.1165,-0.46082,-8.4662,2.6188e-12,-0.23041,0,0,0.11111,1.0527e-15,-1.7867e-19,0.66667
0.27722,0.74272,2.495,0.36408,36.136,394.81,-2.4223,0.80744,-1.528,-3.2297,5.0555e-12,-0.76398,0,0,0.11111,2.6316e-16,0,0.66667
0.096063,0.90372,0.86457,0.60558,64.677,566.58,-1.3962,0.46539,-0.69776,-1.8616,-3.7709e-08,-0.34888,0,0,0.11111,-0,-0,0.66667
0.11873,0.047085,1.0686,-0.67937,-72.267,544.59,1.9359,-0.6453,-0.35644,2.5812,-4.6104e-09,-0.17822,0,0,0.11111,-2.6316e-16,0,0.66667
0.31794,0.85232,2.8615,0.52849,51.151,358.42,-4.0327,1.3442,-1.0051,-5.3769,9.0061e-13,-0.50256,0,0,0.11111,-1.0527e-15,0,0.66667
0.95079,0.10084,8.5571,-0.59873,-6.0805,4.3057,13.663,-4.5542,-0.72638,18.217,-7.8475e-07,-0.36319,0,0,0.11111,2.1053e-15,0,0.66667
0.20741,0.15554,1.8667,-0.51669,-53.243,459.62,2.5719,-0.85731,-1.0509,3.4293,-6.1667e-11,-0.52546,0,0,0.11111,3.783e-16,0,0.66667
0.74728,0.73713,6.7255,0.3557,16.802,60.45,-6.3794,2.1265,-1.5502,-8.5059,-2.2111e-11,-0.77511,0,0,0.11111,1.0527e-15,0,0.66667
0.25819,0.083307,2.3237,-0.62504,-62.893,412.48,3.8731,-1.291,-0.60837,5.1641,2.7498e-11,-0.30419,0,0,0.11111,-0,-0,0.66667
0.03724,0.51511,0.33516,0.022668,2.4315,624.09,-0.02026,0.006753,-1.9958,-0.027014,-4.614e-07,-0.99788,0,0,0.11111,1.3158e-16,0,0.66667
0.016052,0.10748,0.14447,-0.58878,-63.44,644.97,0.22682,-0.075607,-0.77056,0.30243,1.9188e-06,-0.38528,0,0,0.11111,3.2895e-17,0,0.66667
0.15271,0.48613,1.3744,-0.020811,-2.1831,511.53,0.076271,-0.025424,-1.9977,0.1017,-8.9175e-10,-0.99884,0,0,0.11111,2.6316e-16,0,0.66667
0.46208,0.31167,4.1588,-0.2825,-23.854,237.83,3.133,-1.0443,-1.7151,4.1773,2.9212e-12,-0.85757,0,0,0.11111,-3.9475e-16,0,0.66667
0.7559,0.25769,6.8031,-0.36347,-16.663,56.715,6.594,-2.198,-1.5283,8.792,2.0471e-11,-0.76417,0,0,0.11111,-0,-0,0.66667
0.72881,0.74553,6.5593,0.36829,18.485,68.874,-6.442,2.1473,-1.5164,-8.5893,-1.042e-11,-0.75819,0,0,0.11111,-1.3158e-15,0,0.66667
0.35239,0.71762,3.1715,0.32643,30.722,328.06,-2.7608,0.92025,-1.6199,-3.681,2.9505e-12,-0.80995,0,0,0.11111,7.7587e-16,0,0.66667
0.47914,0.78415,4.3123,0.42622,35.296,224.9,-4.9013,1.6338,-1.3532,-6.535,-5.0093e-13,-0.67658,0,0,0.11111,1.0527e-15,0,0.66667
0.81407,0.49966,7.3267,-0.00050605,-0.018138,33.889,0.0098871,-0.0032957,-2.0031,0.013183,5.1372e-10,-1.0015,0,0,0.11111,3.3224e-15,0,0.66667
0.8384,0.92464,7.5456,0.63697,20.333,27.436,-12.817,4.2723,-0.55536,-17.089,-3.265e-09,-0.27768,0,0,0.11111,-1.0527e-15,0,0.66667
0.31992,0.86752,2.8793,0.55128,53.297,356.71,-4.2328,1.4109,-0.91713,-5.6437,1.1497e-12,-0.45856,0,0,0.11111,2.6316e-16,0,0.66667
0.004265,0.70859,0.038385,0.31288,33.64,656.55,-0.032027,0.010675,-1.6507,-0.042702,-6.8219e-07,-0.82537,0,0,0.11111,-0,-0,0.66667
0.046931,0.6721,0.42238,0.25816,27.687,614.58,-0.29077,0.096924,-1.7668,-0.3877,8.9459e-08,-0.88339,0,0,0.11111,-0,-0,0.66667
0.73781,0.43735,6.6403,-0.093982,-4.5708,64.349,1.6642,-0.55473,-1.9696,2.2189,2.3669e-12,-0.98479,0,0,0.11111,3.2895e-16,0,0.66667
0.27263,0.27182,2.4537,-0.34226,-34.059,398.97,2.2395,-0.7465,-1.5811,2.986,-5.175e-12,-0.79053,0,0,0.11111,-2.6316e-16,0,0.66667
0.48149,0.45736,4.3334,-0.063954,-5.2687,222.78,0.73903,-0.24634,-1.9854,0.98537,-1.2542e-12,-0.99272,0,0,0.11111,-0,-0,0.66667
0.19203,0.87317,1.7283,0.55976,58.08,474.18,-2.5798,0.85993,-0.88566,-3.4397,2.9927e-10,-0.44283,0,0,0.11111,-0,-0,0.66667
0.84711,0.65464,7.624,0.23197,6.9524,23.694,-4.716,1.572,-1.8094,-6.288,2.5119e-09,-0.90472,0,0,0.11111,-3.9475e-16,0,0.66667
0.50338,0.3426,4.5304,-0.2361,-18.914,206.49,2.8524,-0.95079,-1.8026,3.8032,8.0869e-13,-0.90131,0,0,0.11111,6.5791e-17,0,0.66667
0.52716,0.59032,4.7444,0.13548,10.49,189.13,-1.7141,0.57138,-1.9345,-2.2855,-4.6441e-13,-0.96725,0,0,0.11111,-1.3158e-15,0,0.66667
0.28808,0.59184,2.5927,0.13776,13.566,384.83,-0.95248,0.31749,-1.9312,-1.27,3.6267e-12,-0.96559,0,0,0.11111,7.6635e-16,0,0.66667
0.512,0.0050055,4.608,-0.74249,-59.159,201.17,9.1237,-3.0412,-0.039759,12.165,2.3483e-12,-0.01988,0,0,0.11111,-0,-0,0.66667
0.0019636,0.26462,0.017673,-0.35307,-37.971,658.82,0.016639,-0.0055457,-1.5577,0.022186,1.092e-06,-0.77885,0,0,0.11111,-0,-0,0.66667
0.2773,0.82272,2.4957,0.48407,48.095,394.85,-3.2215,1.0738,-1.1659,-4.2954,6.1429e-12,-0.58294,0,0,0.11111,-0,-0,0.66667
0.34876,0.43918,3.1389,-0.091233,-8.6023,331.06,0.76365,-0.25455,-1.9698,1.0182,7.9992e-14,-0.98492,0,0,0.11111,-0,-0,0.66667
0.28395,0.056621,2.5556,-0.66507,-65.953,389.05,4.5323,-1.5108,-0.42804,6.0431,2.1991e-12,-0.21402,0,0,0.11111,3.9475e-16,0,0.66667
0.085952,0.497,0.77357,-0.0044972,-0.47949,576.31,0.0092771,-0.0030925,-1.9983,0.012369,-1.0994e-07,-0.99914,0,0,0.11111,-0,-0,0.66667
0.52178,0.62559,4.696,0.18839,14.704,193.03,-2.3592,0.78639,-1.8729,-3.1455,1.8467e-12,-0.93646,0,0,0.11111,-0,-0,0.66667
0.78848,0.46064,7.0963,-0.059035,-2.3777,43.13,1.1171,-0.37238,-1.9853,1.4895,-3.7333e-11,-0.99264,0,0,0.11111,5.2633e-16,0,0.66667
0.9426,0.42139,8.4834,-0.11791,-1.3529,3.9256,2.6674,-0.88912,-1.9486,3.5565,5.5848e-08,-0.9743,0,0,0.11111,2.1053e-15,0,0.66667
0.49729,0.57243,4.4756,0.10864,8.7697,210.91,-1.2966,0.43221,-1.9583,-1.7289,-2.1492e-12,-0.97915,0,0,0.11111,-0,-0,0.66667
0.59375,0.57209,5.3438,0.10814,7.4996,143.9,-1.5409,0.51365,-1.9625,-2.0546,3.2373e-12,-0.98125,0,0,0.11111,-0,-0,0.66667
0.29086,0.61677,2.6177,0.17516,17.22,382.33,-1.2227,0.40758,-1.8889,-1.6303,6.8929e-12,-0.94444,0,0,0.11111,-0,-0,0.66667
0.14916,0.66568,1.3424,0.24852,26.114,514.98,-0.88967,0.29656,-1.778,-1.1862,-2.9953e-09,-0.88898,0,0,0.11111,-0,-0,0.66667
0.13187,0.73447,1.1868,0.35171,37.164,531.7,-1.1131,0.37104,-1.5575,-1.4842,-7.1362e-09,-0.77876,0,0,0.11111,-0,-0,0.66667
0.73236,0.34327,6.5912,-0.2351,-11.649,66.988,4.1323,-1.3774,-1.8059,5.5097,1.4405e-11,-0.90297,0,0,0.11111,-1.3487e-15,0,0.66667
0.73447,0.44013,6.6102,-0.089805,-4.4153,65.876,1.583,-0.52767,-1.9762,2.1107,2.0847e-12,-0.98809,0,0,0.11111,2.1053e-15,0,0.66667
0.17935,0.52526,1.6142,0.03789,3.9385,486,-0.16309,0.054365,-1.9928,-0.21746,-2.3509e-10,-0.9964,0,0,0.11111,-2.6316e-16,0,0.66667
0.41356,0.24938,3.722,-0.37593,-33.493,276.65,3.7313,-1.2438,-1.4963,4.9751,1.3813e-12,-0.74817,0,0,0.11111,-1.6448e-16,0,0.66667
0.59414,0.30618,5.3473,-0.29072,-20.17,143.82,4.1456,-1.3819,-1.7033,5.5274,3.1486e-13,-0.85163,0,0,0.11111,5.2633e-16,0,0.66667
0.12528,0.028402,1.1275,-0.7074,-75.154,538.27,2.127,-0.70899,-0.22526,2.836,-1.0159e-07,-0.11263,0,0,0.11111,2.6316e-16,0,0.66667
0.78537,0.53462,7.0683,0.051929,2.119,44.318,-0.97881,0.32627,-1.9902,-1.3051,5.5687e-11,-0.99508,0,0,0.11111,-0,-0,0.66667
0.61999,0.97729,5.5799,0.71594,47.563,128.7,-10.653,3.551,-0.17595,-14.204,-1.525e-12,-0.087976,0,0,0.11111,2.1053e-15,0,0.66667
0.61522,0.1438,5.537,-0.53431,-35.71,131.06,7.8892,-2.6297,-0.98267,10.519,-1.2879e-13,-0.49134,0,0,0.11111,-0,-0,0.66667
0.70121,0.72359,6.3109,0.33538,18.255,82.259,-5.6441,1.8814,-1.6019,-7.5255,-3.1237e-12,-0.80093,0,0,0.11111,-2.1053e-15,0,0.66667
0.98718,0.23065,8.8846,-0.40402,-0.94405,0.96691,9.5723,-3.1908,-1.4196,12.763,-8.4478e-08,-0.70982,0,0,0.11111,-2.1053e-15,0,0.66667
0.56239,0.94628,5.0616,0.66942,49.352,165.57,-9.0355,3.0118,-0.41063,-12.047,1.66e-12,-0.20531,0,0,0.11111,-1.0527e-15,-1.0635e-16,0.66667
0.86442,0.18481,7.7797,-0.47279,-12.741,19.562,9.8084,-3.2695,-1.2045,13.078,-3.8962e-09,-0.60224,0,0,0.11111,-1.579e-15,0,0.66667
0.41871,0.46732,3.7684,-0.049024,-4.3378,272.21,0.49264,-0.16421,-1.9924,0.65685,-4.7789e-12,-0.99621,0,0,0.11111,-1.3158e-16,0,0.66667
0.65447,0.36218,5.8902,-0.20673,-12.652,107.2,3.2472,-1.0824,-1.8493,4.3295,-5.6e-13,-0.92463,0,0,0.11111,-0,-0,0.66667
0.92526,0.89516,8.3274,0.59274,9.0816,7.5474,-13.163,4.3875,-0.75027,-17.55,2.2723e-07,-0.37514,0,0,0.11111,-0,-0,0.66667
0.66415,0.023376,5.9774,-0.71494,-43.117,103,11.396,-3.7986,-0.18029,15.194,2.0819e-12,-0.090146,0,0,0.11111,-0,-0,0.66667
0.30308,0.34674,2.7277,-0.2299,-22.427,371.38,1.6723,-0.55742,-1.8107,2.2297,-3.838e-12,-0.90536,0,0,0.11111,-0,-0,0.66667
0.61995,0.97933,5.5795,0.71899,47.773,128.74,-10.698,3.5659,-0.16021,-14.263,1.1537e-12,-0.080104,0,0,0.11111,-0,-0,0.66667
0.35132,0.026396,3.1619,-0.71041,-67.212,329.55,5.9899,-1.9966,-0.20365,7.9865,4.0798e-12,-0.10182,0,0,0.11111,2.6316e-16,0,0.66667
0.32237,0.86407,2.9013,0.5461,52.7,354.54,-4.2251,1.4084,-0.93748,-5.6334,1.5752e-12,-0.46874,0,0,0.11111,-5.2633e-16,0,0.66667
0.61021,0.77502,5.4918,0.41253,27.796,133.88,-6.0415,2.0138,-1.398,-8.0553,5.3202e-13,-0.69901,0,0,0.11111,-5.2633e-16,0,0.66667
0.16032,0.98614,1.4429,0.72922,76.708,504.55,-2.8058,0.93528,-0.10808,-3.7411,3.4951e-10,-0.054038,0,0,0.11111,-2.6316e-16,0,0.66667
0.48674,0.56437,4.3807,0.096555,7.902,218.81,-1.1279,0.37598,-1.9686,-1.5039,-3.2673e-12,-0.98431,0,0,0.11111,-0,-0,0.66667
0.94563,0.87144,8.5107,0.55716,6.2192,4.6881,-12.645,4.2149,-0.89454,-16.86,4.955e-08,-0.44727,0,0,0.11111,-0,-0,0.66667
0.38391,0.026221,3.4552,-0.71067,-65.397,301.8,6.5481,-2.1827,-0.20242,8.7307,1.5983e-12,-0.10121,0,0,0.11111,-0,-0,0.66667
0.18896,0.3976,1.7007,-0.1536,-15.911,476.87,0.6966,-0.2322,-1.918,0.92881,2.121e-10,-0.95902,0,0,0.11111,-1.3158e-16,0,0.66667
0.46884,0.25317,4.2196,-0.37025,-31.034,232.71,4.1661,-1.3887,-1.5174,5.5548,3.3484e-13,-0.75868,0,0,0.11111,-0,-0,0.66667
0.84091,0.14734,7.5682,-0.52898,-16.577,26.267,10.676,-3.5586,-1.0053,14.234,-1.7863e-10,-0.50264,0,0,0.11111,-0,-0,0.66667
0.84267,0.0057302,7.584,-0.7414,-23.204,26.657,14.994,-4.9981,-0.048389,19.992,3.7066e-09,-0.024195,0,0,0.11111,-0,7.8814e-17,0.66667
0.8278,0.069263,7.4502,-0.64611,-21.865,30.745,12.836,-4.2788,-0.51957,17.115,5.0996e-09,-0.25978,0,0,0.11111,-2.1053e-15,-8.9252e-17,0.66667
0.011476,0.066649,0.10328,-0.65003,-70.099,649.47,0.17902,-0.059655,-0.49725,0.2387,2.7298e-05,-0.24863,0,0,0.11111,-0,-0,0.66667
0.26704,0.75264,2.4034,0.37896,37.845,404.1,-2.4288,0.80959,-1.4922,-3.2383,1.1696e-11,-0.7461,0,0,0.11111,-0,-0,0.66667
0.99988,0.8338,8.9989,0.50071,-0.14849,1.0043,-12.015,4.0051,-1.1124,-16.021,4.1701e-07,-0.55622,0,0,0.11111,-1.0527e-15,-8.1033e-18,0.66667
0.11968,0.26451,1.0771,-0.35324,-37.443,543.51,1.0146,-0.33821,-1.5543,1.3528,1.2163e-08,-0.77713,0,0,0.11111,-0,-0,0.66667
0.49009,0.72365,4.4108,0.33547,27.372,216.49,-3.9459,1.3153,-1.5984,-5.2611,-1.4462e-12,-0.79919,0,0,0.11111,-0,-0,0.66667
0.79003,0.21443,7.1102,-0.42836,-17.22,43.112,8.122,-2.7073,-1.3458,10.829,3.0776e-11,-0.67291,0,0,0.11111,-5.2633e-16,0,0.66667
0.12221,0.62741,1.0999,0.19111,20.227,541.01,-0.56054,0.18685,-1.8713,-0.74739,-7.5325e-09,-0.93566,0,0,0.11111,-0,-0,0.66667
0.66241,0.7714,5.9617,0.4071,24.507,103.05,-6.472,2.1573,-1.4085,-8.6294,9.7966e-13,-0.70425,0,0,0.11111,-1.0527e-15,0,0.66667
0.48808,0.77185,4.3927,0.40777,33.381,218.11,-4.7766,1.5922,-1.4081,-6.3688,-7.061e-13,-0.70406,0,0,0.11111,5.2633e-16,0,0.66667
0.19429,0.75179,1.7486,0.37768,39.085,471.91,-1.7611,0.58704,-1.4915,-2.3481,-8.3458e-11,-0.74576,0,0,0.11111,5.2633e-16,0,0.66667
0.87863,0.66892,7.9077,0.25339,6.1087,15.512,-5.3432,1.7811,-1.7709,-7.1243,1.1439e-08,-0.88545,0,0,0.11111,-0,-0,0.66667
0.18149,0.54719,1.6334,0.070791,7.3527,483.97,-0.30834,0.10278,-1.9798,-0.41112,-1.8306e-10,-0.98988,0,0,0.11111,-2.6316e-16,0,0.66667
0.63905,0.6496,5.7515,0.22439,14.218,116.13,-3.4416,1.1472,-1.823,-4.5888,1.0232e-12,-0.91148,0,0,0.11111,-5.2633e-16,0,0.66667
0.74083,0.71345,6.6674,0.32018,15.449,63.258,-5.6928,1.8976,-1.6337,-7.5904,-1.6685e-11,-0.81684,0,0,0.11111,-0,-0,0.66667
0.56267,0.3174,5.0641,-0.2739,-20.077,164.54,3.6988,-1.2329,-1.7376,4.9317,1.9098e-12,-0.8688,0,0,0.11111,-0,-0,0.66667
0.62884,0.67071,5.6596,0.25606,16.587,122.23,-3.8645,1.2882,-1.7658,-5.1526,1.612e-13,-0.88291,0,0,0.11111,-0,-0,0.66667
0.11897,0.69832,1.0707,0.29748,31.526,544.19,-0.84934,0.28311,-1.6831,-1.1325,-1.2558e-08,-0.84155,0,0,0.11111,-0,-0,0.66667
0.30804,0.30569,2.7723,-0.29147,-28.347,366.99,2.1548,-0.71827,-1.6969,2.8731,-3.5394e-12,-0.84846,0,0,0.11111,-0,-0,0.66667
0.58696,0.82402,5.2827,0.48602,34.242,148.81,-6.8467,2.2822,-1.1576,-9.1289,5.5556e-13,-0.57879,0,0,0.11111,-0,-0,0.66667
0.39546,0.068938,3.5592,-0.64659,-58.814,292.02,6.1369,-2.0456,-0.51226,8.1825,7.3896e-13,-0.25613,0,0,0.11111,1.0527e-15,0,0.66667
0.66395,0.084435,5.9755,-0.62335,-37.532,102.79,9.9329,-3.311,-0.61596,13.244,1.0605e-12,-0.30798,0,0,0.11111,-0,-0,0.66667
0.85195,0.33421,7.6676,-0.24869,-7.2348,22.351,5.085,-1.695,-1.7776,6.7799,-3.1713e-09,-0.8888,0,0,0.11111,1.0527e-15,0,0.66667
0.19022,0.95525,1.712,0.68287,71.013,476.01,-3.1175,1.0392,-0.34206,-4.1567,-5.1563e-10,-0.17103,0,0,0.11111,-0,-0,0.66667
0.90327,0.37994,8.1295,-0.18009,-3.4817,10.151,3.9042,-1.3014,-1.8852,5.2055,-2.1188e-08,-0.94262,0,0,0.11111,-0,-0,0.66667
0.38318,0.17095,3.4486,-0.49357,-45.316,302.02,4.539,-1.513,-1.1311,6.052,9.4147e-14,-0.56553,0,0,0.11111,-5.2633e-16,0,0.66667
0.94312,0.51738,8.4881,0.026069,0.29596,3.8123,-0.59007,0.19669,-1.9954,-0.78676,-2.5308e-07,-0.99768,0,0,0.11111,-2.1053e-15,0,0.66667
0.61738,0.82548,5.5564,0.48822,32.466,129.62,-7.2341,2.4114,-1.1498,-9.6454,-9.6367e-14,-0.57489,0,0,0.11111,-0,-0,0.66667
0.7901,0.40025,7.1109,-0.14963,-5.9881,42.577,2.8373,-0.94575,-1.9184,3.783,-4.3549e-11,-0.9592,0,0,0.11111,1.0527e-15,0,0.66667
0.51478,0.39592,4.633,-0.15612,-12.306,198.07,1.9289,-0.64295,-1.916,2.5718,-5.9597e-13,-0.958,0,0,0.11111,5.2633e-16,0,0.66667
0.53114,0.32311,4.7803,-0.26534,-20.437,186.4,3.3824,-1.1275,-1.7535,4.5098,1.311e-12,-0.87675,0,0,0.11111,-0,-0,0.66667
0.32759,0.9063,2.9483,0.60945,58.636,350.03,-4.7916,1.5972,-0.68403,-6.3888,-2.8209e-12,-0.34202,0,0,0.11111,-0,-0,0.66667
0.12936,0.2785,1.1643,-0.33225,-35.126,534.12,1.0315,-0.34385,-1.6072,1.3754,8.4101e-09,-0.80359,0,0,0.11111,-6.5791e-17,0,0.66667
0.38382,0.86047,3.4544,0.54071,49.642,301.55,-4.9809,1.6603,-0.95782,-6.6412,-4.3521e-13,-0.47891,0,0,0.11111,-0,-0,0.66667
0.21498,0.73514,1.9348,0.35271,36.172,452.38,-1.8198,0.60659,-1.5567,-2.4264,1.3999e-11,-0.77834,0,0,0.11111,-2.6316e-16,0,0.66667
0.032865,0.56739,0.29579,0.10109,10.848,628.4,-0.079734,0.026578,-1.9659,-0.10631,1.6857e-07,-0.98293,0,0,0.11111,6.5791e-17,0,0.66667
0.27489,0.69785,2.474,0.29677,29.484,396.88,-1.9579,0.65263,-1.6845,-2.6105,1.0377e-11,-0.84225,0,0,0.11111,-0,-0,0.66667
0.18058,0.11326,1.6252,-0.5801,-60.472,485.08,2.5141,-0.83802,-0.8009,3.3521,-7.6199e-10,-0.40045,0,0,0.11111,-0,-0,0.66667
0.87553,0.49453,7.8798,-0.008206,-0.2021,16.021,0.17243,-0.057477,-2.0034,0.22991,1.208e-08,-1.0017,0,0,0.11111,-1.579e-15,0,0.66667
0.081237,0.69773,0.73113,0.2966,31.676,580.95,-0.57828,0.19276,-1.687,-0.77104,-4.8513e-08,-0.84352,0,0,0.11111,-0,-0,0.66667
0.1839,0.31932,1.6551,-0.27102,-28.143,481.73,1.1961,-0.39871,-1.7385,1.5948,3.1763e-10,-0.86927,0,0,0.11111,-0,-0,0.66667
0.70403,0.1336,6.3363,-0.5496,-29.787,81.369,9.2864,-3.0955,-0.92875,12.382,6.2785e-12,-0.46438,0,0,0.11111,-0,-0,0.66667
0.91923,0.11438,8.273,-0.57844,-9.5477,8.4312,12.761,-4.2537,-0.81064,17.015,2.8606e-09,-0.40532,0,0,0.11111,-0,1.5207e-17,0.66667
0.25146,0.13385,2.2631,-0.54922,-55.417,418.58,3.3146,-1.1049,-0.9294,4.4194,8.5372e-12,-0.4647,0,0,0.11111,-0,-0,0.66667
0.021301,0.55831,0.19171,0.087459,9.391,639.78,-0.044712,0.014904,-1.9714,-0.059616,9.8796e-08,-0.98572,0,0,0.11111,-4.9343e-17,0,0.66667
0.9605,0.04349,8.6445,-0.68476,-5.6599,3.8013,15.785,-5.2618,-0.33012,21.047,-1.8838e-05,-0.16506,0,0,0.11111,2.1053e-15,0,0.66667
0.68222,0.17197,6.14,-0.49205,-28.245,92.471,8.0565,-2.6855,-1.1371,10.742,8.189e-13,-0.56854,0,0,0.11111,-0,-0,0.66667
0.31066,0.6582,2.796,0.23731,23.031,364.61,-1.7693,0.58978,-1.8022,-2.3591,2.6039e-12,-0.90108,0,0,0.11111,1.0527e-15,0,0.66667
0.47237,0.20238,4.2514,-0.44643,-37.288,230.11,5.0611,-1.687,-1.2905,6.7482,-2.8542e-12,-0.64526,0,0,0.11111,1.0527e-15,0,0.66667
0.59926,0.48702,5.3933,-0.019466,-1.336,140.36,0.27996,-0.09332,-1.9965,0.37328,-1.0709e-12,-0.99825,0,0,0.11111,1.0527e-15,0,0.66667
0.37387,0.86508,3.3648,0.54762,50.727,309.96,-4.9137,1.6379,-0.93601,-6.5516,1.1027e-12,-0.468,0,0,0.11111,-0,1.2729e-16,0.66667
0.87449,0.032853,7.8704,-0.70072,-17.753,17.989,14.707,-4.9022,-0.25856,19.609,8.9372e-08,-0.12928,0,0,0.11111,2.1053e-15,0,0.66667
0.72617,0.93322,6.5356,0.64983,33.079,70.947,-11.325,3.7751,-0.4967,-15.101,-7.4269e-12,-0.24835,0,0,0.11111,2.6316e-16,0,0.66667
0.95434,0.26746,8.5891,-0.34881,-3.2021,3.0421,7.9892,-2.6631,-1.5694,10.652,2.7077e-08,-0.78468,0,0,0.11111,1.0527e-15,0,0.66667
0.35107,0.12445,3.1596,-0.56333,-53.198,329.5,4.7464,-1.5821,-0.87054,6.3285,6.5117e-12,-0.43527,0,0,0.11111,-6.9081e-16,0,0.66667
0.93717,0.3407,8.4346,-0.23895,-3.0156,4.7713,5.3746,-1.7915,-1.8014,7.1661,-1.8207e-08,-0.90069,0,0,0.11111,5.2633e-16,0,0.66667
0.4791,0.76559,4.3119,0.39838,32.982,224.89,-4.5807,1.5269,-1.4336,-6.1076,8.7841e-13,-0.71682,0,0,0.11111,-0,-0,0.66667
0.64232,0.090553,5.7809,-0.61417,-38.846,115.05,9.4679,-3.156,-0.66118,12.624,1.1049e-12,-0.33059,0,0,0.11111,1.0527e-15,0,0.66667
0.73665,0.31012,6.6298,-0.28482,-13.926,65.092,5.0355,-1.6785,-1.7133,6.714,1.5399e-11,-0.85667,0,0,0.11111,-5.2633e-16,0,0.66667
0.80934,0.89091,7.284,0.58637,21.713,36.633,-11.39,3.7966,-0.77706,-15.186,1.1303e-10,-0.38853,0,0,0.11111,-0,-0,0.66667
0.39626,0.89415,3.5663,0.59122,53.695,291.25,-5.6226,1.8742,-0.75503,-7.4968,-5.9552e-13,-0.37751,0,0,0.11111,-0,-0,0.66667
0.44795,0.27074,4.0315,-0.34389,-29.53,248.97,3.6971,-1.2324,-1.5777,4.9295,-8.2157e-14,-0.78884,0,0,0.11111,-0,-0,0.66667
0.81728,0.33538,7.3555,-0.24692,-8.7268,33.005,4.8433,-1.6144,-1.7818,6.4578,-3.9715e-10,-0.89091,0,0,0.11111,-5.2633e-16,0,0.66667
0.71756,0.077759,6.458,-0.63336,-33.077,74.992,10.907,-3.6358,-0.57567,14.543,6.966e-12,-0.28783,0,0,0.11111,-1.0527e-15,0,0.66667
0.94085,0.1697,8.4676,-0.49544,-5.9799,5.0117,11.187,-3.7291,-1.1267,14.916,-2.4752e-08,-0.56333,0,0,0.11111,-0,-0,0.66667
0.9796,0.28008,8.8164,-0.32988,-1.2837,1.0884,7.7556,-2.5852,-1.6128,10.341,4.9132e-07,-0.80639,0,0,0.11111,2.8948e-15,0,0.66667
0.17891,0.3144,1.6102,-0.27841,-28.965,486.48,1.1955,-0.39848,-1.723,1.5939,4.656e-10,-0.86151,0,0,0.11111,-5.2633e-16,0,0.66667
0.22792,0.78968,2.0513,0.43452,44.322,440.31,-2.3768,0.79228,-1.3265,-3.1691,2.4216e-11,-0.66324,0,0,0.11111,-0,-0,0.66667
0.71599,0.98282,6.4439,0.72423,38.092,76.106,-12.445,4.1483,-0.13506,-16.593,9.8588e-13,-0.067531,0,0,0.11111,-0,1.3028e-16,0.66667
0.74738,0.39468,6.7264,-0.15798,-7.4432,60.101,2.8337,-0.94456,-1.9115,3.7782,1.5164e-11,-0.95576,0,0,0.11111,-1.0527e-15,0,0.66667
0.60318,0.78779,5.4286,0.43169,29.491,138.32,-6.2492,2.0831,-1.3355,-8.3323,1.2887e-12,-0.66775,0,0,0.11111,-0,-0,0.66667
0.8773,0.2043,7.8957,-0.44355,-10.866,16.29,9.3391,-3.113,-1.301,12.452,-7.2559e-09,-0.6505,0,0,0.11111,-0,-0,0.66667
0.25199,0.84827,2.2679,0.5224,52.68,418.06,-3.1594,1.0531,-1.0314,-4.2125,2.8521e-11,-0.51572,0,0,0.11111,-0,-0,0.66667
0.33949,0.70518,3.0554,0.30777,29.259,339.25,-2.5076,0.83588,-1.6618,-3.3435,2.3426e-12,-0.83091,0,0,0.11111,-5.2633e-16,0,0.66667
0.49465,0.91912,4.4518,0.62868,51.176,213.64,-7.4634,2.4878,-0.59263,-9.9512,-1.8932e-12,-0.29632,0,0,0.11111,-0,-0,0.66667
0.31503,0.16911,2.8352,-0.49633,-48.122,360.97,3.7526,-1.2509,-1.1244,5.0035,1.2155e-12,-0.5622,0,0,0.11111,-5.2633e-16,0,0.66667
0.54544,0.92985,4.909,0.64477,48.82,177.11,-8.4404,2.8135,-0.52391,-11.254,-1.6271e-12,-0.26196,0,0,0.11111,-5.2633e-16,0,0.66667
0.68248,0.15082,6.1423,-0.52377,-30.063,92.422,8.579,-2.8597,-1.0234,11.439,9.7611e-13,-0.5117,0,0,0.11111,-5.2633e-16,0,0.66667
0.22037,0.13559,1.9833,-0.54661,-56.018,447.47,2.8909,-0.96364,-0.93922,3.8546,3.0561e-11,-0.46961,0,0,0.11111,-0,-0,0.66667
0.48534,0.99547,4.368,0.74321,61.351,220.93,-8.6569,2.8856,-0.039235,-11.543,1.6955e-12,-0.019617,0,0,0.11111,1.0527e-15,0,0.66667
0.99298,0.84286,8.9368,0.51429,0.61797,1.1878,-12.256,4.0854,-1.0584,-16.342,2.5456e-06,-0.52921,0,0,0.11111,-7.8949e-16,0,0.66667
0.32416,0.68034,2.9175,0.27052,26.008,352.66,-2.1046,0.70153,-1.7391,-2.8061,2.5555e-12,-0.86957,0,0,0.11111,-2.6316e-16,0,0.66667
0.035362,0.8435,0.31826,0.51524,55.418,625.98,-0.43728,0.14576,-1.0565,-0.58304,-2.5292e-07,-0.52823,0,0,0.11111,-9.0463e-17,0,0.66667
0.81735,0.041681,7.3562,-0.68748,-24.581,34.326,13.486,-4.4953,-0.31792,17.981,-2.3504e-09,-0.15896,0,0,0.11111,-0,-0,0.66667
0.50331,0.40403,4.5298,-0.14396,-11.528,206.47,1.7389,-0.57965,-1.927,2.3186,-1.4656e-12,-0.9635,0,0,0.11111,1.3158e-16,0,0.66667
0.052784,0.58146,0.47505,0.12218,13.09,608.82,-0.15479,0.051595,-1.9446,-0.20638,5.4696e-08,-0.97231,0,0,0.11111,-6.5791e-17,0,0.66667
0.89031,0.67001,8.0127,0.25501,5.5793,12.899,-5.4489,1.8163,-1.7721,-7.2653,1.8661e-08,-0.88605,0,0,0.11111,-0,-0,0.66667
0.40451,0.62195,3.6406,0.18293,16.423,283.9,-1.776,0.59198,-1.8833,-2.3679,-3.8083e-12,-0.94167,0,0,0.11111,6.5791e-16,0,0.66667
0.92927,0.8715,8.3635,0.55725,8.0664,6.8036,-12.428,4.1427,-0.89419,-16.571,4.4061e-08,-0.4471,0,0,0.11111,-1.0527e-15,0,0.66667
0.40208,0.55247,3.6187,0.078702,7.0803,285.87,-0.75946,0.25315,-1.9769,-1.0126,-3.7856e-12,-0.98843,0,0,0.11111,-0,-0,0.66667
0.076832,0.83446,0.69149,0.50168,53.7,585.31,-0.92509,0.30836,-1.1072,-1.2335,-1.034e-07,-0.55361,0,0,0.11111,-6.5791e-17,0,0.66667
0.2453,0.38432,2.2077,-0.17351,-17.516,424,1.0215,-0.3405,-1.8915,1.362,-1.7743e-11,-0.94576,0,0,0.11111,-0,-0,0.66667
0.35026,0.89047,3.1523,0.58571,55.363,330.23,-4.9236,1.6412,-0.77768,-6.5648,1.9784e-12,-0.38884,0,0,0.11111,5.2633e-16,0,0.66667
0.75073,0.17119,6.7566,-0.49321,-23.083,59.287,8.8864,-2.9621,-1.1377,11.849,2.193e-11,-0.56887,0,0,0.11111,1.0527e-15,0,0.66667
0.18475,0.30903,1.6627,-0.28645,-29.738,480.92,1.2701,-0.42337,-1.7093,1.6935,2.8282e-10,-0.85465,0,0,0.11111,-2.0847e-16,0,0.66667
0.43097,0.14895,3.8788,-0.52657,-46.151,262.76,5.4465,-1.8155,-1.012,7.262,3.7748e-13,-0.50602,0,0,0.11111,-2.6316e-16,0,0.66667
0.87325,0.71206,7.8592,0.31809,8.0048,16.927,-6.6665,2.2222,-1.642,-8.8886,9.5627e-09,-0.821,0,0,0.11111,1.0527e-15,0,0.66667
0.53376,0.92753,4.8038,0.64129,49.427,185.28,-8.2151,2.7384,-0.53825,-10.953,-1.9158e-12,-0.26913,0,0,0.11111,-0,-0,0.66667
0.10315,0.2647,0.92839,-0.35295,-37.552,559.58,0.87379,-0.29126,-1.5546,1.1651,2.8697e-08,-0.7773,0,0,0.11111,-1.3158e-16,0,0.66667
0.024522,0.50121,0.2207,0.0018121,0.19453,636.61,-0.0010665,0.00035862,-1.9988,-0.0014204,4.6839e-06,-0.9994,0,0,0.11111,-0,-0,0.66667
0.70581,0.36035,6.3523,-0.20947,-11.24,79.75,3.5483,-1.1828,-1.8441,4.7311,5.3482e-12,-0.92203,0,0,0.11111,-1.0527e-15,0,0.66667
0.97913,0.22948,8.8121,-0.40577,-1.6429,1.3315,9.5353,-3.1784,-1.4127,12.714,1.041e-06,-0.70634,0,0,0.11111,-0,-0,0.66667
0.78517,0.72889,7.0665,0.34334,14.063,44.758,-6.4699,2.1566,-1.5799,-8.6265,-1.4286e-11,-0.78997,0,0,0.11111,2.1053e-15,0,0.66667
0.76473,0.23788,6.8825,-0.39318,-17.464,53.057,7.2162,-2.4054,-1.4528,9.6216,2.7851e-11,-0.72641,0,0,0.11111,1.0527e-15,0,0.66667
0.67545,0.56173,6.079,0.092591,5.3844,95.47,-1.501,0.50032,-1.9702,-2.0013,-3.1652e-12,-0.98512,0,0,0.11111,1.5132e-15,0,0.66667
0.7955,0.18289,7.1595,-0.47567,-18.697,41.205,9.0815,-3.0272,-1.1981,12.109,7.7616e-11,-0.59904,0,0,0.11111,5.2633e-16,0,0.66667
0.040018,0.3316,0.36016,-0.2526,-27.107,621.37,0.24261,-0.080869,-1.7705,0.32348,-1.4623e-07,-0.88527,0,0,0.11111,6.5791e-17,0,0.66667
0.26468,0.2003,2.3821,-0.44954,-44.981,406.33,2.8557,-0.95189,-1.2838,3.8076,-1.2975e-11,-0.64192,0,0,0.11111,-0,-0,0.66667
0.6954,0.34,6.2586,-0.24,-13.26,85.072,4.0055,-1.3352,-1.7934,5.3406,2.5508e-12,-0.89671,0,0,0.11111,7.3221e-16,0,0.66667
0.86699,0.29003,7.8029,-0.31495,-8.2955,18.474,6.5534,-2.1845,-1.6449,8.7378,-7.0797e-09,-0.82244,0,0,0.11111,-0,-0,0.66667
0.67461,0.86005,6.0715,0.54008,31.632,96.689,-8.7442,2.9147,-0.96292,-11.659,-1.7089e-12,-0.48146,0,0,0.11111,1.0527e-15,0,0.66667
0.17628,0.12409,1.5865,-0.56386,-58.862,489.16,2.3855,-0.79516,-0.86955,3.1807,6.2457e-10,-0.43477,0,0,0.11111,-2.7961e-16,0,0.66667
0.93631,0.74351,8.4268,0.36527,4.7026,5.1711,-8.2081,2.736,-1.5282,-10.944,8.8138e-08,-0.76408,0,0,0.11111,-0,-0,0.66667
0.90338,0.39915,8.1304,-0.15127,-2.9198,10.097,3.2797,-1.0932,-1.919,4.3729,-1.8401e-08,-0.95951,0,0,0.11111,-1.0527e-15,0,0.66667
0.086679,0.98346,0.78011,0.7252,77.705,575.79,-1.5086,0.50287,-0.1274,-2.0115,6.3897e-07,-0.063701,0,0,0.11111,3.3688e-16,0,0.66667
0.193,0.95178,1.737,0.67766,70.389,473.38,-3.1389,1.0463,-0.36501,-4.1853,4.9448e-10,-0.18251,0,0,0.11111,-2.6316e-16,0,0.66667
0.27519,0.24525,2.4767,-0.38212,-37.979,396.67,2.5238,-0.84126,-1.4792,3.365,-4.7395e-12,-0.73961,0,0,0.11111,3.9475e-16,0,0.66667
0.73841,0.54548,6.6457,0.068225,3.3112,64.062,-1.2091,0.40302,-1.9822,-1.6121,-5.3618e-12,-0.99112,0,0,0.11111,-0,-0,0.66667
0.85937,0.43075,7.7344,-0.10387,-2.8738,20.151,2.1423,-0.71411,-1.966,2.8564,-3.7295e-09,-0.98301,0,0,0.11111,1.579e-15,0,0.66667
0.57832,0.13276,5.2049,-0.55085,-39.447,154.62,7.6457,-2.5486,-0.92503,10.194,1.9913e-12,-0.46252,0,0,0.11111,-0,-0,0.66667
0.19965,0.90285,1.7968,0.60427,62.537,467.02,-2.8954,0.96512,-0.70201,-3.8605,-1.9138e-09,-0.35101,0,0,0.11111,2.6316e-16,0,0.66667
0.41509,0.24887,3.7358,-0.37669,-33.509,275.4,3.7527,-1.2509,-1.4943,5.0036,3.3928e-13,-0.74715,0,0,0.11111,7.237e-16,0,0.66667
0.13786,0.83499,1.2407,0.50248,53.075,525.98,-1.6625,0.55418,-1.1026,-2.2167,-8.3317e-09,-0.55129,0,0,0.11111,1.3158e-16,0,0.66667
0.9174,0.070891,8.2566,-0.64366,-10.911,9.0233,14.172,-4.724,-0.52572,18.896,-2.0235e-07,-0.26286,0,0,0.11111,-0,-0,0.66667
0.76453,0.35302,6.8808,-0.22047,-9.7758,52.814,4.0454,-1.3485,-1.8296,5.3938,2.2898e-11,-0.91478,0,0,0.11111,2.1053e-15,0,0.66667
0.51021,0.8731,4.5919,0.55965,44.564,201.99,-6.853,2.2843,-0.88554,-9.1374,-1.7431e-12,-0.44277,0,0,0.11111,-2.6316e-16,0,0.66667
0.45358,0.35125,4.0822,-0.22313,-19.022,244.42,2.429,-0.80965,-1.8265,3.2386,-1.2688e-12,-0.91326,0,0,0.11111,-0,-0,0.66667
0.097842,0.98906,0.88058,0.7336,78.451,564.91,-1.7226,0.57421,-0.085411,-2.2969,4.5197e-08,-0.042705,0,0,0.11111,-1.3158e-16,0,0.66667
0.31868,0.31583,2.8681,-0.27626,-26.666,357.52,2.1129,-0.70429,-1.7272,2.8171,-2.7338e-12,-0.86362,0,0,0.11111,1.0527e-15,0,0.66667
0.12063,0.30679,1.0857,-0.28982,-30.701,542.57,0.83908,-0.27969,-1.7006,1.1188,1.1661e-08,-0.85028,0,0,0.11111,6.5791e-17,0,0.66667
0.78234,0.87581,7.041,0.56372,23.476,46.479,-10.584,3.5281,-0.87377,-14.113,3.7128e-10,-0.43689,0,0,0.11111,2.1053e-15,0,0.66667
0.54488,0.57959,4.904,0.11939,8.9981,176.62,-1.5613,0.52043,-1.9502,-2.0817,1.3972e-12,-0.97511,0,0,0.11111,-0,-0,0.66667
0.22728,0.29595,2.0455,-0.30608,-31.2,440.83,1.6695,-0.55651,-1.6642,2.2261,-2.703e-11,-0.8321,0,0,0.11111,-0,-0,0.66667
0.2242,0.18597,2.0178,-0.47104,-48.149,443.82,2.5346,-0.84487,-1.2103,3.3795,-5.2641e-11,-0.60516,0,0,0.11111,-3.2895e-16,0,0.66667
0.2604,0.82258,2.3436,0.48387,48.55,410.29,-3.024,1.008,-1.1657,-4.032,1.2308e-11,-0.58285,0,0,0.11111,-0,-0,0.66667
0.30887,0.85683,2.7799,0.53525,52.139,366.49,-3.9678,1.3226,-0.98053,-5.2904,1.9094e-12,-0.49026,0,0,0.11111,-0,-0,0.66667
0.38771,0.72858,3.4893,0.34287,31.306,298.02,-3.1904,1.0635,-1.5821,-4.2539,-7.1609e-13,-0.79103,0,0,0.11111,1.0527e-15,0,0.66667
0.29755,0.321,2.6779,-0.2685,-26.294,376.36,1.9174,-0.63913,-1.7468,2.5565,-4.0101e-12,-0.87338,0,0,0.11111,-0,-0,0.66667
0.67956,0.63185,6.116,0.19777,11.388,93.34,-3.2255,1.0752,-1.8587,-4.3007,-1.867e-12,-0.92935,0,0,0.11111,-0,-0,0.66667
0.035074,0.57293,0.31566,0.1094,11.738,626.23,-0.092089,0.030696,-1.9566,-0.12278,4.133e-08,-0.97829,0,0,0.11111,-0,-0,0.66667
0.32811,0.48092,2.953,-0.028619,-2.7415,349.09,0.22537,-0.075122,-2.001,0.30049,-5.0689e-13,-1.0005,0,0,0.11111,-0,-0,0.66667
0.74529,0.026481,6.7076,-0.71028,-34.058,62.457,12.705,-4.2349,-0.20534,16.94,2.2222e-12,-0.10267,0,0,0.11111,-0,1.6255e-16,0.66667
0.94281,0.52096,8.4853,0.031446,0.35905,3.8516,-0.71154,0.23718,-1.9946,-0.94872,-1.062e-07,-0.9973,0,0,0.11111,-0,-0,0.66667
0.80273,0.23002,7.2246,-0.40498,-15.387,38.379,7.8021,-2.6007,-1.4146,10.403,-1.1456e-10,-0.70732,0,0,0.11111,-0,-0,0.66667
0.24083,0.46578,2.1674,-0.051333,-5.1926,428.12,0.2967,-0.098898,-1.9892,0.39559,7.3039e-13,-0.99459,0,0,0.11111,-0,-0,0.66667
0.23292,0.0442,2.0962,-0.6837,-69.766,435.92,3.8219,-1.274,-0.33961,5.0958,-1.0936e-10,-0.16981,0,0,0.11111,-0,-0,0.66667
0.19034,0.43366,1.713,-0.099508,-10.301,475.56,0.45456,-0.15152,-1.9657,0.60608,9.0973e-11,-0.98284,0,0,0.11111,1.3158e-16,0,0.66667
0.8825,0.96486,7.9425,0.69729,16.603,16.109,-14.768,4.9228,-0.26946,-19.691,-1.3849e-07,-0.13473,0,0,0.11111,2.6316e-16,0,0.66667
0.23786,0.66532,2.1407,0.24799,25.138,430.94,-1.4156,0.47188,-1.7809,-1.8875,2.4401e-11,-0.89045,0,0,0.11111,5.2633e-16,0,0.66667
0.75818,0.80429,6.8236,0.45643,20.791,55.973,-8.3054,2.7685,-1.2569,-11.074,-6.1355e-12,-0.62845,0,0,0.11111,-5.2633e-16,0,0.66667
0.26105,0.29049,2.3494,-0.31427,-31.477,409.55,1.969,-0.65632,-1.6475,2.6253,-1.6929e-11,-0.82374,0,0,0.11111,-0,-0,0.66667
0.033082,0.166,0.29774,-0.50099,-53.886,628.22,0.39777,-0.13259,-1.1089,0.53036,-5.0099e-07,-0.55446,0,0,0.11111,-0,-0,0.66667
0.73345,0.31348,6.601,-0.27978,-13.821,66.553,4.9249,-1.6416,-1.7255,6.5665,1.2585e-11,-0.86277,0,0,0.11111,2.1053e-15,0,0.66667
0.7262,0.072275,6.5358,-0.64159,-32.649,70.903,11.182,-3.7274,-0.5339,14.91,1.1006e-11,-0.26695,0,0,0.11111,-0,-0,0.66667
0.088959,0.9787,0.80063,0.71805,76.9,573.56,-1.533,0.51102,-0.16523,-2.0441,1.1581e-06,-0.082616,0,0,0.11111,-0,-0,0.66667
0.3267,0.20181,2.9403,-0.44728,-42.982,350.59,3.5071,-1.169,-1.2903,4.6761,1.2477e-12,-0.64516,0,0,0.11111,-5.2633e-16,0,0.66667
0.94837,0.52731,8.5353,0.040972,0.42134,3.2116,-0.93254,0.31085,-1.9932,-1.2434,1.2865e-08,-0.99661,0,0,0.11111,-0,-0,0.66667
0.16295,0.60649,1.4665,0.15974,16.704,501.7,-0.62469,0.20823,-1.9067,-0.83292,-8.8362e-10,-0.95335,0,0,0.11111,-0,-0,0.66667
0.086672,0.311,0.78005,-0.2835,-30.246,575.64,0.58971,-0.19657,-1.7129,0.78628,3.7893e-08,-0.85646,0,0,0.11111,1.6448e-16,0,0.66667
0.5946,0.10846,5.3514,-0.58732,-40.872,144.15,8.3813,-2.7938,-0.77602,11.175,-1.4566e-12,-0.38801,0,0,0.11111,1.0527e-15,0,0.66667
0.93099,0.41975,8.3789,-0.12038,-1.664,5.4564,2.6897,-0.89656,-1.9459,3.5862,-2.3201e-08,-0.97296,0,0,0.11111,-0,-0,0.66667
0.13378,0.9244,1.204,0.63659,67.418,530,-2.0439,0.6813,-0.55648,-2.7252,4.6016e-08,-0.27824,0,0,0.11111,-0,-0,0.66667
0.51301,0.60154,4.6171,0.15231,12.035,199.35,-1.8753,0.6251,-1.9181,-2.5004,-6.0307e-13,-0.95905,0,0,0.11111,-0,-0,0.66667
0.684,0.41984,6.156,-0.12025,-6.8424,90.905,1.974,-0.65799,-1.9479,2.632,-1.1113e-13,-0.97393,0,0,0.11111,1.0527e-15,0,0.66667
0.17183,0.15753,1.5465,-0.5137,-53.682,493.37,2.1184,-0.70615,-1.0669,2.8246,1.2088e-09,-0.53346,0,0,0.11111,-0,-1.2098e-16,0.66667
0.01126,0.78351,0.10134,0.42526,45.754,649.67,-0.11492,0.038307,-1.3568,-0.15323,-3.7053e-07,-0.67838,0,0,0.11111,-0,-0,0.66667
0.88768,0.07628,7.9891,-0.63558,-14.449,14.669,13.541,-4.5136,-0.56351,18.054,9.1222e-10,-0.28175,0,0,0.11111,-0,-0,0.66667
0.035231,0.98496,0.31708,0.72744,78.44,626.14,-0.61509,0.20503,-0.11737,-0.82013,-5.2241e-06,-0.058685,0,0,0.11111,-0,-0,0.66667
0.25746,0.23209,2.3171,-0.40187,-40.358,412.91,2.4831,-0.82771,-1.4231,3.3108,-1.6182e-11,-0.71154,0,0,0.11111,-0,-0,0.66667
0.65168,0.14148,5.8652,-0.53778,-33.261,109.43,8.411,-2.8037,-0.9701,11.215,6.2172e-15,-0.48505,0,0,0.11111,1.0527e-15,0,0.66667
0.28578,0.30973,2.572,-0.2854,-28.163,386.98,1.9575,-0.6525,-1.7099,2.61,-3.8707e-12,-0.85497,0,0,0.11111,-7.8949e-16,0,0.66667
0.0097076,0.94142,0.087368,0.66212,71.417,651.21,-0.15426,0.051397,-0.4398,-0.20569,-3.4214e-05,-0.2199,0,0,0.11111,-0,-0,0.66667
0.57545,0.82088,5.1791,0.48132,34.604,156.35,-6.6475,2.2158,-1.1767,-8.8633,1.172e-12,-0.58836,0,0,0.11111,-0,-0,0.66667
0.30779,0.67716,2.7701,0.26574,25.846,367.19,-1.963,0.65435,-1.7474,-2.6174,3.8924e-12,-0.87369,0,0,0.11111,2.6316e-16,0,0.66667
0.15151,0.8789,1.3636,0.56835,59.831,512.87,-2.0667,0.6889,-0.8507,-2.7556,-2.7472e-09,-0.42535,0,0,0.11111,-5.2633e-16,0,0.66667
0.97128,0.84119,8.7415,0.51178,2.9693,2.1775,-11.93,3.9766,-1.0702,-15.907,-2.4042e-06,-0.53509,0,0,0.11111,-0,-0,0.66667
0.16497,0.62094,1.4848,0.18141,18.959,499.77,-0.71825,0.23942,-1.8813,-0.95766,-1.1856e-09,-0.94063,0,0,0.11111,-0,-0,0.66667
0.72724,0.38019,6.5451,-0.17972,-9.0456,69.314,3.1367,-1.0456,-1.8832,4.1823,9.9907e-12,-0.9416,0,0,0.11111,-0,-0,0.66667
0.89072,0.65823,8.0165,0.23735,5.1716,12.778,-5.0739,1.6913,-1.8047,-6.7652,1.767e-08,-0.90233,0,0,0.11111,-0,-0,0.66667
0.85872,0.75999,7.7284,0.38998,10.894,20.812,-8.0371,2.679,-1.4622,-10.716,4.0934e-09,-0.73112,0,0,0.11111,2.1053e-15,0,0.66667
0.18426,0.61874,1.6583,0.17811,18.484,481.35,-0.78761,0.26254,-1.8873,-1.0502,-2.0633e-10,-0.94366,0,0,0.11111,2.6316e-16,0,0.66667
0.23681,0.011331,2.1313,-0.733,-74.706,432.36,4.166,-1.3887,-0.090111,5.5546,-2.0116e-11,-0.045055,0,0,0.11111,-0,-0,0.66667
0.018363,0.034815,0.16526,-0.69778,-75.28,642.7,0.30751,-0.10251,-0.26981,0.41001,-9.2015e-06,-0.1349,0,0,0.11111,-6.5791e-17,0,0.66667
0.93141,0.11443,8.3826,-0.57836,-8.1385,6.5897,12.928,-4.3095,-0.80841,17.238,-1.6177e-07,-0.4042,0,0,0.11111,1.0527e-15,0,0.66667
0.88712,0.7494,7.9841,0.3741,8.4425,13.855,-7.9649,2.655,-1.5032,-10.62,1.7386e-08,-0.75161,0,0,0.11111,-4.6054e-16,0,0.66667
0.59547,0.73087,5.3592,0.34631,23.981,143.06,-4.9492,1.6497,-1.5749,-6.5989,5.4534e-13,-0.78746,0,0,0.11111,-0,-0,0.66667
0.10937,0.85699,0.98431,0.53548,56.987,553.6,-1.4056,0.46852,-0.98432,-1.8741,-1.3825e-08,-0.49216,0,0,0.11111,-0,-0,0.66667
0.17354,0.94325,1.5619,0.66487,69.561,491.85,-2.7692,0.92307,-0.43024,-3.6923,4.586e-09,-0.21512,0,0,0.11111,-0,-0,0.66667
0.57696,0.38179,5.1926,-0.17731,-12.677,154.89,2.4552,-0.8184,-1.8908,3.2736,1.5823e-12,-0.94539,0,0,0.11111,-0,-0,0.66667
0.25166,0.617,2.2649,0.1755,17.657,418.13,-1.06,0.35333,-1.8922,-1.4133,1.9695e-11,-0.94611,0,0,0.11111,2.6316e-16,0,0.66667
0.30017,0.32765,2.7015,-0.25853,-25.272,374,1.8625,-0.62082,-1.7618,2.4833,-3.9143e-12,-0.8809,0,0,0.11111,-0,-0,0.66667
0.17099,0.40007,1.5389,-0.14989,-15.631,494,0.61511,-0.20504,-1.9232,0.82015,3.928e-10,-0.96158,0,0,0.11111,1.3158e-16,0,0.66667
0.18959,0.45801,1.7063,-0.062984,-6.5213,476.26,0.28659,-0.09553,-1.9868,0.38212,9.018e-11,-0.99341,0,0,0.11111,2.6316e-16,0,0.66667
0.46342,0.76701,4.1708,0.40052,33.799,236.94,-4.4546,1.4849,-1.4276,-5.9394,1.2266e-12,-0.71378,0,0,0.11111,-5.2633e-16,0,0.66667
0.50987,0.59604,4.5889,0.14405,11.432,201.64,-1.7628,0.5876,-1.9252,-2.3504,-1.1173e-12,-0.96258,0,0,0.11111,2.1053e-15,0,0.66667
0.51158,0.87649,4.6042,0.56473,44.886,201,-6.9337,2.3112,-0.86623,-9.2449,-4.7757e-12,-0.43311,0,0,0.11111,2.1053e-15,0,0.66667
0.99714,0.3853,8.9742,-0.17205,-0.011093,0.16255,4.1173,-1.3724,-1.8948,5.4898,-3.478e-07,-0.94742,0,0,0.11111,-0,-0,0.66667
0.1296,0.097212,1.1664,-0.60418,-64.032,534.02,1.8792,-0.6264,-0.70148,2.5056,1.4078e-08,-0.35074,0,0,0.11111,-0,-0,0.66667
0.75617,0.18122,6.8055,-0.47817,-21.948,56.892,8.6778,-2.8926,-1.1852,11.57,7.7991e-12,-0.59259,0,0,0.11111,-1.0527e-15,0,0.66667
0.79376,0.88384,7.1438,0.57575,22.866,42.185,-10.968,3.6561,-0.8213,-14.624,-8.4058e-11,-0.41065,0,0,0.11111,-0,-0,0.66667
0.58488,0.072043,5.2639,-0.64194,-45.512,150.58,9.011,-3.0037,-0.53243,12.015,9.2726e-13,-0.26622,0,0,0.11111,-0,-0,0.66667
0.46274,0.84465,4.1646,0.51697,43.719,237.67,-5.7414,1.9138,-1.0488,-7.6551,-1.8265e-12,-0.52442,0,0,0.11111,-0,-0,0.66667
0.89343,0.92174,8.0408,0.63261,13.68,13.437,-13.565,4.5215,-0.57704,-18.086,-1.4575e-07,-0.28852,0,0,0.11111,-0,-0,0.66667
0.82818,0.56253,7.4536,0.093788,3.1279,29.272,-1.8642,0.62138,-1.9742,-2.4855,8.809e-10,-0.98708,0,0,0.11111,2.1053e-15,0,0.66667
0.050291,0.91,0.45262,0.615,66.135,611.34,-0.74229,0.24743,-0.6555,-0.98973,-4.2015e-07,-0.32775,0,0,0.11111,-1.3158e-16,0,0.66667
0.96298,0.69259,8.6669,0.28889,2.1235,2.1088,-6.6766,2.2255,-1.7017,-8.9022,-1.8957e-07,-0.85087,0,0,0.11111,-0,-0,0.66667
0.0073399,0.77878,0.066059,0.41818,44.992,653.53,-0.073665,0.024554,-1.3767,-0.09822,-9.1408e-07,-0.68835,0,0,0.11111,1.028e-17,0,0.66667
0.57313,0.69458,5.1582,0.29187,21.023,157.55,-4.0147,1.3382,-1.6957,-5.3529,3.7845e-12,-0.84786,0,0,0.11111,-1.0527e-15,0,0.66667
0.57243,0.39127,5.1519,-0.16309,-11.752,157.88,2.2406,-0.74688,-1.9031,2.9875,1.7835e-12,-0.95157,0,0,0.11111,-0,-0,0.66667
0.83438,0.63342,7.5094,0.20012,6.458,27.435,-4.0075,1.3358,-1.8555,-5.3434,1.2226e-09,-0.92773,0,0,0.11111,-2.1053e-15,0,0.66667
0.38472,0.93039,3.4624,0.64559,59.306,300.99,-5.9608,1.9869,-0.51623,-7.9478,-5.1088e-12,-0.25812,0,0,0.11111,-0,-0,0.66667
0.091041,0.51944,0.81937,0.02916,3.1062,571.34,-0.063713,0.021238,-1.9971,-0.084951,1.1905e-08,-0.99856,0,0,0.11111,-0,-0,0.66667
0.58169,0.17715,5.2352,-0.48428,-34.441,152.25,6.7608,-2.2536,-1.1655,9.0144,2.6863e-12,-0.58275,0,0,0.11111,-5.2633e-16,0,0.66667
0.024846,0.30672,0.22361,-0.28992,-31.148,636.3,0.17288,-0.057627,-1.6993,0.23051,-4.4491e-07,-0.84963,0,0,0.11111,1.6448e-17,0,0.66667
0.3618,0.81508,3.2562,0.47262,44.195,320.14,-4.1038,1.3679,-1.2074,-5.4717,3.8485e-12,-0.60368,0,0,0.11111,-1.0527e-15,0,0.66667
0.98532,0.54813,8.8679,0.072202,0.18558,0.41625,-1.7074,0.56914,-1.9838,-2.2766,-8.841e-07,-0.9919,0,0,0.11111,-2.1053e-15,0,0.66667
0.86878,0.45417,7.819,-0.068743,-1.7808,17.694,1.4333,-0.47778,-1.9807,1.9111,-1.5379e-09,-0.99036,0,0,0.11111,-0,-0,0.66667
0.1525,0.53753,1.3725,0.056292,5.9055,511.73,-0.20603,0.068675,-1.9884,-0.2747,-2.1662e-09,-0.99418,0,0,0.11111,-0,-0,0.66667
0.79883,0.36958,7.1894,-0.19563,-7.5393,39.387,3.7505,-1.2502,-1.8656,5.0007,-1.0964e-10,-0.9328,0,0,0.11111,1.579e-15,0,0.66667
0.811,0.21045,7.299,-0.43432,-15.887,35.556,8.4536,-2.8179,-1.3312,11.271,-1.2871e-10,-0.6656,0,0,0.11111,5.2633e-16,0,0.66667
0.92821,0.0032513,8.3539,-0.74512,-11.134,7.8667,16.599,-5.533,-0.02447,22.132,6.8969e-07,-0.012235,0,0,0.11111,-0,-0,0.66667
0.22438,0.044699,2.0195,-0.68295,-69.977,443.87,3.6778,-1.2259,-0.33939,4.9038,-7.1569e-11,-0.16969,0,0,0.11111,-0,-0,0.66667
0.49897,0.2008,4.4907,-0.4488,-36.235,210.04,5.3745,-1.7915,-1.2861,7.166,-1.8652e-13,-0.64304,0,0,0.11111,1.0527e-15,0,0.66667
0.82744,0.030681,7.447,-0.70398,-23.926,31.117,13.98,-4.66,-0.24223,18.64,-6.4623e-10,-0.12112,0,0,0.11111,-3.9475e-16,0,0.66667
0.66733,0.471,6.006,-0.043495,-2.5802,99.887,0.69661,-0.2322,-1.9929,0.92881,2.4875e-13,-0.99646,0,0,0.11111,-0,-0,0.66667
0.59394,0.9495,5.3454,0.67425,47.056,144.83,-9.6111,3.2037,-0.3872,-12.815,-6.1284e-14,-0.1936,0,0,0.11111,-0,-0,0.66667
0.65198,0.6444,5.8678,0.21661,13.334,108.63,-3.3893,1.1298,-1.8319,-4.5191,-4.2411e-13,-0.91593,0,0,0.11111,1.0527e-15,0,0.66667
0.23852,0.028947,2.1466,-0.70658,-71.923,430.74,4.0447,-1.3482,-0.2248,5.393,-6.9793e-12,-0.1124,0,0,0.11111,-1.3158e-16,0,0.66667
0.02554,0.77605,0.22986,0.41407,44.523,635.62,-0.25381,0.084604,-1.3889,-0.33841,1.2281e-06,-0.69443,0,0,0.11111,-3.2895e-17,0,0.66667
0.73626,0.50273,6.6263,0.004102,0.20047,65.031,-0.072482,0.024161,-2.0021,-0.096643,5.3509e-12,-1.0011,0,0,0.11111,-0,-0,0.66667
0.32679,0.79698,2.9411,0.44547,42.804,350.51,-3.4938,1.1646,-1.2962,-4.6584,2.0923e-12,-0.6481,0,0,0.11111,-3.87e-16,0,0.66667
0.37676,0.50623,3.3908,0.0093459,0.86063,307.07,-0.084507,0.028169,-2.0015,-0.11268,7.5329e-13,-1.0008,0,0,0.11111,-0,-0,0.66667
0.61262,0.62438,5.5135,0.18657,12.485,132.05,-2.7431,0.91436,-1.8773,-3.6574,2.9492e-12,-0.93865,0,0,0.11111,-1.5461e-15,0,0.66667
0.65717,0.2622,5.9145,-0.35671,-21.726,105.89,5.626,-1.8753,-1.55,7.5013,1.2919e-12,-0.77502,0,0,0.11111,-1.0527e-15,0,0.66667
0.2029,0.44737,1.8261,-0.078939,-8.1289,463.66,0.3844,-0.12813,-1.9815,0.51253,7.1956e-11,-0.99076,0,0,0.11111,-0,-0,0.66667
0.82603,0.012646,7.4343,-0.73103,-25.059,31.696,14.493,-4.8308,-0.10072,19.323,-3.381e-10,-0.050358,0,0,0.11111,-0,-0,0.66667
0.38021,0.38165,3.4219,-0.17752,-16.303,304.2,1.6199,-0.53995,-1.8865,2.1598,1.0441e-12,-0.94324,0,0,0.11111,-0,-0,0.66667
0.63174,0.62914,5.6857,0.19371,12.466,120.42,-2.937,0.97901,-1.8649,-3.916,1.7655e-12,-0.93243,0,0,0.11111,-2.1053e-15,0,0.66667
0.96641,0.9337,8.6977,0.65055,4.5465,3.1486,-15.089,5.0296,-0.49671,-20.118,-1.144e-06,-0.24835,0,0,0.11111,5.2633e-16,0,0.66667
0.56479,0.17086,5.0831,-0.49371,-36.149,163.5,6.6922,-2.2307,-1.1339,8.923,4.114e-12,-0.56693,0,0,0.11111,-1.0527e-15,0,0.66667
0.35891,0.26251,3.2302,-0.35624,-33.357,322.47,3.0686,-1.0229,-1.5519,4.0914,2.7054e-12,-0.77596,0,0,0.11111,-5.2633e-16,0,0.66667
0.61897,0.67482,5.5707,0.26223,17.336,128.22,-3.8955,1.2985,-1.7531,-5.194,-4.976e-13,-0.87657,0,0,0.11111,1.0527e-15,0,0.66667
0.50179,0.47176,4.5161,-0.042359,-3.3982,207.55,0.51013,-0.17004,-1.9959,0.68018,-9.0156e-13,-0.99794,0,0,0.11111,2.1053e-15,0,0.66667
0.45238,0.67688,4.0714,0.26532,22.655,245.39,-2.8805,0.96018,-1.7525,-3.8407,1.5226e-12,-0.87626,0,0,0.11111,5.2633e-16,0,0.66667
0.73227,0.793,6.5904,0.4395,21.845,67.433,-7.7239,2.5746,-1.3141,-10.299,-1.079e-11,-0.65704,0,0,0.11111,-0,-0,0.66667
0.92451,0.63185,8.3206,0.19778,2.9959,6.5068,-4.3884,1.4628,-1.8616,-5.8511,3.9691e-08,-0.93079,0,0,0.11111,-2.1053e-15,0,0.66667
0.47927,0.71357,4.3134,0.32035,26.498,224.65,-3.6848,1.2283,-1.6339,-4.9131,-2.3117e-12,-0.81695,0,0,0.11111,-0,-0,0.66667
0.08823,0.94708,0.79407,0.67062,71.785,574.25,-1.4201,0.47335,-0.399,-1.8934,2.4092e-07,-0.1995,0,0,0.11111,-0,-0,0.66667
0.56965,0.58594,5.1269,0.12891,9.3317,159.71,-1.7625,0.58749,-1.9386,-2.3499,1.555e-12,-0.96931,0,0,0.11111,-0,-0,0.66667
0.24495,0.44031,2.2046,-0.089532,-9.0378,424.3,0.52634,-0.17545,-1.9707,0.70179,-1.6982e-11,-0.98535,0,0,0.11111,-1.0527e-15,0,0.66667
0.039578,0.20941,0.3562,-0.43588,-46.833,621.83,0.41403,-0.13801,-1.322,0.55204,1.8931e-07,-0.661,0,0,0.11111,-3.2895e-17,0,0.66667
0.78814,0.89843,7.0933,0.59764,24.325,44.374,-11.305,3.7682,-0.72779,-15.073,-6.0323e-10,-0.36389,0,0,0.11111,5.2633e-16,0,0.66667
0.27277,0.71393,2.4549,0.3209,31.925,398.83,-2.1007,0.70024,-1.632,-2.801,1.1413e-11,-0.81598,0,0,0.11111,2.6316e-16,0,0.66667
0.77707,0.58001,6.9936,0.12002,5.0667,47.604,-2.2383,0.74608,-1.9475,-2.9843,-4.7335e-12,-0.97374,0,0,0.11111,1.0527e-15,0,0.66667
0.48821,0.89328,4.3939,0.58992,48.394,218.37,-6.912,2.304,-0.76166,-9.2161,-1.005e-12,-0.38083,0,0,0.11111,-0,-0,0.66667
0.31794,0.42023,2.8614,-0.11966,-11.549,358.09,0.91308,-0.30436,-1.947,1.2174,-4.6063e-13,-0.97348,0,0,0.11111,-5.2633e-16,0,0.66667
0.31403,0.9157,2.8262,0.62356,60.591,362.03,-4.6995,1.5665,-0.61929,-6.266,8.3533e-13,-0.30964,0,0,0.11111,5.2633e-16,0,0.66667
0.042025,0.50116,0.37822,0.0017365,0.1862,619.39,-0.0017515,0.00058232,-1.9996,-0.002336,-2.2543e-06,-0.99982,0,0,0.11111,2.6316e-16,0,0.66667
0.5344,0.014319,4.8096,-0.72852,-56.187,185.08,9.3437,-3.1146,-0.1125,12.458,-2.0615e-12,-0.056251,0,0,0.11111,2.1053e-15,0,0.66667
0.82355,0.94548,7.412,0.66823,23.141,32.203,-13.208,4.4026,-0.41112,-17.61,5.2124e-10,-0.20556,0,0,0.11111,-2.1053e-15,0,0.66667
0.083895,0.67282,0.75506,0.25923,27.667,578.35,-0.52196,0.17399,-1.7588,-0.69594,-3.9507e-08,-0.87938,0,0,0.11111,-0,-0,0.66667
0.10856,0.37041,0.97703,-0.19438,-20.64,554.28,0.50644,-0.16881,-1.869,0.67525,1.8361e-08,-0.93452,0,0,0.11111,1.9737e-16,0,0.66667
0.52926,0.083308,4.7633,-0.62504,-48.484,188.43,7.9393,-2.6464,-0.61202,10.586,1.8199e-12,-0.30601,0,0,0.11111,-0,-1.171e-16,0.66667
0.66014,0.12242,5.9413,-0.56637,-34.37,104.73,8.9733,-2.9911,-0.85954,11.964,1.3509e-12,-0.42977,0,0,0.11111,-1.0527e-15,0,0.66667
0.69475,0.84787,6.2527,0.5218,28.997,86.004,-8.7005,2.9002,-1.0301,-11.601,-5.7172e-12,-0.51505,0,0,0.11111,2.1053e-15,0,0.66667
0.31322,0.72766,2.819,0.34148,33.104,362.41,-2.567,0.85568,-1.5884,-3.4227,2.2431e-12,-0.79418,0,0,0.11111,-0,-0,0.66667
0.037778,0.51168,0.34,0.017517,1.8789,623.57,-0.015882,0.0052935,-1.9964,-0.021176,-7.4673e-07,-0.99821,0,0,0.11111,-1.3158e-16,0,0.66667
0.41456,0.82318,3.7311,0.48476,43.192,275.98,-4.8232,1.6077,-1.1619,-6.4309,1.3669e-12,-0.58095,0,0,0.11111,-0,-0,0.66667
0.22604,0.66723,2.0344,0.25085,25.577,441.95,-1.3609,0.45362,-1.7737,-1.8145,2.9728e-11,-0.88684,0,0,0.11111,-0,-0,0.66667
0.0011148,0.8879,0.010033,0.58185,62.705,659.65,-0.015565,0.0051943,-0.79841,-0.020751,8.9196e-06,-0.3992,0,0,0.11111,2.056e-18,0,0.66667
0.68572,0.62398,6.1714,0.18597,10.539,90.052,-3.0606,1.0202,-1.8797,-4.0808,-2.1745e-12,-0.93984,0,0,0.11111,-1.9737e-16,0,0.66667
0.95206,0.33799,8.5686,-0.24301,-2.329,3.0341,5.5526,-1.8509,-1.7929,7.4035,8.2568e-08,-0.89643,0,0,0.11111,-5.2633e-16,0,0.66667
0.39115,0.18595,3.5204,-0.47108,-42.926,295.3,4.4223,-1.4741,-1.2153,5.8964,1.2257e-13,-0.60766,0,0,0.11111,2.6316e-16,0,0.66667
0.3003,0.96131,2.7027,0.69196,67.932,374.38,-4.9871,1.6624,-0.29735,-6.6494,-1.3527e-12,-0.14868,0,0,0.11111,-0,-0,0.66667
0.55375,0.33471,4.9838,-0.24793,-18.437,170.6,3.295,-1.0983,-1.7791,4.3934,1.4844e-12,-0.88954,0,0,0.11111,-0,-0,0.66667
0.85198,0.46698,7.6678,-0.049526,-1.4375,22.142,1.0127,-0.33756,-1.9899,1.3502,-2.3891e-09,-0.99494,0,0,0.11111,5.2633e-16,0,0.66667
0.79497,0.82856,7.1547,0.49283,19.425,41.455,-9.4029,3.1343,-1.1374,-12.537,-3.1054e-11,-0.5687,0,0,0.11111,-0,-0,0.66667
0.68476,0.92505,6.1628,0.63758,36.468,91.578,-10.478,3.4927,-0.55471,-13.971,-3.3484e-13,-0.27736,0,0,0.11111,-0,-0,0.66667
0.43211,0.81786,3.889,0.47679,41.713,261.77,-4.9446,1.6482,-1.1903,-6.5928,-3.5816e-12,-0.59516,0,0,0.11111,-1.0527e-15,0,0.66667
0.69043,0.48274,6.2139,-0.025893,-1.4483,87.485,0.42905,-0.14302,-1.9974,0.57207,4.86e-14,-0.99872,0,0,0.11111,-0,-0,0.66667
0.21603,0.31413,1.9442,-0.2788,-28.566,451.35,1.4455,-0.48183,-1.725,1.9273,-1.4284e-11,-0.86251,0,0,0.11111,-0,-0,0.66667
0.28394,0.64158,2.5555,0.21237,20.973,388.6,-1.4473,0.48242,-1.8397,-1.9297,6.2347e-12,-0.91985,0,0,0.11111,-0,-0,0.66667
0.77782,0.85455,7.0004,0.53182,22.533,48.141,-9.9278,3.3093,-0.99385,-13.237,-4.5046e-11,-0.49692,0,0,0.11111,-0,-0,0.66667
0.92998,0.58147,8.3698,0.1222,1.7142,5.6026,-2.7275,0.90918,-1.9442,-3.6367,2.2561e-08,-0.97211,0,0,0.11111,1.0527e-15,0,0.66667
0.19005,0.68764,1.7104,0.28146,29.159,475.88,-1.2838,0.42793,-1.7202,-1.7117,-2.0271e-10,-0.86012,0,0,0.11111,-5.2633e-16,0,0.66667
0.29606,0.87598,2.6646,0.56398,55.428,377.99,-4.0073,1.3358,-0.87311,-5.3431,1.3362e-11,-0.43656,0,0,0.11111,-1.0527e-15,1.6052e-17,0.66667
0.0062103,0.86618,0.055892,0.54928,59.171,654.64,-0.081865,0.027286,-0.92511,-0.10916,-3.3313e-06,-0.46255,0,0,0.11111,-0,-0,0.66667
0.43156,0.11637,3.8841,-0.57544,-50.435,262.38,5.9601,-1.9867,-0.82059,7.9469,1.6098e-12,-0.41029,0,0,0.11111,5.2633e-16,0,0.66667
0.2103,0.57264,1.8927,0.10896,11.185,456.68,-0.54995,0.18332,-1.9553,-0.73326,1.6303e-11,-0.97764,0,0,0.11111,-0,-0,0.66667
0.64142,0.3382,5.7728,-0.2427,-15.3,114.76,3.7361,-1.2454,-1.7938,4.9815,-3.5416e-13,-0.89691,0,0,0.11111,5.2633e-16,0,0.66667
0.70959,0.78758,6.3863,0.43136,22.961,78.272,-7.3462,2.4487,-1.3364,-9.7949,-6.2239e-12,-0.66822,0,0,0.11111,2.1053e-15,0,0.66667
0.11878,0.49182,1.069,-0.012266,-1.2989,544.33,0.034966,-0.011655,-1.9974,0.046621,-1.4366e-08,-0.99868,0,0,0.11111,2.6316e-16,0,0.66667
0.082144,0.80883,0.7393,0.46325,49.526,580.11,-0.91327,0.30442,-1.2368,-1.2177,-4.7123e-08,-0.61838,0,0,0.11111,-3.2895e-17,0,0.66667
0.90634,0.57723,8.157,0.11584,2.1679,9.5041,-2.5198,0.83992,-1.956,-3.3597,1.2137e-08,-0.97799,0,0,0.11111,-0,-0,0.66667
0.38924,0.23035,3.5031,-0.40447,-36.897,296.81,3.7785,-1.2595,-1.4201,5.038,-1.2466e-12,-0.71006,0,0,0.11111,-1.0527e-15,0,0.66667
0.5334,0.67716,4.8006,0.26574,20.398,184.8,-3.4019,1.134,-1.7498,-4.5358,-8.5865e-13,-0.8749,0,0,0.11111,-0,-0,0.66667
0.96324,0.52363,8.6692,0.035451,0.25567,1.7708,-0.81955,0.27318,-1.9938,-1.0927,2.2826e-08,-0.99689,0,0,0.11111,-0,-0,0.66667
0.75905,0.78484,6.8315,0.42725,19.389,55.524,-7.7834,2.5945,-1.3494,-10.378,-3.2719e-11,-0.67468,0,0,0.11111,-0,-0,0.66667
0.32554,0.55126,2.9299,0.076891,7.3798,351.36,-0.60074,0.20025,-1.9793,-0.80099,1.7333e-12,-0.98965,0,0,0.11111,-0,-0,0.66667
0.085849,0.29063,0.77264,-0.31406,-33.518,576.45,0.64709,-0.2157,-1.6468,0.86278,4.1393e-08,-0.8234,0,0,0.11111,-0,-0,0.66667
0.53602,0.83952,4.8242,0.50929,39.039,183.36,-6.5518,2.1839,-1.0769,-8.7357,-1.8741e-12,-0.53846,0,0,0.11111,5.8055e-16,0,0.66667
0.33613,0.32556,3.0251,-0.26167,-24.933,342.15,2.1109,-0.70362,-1.7538,2.8145,-9.4968e-13,-0.87692,0,0,0.11111,5.2633e-16,0,0.66667
0.021685,0.34446,0.19517,-0.23331,-25.063,639.4,0.12143,-0.040475,-1.8056,0.1619,-2.0822e-07,-0.90279,0,0,0.11111,6.5791e-17,0,0.66667
0.77115,0.89637,6.9404,0.59456,25.898,51.03,-11.004,3.668,-0.74114,-14.672,1.8446e-10,-0.37057,0,0,0.11111,-1.0527e-15,0,0.66667
0.38491,0.65606,3.4642,0.23409,21.413,300.27,-2.1625,0.72083,-1.8045,-2.8833,5.1714e-13,-0.90227,0,0,0.11111,-7.8127e-16,0,0.66667
0.57132,0.93655,5.1419,0.65483,47.547,159.54,-8.9789,2.993,-0.47421,-11.972,-1.6902e-12,-0.23711,0,0,0.11111,2.6316e-16,0,0.66667
0.75574,0.61748,6.8017,0.17622,8.0645,56.477,-3.1962,1.0654,-1.8877,-4.2616,-2.1801e-11,-0.94387,0,0,0.11111,1.0527e-15,0,0.66667
0.94085,0.75185,8.4676,0.37778,4.5196,4.6252,-8.5303,2.8434,-1.4933,-11.374,6.5335e-08,-0.74664,0,0,0.11111,-0,-0,0.66667
0.61232,0.25147,5.5109,-0.37279,-25.002,132.49,5.4784,-1.8261,-1.5071,7.3046,-8.4421e-13,-0.75353,0,0,0.11111,-0,-0,0.66667
0.3154,0.22927,2.8386,-0.4061,-39.328,360.54,3.0739,-1.0246,-1.4137,4.0986,-7.4984e-13,-0.70683,0,0,0.11111,-0,-0,0.66667
0.11008,0.74138,0.99069,0.36206,38.467,552.84,-0.95651,0.31884,-1.5369,-1.2753,-2.0615e-08,-0.76847,0,0,0.11111,-0,-0,0.66667
0.073919,0.94857,0.66527,0.67286,72.195,588.22,-1.1937,0.3979,-0.38903,-1.5916,-1.6561e-06,-0.19452,0,0,0.11111,-1.3158e-16,0,0.66667
0.31969,0.41931,2.8772,-0.12103,-11.667,356.54,0.92862,-0.30954,-1.9452,1.2382,4.8539e-13,-0.97262,0,0,0.11111,-0,-0,0.66667
0.66084,0.3612,5.9476,-0.2082,-12.554,103.61,3.3021,-1.1007,-1.8443,4.4028,6.5281e-14,-0.92213,0,0,0.11111,-0,-0,0.66667
0.69515,0.36788,6.2564,-0.19818,-10.953,85.147,3.3064,-1.1021,-1.8581,4.4085,1.8334e-12,-0.92905,0,0,0.11111,1.0527e-15,0,0.66667
0.20772,0.73831,1.8695,0.35747,36.78,459.21,-1.7821,0.59402,-1.5441,-2.3761,-1.4377e-11,-0.77206,0,0,0.11111,2.6316e-16,0,0.66667
0.082796,0.67823,0.74516,0.26735,28.539,579.42,-0.53124,0.17708,-1.7445,-0.70833,-4.1686e-08,-0.87223,0,0,0.11111,6.5791e-17,0,0.66667
0.30551,0.52817,2.7496,0.042256,4.1131,369.14,-0.30983,0.10328,-1.9921,-0.41311,3.1539e-12,-0.99603,0,0,0.11111,-5.2633e-16,0,0.66667
0.54757,0.35916,4.9282,-0.21126,-15.862,174.82,2.7764,-0.92545,-1.844,3.7018,1.4135e-12,-0.922,0,0,0.11111,-0,-0,0.66667
0.75467,0.17376,6.792,-0.48936,-22.587,57.568,8.8634,-2.9545,-1.1468,11.818,2.5054e-11,-0.57342,0,0,0.11111,1.0527e-15,0,0.66667
0.52966,0.44107,4.7669,-0.088389,-6.8171,187.33,1.1236,-0.37453,-1.9746,1.4981,3.7925e-12,-0.98732,0,0,0.11111,-2.1053e-15,0,0.66667
0.28698,0.80929,2.5829,0.46394,45.812,386.05,-3.1954,1.0651,-1.2335,-4.2606,7.1347e-12,-0.61674,0,0,0.11111,-5.7295e-16,0,0.66667
0.62418,0.90794,5.6176,0.61191,40.219,125.81,-9.1665,3.0555,-0.67257,-12.222,-6.9633e-13,-0.33629,0,0,0.11111,-0,2.6879e-17,0.66667
0.26484,0.15852,2.3835,-0.51222,-51.28,406.25,3.2557,-1.0852,-1.0709,4.341,8.6835e-12,-0.53547,0,0,0.11111,1.0527e-15,0,0.66667
0.65269,0.3553,5.8742,-0.21704,-13.339,108.22,3.3999,-1.1333,-1.8318,4.5332,1.9762e-13,-0.9159,0,0,0.11111,-0,-0,0.66667
0.8419,0.89203,7.5771,0.58805,18.362,26.196,-11.882,3.9606,-0.77155,-15.843,-2.4786e-10,-0.38578,0,0,0.11111,-0,1.5774e-16,0.66667
0.63895,0.18698,5.7505,-0.46953,-29.84,116.63,7.2001,-2.4,-1.2191,9.6001,1.5192e-12,-0.60953,0,0,0.11111,2.3027e-16,0,0.66667
0.56563,0.34366,5.0907,-0.23452,-17.101,162.5,3.1836,-1.0612,-1.8057,4.2448,2.8844e-13,-0.90287,0,0,0.11111,4.1119e-17,0,0.66667
0.30714,0.19339,2.7643,-0.45992,-44.818,367.94,3.3903,-1.1301,-1.2464,4.5204,1.4502e-12,-0.62322,0,0,0.11111,-0,-0,0.66667
0.87678,0.66786,7.891,0.25179,6.1584,15.946,-5.2983,1.7661,-1.7759,-7.0644,1.0651e-08,-0.88793,0,0,0.11111,-0,-0,0.66667
0.98882,0.96964,8.8994,0.70446,1.643,2.2263,-16.718,5.5727,-0.23549,-22.291,7.4436e-05,-0.11775,0,0,0.11111,-0,-0,0.66667
0.77748,0.33041,6.9973,-0.25439,-10.735,47.597,4.7468,-1.5823,-1.7689,6.329,1.9367e-11,-0.88447,0,0,0.11111,-0,-0,0.66667
0.57364,0.040194,5.1628,-0.68971,-49.915,158.11,9.4955,-3.1652,-0.30737,12.661,2.9488e-12,-0.15369,0,0,0.11111,-1.0527e-15,6.704e-17,0.66667
0.14128,0.53468,1.2715,0.052027,5.4765,522.54,-0.17641,0.058802,-1.9942,-0.23521,6.3597e-10,-0.99709,0,0,0.11111,-0,-0,0.66667
0.31493,0.96343,2.8344,0.69515,67.573,361.35,-5.2541,1.7514,-0.28296,-7.0055,1.922e-12,-0.14148,0,0,0.11111,-1.3158e-16,0,0.66667
0.36686,0.80289,3.3017,0.45433,42.296,315.79,-4.0002,1.3334,-1.2636,-5.3337,2.3319e-12,-0.63178,0,0,0.11111,-5.2633e-16,0,0.66667
0.2919,0.9046,2.6271,0.60691,59.839,381.79,-4.2517,1.4172,-0.68983,-5.6689,-2.6823e-12,-0.34492,0,0,0.11111,-6.5791e-16,0,0.66667
0.44595,0.45973,4.0136,-0.06041,-5.1918,250.34,0.64656,-0.21552,-1.9846,0.86208,-3.4973e-12,-0.9923,0,0,0.11111,-0,-0,0.66667
0.61063,0.26,5.4957,-0.36,-24.221,133.52,5.2759,-1.7586,-1.5413,7.0345,1.0925e-13,-0.77065,0,0,0.11111,-0,-0,0.66667
0.21291,0.26616,1.9162,-0.35077,-36.006,454.31,1.7924,-0.59747,-1.5602,2.3899,-1.3534e-12,-0.78009,0,0,0.11111,-0,-0,0.66667
0.24976,0.47458,2.2478,-0.038133,-3.8393,419.85,0.22858,-0.076193,-1.9989,0.30477,-4.2562e-13,-0.99946,0,0,0.11111,-0,-0,0.66667
0.11215,0.21552,1.0094,-0.42672,-45.338,550.85,1.1486,-0.38285,-1.3536,1.5314,1.6826e-08,-0.67681,0,0,0.11111,-0,-0,0.66667
0.30759,0.83241,2.7683,0.49862,48.594,367.59,-3.6809,1.227,-1.1143,-4.9078,4.079e-13,-0.55714,0,0,0.11111,-0,-0,0.66667
0.49745,0.16486,4.477,-0.50271,-40.696,211.27,6.0017,-2.0006,-1.102,8.0023,-1.8736e-12,-0.55101,0,0,0.11111,-0,-0,0.66667
0.48981,0.36145,4.4083,-0.20782,-16.948,216.57,2.4431,-0.81435,-1.8443,3.2574,-9.6079e-13,-0.92215,0,0,0.11111,-0,-0,0.66667
0.99558,0.89597,8.9602,0.59395,0.43696,1.4803,-14.192,4.7306,-0.74436,-18.922,2.5295e-06,-0.37218,0,0,0.11111,-0,-0,0.66667
0.98111,0.77957,8.83,0.41935,1.5268,1.2757,-9.8742,3.2914,-1.3756,-13.166,-9.571e-07,-0.68778,0,0,0.11111,6.5791e-16,0,0.66667
0.43656,0.84552,3.9291,0.51828,45.149,258.27,-5.4303,1.8101,-1.0486,-7.2404,-2.0917e-13,-0.5243,0,0,0.11111,-1.0527e-15,-1.4524e-16,0.66667
0.97202,0.93598,8.7482,0.65397,3.8055,2.7733,-15.256,5.0854,-0.48023,-20.341,-1.6861e-05,-0.24012,0,0,0.11111,-7.8949e-16,0,0.66667
0.2144,0.87543,1.9296,0.56315,57.881,453.09,-2.8977,0.96591,-0.87253,-3.8636,-5.0325e-10,-0.43627,0,0,0.11111,-5.2633e-16,0,0.66667
0.54112,0.71619,4.8701,0.32429,24.614,179.45,-4.2115,1.4038,-1.625,-5.6153,-4.1611e-13,-0.81249,0,0,0.11111,-1.4474e-15,0,0.66667
0.45344,0.45992,4.0809,-0.060118,-5.123,244.44,0.65423,-0.21808,-1.9908,0.87231,-2.2394e-12,-0.99539,0,0,0.11111,-0,-0,0.66667
0.96761,0.011828,8.7085,-0.73226,-5.0203,3.4971,17.005,-5.6683,-0.095647,22.673,-4.3227e-06,-0.047823,0,0,0.11111,-0,1.2381e-16,0.66667
0.83618,0.93103,7.5256,0.64654,20.908,28.149,-12.975,4.325,-0.51153,-17.3,-9.6858e-09,-0.25577,0,0,0.11111,-1.579e-15,0,0.66667
0.21415,0.084764,1.9273,-0.62285,-64.071,453.38,3.2012,-1.0671,-0.61929,4.2682,-5.4784e-10,-0.30964,0,0,0.11111,2.6316e-16,0,0.66667
0.43954,0.93456,3.9559,0.65184,56.705,256.17,-6.8762,2.2921,-0.49124,-9.1682,-2.1139e-13,-0.24562,0,0,0.11111,1.3158e-16,0,0.66667
0.16848,0.84561,1.5163,0.51841,54.241,496.57,-2.0962,0.69872,-1.0451,-2.7949,-1.9086e-09,-0.52256,0,0,0.11111,-5.2633e-16,0,0.66667
0.52909,0.96164,4.7618,0.69245,53.791,188.73,-8.7928,2.9309,-0.29633,-11.724,-1.0356e-12,-0.14816,0,0,0.11111,-0,-0,0.66667
0.79348,0.27304,7.1414,-0.34044,-13.46,41.602,6.4831,-2.161,-1.5877,8.6442,-2.2597e-11,-0.79383,0,0,0.11111,-1.0527e-15,0,0.66667
0.035879,0.48529,0.32291,-0.022063,-2.3669,625.43,0.018999,-0.0063328,-1.9966,0.025332,2.1196e-07,-0.9983,0,0,0.11111,-6.5791e-17,0,0.66667
0.19136,0.026703,1.7222,-0.70995,-73.823,474.97,3.2605,-1.0868,-0.2077,4.3473,-3.0294e-11,-0.10385,0,0,0.11111,2.6316e-16,0,0.66667
0.97746,0.28172,8.7971,-0.32742,-1.4218,1.1969,7.6809,-2.5603,-1.6178,10.241,5.6271e-07,-0.80888,0,0,0.11111,-0,-0,0.66667
0.9608,0.01254,8.6472,-0.73119,-6.049,4.0288,16.861,-5.6202,-0.096394,22.481,-7.0831e-06,-0.048197,0,0,0.11111,-0,-0,0.66667
0.55659,0.81711,5.0093,0.47566,35.291,169.02,-6.3539,2.118,-1.194,-8.4719,5.4756e-13,-0.59701,0,0,0.11111,-0,-0,0.66667
0.64609,0.68533,5.8148,0.278,17.351,112.09,-4.3107,1.4369,-1.7243,-5.7476,-1.6565e-12,-0.86216,0,0,0.11111,1.0527e-15,0,0.66667
0.27209,0.8454,2.4488,0.5181,51.654,399.62,-3.3833,1.1278,-1.0444,-4.5111,1.4196e-11,-0.52219,0,0,0.11111,-1.0527e-15,0,0.66667
0.95209,0.037442,8.5688,-0.69384,-6.9497,4.6396,15.854,-5.2848,-0.29112,21.139,-7.2696e-06,-0.14556,0,0,0.11111,-0,8.3626e-17,0.66667
0.66977,0.21161,6.028,-0.43258,-25.593,99.039,6.9536,-2.3179,-1.3359,9.2715,1.3824e-12,-0.66796,0,0,0.11111,-0,-0,0.66667
0.66681,0.019403,6.0013,-0.7209,-43.207,101.56,11.537,-3.8456,-0.15036,15.382,1.2692e-12,-0.075179,0,0,0.11111,-0,-0,0.66667
0.011103,0.17334,0.09993,-0.49,-52.749,649.83,0.13057,-0.043524,-1.1447,0.1741,1.3694e-06,-0.57237,0,0,0.11111,-0,-0,0.66667
0.85297,0.59001,7.6767,0.13502,3.8965,21.92,-2.764,0.92132,-1.9336,-3.6853,2.6452e-09,-0.96681,0,0,0.11111,1.3158e-15,0,0.66667
0.77833,0.0073443,7.0049,-0.73898,-31.449,48.761,13.804,-4.6014,-0.058617,18.405,-1.3338e-11,-0.029309,0,0,0.11111,-0,-9.4626e-17,0.66667
0.68492,0.67393,6.1643,0.26089,14.824,90.563,-4.2886,1.4295,-1.7582,-5.7181,-1.6014e-12,-0.87911,0,0,0.11111,-1.0527e-15,0,0.66667
0.74078,0.83099,6.667,0.49649,24.033,63.705,-8.8269,2.9423,-1.1211,-11.769,-1.5197e-12,-0.56053,0,0,0.11111,1.0527e-15,0,0.66667
0.15657,0.33546,1.4092,-0.24681,-25.874,507.85,0.92745,-0.30915,-1.7871,1.2366,2.0435e-09,-0.89354,0,0,0.11111,-2.6316e-16,0,0.66667
0.71878,0.57047,6.469,0.1057,5.4576,73.284,-1.8234,0.60781,-1.9645,-2.4313,-4.9861e-12,-0.98223,0,0,0.11111,-0,-0,0.66667
0.096818,0.70117,0.87137,0.30175,32.136,565.74,-0.70116,0.23372,-1.6759,-0.93488,-3.254e-08,-0.83797,0,0,0.11111,-0,-0,0.66667
0.70695,0.89364,6.3625,0.59046,31.768,80.042,-10.018,3.3394,-0.75941,-13.358,-1.7186e-12,-0.37971,0,0,0.11111,-1.0527e-15,0,0.66667
0.0026318,0.10243,0.023686,-0.59636,-64.278,658.16,0.037664,-0.012558,-0.73598,0.050216,-4.8523e-06,-0.36799,0,0,0.11111,-0,-7.385e-17,0.66667
0.77621,0.89618,6.9859,0.59427,25.383,49,-11.071,3.6902,-0.7426,-14.761,6.8516e-11,-0.3713,0,0,0.11111,-0,-0,0.66667
0.49156,0.16976,4.424,-0.49536,-40.409,215.65,5.8439,-1.948,-1.1248,7.7919,-9.2593e-13,-0.56242,0,0,0.11111,-1.0527e-15,0,0.66667
0.20439,0.90836,1.8395,0.61254,63.272,462.55,-3.0047,1.0016,-0.66908,-4.0063,-8.1277e-10,-0.33454,0,0,0.11111,-0,-0,0.66667
0.72925,0.41868,6.5632,-0.12197,-6.0984,68.319,2.1348,-0.7116,-1.9452,2.8464,6.906e-12,-0.97259,0,0,0.11111,-0,-0,0.66667
0.31565,0.54415,2.8409,0.066219,6.4007,360.1,-0.50165,0.16722,-1.984,-0.66887,1.689e-12,-0.99202,0,0,0.11111,5.2633e-16,0,0.66667
0.88382,0.91013,7.9544,0.61519,14.424,15.432,-13.049,4.3498,-0.65266,-17.399,-2.2486e-09,-0.32633,0,0,0.11111,-2.1053e-15,0,0.66667
0.18023,0.3165,1.6221,-0.27525,-28.623,485.22,1.1906,-0.39688,-1.7288,1.5875,4.2094e-10,-0.86441,0,0,0.11111,-5.2633e-16,0,0.66667
0.93855,0.72397,8.447,0.33595,4.1655,4.8023,-7.5675,2.5225,-1.6016,-10.09,5.6417e-08,-0.80081,0,0,0.11111,-0,-0,0.66667
0.97075,0.41629,8.7368,-0.12557,-0.71054,1.2576,2.9255,-0.97517,-1.945,3.9007,1.3096e-07,-0.97252,0,0,0.11111,-0,-0,0.66667
0.30449,0.12282,2.7404,-0.56577,-55.296,370.44,4.1344,-1.3781,-0.86039,5.5126,4.2513e-12,-0.43019,0,0,0.11111,5.9212e-16,0,0.66667
0.86249,0.39431,7.7624,-0.15854,-4.2968,19.378,3.2816,-1.0939,-1.9104,4.3755,-3.2174e-09,-0.95518,0,0,0.11111,-0,-0,0.66667
0.84218,0.12743,7.5796,-0.55885,-17.402,26.001,11.296,-3.7652,-0.89221,15.061,-1.288e-09,-0.44611,0,0,0.11111,-2.1053e-15,1.1189e-16,0.66667
0.42461,0.24593,3.8215,-0.3811,-33.573,267.66,3.8837,-1.2946,-1.4845,5.1782,4.0372e-12,-0.74227,0,0,0.11111,-2.6316e-16,0,0.66667
0.36368,0.45678,3.2732,-0.064837,-6.0387,318.2,0.56592,-0.18864,-1.9837,0.75457,-2.5419e-13,-0.99185,0,0,0.11111,-5.2633e-16,0,0.66667
0.28244,0.41166,2.5419,-0.13251,-13.095,389.94,0.89822,-0.29941,-1.9403,1.1976,-5.3781e-12,-0.97014,0,0,0.11111,1.0527e-15,0,0.66667
0.99324,0.54349,8.9391,0.065233,0.057204,0.14751,-1.555,0.51834,-1.9823,-2.0733,7.7519e-07,-0.99115,0,0,0.11111,-0,-0,0.66667
0.25575,0.16402,2.3018,-0.50397,-50.707,414.58,3.0934,-1.0311,-1.0951,4.1245,6.5947e-14,-0.54753,0,0,0.11111,5.2633e-16,0,0.66667
0.92068,0.42194,8.2861,-0.1171,-1.8601,7.0163,2.5874,-0.86247,-1.9532,3.4499,-1.7401e-08,-0.9766,0,0,0.11111,-0,-0,0.66667
0.42834,0.66732,3.855,0.25098,22.003,264.52,-2.5801,0.86004,-1.7736,-3.4402,1.0312e-12,-0.8868,0,0,0.11111,-0,-0,0.66667
0.93543,0.38454,8.4188,-0.17318,-2.2419,4.9012,3.888,-1.296,-1.8944,5.184,-3.7049e-09,-0.9472,0,0,0.11111,-0,-0,0.66667
0.83884,0.035132,7.5496,-0.6973,-22.262,27.574,14.038,-4.6794,-0.27029,18.718,6.8706e-10,-0.13515,0,0,0.11111,-0,-0,0.66667
0.15578,0.83278,1.402,0.49918,52.441,508.73,-1.8662,0.62208,-1.1172,-2.4883,-1.1143e-10,-0.55862,0,0,0.11111,-1.3158e-16,0,0.66667
0.57428,0.88002,5.1686,0.57003,41.119,157.34,-7.8567,2.6189,-0.84438,-10.476,-1.386e-12,-0.42219,0,0,0.11111,-0,-0,0.66667
0.6735,0.33368,6.0615,-0.24948,-14.592,96.669,4.0326,-1.3442,-1.7803,5.3768,3.304e-13,-0.89014,0,0,0.11111,5.2633e-16,0,0.66667
0.40582,0.83678,3.6524,0.50516,45.411,283.19,-4.9201,1.64,-1.0963,-6.5602,-1.994e-13,-0.54815,0,0,0.11111,-0,-0,0.66667
0.004877,0.40127,0.043893,-0.14809,-15.91,655.95,0.017334,-0.0057776,-1.921,0.023112,4.5501e-07,-0.96049,0,0,0.11111,-0,-0,0.66667
0.32533,0.62406,2.928,0.1861,17.869,351.58,-1.453,0.48435,-1.8783,-1.9374,4.2761e-12,-0.93916,0,0,0.11111,5.2633e-16,0,0.66667
0.83894,0.15074,7.5505,-0.52389,-16.601,26.833,10.548,-3.5161,-1.0231,14.065,-7.952e-10,-0.51153,0,0,0.11111,-1.579e-15,0,0.66667
0.062824,0.53924,0.56542,0.058864,6.2981,598.96,-0.088753,0.029584,-1.9914,-0.11834,-8.9444e-08,-0.99569,0,0,0.11111,-0,-0,0.66667
0.10542,0.076539,0.94878,-0.63519,-67.734,557.49,1.6071,-0.53569,-0.5643,2.1428,-1.8218e-07,-0.28215,0,0,0.11111,-0,-0,0.66667
0.70179,0.9331,6.3161,0.64965,35.512,82.835,-10.942,3.6473,-0.50204,-14.589,8.4022e-13,-0.25102,0,0,0.11111,-5.2633e-16,-6.3679e-17,0.66667
0.51416,0.58594,4.6274,0.12891,10.169,198.51,-1.5907,0.53024,-1.9429,-2.121,5.0115e-13,-0.97146,0,0,0.11111,-0,-0,0.66667
0.49817,0.097724,4.4835,-0.60341,-48.872,210.96,7.2144,-2.4048,-0.70744,9.6192,5.0093e-13,-0.35372,0,0,0.11111,-0,6.0552e-17,0.66667
0.37361,0.13991,3.3625,-0.54014,-50.041,310.17,4.8432,-1.6144,-0.96436,6.4576,4.3476e-13,-0.48218,0,0,0.11111,-5.2633e-16,0,0.66667
0.60351,0.94096,5.4316,0.66144,45.331,138.72,-9.5805,3.1935,-0.44312,-12.774,7.1942e-13,-0.22156,0,0,0.11111,-0,-0,0.66667
0.85147,0.35039,7.6632,-0.22442,-6.5461,22.447,4.5861,-1.5287,-1.8187,6.1148,-2.8976e-09,-0.90936,0,0,0.11111,-2.1053e-15,0,0.66667
0.27692,0.80696,2.4923,0.46044,45.747,395.17,-3.0602,1.0201,-1.2454,-4.0802,2.2626e-12,-0.62272,0,0,0.11111,-5.2633e-16,0,0.66667
0.84476,0.9507,7.6029,0.67605,20.836,25.736,-13.707,4.5688,-0.3772,-18.275,1.6761e-08,-0.1886,0,0,0.11111,-0,-0,0.66667
0.41662,0.63669,3.7496,0.20504,18.19,273.98,-2.0502,0.68339,-1.8486,-2.7336,-3.3773e-13,-0.92428,0,0,0.11111,-0,-0,0.66667
0.50098,0.51115,4.5089,0.016729,1.3435,208.15,-0.20115,0.067049,-2.0014,-0.2682,2.5785e-12,-1.0007,0,0,0.11111,-2.1053e-15,0,0.66667
0.72962,0.98144,6.5666,0.72216,36.443,69.622,-12.646,4.2153,-0.14402,-16.861,-8.6597e-13,-0.072009,0,0,0.11111,1.0527e-15,0,0.66667
0.25872,0.98466,2.3285,0.72699,73.234,412.13,-4.5141,1.5047,-0.11814,-6.0189,1.7228e-11,-0.05907,0,0,0.11111,5.2633e-16,0,0.66667
0.92164,0.60261,8.2947,0.15392,2.4172,6.8994,-3.4046,1.1349,-1.9195,-4.5394,1.5484e-08,-0.95976,0,0,0.11111,-0,-0,0.66667
0.70207,0.13128,6.3186,-0.55309,-30.143,82.367,9.3193,-3.1064,-0.91512,12.426,4.17e-12,-0.45756,0,0,0.11111,-0,-0,0.66667
0.61893,0.33593,5.5704,-0.2461,-16.269,128.23,3.6557,-1.2186,-1.7826,4.8742,1.777e-12,-0.89132,0,0,0.11111,-0,-0,0.66667
0.27301,0.9016,2.4571,0.60241,60.086,398.89,-3.9471,1.3157,-0.70781,-5.2628,1.1126e-11,-0.35391,0,0,0.11111,-0,-0,0.66667
0.69585,0.70998,6.2626,0.31498,17.395,84.956,-5.2602,1.7534,-1.6448,-7.0136,-4.4067e-12,-0.82242,0,0,0.11111,1.0527e-15,0,0.66667
0.25721,0.075316,2.3149,-0.63703,-64.144,413.39,3.9325,-1.3108,-0.55448,5.2433,1.409e-11,-0.27724,0,0,0.11111,-5.2633e-16,0,0.66667
0.81645,0.36453,7.3481,-0.2032,-7.207,33.218,3.9817,-1.3272,-1.8522,5.309,-2.4381e-10,-0.92611,0,0,0.11111,1.0527e-15,0,0.66667
0.011472,0.17335,0.10325,-0.48998,-52.747,649.46,0.13491,-0.044969,-1.1451,0.17988,1.2674e-06,-0.57254,0,0,0.11111,-0,-0,0.66667
0.16654,0.077767,1.4988,-0.63335,-66.399,498.52,2.5314,-0.84381,-0.57165,3.3752,-4.3851e-09,-0.28583,0,0,0.11111,-0,-0,0.66667
0.55783,0.50684,5.0205,0.010264,0.75757,167.67,-0.13741,0.045804,-1.9985,-0.18321,-1.1571e-13,-0.99923,0,0,0.11111,-2.1053e-15,0,0.66667
0.71228,0.77762,6.4105,0.41642,21.989,76.91,-7.1186,2.3729,-1.3819,-9.4915,-5.5569e-12,-0.69094,0,0,0.11111,1.3158e-15,0,0.66667
0.49248,0.13862,4.4323,-0.54208,-44.194,215.06,6.4071,-2.1357,-0.95248,8.5428,-1.5934e-12,-0.47624,0,0,0.11111,-0,-0,0.66667
0.87781,0.14713,7.9003,-0.52931,-12.962,16.463,11.151,-3.7171,-1.0041,14.868,1.46e-09,-0.50204,0,0,0.11111,-1.0527e-15,0,0.66667
0.97587,0.9162,8.7828,0.6243,3.1028,2.3904,-14.622,4.8739,-0.61172,-19.496,-1.4368e-05,-0.30586,0,0,0.11111,-0,-0,0.66667
0.46428,0.87242,4.1785,0.55863,47.182,236.56,-6.2246,2.0749,-0.89007,-8.2994,-1.1156e-12,-0.44504,0,0,0.11111,7.8949e-16,0,0.66667
0.76799,0.93882,6.9119,0.65824,29.072,52.565,-12.132,4.0441,-0.46135,-16.177,-1.4904e-10,-0.23067,0,0,0.11111,-0,-0,0.66667
0.49477,0.59227,4.4529,0.13841,11.211,212.8,-1.6435,0.54783,-1.9312,-2.1913,-8.1146e-13,-0.96562,0,0,0.11111,-1.25e-15,0,0.66667
0.6651,0.07643,5.9859,-0.63535,-38.16,102.19,10.142,-3.3806,-0.56208,13.522,4.0945e-13,-0.28104,0,0,0.11111,-0,-0,0.66667
0.22487,0.96408,2.0239,0.69613,71.324,443.42,-3.757,1.2523,-0.27539,-5.0093,8.1805e-11,-0.13769,0,0,0.11111,-0,-0,0.66667
0.10954,0.38954,0.98588,-0.16569,-17.588,553.32,0.43559,-0.1452,-1.9059,0.58079,1.3579e-08,-0.95297,0,0,0.11111,-0,-0,0.66667
0.97901,0.4721,8.8111,-0.041852,-0.16343,0.69982,0.98336,-0.32779,-1.9927,1.3112,-1.7361e-07,-0.99635,0,0,0.11111,-0,-0,0.66667
0.81499,0.78087,7.335,0.4213,15.11,34.154,-8.2405,2.7468,-1.3708,-10.987,8.0761e-11,-0.68541,0,0,0.11111,1.3158e-15,0,0.66667
0.28538,0.52687,2.5685,0.040305,3.975,387.25,-0.27606,0.09202,-1.9938,-0.36808,3.4221e-12,-0.9969,0,0,0.11111,-0,-0,0.66667
0.58583,0.1774,5.2725,-0.48391,-34.161,149.55,6.8037,-2.2679,-1.1649,9.0716,7.3541e-13,-0.58243,0,0,0.11111,5.2633e-16,0,0.66667
0.38007,0.46947,3.4206,-0.045794,-4.2047,304.27,0.41772,-0.13924,-1.9921,0.55696,-2.9799e-12,-0.99607,0,0,0.11111,-0,-0,0.66667
0.17634,0.25812,1.587,-0.36282,-37.804,488.97,1.5355,-0.51184,-1.5308,2.0474,5.4108e-10,-0.76539,0,0,0.11111,-0,-0,0.66667
0.41884,0.34825,3.7695,-0.22763,-20.151,272.19,2.2881,-0.76271,-1.8163,3.0508,-7.8892e-13,-0.90817,0,0,0.11111,-0,-0,0.66667
0.29719,0.94853,2.6747,0.6728,66.168,377.14,-4.7988,1.5996,-0.39399,-6.3983,-1.0116e-12,-0.197,0,0,0.11111,-0,-0,0.66667
0.016624,0.2961,0.14962,-0.30586,-32.875,644.39,0.12203,-0.040677,-1.6696,0.16271,-1.6972e-07,-0.83482,0,0,0.11111,-3.2895e-17,0,0.66667
0.38737,0.78577,3.4863,0.42866,39.18,298.41,-3.9852,1.3284,-1.347,-5.3136,-1.5077e-12,-0.67351,0,0,0.11111,-0,-0,0.66667
0.92091,0.56351,8.2882,0.09527,1.5084,6.9611,-2.1056,0.70188,-1.9715,-2.8075,3.8558e-08,-0.98576,0,0,0.11111,-0,-0,0.66667
0.8282,0.44734,7.4538,-0.078991,-2.6339,29.257,1.5701,-0.52336,-1.9817,2.0934,-5.6399e-10,-0.99087,0,0,0.11111,-2.1053e-15,0,0.66667
0.57407,0.62939,5.1667,0.19409,13.948,156.81,-2.6741,0.89138,-1.8657,-3.5655,2.3697e-12,-0.93285,0,0,0.11111,-0,-0,0.66667
0.31865,0.24546,2.8678,-0.38181,-36.883,357.63,2.9199,-0.97329,-1.4801,3.8932,-1.6882e-12,-0.74004,0,0,0.11111,2.6316e-16,0,0.66667
0.23126,0.69081,2.0814,0.28621,29.115,437.1,-1.5886,0.52953,-1.7094,-2.1181,2.5539e-11,-0.85471,0,0,0.11111,-0,-0,0.66667
0.95602,0.77061,8.6042,0.40591,3.6038,3.0433,-9.3134,3.1045,-1.4142,-12.418,1.3142e-07,-0.70709,0,0,0.11111,-1.0527e-15,0,0.66667
0.56461,0.36265,5.0815,-0.20602,-15.046,163.16,2.7918,-0.93059,-1.8499,3.7223,1.0005e-12,-0.92495,0,0,0.11111,1.0527e-15,0,0.66667
0.21761,0.47162,1.9584,-0.042574,-4.3556,449.8,0.22235,-0.074115,-1.9967,0.29646,4.1908e-11,-0.99836,0,0,0.11111,-0,-0,0.66667
0.24948,0.63019,2.2453,0.19528,19.671,420.14,-1.1692,0.38975,-1.8682,-1.559,2.2295e-11,-0.93408,0,0,0.11111,-0,-0,0.66667
0.9596,0.90128,8.6364,0.60192,5.0219,3.4712,-13.862,4.6208,-0.71004,-18.483,4.8422e-06,-0.35502,0,0,0.11111,-0,-0,0.66667
0.23881,0.26484,2.1493,-0.35274,-35.763,430.11,2.0218,-0.67392,-1.5561,2.6957,-2.3382e-11,-0.77803,0,0,0.11111,5.2633e-16,0,0.66667
0.10671,0.92568,0.96043,0.63852,68.073,556.23,-1.6353,0.54512,-0.55056,-2.1805,1.9728e-07,-0.27528,0,0,0.11111,-1.2637e-16,1.4259e-16,0.66667
0.18396,0.70113,1.6557,0.3017,31.333,481.68,-1.332,0.44401,-1.6756,-1.776,-2.933e-10,-0.8378,0,0,0.11111,2.6316e-16,0,0.66667
0.76622,0.043036,6.896,-0.68545,-30.5,53.402,12.605,-4.2016,-0.33242,16.807,8.4433e-11,-0.16621,0,0,0.11111,-0,-0,0.66667
0.70876,0.83208,6.3789,0.49812,26.61,78.856,-8.4732,2.8244,-1.1156,-11.298,-1.4539e-12,-0.55782,0,0,0.11111,-0,-0,0.66667
0.43794,0.41619,3.9415,-0.12571,-10.902,256.73,1.3213,-0.44043,-1.9471,1.7617,-1.0287e-12,-0.97357,0,0,0.11111,-0,-0,0.66667
0.7938,0.15426,7.1442,-0.5186,-20.558,41.969,9.8801,-3.2934,-1.0447,13.173,-9.2193e-12,-0.52235,0,0,0.11111,-0,-0,0.66667
0.51751,0.33621,4.6576,-0.24569,-19.3,196.16,3.0516,-1.0172,-1.7869,4.0688,1.0463e-12,-0.89343,0,0,0.11111,-0,-0,0.66667
0.4136,0.82155,3.7224,0.48233,43.015,276.77,-4.7877,1.5959,-1.1704,-6.3837,2.8599e-12,-0.5852,0,0,0.11111,-1.0527e-15,0,0.66667
0.11744,0.69551,1.057,0.29327,31.091,545.66,-0.82661,0.27554,-1.6918,-1.1022,-1.3464e-08,-0.84592,0,0,0.11111,-0,-0,0.66667
0.88391,0.27061,7.9552,-0.34409,-7.9688,14.491,7.2994,-2.4331,-1.5766,9.7326,-1.4663e-08,-0.78829,0,0,0.11111,-0,-0,0.66667
0.27559,0.84032,2.4803,0.51048,50.785,396.43,-3.3764,1.1255,-1.0722,-4.5019,1.7188e-11,-0.53612,0,0,0.11111,1.3158e-16,0,0.66667
0.61626,0.071645,5.5463,-0.64253,-42.94,130.73,9.5032,-3.1677,-0.52972,12.671,7.8781e-13,-0.26486,0,0,0.11111,-0,-0,0.66667
0.98458,0.4275,8.8612,-0.10875,-0.29733,0.47311,2.5699,-0.85662,-1.9617,3.4265,-3.9374e-07,-0.98083,0,0,0.11111,1.0527e-15,0,0.66667
0.18942,0.54934,1.7048,0.074005,7.663,476.43,-0.33643,0.11214,-1.9816,-0.44857,-5.441e-11,-0.99078,0,0,0.11111,-0,-0,0.66667
0.96519,0.74377,8.6867,0.36566,2.5391,2.1244,-8.4703,2.8234,-1.5244,-11.294,-2.8041e-07,-0.7622,0,0,0.11111,-1.579e-15,0,0.66667
0.65272,0.27386,5.8744,-0.33921,-20.87,108.39,5.3138,-1.7713,-1.5906,7.0851,5.3513e-13,-0.79528,0,0,0.11111,-5.2633e-16,0,0.66667
0.12873,0.62091,1.1586,0.18136,19.163,534.69,-0.56034,0.18678,-1.883,-0.74712,-6.7918e-09,-0.9415,0,0,0.11111,1.3158e-16,0,0.66667
0.77193,0.10576,6.9473,-0.59136,-25.68,50.704,10.956,-3.6519,-0.75417,14.608,-1.3758e-10,-0.37709,0,0,0.11111,2.1053e-15,0,0.66667
0.95178,0.8465,8.566,0.51975,5.1258,3.8675,-11.872,3.9575,-1.0424,-15.83,4.5958e-07,-0.5212,0,0,0.11111,-0,-0,0.66667
0.56278,0.8287,5.065,0.49305,36.22,164.85,-6.6594,2.2198,-1.139,-8.8792,-7.2387e-14,-0.56951,0,0,0.11111,-0,-0,0.66667
0.68856,0.084959,6.197,-0.62256,-35.246,89.532,10.288,-3.4293,-0.62442,13.717,7.5762e-13,-0.31221,0,0,0.11111,1.0527e-15,0,0.66667
0.026348,0.2432,0.23713,-0.3852,-41.408,634.83,0.24358,-0.081195,-1.4711,0.32478,-9.4825e-07,-0.73556,0,0,0.11111,3.2895e-17,0,0.66667
0.98908,0.41068,8.9017,-0.13399,-0.23877,0.32583,3.1805,-1.0602,-1.9353,4.2407,-4.5433e-08,-0.96766,0,0,0.11111,-0,-0,0.66667
0.31846,0.66236,2.8661,0.24353,23.507,357.69,-1.8613,0.62044,-1.7874,-2.4818,4.4857e-12,-0.89368,0,0,0.11111,-0,-0,0.66667
0.023904,0.55138,0.21513,0.077066,8.2739,637.22,-0.044212,0.014737,-1.9763,-0.05895,-1.9337e-07,-0.98814,0,0,0.11111,-3.2895e-17,0,0.66667
0.80856,0.51856,7.2771,0.027847,1.0251,35.792,-0.54039,0.18013,-1.9962,-0.72053,4.6198e-11,-0.99808,0,0,0.11111,2.1053e-15,0,0.66667
0.97325,0.66548,8.7593,0.24822,1.2859,1.27,-5.7979,1.9326,-1.7796,-7.7305,-3.0796e-07,-0.88982,0,0,0.11111,-0,-0,0.66667
0.73759,0.58605,6.6383,0.12907,6.283,64.472,-2.2849,0.76162,-1.9407,-3.0465,-1.064e-11,-0.97036,0,0,0.11111,-1.0527e-15,0,0.66667
0.0027358,0.94114,0.024622,0.66171,71.379,658.06,-0.043451,0.014498,-0.44421,-0.057928,2.1882e-05,-0.22211,0,0,0.11111,-0,6.2755e-16,0.66667
0.063361,0.84953,0.57024,0.5243,56.24,598.51,-0.79728,0.26576,-1.0257,-1.063,-1.2687e-07,-0.51287,0,0,0.11111,-0,-0,0.66667
0.58427,0.26975,5.2584,-0.34538,-24.409,150.29,4.843,-1.6143,-1.5735,6.4574,1.2736e-12,-0.78676,0,0,0.11111,5.2633e-16,0,0.66667
0.33572,0.56652,3.0214,0.099784,9.5049,342.43,-0.80398,0.26799,-1.9628,-1.072,3.88e-12,-0.98139,0,0,0.11111,-1.0527e-15,0,0.66667
0.88183,0.85003,7.9365,0.52504,12.453,15.517,-11.112,3.704,-1.0178,-14.816,-2.6539e-09,-0.5089,0,0,0.11111,-2.1053e-15,0,0.66667
0.87367,0.84528,7.863,0.51792,13.082,17.407,-10.86,3.6199,-1.0494,-14.48,6.1149e-10,-0.52471,0,0,0.11111,-0,-0,0.66667
0.98752,0.56755,8.8877,0.10132,0.21342,0.35041,-2.4014,0.80046,-1.9639,-3.2018,7.8232e-07,-0.98193,0,0,0.11111,-0,-0,0.66667
0.71583,0.72078,6.4425,0.33118,17.284,74.993,-5.6896,1.8965,-1.6111,-7.5861,-7.5451e-12,-0.80557,0,0,0.11111,-0,-0,0.66667
0.87688,0.53042,7.892,0.045626,1.1121,15.706,-0.96021,0.32007,-1.9952,-1.2803,1.2398e-08,-0.99758,0,0,0.11111,3.9475e-16,0,0.66667
0.31965,0.95201,2.8769,0.67802,65.671,357.14,-5.2015,1.7338,-0.36278,-6.9353,1.5992e-12,-0.18139,0,0,0.11111,-5.2633e-16,0,0.66667
0.11118,0.94499,1.0006,0.66749,71.117,551.91,-1.781,0.59368,-0.41744,-2.3747,7.172e-08,-0.20872,0,0,0.11111,-0,-0,0.66667
0.86536,0.52211,7.7883,0.033162,0.88018,18.549,-0.68874,0.22958,-1.994,-0.91832,4.2422e-10,-0.99699,0,0,0.11111,-0,-0,0.66667
0.30347,0.93564,2.7313,0.65346,63.982,371.48,-4.7594,1.5865,-0.48047,-6.3458,2.2706e-12,-0.24023,0,0,0.11111,-6.5791e-16,0,0.66667
0.41933,0.99204,3.774,0.73806,65.681,272.62,-7.4278,2.4759,-0.063817,-9.9038,2.1076e-12,-0.031909,0,0,0.11111,-1.579e-15,9.9917e-17,0.66667
0.64603,0.073512,5.8143,-0.63973,-40.154,112.99,9.9189,-3.3063,-0.54287,13.225,2.7107e-12,-0.27144,0,0,0.11111,-1.0527e-15,0,0.66667
0.6051,0.14723,5.4459,-0.52916,-36.069,137.34,7.6846,-2.5615,-1.0033,10.246,-1.3993e-12,-0.50165,0,0,0.11111,5.2633e-16,0,0.66667
0.42092,0.13332,3.7883,-0.55001,-48.729,270.92,5.5563,-1.8521,-0.92708,7.4084,2.0339e-12,-0.46354,0,0,0.11111,-0,-0,0.66667
0.38615,0.62572,3.4754,0.18858,17.227,299.2,-1.7477,0.58258,-1.8735,-2.3303,-5.6743e-13,-0.93677,0,0,0.11111,1.0527e-15,0,0.66667
0.12268,0.35356,1.1041,-0.21966,-23.249,540.56,0.64676,-0.21559,-1.8292,0.86235,9.9351e-09,-0.91458,0,0,0.11111,-0,-0,0.66667
0.53386,0.87758,4.8048,0.56637,43.592,185.01,-7.2567,2.4189,-0.86083,-9.6756,-4.3254e-12,-0.43042,0,0,0.11111,2.1053e-15,0,0.66667
0.23285,0.67426,2.0957,0.26138,26.565,435.6,-1.4607,0.48692,-1.7586,-1.9477,2.9946e-11,-0.87931,0,0,0.11111,2.6316e-16,0,0.66667
0.75481,0.99197,6.7933,0.73796,34.278,58.43,-13.368,4.4562,-0.062303,-17.825,2.5554e-11,-0.031152,0,0,0.11111,-1.0527e-15,0,0.66667
0.67487,0.33042,6.0738,-0.25437,-14.828,95.934,4.12,-1.3733,-1.7697,5.4933,2.1241e-12,-0.88486,0,0,0.11111,-1.0527e-15,0,0.66667
0.071927,0.85321,0.64734,0.52982,56.77,590.12,-0.9146,0.30487,-0.9997,-1.2195,-1.3218e-07,-0.49985,0,0,0.11111,-0,-0,0.66667
0.98926,0.6389,8.9034,0.20835,0.36836,0.42021,-4.9467,1.6489,-1.8438,-6.5956,1.8132e-07,-0.92192,0,0,0.11111,-0,-0,0.66667
0.78046,0.28548,7.0241,-0.32179,-13.431,46.543,6.0274,-2.0091,-1.6353,8.0365,2.0654e-11,-0.81765,0,0,0.11111,-0,-0,0.66667
0.22783,0.58834,2.0504,0.13252,13.494,440.25,-0.72458,0.24153,-1.9357,-0.96611,2.6875e-11,-0.96785,0,0,0.11111,1.3158e-16,0,0.66667
0.030743,0.30867,0.27669,-0.287,-30.824,630.5,0.21175,-0.070585,-1.7111,0.28234,-3.4937e-07,-0.85555,0,0,0.11111,4.9343e-17,0,0.66667
0.47837,0.3079,4.3053,-0.28816,-23.856,225.3,3.3083,-1.1028,-1.7032,4.4111,1.2412e-12,-0.8516,0,0,0.11111,-7.8949e-16,0,0.66667
0.35274,0.37965,3.1747,-0.18053,-16.972,327.65,1.5283,-0.50944,-1.8824,2.0377,-1.4262e-12,-0.94118,0,0,0.11111,1.0527e-15,0,0.66667
0.54651,0.75877,4.9186,0.38815,29.234,175.79,-5.0911,1.697,-1.4679,-6.7881,9.4724e-13,-0.73394,0,0,0.11111,-0,-0,0.66667
0.65966,0.95569,5.937,0.68353,41.63,105.39,-10.822,3.6072,-0.33816,-14.429,-9.5035e-14,-0.16908,0,0,0.11111,-0,-0,0.66667
0.79722,0.53956,7.175,0.059346,2.3014,39.863,-1.1355,0.37849,-1.9911,-1.514,-1.8986e-11,-0.99555,0,0,0.11111,-0,-0,0.66667
0.013544,0.95853,0.1219,0.68779,74.204,647.44,-0.22357,0.074492,-0.31898,-0.29811,-4.7581e-05,-0.15949,0,0,0.11111,-1.6448e-17,0,0.66667
0.7143,0.74003,6.4287,0.36004,18.883,75.798,-6.1722,2.0574,-1.5378,-8.2296,-6.3118e-12,-0.76889,0,0,0.11111,-1.0527e-15,0,0.66667
0.29531,0.23865,2.6578,-0.39202,-38.48,378.47,2.7785,-0.92615,-1.4552,3.7046,-4.452e-12,-0.72758,0,0,0.11111,-0,-0,0.66667
0.9864,0.49396,8.8776,-0.009055,-0.021127,0.35253,0.21436,-0.071462,-2.0012,0.28582,-1.0284e-05,-1.0006,0,0,0.11111,-3.158e-15,0,0.66667
0.84624,0.47034,7.6162,-0.044487,-1.338,23.769,0.90352,-0.30117,-1.9946,1.2047,-2.377e-09,-0.99732,0,0,0.11111,-0,-0,0.66667
0.5604,0.53674,5.0436,0.055103,4.0502,165.92,-0.74112,0.24704,-1.9907,-0.98815,1.6019e-12,-0.99534,0,0,0.11111,-2.1053e-15,0,0.66667
0.59777,0.074711,5.3799,-0.63793,-44.175,142.28,9.152,-3.0507,-0.55191,12.203,1.8652e-14,-0.27595,0,0,0.11111,-0,-0,0.66667
0.19208,0.76766,1.7287,0.4015,41.595,474.02,-1.8508,0.61694,-1.4252,-2.4678,-1.4318e-10,-0.71262,0,0,0.11111,-2.6316e-16,0,0.66667
0.22625,0.24048,2.0363,-0.38927,-39.724,441.84,2.1138,-0.70459,-1.4587,2.8184,-2.5885e-11,-0.72936,0,0,0.11111,-2.6316e-16,0,0.66667
0.15401,0.19809,1.3861,-0.45286,-47.581,510.4,1.6739,-0.55797,-1.2716,2.2319,2.1619e-09,-0.63579,0,0,0.11111,-0,-0,0.66667
0.37781,0.86326,3.4003,0.54489,50.298,306.62,-4.9408,1.6469,-0.94437,-6.5878,-6.0618e-13,-0.47218,0,0,0.11111,5.2633e-16,0,0.66667
0.11196,0.70221,1.0076,0.30331,32.199,551,-0.81497,0.27166,-1.6731,-1.0866,-1.806e-08,-0.83655,0,0,0.11111,-0,-0,0.66667
0.51127,0.8317,4.6015,0.49755,39.526,201.08,-6.1052,2.0351,-1.1184,-8.1403,-4.0856e-13,-0.55921,0,0,0.11111,-5.2633e-16,0,0.66667
0.63848,0.68781,5.7463,0.28172,17.881,116.54,-4.3169,1.439,-1.7202,-5.7558,7.8515e-13,-0.86008,0,0,0.11111,-0,-0,0.66667
0.12221,0.059733,1.0999,-0.6604,-70.171,541.21,1.937,-0.64567,-0.45043,2.5827,1.7446e-07,-0.22522,0,0,0.11111,-1.3158e-16,0,0.66667
0.3442,0.67316,3.0978,0.25974,24.596,335.11,-2.1457,0.71522,-1.7632,-2.8609,-2.2382e-13,-0.88161,0,0,0.11111,5.2633e-16,0,0.66667
0.070348,0.47901,0.63313,-0.031482,-3.3649,591.59,0.053153,-0.017718,-1.9939,0.070871,3.4763e-08,-0.99696,0,0,0.11111,-0,-0,0.66667
0.52576,0.68992,4.7319,0.28488,22.12,190.27,-3.5947,1.1982,-1.7105,-4.7929,-1.5812e-12,-0.85524,0,0,0.11111,-0,-0,0.66667
0.65029,0.34471,5.8526,-0.23294,-14.396,109.62,3.6355,-1.2118,-1.8062,4.8473,-1.6167e-12,-0.90309,0,0,0.11111,2.1053e-15,0,0.66667
0.61547,0.05929,5.5392,-0.66107,-44.264,131.28,9.7648,-3.2549,-0.44483,13.02,9.166e-13,-0.22241,0,0,0.11111,-2.6316e-16,0,0.66667
0.81387,0.55144,7.3248,0.077167,2.7692,33.978,-1.5073,0.50243,-1.9807,-2.0097,4.0139e-11,-0.99035,0,0,0.11111,-1.0527e-15,0,0.66667
0.23557,0.0050586,2.1201,-0.74241,-75.722,433.53,4.1973,-1.3991,-0.043014,5.5964,-1.1557e-11,-0.021507,0,0,0.11111,-1.0527e-15,0,0.66667
0.61818,0.93901,5.5636,0.65851,43.853,129.61,-9.7699,3.2566,-0.45693,-13.026,1.5854e-12,-0.22847,0,0,0.11111,-2.1053e-15,0,0.66667
0.30283,0.13792,2.7255,-0.54312,-53.127,371.89,3.9473,-1.3158,-0.94885,5.2631,1.7493e-12,-0.47442,0,0,0.11111,-0,-0,0.66667
0.088768,0.53462,0.79891,0.051934,5.5345,573.56,-0.11064,0.03688,-1.9896,-0.14752,-6.1649e-08,-0.99478,0,0,0.11111,-2.6316e-16,0,0.66667
0.30526,0.22629,2.7474,-0.41057,-40.042,369.57,3.0079,-1.0026,-1.3984,4.0106,-2.047e-12,-0.69919,0,0,0.11111,-0,-0,0.66667
0.071356,0.71687,0.64221,0.3253,34.799,590.63,-0.55709,0.1857,-1.6224,-0.74279,-7.9765e-08,-0.81121,0,0,0.11111,-5.5228e-17,0,0.66667
0.95857,0.85906,8.6272,0.53859,4.5672,3.2854,-12.391,4.1302,-0.96646,-16.521,1.5364e-06,-0.48323,0,0,0.11111,-0,-0,0.66667
0.72717,0.20937,6.5445,-0.43594,-22.018,69.805,7.608,-2.536,-1.3218,10.144,1.0305e-11,-0.66092,0,0,0.11111,5.2633e-16,0,0.66667
0.10146,0.13603,0.91315,-0.54595,-58.206,561.3,1.3294,-0.44314,-0.93761,1.7726,7.5681e-09,-0.46881,0,0,0.11111,-0,-0,0.66667
0.78627,0.78415,7.0764,0.42623,17.406,44.535,-8.0432,2.6811,-1.3533,-10.724,-6.1157e-11,-0.67663,0,0,0.11111,2.1053e-15,0,0.66667
0.35216,0.82593,3.1694,0.4889,46.089,328.45,-4.132,1.3773,-1.1475,-5.5094,4.44e-12,-0.57373,0,0,0.11111,-0,-0,0.66667
0.91144,0.56666,8.2029,0.09999,1.7708,8.5646,-2.1872,0.72908,-1.9634,-2.9163,-1.3947e-08,-0.98168,0,0,0.11111,-0,-0,0.66667
0.4955,0.889,4.4595,0.58349,47.411,212.9,-6.9389,2.313,-0.78789,-9.2518,-1.0534e-12,-0.39395,0,0,0.11111,-0,-0,0.66667
0.87269,0.78984,7.8542,0.43476,11.026,17.368,-9.1059,3.0353,-1.3288,-12.141,7.1292e-09,-0.6644,0,0,0.11111,-0,-0,0.66667
0.22053,0.91023,1.9848,0.61535,63.108,447.39,-3.2569,1.0856,-0.65579,-4.3425,2.7485e-10,-0.3279,0,0,0.11111,5.2633e-16,0,0.66667
0.36719,0.030129,3.3047,-0.70481,-65.808,315.93,6.2112,-2.0704,-0.23248,8.2816,5.4357e-13,-0.11624,0,0,0.11111,1.9737e-16,0,0.66667
0.36684,0.64267,3.3015,0.214,19.887,315.57,-1.8841,0.62803,-1.8344,-2.5121,7.3497e-14,-0.91722,0,0,0.11111,-5.2633e-16,0,0.66667
0.097133,0.2981,0.87419,-0.30285,-32.251,565.43,0.70599,-0.23533,-1.6733,0.94133,3.2352e-08,-0.83663,0,0,0.11111,1.3158e-16,0,0.66667
0.33101,0.16031,2.9791,-0.50953,-48.84,346.88,4.0479,-1.3493,-1.0777,5.3972,-2.4016e-12,-0.53884,0,0,0.11111,-0,-0,0.66667
0.65971,0.87449,5.9374,0.56174,34.12,104.96,-8.8941,2.9647,-0.87891,-11.859,2.0712e-12,-0.43946,0,0,0.11111,-1.1184e-15,0,0.66667
0.46654,0.36704,4.1989,-0.19944,-16.743,234.3,2.2332,-0.74439,-1.8596,2.9776,-8.4288e-13,-0.9298,0,0,0.11111,-0,-0,0.66667
0.87923,0.12808,7.9131,-0.55787,-13.529,16.24,11.772,-3.924,-0.89315,15.696,-1.8523e-08,-0.44657,0,0,0.11111,2.1053e-15,0,0.66667
0.26967,0.82695,2.427,0.49043,48.951,401.81,-3.1741,1.058,-1.1436,-4.2321,1.0852e-11,-0.5718,0,0,0.11111,-0,-0,0.66667
0.35482,0.63572,3.1934,0.20358,19.109,325.87,-1.7336,0.57788,-1.8512,-2.3115,-6.0474e-13,-0.92559,0,0,0.11111,-1.0527e-15,0,0.66667
0.32035,0.41546,2.8832,-0.12681,-12.218,355.95,0.97497,-0.32499,-1.9403,1.3,-7.5534e-13,-0.97017,0,0,0.11111,-0,-0,0.66667
0.55174,0.82339,4.9656,0.48509,36.277,172.36,-6.4234,2.1411,-1.1617,-8.5645,-1.2585e-12,-0.58084,0,0,0.11111,-0,-0,0.66667
0.18822,0.16183,1.694,-0.50726,-52.683,477.75,2.2914,-0.76381,-1.0885,3.0552,-8.9659e-11,-0.54424,0,0,0.11111,-0,-0,0.66667
0.17324,0.74696,1.5592,0.37045,38.644,491.93,-1.5403,0.51342,-1.5149,-2.0537,-6.1064e-10,-0.75745,0,0,0.11111,-3.9475e-16,0,0.66667
0.93948,0.53816,8.4553,0.057246,0.69247,4.2719,-1.2908,0.43026,-1.9898,-1.721,1.797e-07,-0.99489,0,0,0.11111,2.1053e-15,0,0.66667
0.37665,0.70871,3.3898,0.31306,28.863,307.31,-2.8299,0.94331,-1.6531,-3.7733,-8.4199e-13,-0.82654,0,0,0.11111,-0,-0,0.66667
0.5871,0.90861,5.2839,0.61292,43.26,149.05,-8.6362,2.8787,-0.66291,-11.515,8.9706e-14,-0.33146,0,0,0.11111,-0,-0,0.66667
0.055152,0.95702,0.49637,0.68553,73.747,606.6,-0.90741,0.30247,-0.3264,-1.2099,7.747e-06,-0.1632,0,0,0.11111,-0,-0,0.66667
0.14086,0.28325,1.2677,-0.32512,-34.262,523,1.0991,-0.36637,-1.6289,1.4655,4.7521e-09,-0.81445,0,0,0.11111,-0,-0,0.66667
0.096359,0.44133,0.86723,-0.088012,-9.3664,566.15,0.20354,-0.067846,-1.9736,0.27138,6.2924e-09,-0.9868,0,0,0.11111,2.6316e-16,0,0.66667
0.81212,0.68719,7.309,0.28078,10.184,34.815,-5.4727,1.8242,-1.7245,-7.2969,2.3775e-10,-0.86226,0,0,0.11111,1.5132e-15,0,0.66667
0.10315,0.74702,0.92832,0.37053,39.428,559.59,-0.91725,0.30575,-1.5105,-1.223,-2.9202e-08,-0.75524,0,0,0.11111,6.5791e-17,0,0.66667
0.51632,0.57336,4.6468,0.11004,8.6531,196.93,-1.3635,0.45451,-1.9598,-1.8181,1.1147e-13,-0.97991,0,0,0.11111,-0,-0,0.66667
0.15558,0.22373,1.4002,-0.41441,-43.505,508.87,1.5473,-0.51578,-1.3929,2.0631,1.5993e-09,-0.69646,0,0,0.11111,-0,-0,0.66667
0.27882,0.89741,2.5094,0.59612,59.248,393.6,-3.989,1.3297,-0.73719,-5.3186,6.6125e-12,-0.3686,0,0,0.11111,-2.6316e-16,0,0.66667
0.8826,0.3607,7.9434,-0.20895,-4.8752,14.523,4.4261,-1.4754,-1.842,5.9015,-1.1018e-08,-0.921,0,0,0.11111,-0,-0,0.66667
0.63159,0.41182,5.6843,-0.13227,-8.5117,120.46,2.0049,-0.66831,-1.9359,2.6732,-8.1535e-13,-0.96795,0,0,0.11111,-0,-0,0.66667
0.96366,0.48145,8.673,-0.02782,-0.19818,1.7342,0.64342,-0.21447,-1.9953,0.8579,-1.9299e-07,-0.99767,0,0,0.11111,-2.1053e-15,0,0.66667
0.59971,0.20392,5.3974,-0.44412,-30.546,140.54,6.3923,-2.1308,-1.2963,8.5231,1.112e-12,-0.64814,0,0,0.11111,-1.0527e-15,0,0.66667
0.0095197,0.90442,0.085677,0.60663,65.388,651.39,-0.13859,0.046188,-0.69044,-0.1848,-1.4868e-05,-0.34522,0,0,0.11111,-1.5039e-17,0,0.66667
0.41564,0.27589,3.7408,-0.33617,-29.878,274.9,3.3534,-1.1178,-1.5964,4.4713,-2.9532e-13,-0.79821,0,0,0.11111,5.2633e-16,0,0.66667
0.022442,0.69757,0.20198,0.29636,31.845,638.66,-0.15962,0.053207,-1.6853,-0.21282,4.3246e-07,-0.84264,0,0,0.11111,-6.5791e-17,0,0.66667
0.31398,0.27115,2.8259,-0.34327,-33.26,361.73,2.5867,-0.86225,-1.5828,3.449,-2.6597e-12,-0.7914,0,0,0.11111,2.6316e-16,0,0.66667
0.48162,0.09111,4.3346,-0.61333,-50.756,223.39,7.0895,-2.3632,-0.66366,9.4527,-1.9686e-12,-0.33183,0,0,0.11111,2.6316e-16,1.5099e-16,0.66667
0.57546,0.42752,5.1791,-0.10873,-7.7918,155.84,1.5016,-0.50054,-1.9583,2.0022,1.1956e-12,-0.97914,0,0,0.11111,-5.2633e-16,0,0.66667
0.23865,0.34422,2.1479,-0.23366,-23.675,430.19,1.3383,-0.44611,-1.8061,1.7845,-2.6955e-11,-0.90303,0,0,0.11111,1.0527e-15,0,0.66667
0.55829,0.65889,5.0246,0.23833,17.592,167.48,-3.1934,1.0645,-1.7978,-4.2579,9.5124e-13,-0.89892,0,0,0.11111,-0,-0,0.66667
0.39492,0.11675,3.5543,-0.57488,-52.266,292.33,5.4488,-1.8163,-0.82388,7.265,3.3773e-12,-0.41194,0,0,0.11111,-5.2633e-16,0,0.66667
0.50658,0.6597,4.5592,0.23955,19.107,204.13,-2.9124,0.97081,-1.7944,-3.8832,-7.6716e-13,-0.8972,0,0,0.11111,-0,-0,0.66667
0.19597,0.40206,1.7637,-0.14691,-15.174,470.23,0.69093,-0.23031,-1.9215,0.92123,1.0318e-11,-0.96073,0,0,0.11111,1.1604e-16,0,0.66667
0.15675,0.35344,1.4108,-0.21984,-23.042,507.67,0.82704,-0.27568,-1.8314,1.1027,1.9195e-09,-0.91571,0,0,0.11111,-0,-0,0.66667
0.75452,0.037676,6.7907,-0.69349,-32.2,58.363,12.558,-4.186,-0.28905,16.744,-4.8056e-11,-0.14453,0,0,0.11111,-0,-0,0.66667
0.32997,0.30211,2.9698,-0.29684,-28.422,347.57,2.3508,-0.7836,-1.688,3.1344,1.8014e-12,-0.84398,0,0,0.11111,-2.6316e-16,0,0.66667
0.6442,0.52222,5.7978,0.03333,2.0864,113,-0.51531,0.17177,-1.9955,-0.68708,2.8273e-12,-0.99777,0,0,0.11111,-1.0527e-15,0,0.66667
0.56546,0.57795,5.0891,0.11692,8.5236,162.53,-1.5868,0.52892,-1.9512,-2.1157,1.08e-12,-0.97559,0,0,0.11111,-0,-0,0.66667
0.89953,0.93405,8.0958,0.65108,13.326,12.289,-14.056,4.6853,-0.49118,-18.741,-2.4015e-07,-0.24559,0,0,0.11111,5.2948e-16,0,0.66667
0.88068,0.73,7.9262,0.34499,8.2022,15.228,-7.2919,2.4306,-1.5747,-9.7226,1.2435e-08,-0.78734,0,0,0.11111,-0,-0,0.66667
0.44311,0.61645,3.988,0.17468,15.064,252.64,-1.8576,0.6192,-1.8896,-2.4768,7.5173e-13,-0.94481,0,0,0.11111,-0,-0,0.66667
0.20474,0.85457,1.8426,0.53186,54.879,462.15,-2.6134,0.87112,-0.99577,-3.4845,-2.751e-11,-0.49789,0,0,0.11111,-0,-0,0.66667
0.63219,0.11451,5.6897,-0.57823,-37.353,120.91,8.7732,-2.9244,-0.80866,11.698,2.3004e-13,-0.40433,0,0,0.11111,-0,-0,0.66667
0.63684,0.6087,5.7315,0.16304,10.377,117.37,-2.492,0.83066,-1.9045,-3.3226,2.1561e-13,-0.95223,0,0,0.11111,-0,-0,0.66667
0.69242,0.17986,6.2318,-0.4802,-26.832,87.09,7.98,-2.66,-1.1787,10.64,1.6311e-12,-0.58935,0,0,0.11111,-0,-0,0.66667
0.90747,0.84591,8.1673,0.51887,9.7324,10.222,-11.301,3.7669,-1.046,-15.067,4.2544e-09,-0.52298,0,0,0.11111,2.1053e-15,0,0.66667
0.78258,0.79663,7.0432,0.44494,18.456,46.009,-8.3568,2.7856,-1.2979,-11.142,-4.3094e-12,-0.64894,0,0,0.11111,-0,-0,0.66667
0.62529,0.025064,5.6276,-0.7124,-46.816,125.48,10.691,-3.5637,-0.19945,14.255,1.4344e-12,-0.099727,0,0,0.11111,1.0527e-15,0,0.66667
0.60097,0.25755,5.4087,-0.36368,-24.93,139.59,5.2454,-1.7485,-1.5275,6.9939,2.7551e-12,-0.76373,0,0,0.11111,-2.1053e-15,0,0.66667
0.21276,0.05614,1.9148,-0.66579,-68.568,454.73,3.3997,-1.1332,-0.4221,4.5329,5.4728e-10,-0.21105,0,0,0.11111,1.2598e-16,0,0.66667
0.65137,0.27906,5.8623,-0.33141,-20.451,109.14,5.1809,-1.727,-1.6089,6.9079,1.5214e-12,-0.80445,0,0,0.11111,-1.1842e-15,0,0.66667
0.8145,0.42002,7.3305,-0.11997,-4.2928,33.79,2.3451,-0.7817,-1.9497,3.1268,-2.0022e-10,-0.97487,0,0,0.11111,-0,-0,0.66667
0.92232,0.14444,8.3009,-0.53334,-8.4471,7.7527,11.806,-3.9353,-0.99182,15.741,-5.3465e-08,-0.49591,0,0,0.11111,-0,-0,0.66667
0.91665,0.8757,8.2499,0.56355,9.5799,8.7923,-12.398,4.1326,-0.87032,-16.53,4.8545e-08,-0.43516,0,0,0.11111,-0,-0,0.66667
0.5611,0.10312,5.0499,-0.59532,-43.924,166.24,8.0168,-2.6723,-0.74184,10.689,3.0189e-12,-0.37092,0,0,0.11111,-0,1.2233e-16,0.66667
0.25983,0.23635,2.3385,-0.39548,-39.661,410.72,2.4662,-0.82206,-1.4416,3.2883,-1.6621e-11,-0.72081,0,0,0.11111,-0,-0,0.66667
0.3338,0.068058,3.0042,-0.64791,-62.082,344.65,5.1905,-1.7302,-0.50584,6.9207,-2.7711e-13,-0.25292,0,0,0.11111,-0,-0,0.66667
0.99776,0.75501,8.9799,0.38251,0.019558,0.6174,-9.1597,3.0532,-1.4811,-12.213,1.2784e-06,-0.74057,0,0,0.11111,2.1053e-15,0,0.66667
0.5256,0.8604,4.7304,0.5406,42.104,190.83,-6.8193,2.2731,-0.95864,-9.0924,-1.8732e-12,-0.47932,0,0,0.11111,-0,-0,0.66667
0.81591,0.42173,7.3432,-0.11741,-4.172,33.312,2.299,-0.76634,-1.9503,3.0654,-1.7321e-10,-0.97516,0,0,0.11111,1.0527e-15,0,0.66667
0.59702,0.8014,5.3731,0.4521,31.255,142.27,-6.4778,2.1593,-1.2729,-8.6371,1.1742e-12,-0.63644,0,0,0.11111,-0,-0,0.66667
0.50693,0.080306,4.5624,-0.62954,-50.41,204.56,7.6592,-2.5531,-0.58821,10.212,3.0296e-12,-0.2941,0,0,0.11111,-5.2633e-16,0,0.66667
0.34854,0.985,3.1369,0.7275,69.001,331.98,-6.0855,2.0285,-0.1164,-8.1141,-2.9918e-12,-0.0582,0,0,0.11111,-0,-0,0.66667
0.53777,0.72092,4.8399,0.33139,25.284,181.81,-4.277,1.4257,-1.6082,-5.7027,1.8758e-12,-0.80411,0,0,0.11111,-2.1053e-15,0,0.66667
0.0067347,0.70592,0.060612,0.30887,33.207,654.12,-0.049924,0.016641,-1.6582,-0.066565,-5.0892e-07,-0.8291,0,0,0.11111,-0,-0,0.66667
0.87669,0.31612,7.8902,-0.27582,-6.7545,16.012,5.8033,-1.9344,-1.7318,7.7377,-1.0543e-08,-0.8659,0,0,0.11111,2.1053e-15,0,0.66667
0.56149,0.035161,5.0534,-0.69726,-51.508,166.27,9.396,-3.132,-0.27458,12.528,4.6469e-12,-0.13729,0,0,0.11111,-0,-5.7624e-17,0.66667
0.024281,0.35853,0.21853,-0.2122,-22.79,636.85,0.12366,-0.04122,-1.8372,0.16488,-2.3251e-07,-0.91861,0,0,0.11111,-0,-0,0.66667
0.81817,0.11886,7.3636,-0.57171,-20.272,33.575,11.226,-3.7421,-0.83621,14.968,-4.5375e-10,-0.41811,0,0,0.11111,1.579e-15,0,0.66667
0.13535,0.077722,1.2182,-0.63342,-67.05,528.48,2.0577,-0.68589,-0.57138,2.7435,-3.9588e-08,-0.28569,0,0,0.11111,-2.6316e-16,0,0.66667
0.030639,0.14839,0.27575,-0.52741,-56.751,630.62,0.38782,-0.12927,-1.0142,0.51709,-1.8898e-06,-0.50712,0,0,0.11111,-0,-0,0.66667
0.46234,0.58827,4.161,0.13241,11.169,237.52,-1.4692,0.48975,-1.9358,-1.959,-1.2345e-12,-0.96791,0,0,0.11111,-0,-0,0.66667
0.96066,0.28815,8.6459,-0.31778,-2.4953,2.3745,7.3266,-2.4422,-1.6387,9.7688,1.3803e-07,-0.81936,0,0,0.11111,-0,-0,0.66667
0.093614,0.20254,0.84253,-0.44619,-47.598,568.9,1.0025,-0.33416,-1.2957,1.3366,3.0209e-08,-0.64787,0,0,0.11111,1.3158e-16,0,0.66667
0.065599,0.53313,0.59039,0.049695,5.3151,596.24,-0.078238,0.026079,-1.9922,-0.10432,-2.3704e-08,-0.99609,0,0,0.11111,-0,-0,0.66667
0.87994,0.49529,7.9194,-0.0070684,-0.16818,14.982,0.14927,-0.049758,-1.9988,0.19903,1.9558e-08,-0.99939,0,0,0.11111,-1.579e-15,0,0.66667
0.82137,0.55112,7.3923,0.076686,2.6503,31.465,-1.5117,0.5039,-1.9766,-2.0156,1.901e-10,-0.98829,0,0,0.11111,-0,-0,0.66667
0.81997,0.68595,7.3797,0.27893,9.73,32.163,-5.4891,1.8297,-1.722,-7.3188,4.194e-10,-0.861,0,0,0.11111,5.1613e-16,0,0.66667
0.46782,0.12852,4.2104,-0.55723,-46.864,233.82,6.2563,-2.0854,-0.89936,8.3418,2.0686e-12,-0.44968,0,0,0.11111,-1.0527e-15,0,0.66667
0.42749,0.71754,3.8474,0.32631,28.647,265.27,-3.3479,1.116,-1.6206,-4.4638,-1.122e-12,-0.81031,0,0,0.11111,-7.237e-16,0,0.66667
0.40107,0.85402,3.6096,0.53103,47.971,287.15,-5.1115,1.7038,-0.99556,-6.8153,1.2124e-13,-0.49778,0,0,0.11111,-0,-0,0.66667
0.58222,0.013568,5.2399,-0.72965,-52.067,152.6,10.195,-3.3985,-0.10583,13.594,1.6156e-12,-0.052914,0,0,0.11111,-0,-0,0.66667
0.72897,0.23493,6.5607,-0.39761,-19.956,68.866,6.9562,-2.3187,-1.4358,9.275,1.3603e-11,-0.71788,0,0,0.11111,1.8938e-16,0,0.66667
0.78429,0.54908,7.0586,0.073622,3.0178,44.742,-1.3858,0.46193,-1.9805,-1.8477,-6.9974e-12,-0.99023,0,0,0.11111,-1.0527e-15,0,0.66667
0.6548,0.36977,5.8932,-0.19535,-11.945,107,3.0699,-1.0233,-1.8667,4.0932,7.6117e-13,-0.93334,0,0,0.11111,-1.0527e-15,0,0.66667
0.56247,0.5296,5.0622,0.044395,3.252,164.52,-0.5993,0.19977,-1.9981,-0.79906,-8.4738e-13,-0.99906,0,0,0.11111,5.2633e-16,0,0.66667
0.41239,0.46755,3.7115,-0.048671,-4.3343,277.37,0.48172,-0.16057,-1.9906,0.6423,-2.4591e-13,-0.99528,0,0,0.11111,-6.5791e-17,0,0.66667
0.31992,0.81286,2.8792,0.4693,45.33,356.6,-3.6032,1.2011,-1.2158,-4.8043,-6.275e-13,-0.6079,0,0,0.11111,1.0527e-15,0,0.66667
0.28625,0.61132,2.5762,0.16698,16.464,386.5,-1.1472,0.38238,-1.899,-1.5295,3.5928e-12,-0.94949,0,0,0.11111,5.2633e-16,0,0.66667
0.29618,0.59724,2.6656,0.14587,14.29,377.53,-1.0369,0.34562,-1.9281,-1.3825,2.2041e-12,-0.96404,0,0,0.11111,-0,-0,0.66667
0.68275,0.51705,6.1448,0.025582,1.4601,91.529,-0.41919,0.13973,-1.9959,-0.55892,-1.878e-12,-0.99797,0,0,0.11111,2.1053e-15,0,0.66667
0.76244,0.018706,6.862,-0.72194,-32.614,55.129,13.211,-4.4035,-0.14646,17.614,1.8965e-11,-0.07323,0,0,0.11111,-0,-0,0.66667
0.59762,0.58582,5.3786,0.12873,8.8647,141.44,-1.8464,0.61546,-1.9404,-2.4618,2.8211e-13,-0.9702,0,0,0.11111,1.0527e-15,0,0.66667
0.22286,0.38373,2.0058,-0.1744,-17.804,444.9,0.93282,-0.31094,-1.8909,1.2438,-1.3432e-11,-0.94545,0,0,0.11111,5.2633e-16,0,0.66667
0.1944,0.80605,1.7496,0.45908,47.539,471.86,-2.1418,0.71394,-1.2486,-2.8558,9.3852e-11,-0.62429,0,0,0.11111,2.6316e-16,0,0.66667
0.76569,0.602,6.8912,0.153,6.7509,52.257,-2.8116,0.93721,-1.9209,-3.7488,-2.2529e-11,-0.96043,0,0,0.11111,-0,-0,0.66667
0.97869,0.68049,8.8082,0.27073,1.0953,0.99673,-6.3591,2.1197,-1.7376,-8.4789,-3.0656e-07,-0.86882,0,0,0.11111,-1.0527e-15,0,0.66667
0.01591,0.40263,0.14319,-0.14605,-15.687,645.08,0.055767,-0.018589,-1.9285,0.074357,-9.19e-08,-0.96426,0,0,0.11111,4.1119e-17,0,0.66667
0.2489,0.9486,2.2401,0.6729,68.095,421.09,-4.0196,1.3399,-0.3923,-5.3595,-1.6164e-11,-0.19615,0,0,0.11111,-0,-0,0.66667
0.79231,0.16239,7.1308,-0.50642,-20.198,42.484,9.6299,-3.21,-1.0871,12.84,7.396e-11,-0.54357,0,0,0.11111,-0,-0,0.66667
0.71917,0.3993,6.4725,-0.15105,-7.7915,73.13,2.6071,-0.86904,-1.9225,3.4761,5.1974e-12,-0.96127,0,0,0.11111,5.2633e-16,0,0.66667
0.24598,0.85955,2.2138,0.53933,54.571,423.63,-3.1839,1.0613,-0.96458,-4.2452,-1.8531e-11,-0.48229,0,0,0.11111,-0,-0,0.66667
0.55489,0.017995,4.994,-0.72301,-54.012,170.84,9.6286,-3.2095,-0.13865,12.838,3.9044e-12,-0.069325,0,0,0.11111,-0,-0,0.66667
0.58559,0.028822,5.2703,-0.70677,-50.11,150.32,9.9329,-3.311,-0.2224,13.244,4.9729e-12,-0.1112,0,0,0.11111,-1.3158e-15,0,0.66667
0.72138,0.0046581,6.4925,-0.74301,-38.478,73.591,12.864,-4.288,-0.038062,17.152,-4.3885e-12,-0.019031,0,0,0.11111,-0,-0,0.66667
0.46367,0.96224,4.1731,0.69336,58.725,237.34,-7.7158,2.5719,-0.28929,-10.288,5.6533e-13,-0.14465,0,0,0.11111,-7.8949e-16,0,0.66667
0.40485,0.39068,3.6436,-0.16398,-14.716,283.62,1.5933,-0.5311,-1.9061,2.1244,1.9197e-12,-0.95303,0,0,0.11111,-0,-0,0.66667
0.30801,0.84948,2.7721,0.52422,51.088,367.24,-3.8751,1.2917,-1.022,-5.1669,2.2784e-12,-0.51101,0,0,0.11111,-0,-0,0.66667
0.23831,0.48299,2.1448,-0.025513,-2.584,430.46,0.14592,-0.048639,-1.9966,0.19456,-5.3649e-12,-0.99828,0,0,0.11111,-0,-0,0.66667
0.092503,0.70356,0.83253,0.30534,32.546,569.95,-0.67788,0.22596,-1.6704,-0.90384,-3.5056e-08,-0.8352,0,0,0.11111,-1.3158e-16,0,0.66667
0.64588,0.27362,5.813,-0.33957,-21.217,112.31,5.2637,-1.7546,-1.5884,7.0182,9.9076e-13,-0.79421,0,0,0.11111,-5.2633e-16,0,0.66667
0.66957,0.9191,6.0261,0.62865,37.346,99.709,-10.102,3.3674,-0.59541,-13.47,-1.0649e-12,-0.29771,0,0,0.11111,1.0527e-15,-1.7305e-16,0.66667
0.68734,0.37769,6.1861,-0.18346,-10.352,89.193,3.0264,-1.0088,-1.8851,4.0352,2.1771e-12,-0.94253,0,0,0.11111,-0,-0,0.66667
0.0031457,0.66448,0.028311,0.24672,26.517,657.65,-0.018627,0.0062085,-1.7835,-0.024835,-4.8321e-07,-0.89177,0,0,0.11111,-0,-0,0.66667
0.43825,0.44637,3.9443,-0.080445,-6.973,256.46,0.84613,-0.28204,-1.9799,1.1282,-1.1759e-12,-0.98996,0,0,0.11111,-0,-0,0.66667
0.12255,0.69273,1.103,0.28909,30.61,540.7,-0.8503,0.28343,-1.7039,-1.1337,-1.0864e-08,-0.85197,0,0,0.11111,2.6316e-16,0,0.66667
0.52661,0.36666,4.7395,-0.20001,-15.502,189.57,2.5279,-0.84263,-1.8565,3.3705,1.6831e-12,-0.92823,0,0,0.11111,-0,-0,0.66667
0.97974,0.81182,8.8177,0.46773,1.8594,1.512,-10.998,3.6661,-1.222,-14.664,-1.6672e-06,-0.61101,0,0,0.11111,-6.5791e-17,0,0.66667
0.49928,0.56382,4.4935,0.095735,7.7071,209.43,-1.1472,0.38239,-1.9715,-1.5295,-5.6999e-13,-0.98575,0,0,0.11111,-2.1053e-15,0,0.66667
0.37465,0.44306,3.3718,-0.085413,-7.8807,308.86,0.768,-0.256,-1.978,1.024,4.3848e-13,-0.98901,0,0,0.11111,-0,-0,0.66667
0.81384,0.48757,7.3246,-0.018645,-0.66908,33.969,0.36418,-0.12139,-2.0006,0.48558,1.2537e-10,-1.0003,0,0,0.11111,-1.0527e-15,0,0.66667
0.9682,0.31474,8.7138,-0.27789,-1.7385,1.6769,6.4572,-2.1524,-1.7296,8.6096,2.9821e-07,-0.86481,0,0,0.11111,-0,-0,0.66667
0.28712,0.88204,2.5841,0.57307,56.65,386.05,-3.949,1.3163,-0.83049,-5.2653,3.8525e-12,-0.41525,0,0,0.11111,-0,-0,0.66667
0.803,0.64524,7.227,0.21786,8.2409,37.909,-4.1986,1.3995,-1.8289,-5.5981,1.0797e-10,-0.91447,0,0,0.11111,-0,-0,0.66667
0.99614,0.49506,8.9653,-0.0074053,-0.0018355,0.063924,0.17704,-0.058998,-1.9995,0.23606,2.2603e-05,-0.99976,0,0,0.11111,-1.579e-15,0,0.66667
0.11182,0.90163,1.0064,0.60245,64.126,551.25,-1.6168,0.53895,-0.71071,-2.1558,6.2451e-09,-0.35535,0,0,0.11111,-0,-0,0.66667
0.53105,0.46964,4.7794,-0.045537,-3.5046,186.33,0.58038,-0.19346,-1.9976,0.77383,-7.2053e-14,-0.99882,0,0,0.11111,-0,-0,0.66667
0.81353,0.69091,7.3217,0.28636,10.316,34.342,-5.5911,1.8637,-1.7117,-7.4548,2.5733e-10,-0.85584,0,0,0.11111,-2.1053e-15,0,0.66667
0.37629,0.50666,3.3866,0.0099884,0.92017,307.46,-0.090206,0.030069,-2.002,-0.12027,2.8116e-12,-1.001,0,0,0.11111,-0,-0,0.66667
0.44577,0.54931,4.012,0.07397,6.3585,250.48,-0.79137,0.26379,-1.9778,-1.0552,1.9108e-12,-0.98892,0,0,0.11111,5.2633e-16,0,0.66667
0.7509,0.28924,6.7581,-0.31614,-14.74,58.78,5.6974,-1.8991,-1.6474,7.5965,2.3977e-11,-0.82372,0,0,0.11111,-0,-0,0.66667
0.098346,0.82575,0.88512,0.48862,52.096,564.31,-1.1533,0.38443,-1.1495,-1.5377,-3.778e-08,-0.57475,0,0,0.11111,-0,-0,0.66667
0.36053,0.12265,3.2447,-0.56603,-53.043,321.37,4.8976,-1.6325,-0.86411,6.5302,5.1914e-13,-0.43205,0,0,0.11111,6.5791e-16,0,0.66667
0.56371,0.36723,5.0734,-0.19915,-14.566,163.77,2.6943,-0.89811,-1.8614,3.5924,2.2939e-12,-0.93068,0,0,0.11111,-0,-0,0.66667
0.23859,0.27512,2.1473,-0.33732,-34.199,430.31,1.9315,-0.64383,-1.5947,2.5753,-2.4129e-11,-0.79735,0,0,0.11111,-0,-0,0.66667
0.83995,0.80416,7.5596,0.45624,14.342,26.309,-9.1973,3.0658,-1.2592,-12.263,9.321e-10,-0.62962,0,0,0.11111,-0,-0,0.66667
0.76585,0.22319,6.8927,-0.41521,-18.373,52.645,7.6317,-2.5439,-1.3914,10.176,1.31e-11,-0.69568,0,0,0.11111,-0,-0,0.66667
0.96554,0.61717,8.6899,0.17575,1.1887,1.6995,-4.0728,1.3576,-1.8901,-5.4304,-1.4331e-07,-0.94506,0,0,0.11111,-0,-0,0.66667
0.52299,0.88229,4.7069,0.57344,44.853,192.77,-7.1976,2.3992,-0.82857,-9.5968,-1.4717e-12,-0.41428,0,0,0.11111,1.0527e-15,0,0.66667
0.10652,0.22447,0.95872,-0.41329,-43.961,556.31,1.0566,-0.3522,-1.3933,1.4088,2.8516e-08,-0.69663,0,0,0.11111,-0,-0,0.66667
0.93662,0.71312,8.4296,0.31967,4.0852,5.0134,-7.1859,2.3953,-1.6398,-9.5812,5.7597e-08,-0.81989,0,0,0.11111,-1.0527e-15,0,0.66667
0.83424,0.32772,7.5081,-0.25842,-8.353,27.569,5.174,-1.7247,-1.7601,6.8986,-1.1059e-09,-0.88005,0,0,0.11111,1.0527e-15,0,0.66667
0.54442,0.65691,4.8998,0.23536,17.761,177.04,-3.0752,1.0251,-1.8049,-4.1003,1.154e-12,-0.90247,0,0,0.11111,-0,-0,0.66667
0.8363,0.67029,7.5267,0.25544,8.1609,26.931,-5.1269,1.709,-1.7653,-6.8359,1.2493e-09,-0.88264,0,0,0.11111,-0,-0,0.66667
0.88169,0.6626,7.9352,0.24389,5.7367,14.787,-5.1609,1.7203,-1.7865,-6.8812,1.3018e-08,-0.89324,0,0,0.11111,-2.1053e-15,0,0.66667
0.77608,0.26882,6.9847,-0.34678,-14.735,48.326,6.459,-2.153,-1.5705,8.612,2.8008e-11,-0.78525,0,0,0.11111,-1.0527e-15,0,0.66667
0.57125,0.88668,5.1413,0.58002,42.064,159.38,-7.9522,2.6507,-0.80126,-10.603,6.6969e-13,-0.40063,0,0,0.11111,-1.0527e-15,0,0.66667
0.6153,0.65155,5.5377,0.22733,15.136,130.44,-3.357,1.119,-1.8147,-4.476,9.4946e-13,-0.90736,0,0,0.11111,-4.2516e-16,0,0.66667
0.84439,0.16263,7.5995,-0.50605,-15.525,25.164,10.255,-3.4184,-1.0929,13.674,6.0444e-10,-0.54643,0,0,0.11111,-0,-0,0.66667
0.62222,0.23257,5.5999,-0.40114,-26.384,126.47,5.9903,-1.9968,-1.4278,7.9871,7.7449e-13,-0.71392,0,0,0.11111,-1.0527e-15,0,0.66667
0.20648,0.93416,1.8583,0.65125,67.243,460.62,-3.2273,1.0758,-0.49244,-4.303,1.3905e-10,-0.24622,0,0,0.11111,-0,-0,0.66667
0.69149,0.20646,6.2234,-0.44031,-24.647,87.47,7.3072,-2.4357,-1.3096,9.743,1.6391e-12,-0.65479,0,0,0.11111,1.0527e-15,0,0.66667
0.53201,0.87383,4.7881,0.56075,43.275,186.31,-7.1598,2.3866,-0.88607,-9.5464,-1.5206e-12,-0.44303,0,0,0.11111,-1.25e-15,0,0.66667
0.26325,0.39347,2.3692,-0.1598,-15.973,407.45,1.0096,-0.33653,-1.9097,1.3461,-9.4067e-12,-0.95484,0,0,0.11111,-0,-0,0.66667
0.00078654,0.50475,0.0070789,0.0071234,0.76517,659.98,-0.00013475,7.82e-05,-2.0032,-0.00016303,4.9925e-05,-1.0016,0,0,0.11111,-4.1119e-18,0,0.66667
0.2355,0.038739,2.1195,-0.69189,-70.52,433.53,3.9105,-1.3035,-0.30044,5.214,-4.8801e-11,-0.15022,0,0,0.11111,5.2633e-16,0,0.66667
0.67357,0.21411,6.0621,-0.42884,-25.134,96.962,6.9325,-2.3108,-1.3482,9.2433,6.0796e-13,-0.67412,0,0,0.11111,-0,-0,0.66667
0.87832,0.45599,7.9049,-0.06602,-1.5914,15.374,1.3917,-0.4639,-1.984,1.8556,-7.2707e-09,-0.99199,0,0,0.11111,1.0527e-15,0,0.66667
0.8307,0.70722,7.4763,0.31083,10.254,28.766,-6.197,2.0657,-1.6568,-8.2627,9.4819e-10,-0.82839,0,0,0.11111,-0,-0,0.66667
0.10811,0.54864,0.97297,0.072964,7.7459,554.7,-0.18931,0.063104,-1.983,-0.25242,-6.0946e-09,-0.99148,0,0,0.11111,1.3158e-16,0,0.66667
0.071125,0.11008,0.64012,-0.58488,-62.714,590.92,0.99839,-0.3328,-0.78101,1.3312,2.2047e-07,-0.3905,0,0,0.11111,-8.4229e-17,0,0.66667
0.76159,0.35928,6.8543,-0.21108,-9.4605,54.032,3.8581,-1.286,-1.8404,5.1441,2.3113e-11,-0.92018,0,0,0.11111,-1.0527e-15,0,0.66667
0.28483,0.901,2.5635,0.60151,59.567,388.16,-4.1119,1.3706,-0.71348,-5.4825,1.8523e-12,-0.35674,0,0,0.11111,-2.6316e-16,0,0.66667
0.2718,0.18837,2.4462,-0.46745,-46.588,399.84,3.0493,-1.0164,-1.2221,4.0658,-1.7999e-12,-0.61106,0,0,0.11111,-0,-0,0.66667
0.0020003,0.0071759,0.018003,-0.73924,-79.825,658.78,0.035896,-0.01197,-0.057968,0.047859,-6.3314e-06,-0.028984,0,0,0.11111,-0,-0,0.66667
0.098539,0.62422,0.88685,0.18633,19.827,564.04,-0.44067,0.14689,-1.8763,-0.58756,-2.2897e-08,-0.93816,0,0,0.11111,-2.4672e-17,0,0.66667
0.1356,0.41263,1.2204,-0.13105,-13.819,528.04,0.42647,-0.14216,-1.9376,0.56863,2.7904e-09,-0.9688,0,0,0.11111,-0,-0,0.66667
0.15936,0.67684,1.4342,0.26526,27.785,505.18,-1.0145,0.33817,-1.7496,-1.3527,-1.6837e-09,-0.87481,0,0,0.11111,-1.3158e-16,0,0.66667
0.44531,0.34086,4.0078,-0.23871,-20.543,250.94,2.5512,-0.85041,-1.7958,3.4016,-3.8369e-12,-0.89788,0,0,0.11111,5.2633e-16,0,0.66667
0.81414,0.92379,7.3272,0.63569,23.045,35.184,-12.421,4.1403,-0.56458,-16.561,8.3169e-10,-0.28229,0,0,0.11111,1.0527e-15,0,0.66667
0.8123,0.092795,7.3107,-0.61081,-22.32,35.708,11.908,-3.9693,-0.67847,15.877,2.7356e-09,-0.33923,0,0,0.11111,6.5791e-17,-1.5591e-17,0.66667
0.90999,0.89039,8.1899,0.58558,10.739,10.034,-12.789,4.263,-0.77979,-17.052,2.0252e-08,-0.3899,0,0,0.11111,-2.1053e-15,0,0.66667
0.44359,0.03121,3.9923,-0.70318,-60.951,253.08,7.4863,-2.4954,-0.24114,9.9817,-4.5297e-12,-0.12057,0,0,0.11111,-1.8916e-16,0,0.66667
0.70871,0.38419,6.3784,-0.17371,-9.242,78.265,2.9547,-0.9849,-1.8908,3.9396,4.5695e-12,-0.94538,0,0,0.11111,-0,-0,0.66667
0.48833,0.87911,4.395,0.56867,46.63,218.23,-6.6648,2.2216,-0.84994,-8.8865,1.2728e-12,-0.42497,0,0,0.11111,-0,-0,0.66667
0.049843,0.39337,0.44858,-0.15994,-17.142,611.71,0.19132,-0.063774,-1.9089,0.2551,-4.8686e-08,-0.95443,0,0,0.11111,6.5791e-17,0,0.66667
0.080431,0.2615,0.72388,-0.35774,-38.225,581.75,0.69057,-0.23019,-1.5456,0.92076,6.0671e-08,-0.77279,0,0,0.11111,1.3158e-16,0,0.66667
0.24594,0.87117,2.2135,0.55676,56.347,423.68,-3.2863,1.0954,-0.89757,-4.3818,-9.1539e-11,-0.44879,0,0,0.11111,-3.9475e-16,0,0.66667
0.98162,0.37245,8.8346,-0.19133,-0.64818,0.7044,4.5075,-1.5025,-1.871,6.01,7.2395e-08,-0.93552,0,0,0.11111,-2.6316e-16,0,0.66667
0.69192,0.28051,6.2273,-0.32923,-18.379,87.011,5.4672,-1.8224,-1.6146,7.2897,3.6362e-12,-0.80731,0,0,0.11111,-4.6054e-16,0,0.66667
0.26801,0.50003,2.4121,4.1974e-05,0.004183,403.07,-0.00026998,8.9995e-05,-2.0021,-0.00035998,-7.8081e-13,-1.0011,0,0,0.11111,-0,-0,0.66667
0.70626,0.83926,6.3564,0.50889,27.385,80.131,-8.6258,2.8753,-1.0797,-11.501,1.7133e-12,-0.53984,0,0,0.11111,5.2633e-16,0,0.66667
0.66135,0.53672,5.9521,0.055081,3.3149,103.22,-0.87426,0.29142,-1.988,-1.1657,1.1844e-12,-0.99398,0,0,0.11111,-0,-0,0.66667
0.04329,0.19648,0.38961,-0.45528,-48.91,618.18,0.47301,-0.15767,-1.2625,0.63069,3.8682e-07,-0.63125,0,0,0.11111,-0,-0,0.66667
0.36149,0.42846,3.2534,-0.10731,-10.014,320.1,0.93101,-0.31034,-1.9601,1.2413,1.3511e-12,-0.98005,0,0,0.11111,2.6316e-16,0,0.66667
0.77373,0.27243,6.9636,-0.34136,-14.638,49.257,6.3388,-2.1129,-1.5833,8.4518,2.7875e-11,-0.79163,0,0,0.11111,-1.0527e-15,0,0.66667
0.078523,0.1796,0.70671,-0.48061,-51.42,583.65,0.90573,-0.30191,-1.1823,1.2076,6.8823e-08,-0.59116,0,0,0.11111,-6.5791e-17,0,0.66667
0.88438,0.88156,7.9595,0.57234,13.327,15.125,-12.148,4.0493,-0.83338,-16.197,4.8696e-09,-0.41669,0,0,0.11111,-0,-0,0.66667
0.93087,0.21978,8.3778,-0.42033,-5.8914,6.0776,9.3906,-3.1302,-1.3707,12.521,-1.3854e-07,-0.68534,0,0,0.11111,-0,-0,0.66667
0.85309,0.51708,7.6778,0.025622,0.73843,21.827,-0.52459,0.17486,-1.9952,-0.69945,-4.0542e-11,-0.99758,0,0,0.11111,-0,-0,0.66667
0.11738,0.68085,1.0564,0.27127,28.756,545.72,-0.76418,0.25473,-1.7362,-1.0189,-1.346e-08,-0.86808,0,0,0.11111,-0,-0,0.66667
0.56517,0.32986,5.0866,-0.25521,-18.627,162.83,3.4617,-1.1539,-1.7685,4.6157,2.3965e-12,-0.88426,0,0,0.11111,-1.0527e-15,0,0.66667
0.70756,0.59401,6.368,0.14102,7.5261,78.808,-2.3948,0.79825,-1.9294,-3.193,-5.4949e-12,-0.9647,0,0,0.11111,2.1053e-15,0,0.66667
0.88798,0.39999,7.9918,-0.15002,-3.3426,13.25,3.1971,-1.0657,-1.9207,4.2628,-1.1202e-08,-0.96036,0,0,0.11111,-0,-0,0.66667
0.095776,0.57822,0.86198,0.11733,12.489,566.72,-0.26971,0.089902,-1.9519,-0.35961,-1.5365e-08,-0.97595,0,0,0.11111,-0,-0,0.66667
0.81577,0.54341,7.3419,0.06511,2.3146,33.327,-1.2748,0.42492,-1.9845,-1.6997,2.1906e-10,-0.99224,0,0,0.11111,-0,-0,0.66667
0.27802,0.97921,2.5021,0.71882,71.598,394.51,-4.7962,1.5987,-0.16253,-6.395,-5.6777e-12,-0.081266,0,0,0.11111,-0,-0,0.66667
0.59229,0.4139,5.3306,-0.12915,-8.9823,144.85,1.8359,-0.61197,-1.9427,2.4479,-1.0167e-12,-0.97136,0,0,0.11111,2.1053e-15,0,0.66667
0.7198,0.32524,6.4782,-0.26214,-13.509,72.958,4.5285,-1.5095,-1.7579,6.038,9.2077e-12,-0.87895,0,0,0.11111,-0,-0,0.66667
0.77702,0.94369,6.9932,0.66553,28.398,48.956,-12.411,4.1371,-0.42437,-16.548,-2.2418e-12,-0.21218,0,0,0.11111,-0,5.1597e-18,0.66667
0.29466,0.88692,2.652,0.58039,57.103,379.27,-4.1045,1.3682,-0.80303,-5.4726,7.9727e-12,-0.40152,0,0,0.11111,-5.2633e-16,0,0.66667
0.60738,0.23086,5.4664,-0.40372,-27.349,135.63,5.885,-1.9617,-1.4215,7.8467,-9.9387e-13,-0.71073,0,0,0.11111,1.0527e-15,0,0.66667
0.28747,0.85008,2.5873,0.52512,51.87,385.68,-3.623,1.2077,-1.0177,-4.8307,3.4897e-12,-0.50883,0,0,0.11111,-0,-0,0.66667
0.99832,0.9494,8.9849,0.67409,0.16928,1.8388,-16.151,5.3836,-0.38578,-21.535,-4.6643e-05,-0.19289,0,0,0.11111,-0,-0,0.66667
0.81451,0.47683,7.3306,-0.034749,-1.2429,33.746,0.67928,-0.22643,-1.997,0.90571,-1.9093e-10,-0.99849,0,0,0.11111,-0,-0,0.66667
0.41398,0.67123,3.7258,0.25685,22.853,276.18,-2.5519,0.85064,-1.7627,-3.4025,4.9583e-13,-0.88134,0,0,0.11111,-5.2633e-16,0,0.66667
0.87914,0.064453,7.9123,-0.65332,-15.933,16.667,13.785,-4.5949,-0.48239,18.38,-2.0432e-07,-0.24119,0,0,0.11111,-2.1053e-15,0,0.66667
0.7325,0.067974,6.5925,-0.64804,-32.34,67.991,11.393,-3.7975,-0.50859,15.19,-4.5297e-13,-0.25429,0,0,0.11111,-0,-0,0.66667
0.92875,0.4071,8.3587,-0.13935,-1.9898,5.7982,3.1062,-1.0354,-1.9298,4.1416,8.7459e-09,-0.96491,0,0,0.11111,-0,-0,0.66667
0.17161,0.74723,1.5445,0.37085,38.708,493.49,-1.5274,0.50913,-1.5156,-2.0365,-6.5486e-10,-0.75778,0,0,0.11111,3.9475e-16,0,0.66667
0.29484,0.49468,2.6535,-0.0079807,-0.78234,378.71,0.056472,-0.018824,-2.0013,0.075296,-3.5087e-13,-1.0007,0,0,0.11111,5.2633e-16,0,0.66667
0.093737,0.61069,0.84363,0.16603,17.682,568.72,-0.37352,0.12451,-1.9058,-0.49802,-2.2224e-08,-0.9529,0,0,0.11111,-1.3158e-16,0,0.66667
0.31798,0.069938,2.8618,-0.64509,-62.528,358.56,4.9231,-1.641,-0.51866,6.5641,2.9727e-12,-0.25933,0,0,0.11111,-0,-0,0.66667
0.38119,0.056603,3.4307,-0.6651,-61.31,303.99,6.0846,-2.0282,-0.42537,8.1129,2.5886e-12,-0.21269,0,0,0.11111,-0,-0,0.66667
0.63271,0.45312,5.6944,-0.070319,-4.5136,119.76,1.0678,-0.35594,-1.9797,1.4237,-1.6306e-12,-0.98983,0,0,0.11111,1.0527e-15,0,0.66667
0.47152,0.25066,4.2437,-0.37401,-31.248,230.65,4.2325,-1.4108,-1.5042,5.6433,-7.7938e-13,-0.75209,0,0,0.11111,-0,-0,0.66667
0.71767,0.51415,6.459,0.021222,1.0991,73.788,-0.36552,0.12184,-2.0005,-0.48737,9.136e-13,-1.0003,0,0,0.11111,-2.1053e-15,0,0.66667
0.26922,0.0027919,2.423,-0.74581,-74.705,402.55,4.819,-1.6063,-0.022577,6.4253,5.8757e-12,-0.011288,0,0,0.11111,-0,-0,0.66667
0.17306,0.095606,1.5575,-0.60659,-63.427,492.27,2.5194,-0.8398,-0.69503,3.3592,3.5121e-09,-0.34752,0,0,0.11111,-5.2633e-16,0,0.66667
0.37912,0.55089,3.4121,0.07633,7.0147,305.07,-0.69452,0.23151,-1.9781,-0.92603,2.6296e-12,-0.98905,0,0,0.11111,-0,-0,0.66667
0.43808,0.74618,3.9427,0.36927,32.064,256.83,-3.8825,1.2942,-1.519,-5.1766,-2.2671e-12,-0.75951,0,0,0.11111,7.8949e-16,0,0.66667
0.42213,0.089047,3.7991,-0.61643,-54.595,270.07,6.2451,-2.0817,-0.65318,8.3268,-1.5681e-12,-0.32659,0,0,0.11111,7.8949e-16,0,0.66667
0.91357,0.6794,8.2221,0.2691,4.67,8.4184,-5.9002,1.9667,-1.7402,-7.867,3.7449e-08,-0.87009,0,0,0.11111,1.0527e-15,0,0.66667
0.26957,0.055595,2.4261,-0.66661,-66.68,402.12,4.3127,-1.4376,-0.41942,5.7503,-3.7463e-12,-0.20971,0,0,0.11111,-2.6316e-16,0,0.66667
0.35204,0.29457,3.1684,-0.30814,-29.006,328.34,2.6035,-0.86784,-1.6597,3.4714,-4.1411e-13,-0.82984,0,0,0.11111,5.2633e-16,0,0.66667
0.21521,0.32759,1.9369,-0.25861,-26.503,452.11,1.3357,-0.44524,-1.7614,1.781,-1.1076e-12,-0.88071,0,0,0.11111,-0,-0,0.66667
0.37192,0.22084,3.3473,-0.41875,-38.801,311.43,3.7378,-1.2459,-1.3775,4.9837,4.744e-12,-0.68874,0,0,0.11111,1.0527e-15,0,0.66667
0.38986,0.3029,3.5087,-0.29565,-26.931,296.17,2.7662,-0.92207,-1.6921,3.6883,-1.6436e-12,-0.84603,0,0,0.11111,5.2633e-16,0,0.66667
0.57543,0.20341,5.1788,-0.44489,-31.97,156.29,6.144,-2.048,-1.2963,8.192,1.2581e-12,-0.64817,0,0,0.11111,-0,-0,0.66667
0.27836,0.34648,2.5053,-0.23028,-22.822,393.68,1.5385,-0.51282,-1.8125,2.0513,-3.097e-12,-0.90624,0,0,0.11111,-1.0527e-15,0,0.66667
0.25949,0.0021308,2.3354,-0.7468,-75.22,411.45,4.651,-1.5503,-0.015823,6.2013,-7.2879e-12,-0.0079114,0,0,0.11111,-0,-0,0.66667
0.71906,0.90357,6.4716,0.60536,31.452,74.168,-10.447,3.4823,-0.70152,-13.929,-9.3774e-12,-0.35076,0,0,0.11111,-5.2633e-16,0,0.66667
0.91018,0.030298,8.1916,-0.70455,-13.007,10.56,15.39,-5.1301,-0.23541,20.521,1.8889e-06,-0.11771,0,0,0.11111,-5.2633e-16,0,0.66667
0.1221,0.40545,1.0989,-0.14182,-15.009,541.11,0.41559,-0.13853,-1.9299,0.55412,1.143e-08,-0.96493,0,0,0.11111,6.5791e-17,0,0.66667
0.18229,0.24035,1.6406,-0.38947,-40.499,483.31,1.7039,-0.56797,-1.4589,2.2719,2.9798e-10,-0.72944,0,0,0.11111,-0,-0,0.66667
0.13311,0.3601,1.198,-0.20985,-22.149,530.46,0.6704,-0.22347,-1.8407,0.89386,6.4158e-09,-0.92033,0,0,0.11111,-0,-0,0.66667
0.68361,0.78134,6.1525,0.42201,24.11,91.56,-6.9238,2.3079,-1.3674,-9.2318,-2.8995e-12,-0.68368,0,0,0.11111,2.1053e-15,0,0.66667
0.21401,0.72615,1.9261,0.33923,34.801,453.28,-1.7424,0.58079,-1.5896,-2.3232,1.9385e-11,-0.79478,0,0,0.11111,-0,-0,0.66667
0.60457,0.082913,5.4411,-0.62563,-42.76,137.94,9.0777,-3.0259,-0.60668,12.104,-1.4504e-12,-0.30334,0,0,0.11111,5.2633e-16,0,0.66667
0.20168,0.51455,1.8151,0.021827,2.2487,464.8,-0.10565,0.035217,-1.9999,-0.14087,-4.4003e-11,-0.99996,0,0,0.11111,-0,-0,0.66667
0.81776,0.27441,7.3598,-0.33839,-11.949,33.019,6.6412,-2.2137,-1.5914,8.855,-3.4109e-10,-0.79568,0,0,0.11111,-5.2633e-16,0,0.66667
0.31611,0.17578,2.845,-0.48634,-47.111,360,3.6896,-1.2299,-1.1583,4.9195,-2.3248e-13,-0.57914,0,0,0.11111,-0,-0,0.66667
0.66962,0.74389,6.0266,0.36583,21.632,98.983,-5.8792,1.9597,-1.5253,-7.839,-9.5612e-13,-0.76267,0,0,0.11111,-0,-0,0.66667
0.14873,0.14992,1.3386,-0.52512,-55.302,515.51,1.8745,-0.62483,-1.0174,2.4993,-4.4414e-10,-0.5087,0,0,0.11111,-2.6316e-16,0,0.66667
0.30595,0.71867,2.7535,0.328,31.954,368.88,-2.4084,0.80281,-1.6166,-3.2112,5.5673e-12,-0.80828,0,0,0.11111,-7.5171e-16,0,0.66667
0.29724,0.091263,2.6752,-0.61311,-60.246,377,4.3738,-1.4579,-0.6679,5.8317,4.2388e-12,-0.33395,0,0,0.11111,-7.237e-16,0,0.66667
0.63508,0.65302,5.7157,0.22952,14.669,118.48,-3.4984,1.1661,-1.8116,-4.6645,6.235e-13,-0.90578,0,0,0.11111,-2.6316e-16,0,0.66667
0.68088,0.68528,6.1279,0.27792,15.96,92.735,-4.5415,1.5138,-1.724,-6.0553,-2.5344e-12,-0.86201,0,0,0.11111,-0,-0,0.66667
0.84525,0.36392,7.6072,-0.20412,-6.1847,24.191,4.1407,-1.3802,-1.8535,5.5209,-1.7782e-09,-0.92677,0,0,0.11111,-0,-0,0.66667
0.18335,0.93796,1.6501,0.65693,68.475,482.51,-2.8907,0.96357,-0.46585,-3.8543,-6.4049e-09,-0.23293,0,0,0.11111,5.2633e-16,0,0.66667
0.76043,0.21763,6.8439,-0.42355,-19.124,54.932,7.73,-2.5767,-1.3616,10.307,3.3194e-11,-0.6808,0,0,0.11111,-1.4006e-15,0,0.66667
0.71194,0.29792,6.4075,-0.30312,-15.996,76.845,5.1792,-1.7264,-1.6707,6.9057,7.6543e-12,-0.83533,0,0,0.11111,-8.4311e-16,0,0.66667
0.55754,0.24686,5.0179,-0.37971,-28.096,168.18,5.0809,-1.6936,-1.4866,6.7745,3.0544e-12,-0.74329,0,0,0.11111,-1.0527e-15,0,0.66667
0.65016,0.73326,5.8515,0.34989,21.655,109.87,-5.4596,1.8199,-1.5623,-7.2795,-3.0065e-13,-0.78114,0,0,0.11111,-0,-0,0.66667
0.089995,0.13806,0.80996,-0.5429,-58.008,572.47,1.1726,-0.39087,-0.95107,1.5635,4.9804e-08,-0.47554,0,0,0.11111,1.3158e-16,0,0.66667
0.14688,0.48388,1.3219,-0.024173,-2.5402,517.14,0.085209,-0.028403,-1.9954,0.11361,-1.612e-10,-0.99771,0,0,0.11111,-2.6316e-16,0,0.66667
0.41557,0.29715,3.7401,-0.30427,-27.038,274.92,3.0347,-1.0116,-1.6683,4.0463,1.2574e-12,-0.83415,0,0,0.11111,-0,-0,0.66667
0.71137,0.52401,6.4023,0.036014,1.9002,76.867,-0.61486,0.20495,-1.9931,-0.81981,-5.0404e-14,-0.99657,0,0,0.11111,-1.0527e-15,0,0.66667
0.16782,0.14053,1.5104,-0.53921,-56.443,497.21,2.1718,-0.72393,-0.96498,2.8957,-4.4492e-11,-0.48249,0,0,0.11111,2.6316e-16,0,0.66667
0.38898,0.83404,3.5008,0.50106,45.765,297.16,-4.6777,1.5592,-1.1089,-6.2369,1.2763e-12,-0.55446,0,0,0.11111,-5.2633e-16,0,0.66667
0.49795,0.92253,4.4815,0.63379,51.372,211.2,-7.5742,2.5247,-0.57259,-10.099,-2.5611e-12,-0.2863,0,0,0.11111,-0,1.3135e-16,0.66667
0.93505,0.55284,8.4154,0.079267,1.0303,4.8638,-1.7788,0.59295,-1.9782,-2.3718,-1.3651e-08,-0.98912,0,0,0.11111,-0,-0,0.66667
0.055196,0.98,0.49677,0.72,77.49,606.56,-0.95379,0.31793,-0.15419,-1.2717,5.6446e-06,-0.077095,0,0,0.11111,1.3158e-16,0,0.66667
0.82901,0.96905,7.4611,0.70357,23.715,30.621,-13.998,4.6661,-0.24402,-18.665,1.2142e-09,-0.12201,0,0,0.11111,-0,-0,0.66667
0.98416,0.73062,8.8574,0.34593,1.0153,0.91565,-8.1708,2.7236,-1.5781,-10.894,-1.9585e-07,-0.78904,0,0,0.11111,-2.1053e-15,0,0.66667
0.26727,0.079996,2.4055,-0.63001,-63.072,404.16,4.0412,-1.3471,-0.59013,5.3883,1.0675e-11,-0.29507,0,0,0.11111,-5.2633e-16,0,0.66667
0.89006,0.15945,8.0105,-0.51082,-11.304,13.649,10.912,-3.6373,-1.0762,14.549,-2.2957e-08,-0.5381,0,0,0.11111,-0,-0,0.66667
0.2903,0.47104,2.6127,-0.043437,-4.2706,382.81,0.30263,-0.10088,-1.9919,0.40351,6.1628e-13,-0.99597,0,0,0.11111,-0,-0,0.66667
0.79901,0.91405,7.1911,0.62108,24.14,40.431,-11.91,3.97,-0.62963,-15.88,1.1502e-09,-0.31481,0,0,0.11111,-0,-0,0.66667
0.45986,0.085968,4.1387,-0.62105,-52.775,240.12,6.8542,-2.2847,-0.62641,9.139,3.8529e-12,-0.31321,0,0,0.11111,-5.2633e-16,0,0.66667
0.59761,0.95646,5.3785,0.68469,47.471,142.53,-9.8202,3.2734,-0.33215,-13.094,-2.9132e-13,-0.16608,0,0,0.11111,-1.0527e-15,0,0.66667
0.23667,0.95245,2.13,0.67867,69.119,432.42,-3.8549,1.285,-0.36286,-5.1398,2.1593e-11,-0.18143,0,0,0.11111,-0,-0,0.66667
0.68761,0.71755,6.1885,0.32633,18.425,89.251,-5.3853,1.7951,-1.6265,-7.1804,-3.5874e-12,-0.81323,0,0,0.11111,1.3158e-15,0,0.66667
0.14868,0.1198,1.3382,-0.5703,-60.09,515.59,2.0351,-0.67836,-0.8416,2.7134,1.5231e-09,-0.4208,0,0,0.11111,2.8541e-16,0,0.66667
0.55969,0.78058,5.0372,0.42086,31.047,166.8,-5.6532,1.8844,-1.3717,-7.5377,1.0068e-12,-0.68586,0,0,0.11111,-2.5463e-16,0,0.66667
0.49433,0.88877,4.449,0.58315,47.456,213.77,-6.9184,2.3061,-0.78864,-9.2245,-4.4409e-15,-0.39432,0,0,0.11111,-0,-0,0.66667
0.83721,0.89265,7.5349,0.58897,18.893,27.599,-11.834,3.9447,-0.76407,-15.779,3.7226e-09,-0.38204,0,0,0.11111,1.0527e-15,0,0.66667
0.48147,0.80111,4.3332,0.45167,37.304,223.18,-5.2191,1.7397,-1.2746,-6.9589,6.9811e-13,-0.6373,0,0,0.11111,-5.2633e-16,0,0.66667
0.78473,0.85756,7.0626,0.53634,22.102,45.459,-10.101,3.3671,-0.97647,-13.468,8.9456e-11,-0.48824,0,0,0.11111,-1.0527e-15,0,0.66667
0.40029,0.63914,3.6026,0.20871,18.817,287.41,-2.0051,0.66838,-1.8427,-2.6735,1.1049e-12,-0.92137,0,0,0.11111,-5.2633e-16,0,0.66667
0.30791,0.64452,2.7712,0.21677,21.076,367.06,-1.6019,0.53397,-1.8314,-2.1359,4.1546e-12,-0.91569,0,0,0.11111,-3.6463e-16,0,0.66667
0.78723,0.13407,7.085,-0.5489,-22.394,44.545,10.371,-3.4568,-0.92666,13.827,-3.0481e-10,-0.46333,0,0,0.11111,-2.1053e-15,0,0.66667
0.41846,0.55708,3.7662,0.085616,7.5781,272.42,-0.85986,0.28662,-1.974,-1.1465,-6.5575e-13,-0.987,0,0,0.11111,5.2633e-16,0,0.66667
0.49677,0.43418,4.4709,-0.098732,-7.9751,211.3,1.1771,-0.39237,-1.9659,1.5695,8.2234e-13,-0.98295,0,0,0.11111,-6.5791e-16,0,0.66667
0.57732,0.25909,5.1959,-0.36137,-25.858,154.88,5.0071,-1.669,-1.5385,6.6761,2.0806e-12,-0.76926,0,0,0.11111,-0,-0,0.66667
0.81967,0.76601,7.377,0.39901,13.974,32.531,-7.8494,2.6165,-1.4312,-10.466,2.8635e-10,-0.7156,0,0,0.11111,1.0527e-15,0,0.66667
0.58132,0.42556,5.2319,-0.11166,-7.92,151.97,1.5578,-0.51926,-1.9553,2.077,-3.6349e-13,-0.97765,0,0,0.11111,5.2633e-16,0,0.66667
0.40614,0.76356,3.6553,0.39534,35.487,282.76,-3.8535,1.2845,-1.448,-5.138,-4.1633e-13,-0.72399,0,0,0.11111,-0,-0,0.66667
0.16059,0.9862,1.4453,0.7293,76.71,504.3,-2.8108,0.93693,-0.10742,-3.7477,1.4389e-10,-0.05371,0,0,0.11111,2.6316e-16,0,0.66667
0.70211,0.45597,6.319,-0.066047,-3.5785,81.499,1.1129,-0.37098,-1.9868,1.4839,-1.5887e-13,-0.99339,0,0,0.11111,1.0527e-15,0,0.66667
0.88323,0.45637,7.9491,-0.065439,-1.5162,14.241,1.3871,-0.46238,-1.9821,1.8495,-8.2902e-09,-0.99105,0,0,0.11111,1.0527e-15,0,0.66667
0.10838,0.86201,0.97541,0.54302,57.806,554.56,-1.4124,0.47081,-0.95387,-1.8833,-5.6658e-09,-0.47694,0,0,0.11111,-0,1.5056e-16,0.66667
0.46621,0.14011,4.1959,-0.53984,-45.479,235.02,6.0404,-2.0135,-0.96405,8.0538,1.6658e-12,-0.48203,0,0,0.11111,-0,-0,0.66667
0.93454,0.80444,8.4108,0.45665,6.0782,5.6889,-10.242,3.4141,-1.2587,-13.656,1.4787e-07,-0.62936,0,0,0.11111,-0,-0,0.66667
0.56351,0.462,5.0716,-0.056998,-4.168,163.82,0.77086,-0.25695,-1.9912,1.0278,1.4445e-12,-0.99562,0,0,0.11111,-5.2633e-16,0,0.66667
0.54525,0.84944,4.9073,0.52416,39.623,176.93,-6.8592,2.2864,-1.0252,-9.1456,-1.4726e-12,-0.5126,0,0,0.11111,-0,-0,0.66667
0.063476,0.28965,0.57128,-0.31553,-33.788,598.35,0.48068,-0.16023,-1.6487,0.6409,5.5812e-08,-0.82433,0,0,0.11111,-0,-0,0.66667
0.5353,0.3209,4.8177,-0.26865,-20.563,183.47,3.4514,-1.1505,-1.7425,4.6018,1.0798e-12,-0.87126,0,0,0.11111,-0,-0,0.66667
0.65454,0.3904,5.8909,-0.16441,-10.058,107.12,2.5827,-0.86089,-1.9052,3.4436,-1.1693e-12,-0.95258,0,0,0.11111,1.0527e-15,0,0.66667
0.14659,0.15396,1.3193,-0.51906,-54.696,517.57,1.8261,-0.60872,-1.0409,2.4349,-1.6945e-10,-0.52045,0,0,0.11111,-6.5791e-17,0,0.66667
0.95636,0.50805,8.6073,0.012075,0.10428,2.3806,-0.27715,0.092385,-1.9994,-0.36954,1.4914e-06,-0.99969,0,0,0.11111,-0,-0,0.66667
0.19615,0.49968,1.7654,-0.00048224,-0.049797,470.04,0.0022702,-0.00075674,-1.9989,0.003027,2.1285e-10,-0.99947,0,0,0.11111,-4.7698e-16,0,0.66667
0.67393,0.52099,6.0653,0.031492,1.8381,96.274,-0.50935,0.16978,-1.9975,-0.67914,-9.3919e-13,-0.99875,0,0,0.11111,1.0527e-15,0,0.66667
0.27434,0.58863,2.4691,0.13294,13.202,397.3,-0.87529,0.29176,-1.9353,-1.1671,2.9894e-12,-0.96763,0,0,0.11111,-0,-0,0.66667
0.10843,0.35218,0.97588,-0.22172,-23.547,554.41,0.577,-0.19233,-1.8279,0.76934,1.7801e-08,-0.91395,0,0,0.11111,2.6316e-16,0,0.66667
0.2609,0.33691,2.3481,-0.24463,-24.494,409.64,1.5318,-0.51059,-1.786,2.0424,-1.5107e-11,-0.89301,0,0,0.11111,-0,-0,0.66667
0.33415,0.77339,3.0074,0.41008,39.176,344.01,-3.2887,1.0962,-1.4001,-4.3849,4.1451e-12,-0.70004,0,0,0.11111,-0,-0,0.66667
0.46473,0.93001,4.1826,0.64502,54.519,236.4,-7.1943,2.3981,-0.51996,-9.5924,2.8333e-13,-0.25998,0,0,0.11111,5.2633e-16,0,0.66667
0.23436,0.72636,2.1092,0.33954,34.498,434.25,-1.9097,0.63658,-1.5943,-2.5463,2.8215e-11,-0.79717,0,0,0.11111,-0,-0,0.66667
0.7275,0.094182,6.5475,-0.60873,-30.826,70.172,10.628,-3.5428,-0.68144,14.171,1.5248e-11,-0.34072,0,0,0.11111,-0,-0,0.66667
0.80719,0.53525,7.2647,0.052868,1.9588,36.279,-1.0242,0.3414,-1.9889,-1.3656,2.9069e-12,-0.99446,0,0,0.11111,-2.1053e-15,0,0.66667
0.79098,0.92435,7.1188,0.63652,25.631,43.456,-12.083,4.0278,-0.55709,-16.111,2.2731e-11,-0.27855,0,0,0.11111,1.0527e-15,0,0.66667
0.71575,0.49834,6.4417,-0.0024972,-0.13007,74.719,0.042897,-0.014299,-2.0011,0.057196,-2.1923e-13,-1.0005,0,0,0.11111,2.1053e-15,0,0.66667
0.26964,0.72303,2.4268,0.33455,33.348,401.69,-2.165,0.72166,-1.6017,-2.8867,1.2513e-11,-0.80087,0,0,0.11111,-1.0527e-15,0,0.66667
0.21046,0.52258,1.8941,0.033873,3.4765,456.52,-0.17109,0.057031,-1.9935,-0.22812,-1.3515e-11,-0.99676,0,0,0.11111,-0,-0,0.66667
0.10913,0.33713,0.98215,-0.24431,-25.943,553.73,0.63986,-0.21329,-1.7918,0.85314,1.8299e-08,-0.89588,0,0,0.11111,1.9737e-16,0,0.66667
0.39668,0.4187,3.5701,-0.12195,-11.029,290.37,1.161,-0.387,-1.9448,1.548,2.7127e-12,-0.97238,0,0,0.11111,-0,-0,0.66667
0.087267,0.25741,0.7854,-0.36388,-38.838,575.08,0.76211,-0.25404,-1.5271,1.0162,3.9721e-08,-0.76355,0,0,0.11111,-0,-0,0.66667
0.65539,0.69228,5.8985,0.28842,17.626,106.78,-4.5366,1.5122,-1.7075,-6.0489,-2.1934e-12,-0.85375,0,0,0.11111,2.1053e-15,0,0.66667
0.94983,0.2142,8.5485,-0.4287,-4.3608,3.7437,9.7725,-3.2575,-1.3469,13.03,-8.6454e-08,-0.67343,0,0,0.11111,-4.9024e-16,0,0.66667
0.75563,0.7108,6.8007,0.31621,14.499,56.733,-5.7345,1.9115,-1.6426,-7.646,-2.6752e-11,-0.82132,0,0,0.11111,-0,-0,0.66667
0.11689,0.275,1.052,-0.33749,-35.794,546.21,0.9468,-0.3156,-1.5929,1.2624,1.412e-08,-0.79644,0,0,0.11111,-6.5791e-17,0,0.66667
0.020481,0.45033,0.18433,-0.074498,-7.9993,640.58,0.03662,-0.012206,-1.9785,0.048826,9.1344e-08,-0.98925,0,0,0.11111,-0,-0,0.66667
0.33489,0.45488,3.014,-0.067687,-6.4512,343.14,0.54402,-0.18134,-1.9811,0.72536,1.8508e-12,-0.99054,0,0,0.11111,-3.9659e-16,0,0.66667
0.99288,0.53825,8.9359,0.057381,0.054696,0.15313,-1.3673,0.45578,-1.9861,-1.8231,6.6084e-07,-0.99305,0,0,0.11111,-0,-0,0.66667
0.31283,0.21314,2.8155,-0.43029,-41.755,362.84,3.2306,-1.0769,-1.3457,4.3075,-4.6052e-13,-0.67283,0,0,0.11111,-0,-0,0.66667
0.73751,0.49241,6.6376,-0.011388,-0.5543,64.46,0.20157,-0.067191,-1.9996,0.26876,-1.9746e-12,-0.99979,0,0,0.11111,-5.2633e-16,0,0.66667
0.71653,0.9375,6.4488,0.65624,34.397,75.574,-11.285,3.7617,-0.4711,-15.047,-2.5766e-12,-0.23555,0,0,0.11111,1.4363e-15,0,0.66667
0.57256,0.67636,5.153,0.26453,19.069,157.9,-3.6351,1.2117,-1.7491,-4.8467,1.7399e-12,-0.87455,0,0,0.11111,5.2633e-16,0,0.66667
0.36765,0.69952,3.3088,0.29928,27.806,314.94,-2.6407,0.88022,-1.6789,-3.5209,2.1554e-12,-0.83944,0,0,0.11111,-0,-0,0.66667
0.20827,0.14151,1.8744,-0.53773,-55.403,458.83,2.6878,-0.89593,-0.96991,3.5837,9.3417e-11,-0.48495,0,0,0.11111,-0,-0,0.66667
0.98,0.36891,8.82,-0.19664,-0.73419,0.79287,4.625,-1.5417,-1.8617,6.1667,1.3357e-07,-0.93083,0,0,0.11111,1.6329e-15,0,0.66667
0.065894,0.74339,0.59304,0.36508,39.095,595.99,-0.57736,0.19245,-1.526,-0.76982,-9.5586e-08,-0.763,0,0,0.11111,6.5791e-17,0,0.66667
0.23623,0.81295,2.126,0.46942,47.701,432.6,-2.6613,0.88712,-1.2192,-3.5485,4.1693e-11,-0.6096,0,0,0.11111,1.0527e-15,0,0.66667
0.3089,0.77446,2.7801,0.41169,40.053,366.32,-3.0521,1.0174,-1.3971,-4.0695,2.8342e-12,-0.69853,0,0,0.11111,-2.6316e-16,0,0.66667
0.9095,0.47248,8.1855,-0.041282,-0.74643,8.8801,0.90111,-0.30037,-1.9944,1.2015,-4.3718e-08,-0.9972,0,0,0.11111,-0,-0,0.66667
0.71337,0.74036,6.4203,0.36054,18.961,76.252,-6.1727,2.0576,-1.5359,-8.2303,-7.1601e-12,-0.76797,0,0,0.11111,-0,-0,0.66667
0.26537,0.87586,2.3883,0.56379,56.459,405.82,-3.5908,1.1969,-0.87476,-4.7877,4.445e-11,-0.43738,0,0,0.11111,-0,-0,0.66667
0.1645,0.15509,1.4805,-0.51737,-54.206,500.38,2.0426,-0.68086,-1.047,2.7234,2.008e-09,-0.5235,0,0,0.11111,2.9606e-16,0,0.66667
0.8805,0.82132,7.9245,0.48199,11.533,15.67,-10.185,3.3951,-1.1721,-13.58,3.525e-09,-0.58607,0,0,0.11111,-0,-0,0.66667
0.79378,0.65352,7.144,0.23028,9.0781,41.291,-4.3871,1.4624,-1.8123,-5.8494,3.1422e-11,-0.90613,0,0,0.11111,1.2877e-15,0,0.66667
0.038387,0.32472,0.34549,-0.26292,-28.218,622.98,0.24222,-0.080741,-1.7516,0.32296,-1.6463e-07,-0.87579,0,0,0.11111,-0,-0,0.66667
0.8793,0.76816,7.9137,0.40224,9.6868,15.699,-8.4886,2.8295,-1.4233,-11.318,9.1342e-09,-0.71166,0,0,0.11111,-1.0527e-15,0,0.66667
0.58794,0.79362,5.2915,0.44043,30.955,148.08,-6.2146,2.0715,-1.3081,-8.2862,-6.2927e-13,-0.65403,0,0,0.11111,1.0527e-15,0,0.66667
0.45754,0.80761,4.1178,0.46142,39.234,241.61,-5.0668,1.6889,-1.2423,-6.7557,3.797e-13,-0.62114,0,0,0.11111,2.6316e-16,0,0.66667
0.67385,0.025757,6.0647,-0.71136,-41.9,97.676,11.505,-3.8348,-0.20238,15.339,8.3666e-13,-0.10119,0,0,0.11111,-0,-0,0.66667
0.039443,0.69116,0.35499,0.28674,30.777,621.94,-0.27143,0.090478,-1.7059,-0.36191,1.4772e-07,-0.85296,0,0,0.11111,-0,-0,0.66667
0.33032,0.82292,2.9729,0.48437,46.44,347.45,-3.84,1.28,-1.1666,-5.12,-1.1233e-12,-0.58331,0,0,0.11111,-0,-0,0.66667
0.088048,0.50142,0.79244,0.0021283,0.22683,574.27,-0.0044975,0.0014993,-1.9991,-0.0059966,1.4636e-07,-0.99956,0,0,0.11111,-0,-0,0.66667
0.68364,0.18775,6.1527,-0.46838,-26.777,91.657,7.6848,-2.5616,-1.2206,10.246,1.6813e-12,-0.61029,0,0,0.11111,-0,-0,0.66667
0.39801,0.78264,3.5821,0.42395,38.365,289.52,-4.0497,1.3499,-1.3596,-5.3996,-1.9864e-12,-0.6798,0,0,0.11111,1.0527e-15,0,0.66667
0.47895,0.36755,4.3106,-0.19868,-16.427,224.77,2.2838,-0.76125,-1.858,3.045,1.5055e-12,-0.92899,0,0,0.11111,-0,-0,0.66667
0.2898,0.83643,2.6082,0.50465,49.763,383.55,-3.51,1.17,-1.0923,-4.6799,-7.1809e-13,-0.54614,0,0,0.11111,4.3476e-16,0,0.66667
0.78829,0.78435,7.0947,0.42652,17.271,43.763,-8.0694,2.6898,-1.3516,-10.759,-4.9266e-11,-0.67578,0,0,0.11111,-2.1053e-15,0,0.66667
0.046513,0.38134,0.41861,-0.17799,-19.083,614.98,0.19869,-0.06623,-1.8912,0.26492,-7.2069e-08,-0.94559,0,0,0.11111,-0,-0,0.66667
0.28113,0.51985,2.5301,0.029777,2.9444,391.11,-0.20091,0.066969,-2.0006,-0.26788,4.3861e-12,-1.0003,0,0,0.11111,-5.2633e-16,0,0.66667
0.5906,0.81796,5.3154,0.47693,33.377,146.44,-6.7602,2.2534,-1.1915,-9.0136,6.9011e-13,-0.59577,0,0,0.11111,-0,-0,0.66667
0.79013,0.95734,7.1112,0.686,27.769,43.979,-13.009,4.3363,-0.32423,-17.345,2.6855e-10,-0.16212,0,0,0.11111,1.0527e-15,0,0.66667
0.6016,0.47447,5.4144,-0.038298,-2.6169,138.87,0.55296,-0.18432,-1.9927,0.73729,8.0852e-13,-0.99635,0,0,0.11111,-0,-0,0.66667
0.73049,0.70496,6.5744,0.30744,15.337,67.972,-5.39,1.7967,-1.6628,-7.1867,-1.4196e-11,-0.83142,0,0,0.11111,1.0527e-15,0,0.66667
0.023528,0.064396,0.21175,-0.65341,-70.437,637.62,0.36896,-0.123,-0.48053,0.49194,-1.8265e-05,-0.24027,0,0,0.11111,6.5791e-17,0,0.66667
0.25492,0.46422,2.2943,-0.053665,-5.3881,415.08,0.32833,-0.10944,-1.9888,0.43778,-7.2525e-12,-0.99438,0,0,0.11111,1.3158e-16,0,0.66667
0.042092,0.78866,0.37883,0.43298,46.511,619.36,-0.4374,0.1458,-1.3321,-0.5832,-2.5346e-07,-0.66606,0,0,0.11111,-1.3158e-16,0,0.66667
0.50001,0.50244,4.5001,0.0036639,0.29463,208.87,-0.043968,0.014656,-2.005,-0.058624,-6.6702e-13,-1.0025,0,0,0.11111,-0,-0,0.66667
0.98914,0.90718,8.9023,0.61078,1.3049,1.7286,-14.499,4.8332,-0.67335,-19.333,1.5973e-05,-0.33667,0,0,0.11111,-0,-0,0.66667
0.013531,0.76749,0.12177,0.40124,43.159,647.43,-0.13029,0.043432,-1.4284,-0.17373,2.1186e-08,-0.71419,0,0,0.11111,-3.2471e-17,0,0.66667
0.44088,0.33311,3.9679,-0.25033,-21.651,254.47,2.6487,-0.88291,-1.7767,3.5317,-4.6252e-13,-0.88836,0,0,0.11111,-5.2633e-16,0,0.66667
0.0047864,0.10515,0.043078,-0.59228,-63.834,656.04,0.068033,-0.022675,-0.7511,0.090712,3.677e-06,-0.37555,0,0,0.11111,-8.2239e-18,0,0.66667
0.61289,0.027611,5.516,-0.70858,-47.737,133.03,10.423,-3.4743,-0.21502,13.897,1.1608e-12,-0.10751,0,0,0.11111,5.2633e-16,0,0.66667
0.18336,0.69746,1.6502,0.29619,30.767,482.25,-1.3034,0.43448,-1.687,-1.7379,-3.0538e-10,-0.84349,0,0,0.11111,-0,-0,0.66667
0.71274,0.82461,6.4147,0.48692,25.708,76.865,-8.3291,2.7764,-1.1547,-11.105,-4.337e-12,-0.57735,0,0,0.11111,-0,-0,0.66667
0.15965,0.53158,1.4368,0.047376,4.9587,504.86,-0.18152,0.060508,-1.993,-0.24203,-5.6727e-10,-0.9965,0,0,0.11111,-0,-0,0.66667
0.82858,0.085825,7.4572,-0.62126,-20.918,30.396,12.354,-4.1181,-0.63118,16.472,-3.145e-09,-0.31559,0,0,0.11111,-1.0527e-15,0,0.66667
0.20618,0.40713,1.8556,-0.1393,-14.327,460.57,0.68931,-0.22977,-1.9322,0.91908,2.142e-11,-0.9661,0,0,0.11111,-5.2633e-16,0,0.66667
0.35222,0.51707,3.1699,0.025604,2.4073,328.06,-0.21644,0.072145,-1.995,-0.28858,6.4783e-13,-0.99748,0,0,0.11111,-0,-0,0.66667
0.23058,0.27093,2.0752,-0.34361,-34.978,437.77,1.9015,-0.63383,-1.5794,2.5353,-3.1769e-11,-0.78969,0,0,0.11111,-0,-0,0.66667
0.80768,0.74374,7.2692,0.3656,13.564,36.529,-7.087,2.3623,-1.5236,-9.4494,1.2807e-10,-0.76178,0,0,0.11111,1.579e-15,0,0.66667
0.49027,0.032144,4.4124,-0.70178,-57.524,217.1,8.2575,-2.7525,-0.24804,11.01,1.0472e-12,-0.12402,0,0,0.11111,-2.1053e-15,0,0.66667
0.87383,0.81098,7.8645,0.46648,11.744,17.191,-9.7829,3.261,-1.2297,-13.044,7.0454e-09,-0.61486,0,0,0.11111,-1.1842e-15,0,0.66667
0.13009,0.090971,1.1708,-0.61354,-65.023,533.56,1.9155,-0.63851,-0.66075,2.554,9.56e-09,-0.33038,0,0,0.11111,-6.5791e-17,0,0.66667
0.49896,0.47162,4.4906,-0.042576,-3.4287,209.65,0.50985,-0.16995,-1.9969,0.6798,1.4416e-12,-0.99844,0,0,0.11111,-0,-0,0.66667
0.77661,0.80209,6.9895,0.45314,19.254,48.378,-8.4459,2.8153,-1.2684,-11.261,-4.2554e-11,-0.63422,0,0,0.11111,1.0527e-15,0,0.66667
0.98121,0.96932,8.8309,0.70397,2.7814,2.5257,-16.578,5.526,-0.23904,-22.104,-1.3728e-05,-0.11952,0,0,0.11111,4.2106e-15,0,0.66667
0.67338,0.02095,6.0604,-0.71858,-42.382,97.96,11.613,-3.871,-0.16582,15.484,1.247e-12,-0.08291,0,0,0.11111,-0,-0,0.66667
0.183,0.38086,1.647,-0.1787,-18.555,482.55,0.78488,-0.26163,-1.8855,1.0465,2.3426e-10,-0.94277,0,0,0.11111,-0,-0,0.66667
0.75977,0.56098,6.838,0.091473,4.1238,54.69,-1.668,0.55599,-1.9693,-2.224,-1.577e-11,-0.98465,0,0,0.11111,3.9475e-16,0,0.66667
0.074635,0.33789,0.67172,-0.24317,-25.989,587.41,0.43557,-0.14519,-1.7897,0.58076,4.2935e-08,-0.89484,0,0,0.11111,6.5791e-17,0,0.66667
0.76277,0.55075,6.865,0.076118,3.3938,53.418,-1.3934,0.46448,-1.9794,-1.8579,-6.8202e-12,-0.9897,0,0,0.11111,-0,-0,0.66667
0.82782,0.7945,7.4503,0.44176,14.847,30.005,-8.7766,2.9255,-1.3095,-11.702,4.5659e-10,-0.65475,0,0,0.11111,-0,-0,0.66667
0.55921,0.024074,5.0329,-0.71389,-52.951,167.87,9.5811,-3.1937,-0.18789,12.775,5.6248e-12,-0.093947,0,0,0.11111,-1.0527e-15,0,0.66667
0.49272,0.55737,4.4345,0.086054,6.988,214.31,-1.0176,0.33921,-1.9717,-1.3568,-3.0254e-12,-0.98585,0,0,0.11111,-0,-0,0.66667
0.93653,0.075036,8.4287,-0.63745,-8.3588,6.1646,14.328,-4.7759,-0.5576,19.104,4.6616e-07,-0.2788,0,0,0.11111,-0,-0,0.66667
9.6951e-05,0.66354,0.00087256,0.2453,26.365,660.65,-0.00057061,0.00018982,-1.7902,-0.00076101,-5.8244e-07,-0.8951,0,0,0.11111,2.57e-19,-3.4296e-16,0.66667
0.0095669,0.8698,0.086102,0.55471,59.756,651.34,-0.12736,0.04245,-0.90428,-0.16982,-4.8996e-06,-0.45214,0,0,0.11111,-8.2239e-18,0,0.66667
0.25195,0.53254,2.2676,0.048806,4.9081,417.82,-0.29512,0.098374,-1.9939,-0.3935,7.8308e-12,-0.99696,0,0,0.11111,-1.0527e-15,0,0.66667
0.50568,0.16472,4.5511,-0.50291,-40.264,205.19,6.1035,-2.0345,-1.0988,8.138,1.6525e-12,-0.5494,0,0,0.11111,-0,-0,0.66667
0.54042,0.17315,4.8637,-0.49027,-37.322,180.23,6.3589,-2.1196,-1.1428,8.4785,1.1657e-12,-0.5714,0,0,0.11111,-0,-0,0.66667
0.37129,0.02789,3.3416,-0.70817,-65.893,312.45,6.3105,-2.1035,-0.217,8.414,3.153e-13,-0.1085,0,0,0.11111,-5.2633e-16,-5.051e-17,0.66667
0.29271,0.66384,2.6344,0.24577,24.141,380.7,-1.7265,0.57551,-1.7844,-2.302,2.8534e-12,-0.89218,0,0,0.11111,-0,-0,0.66667
0.20237,0.94452,1.8213,0.66678,68.982,464.51,-3.2384,1.0795,-0.42235,-4.3179,1.2102e-09,-0.21117,0,0,0.11111,-0,-0,0.66667
0.80028,0.0095423,7.2025,-0.73569,-28.551,40.468,14.13,-4.7101,-0.075198,18.84,-3.9655e-11,-0.037599,0,0,0.11111,-0,-0,0.66667
0.31592,0.62313,2.8433,0.18469,17.854,359.9,-1.4003,0.46678,-1.8794,-1.8671,5.6947e-12,-0.93968,0,0,0.11111,-1.9737e-16,0,0.66667
0.49247,0.70933,4.4322,0.31399,25.536,214.68,-3.7111,1.237,-1.647,-4.9482,-1.1597e-12,-0.82348,0,0,0.11111,-5.2633e-16,0,0.66667
0.81129,0.57736,7.3016,0.11603,4.2173,34.886,-2.2593,0.75309,-1.9541,-3.0124,1.5699e-10,-0.97704,0,0,0.11111,-0,-0,0.66667
0.61236,0.76847,5.5112,0.40271,27.016,132.52,-5.9184,1.9728,-1.4232,-7.8912,-6.7679e-13,-0.7116,0,0,0.11111,-0,-0,0.66667
0.40861,0.58763,3.6775,0.13144,11.751,280.5,-1.289,0.42967,-1.9396,-1.7187,-4.2033e-13,-0.96982,0,0,0.11111,-2.6316e-16,0,0.66667
0.1769,0.2461,1.5921,-0.38085,-39.679,488.44,1.617,-0.53899,-1.4833,2.1559,4.8002e-10,-0.74166,0,0,0.11111,-3.2895e-16,0,0.66667
0.39765,0.54835,3.5789,0.072522,6.552,289.54,-0.69213,0.23071,-1.9786,-0.92284,-3.5695e-12,-0.98931,0,0,0.11111,5.2633e-16,0,0.66667
0.48521,0.072983,4.3669,-0.64053,-52.789,220.74,7.459,-2.4863,-0.54393,9.9453,-1.3314e-12,-0.27196,0,0,0.11111,-0,-0,0.66667
0.99058,0.50395,8.9153,0.005929,0.0085381,0.20605,-0.14096,0.04699,-1.9983,-0.18794,6.445e-06,-0.99917,0,0,0.11111,-0,-0,0.66667
0.2842,0.34423,2.5578,-0.23366,-23.074,388.39,1.5937,-0.53124,-1.8073,2.125,-1.9083e-12,-0.90364,0,0,0.11111,-1.0527e-15,0,0.66667
0.16564,0.37379,1.4908,-0.18931,-19.782,499.13,0.75259,-0.25086,-1.8715,1.0035,1.2912e-09,-0.93576,0,0,0.11111,-4.9343e-17,0,0.66667
0.22058,0.77582,1.9852,0.41373,42.341,447.17,-2.1902,0.73007,-1.3932,-2.9203,3.5068e-11,-0.69661,0,0,0.11111,-2.6316e-16,0,0.66667
0.21147,0.9348,1.9032,0.65219,67.194,455.93,-3.31,1.1033,-0.48605,-4.4134,-4.3596e-10,-0.24302,0,0,0.11111,2.6316e-16,0,0.66667
0.076048,0.51227,0.68443,0.018412,1.9663,586,-0.033605,0.011202,-1.9997,-0.044807,-1.5492e-07,-0.99983,0,0,0.11111,2.6316e-16,0,0.66667
0.36491,0.34747,3.2842,-0.22879,-21.298,317.23,2.0037,-0.66789,-1.8127,2.6716,-1.493e-12,-0.90634,0,0,0.11111,-0,-0,0.66667
0.28473,0.46319,2.5626,-0.055211,-5.4473,387.84,0.37729,-0.12576,-1.9891,0.50305,-3.908e-13,-0.99456,0,0,0.11111,6.5791e-16,0,0.66667
0.88759,0.059514,7.9883,-0.66073,-15.055,14.805,14.075,-4.6916,-0.44859,18.767,3.2662e-08,-0.2243,0,0,0.11111,-2.6316e-16,0,0.66667
0.78026,0.49029,7.0223,-0.014563,-0.60678,46.298,0.27271,-0.090905,-2.0018,0.36362,1.69e-11,-1.0009,0,0,0.11111,-0,-0,0.66667
0.10906,0.92227,0.98158,0.63341,67.489,553.94,-1.658,0.55266,-0.57679,-2.2107,9.9692e-08,-0.28839,0,0,0.11111,1.3158e-16,-1.315e-16,0.66667
0.8505,0.95279,7.6545,0.67918,20.221,24.116,-13.863,4.6212,-0.35723,-18.485,1.3232e-08,-0.17861,0,0,0.11111,-0,-0,0.66667
0.1096,0.88191,0.98639,0.57287,60.987,553.39,-1.5069,0.50229,-0.83713,-2.0091,1.2382e-08,-0.41856,0,0,0.11111,-0,-0,0.66667
0.72021,0.23833,6.4819,-0.39251,-20.237,73.006,6.7845,-2.2615,-1.4539,9.046,1.0092e-11,-0.72696,0,0,0.11111,-1.0527e-15,0,0.66667
0.57282,0.33338,5.1554,-0.24993,-18.006,157.7,3.436,-1.1453,-1.776,4.5814,2.0373e-12,-0.888,0,0,0.11111,-5.2633e-16,0,0.66667
0.086808,0.87481,0.78128,0.56221,60.118,575.59,-1.1713,0.39044,-0.87514,-1.5617,-8.9131e-08,-0.43757,0,0,0.11111,-1.3981e-16,0,0.66667
0.90533,0.45149,8.148,-0.072758,-1.3754,9.6631,1.5809,-0.52696,-1.9836,2.1078,-8.6267e-09,-0.99178,0,0,0.11111,-0,-0,0.66667
0.87457,0.84426,7.8711,0.51639,12.955,17.186,-10.839,3.6129,-1.0566,-14.452,-1.9499e-09,-0.52831,0,0,0.11111,2.1053e-15,0,0.66667
0.84385,0.23736,7.5947,-0.39396,-12.084,24.981,7.9787,-2.6596,-1.4519,10.638,-1.8698e-09,-0.72593,0,0,0.11111,-1.0527e-15,0,0.66667
0.36957,0.5191,3.3261,0.028647,2.6546,313.17,-0.25409,0.084696,-1.995,-0.33879,2.3082e-12,-0.99751,0,0,0.11111,-0,-0,0.66667
0.22295,0.43047,2.0066,-0.10429,-10.644,444.8,0.55803,-0.18601,-1.9605,0.74404,-1.1877e-12,-0.98024,0,0,0.11111,-0,-0,0.66667
0.99711,0.50527,8.974,0.0079011,0.00030843,0.045234,-0.18908,0.063006,-2.0004,-0.25211,-2.9725e-05,-1.0002,0,0,0.11111,-0,-0,0.66667
0.81734,0.080668,7.356,-0.629,-22.442,34.079,12.338,-4.1128,-0.59152,16.451,1.0313e-10,-0.29576,0,0,0.11111,1.0527e-15,0,0.66667
0.042128,0.96095,0.37915,0.69142,74.481,619.37,-0.69908,0.23301,-0.29888,-0.93212,-2.2549e-05,-0.14944,0,0,0.11111,-6.5791e-17,0,0.66667
0.37328,0.13563,3.3595,-0.54655,-50.653,310.46,4.8964,-1.6321,-0.93931,6.5285,3.2552e-13,-0.46966,0,0,0.11111,-0,-0,0.66667
0.81219,0.50778,7.3097,0.011666,0.42199,34.535,-0.22739,0.075797,-2.0033,-0.30319,-1.6327e-10,-1.0016,0,0,0.11111,-0,-0,0.66667
0.52838,0.49377,4.7555,-0.0093479,-0.72225,188.22,0.11854,-0.039514,-2.0002,0.15806,2.1236e-12,-1.0001,0,0,0.11111,-2.6316e-16,0,0.66667
0.24713,0.68265,2.2242,0.27397,27.643,422.35,-1.6249,0.54165,-1.7338,-2.1666,2.4163e-11,-0.8669,0,0,0.11111,2.6316e-16,0,0.66667
0.79289,0.23283,7.136,-0.40076,-15.905,41.966,7.6262,-2.5421,-1.4278,10.168,7.5877e-12,-0.71389,0,0,0.11111,-0,-0,0.66667
0.26175,0.72137,2.3558,0.33205,33.249,408.92,-2.086,0.69532,-1.6081,-2.7813,1.4893e-11,-0.80403,0,0,0.11111,1.0527e-15,0,0.66667
0.00039838,0.38209,0.0035854,-0.17686,-19.003,660.36,0.0016908,-0.00056339,-1.8925,0.0022545,3.1901e-07,-0.94623,0,0,0.11111,-0,-0,0.66667
0.23132,0.81532,2.0819,0.47298,48.182,437.18,-2.6258,0.87526,-1.2054,-3.5011,7.9506e-11,-0.60271,0,0,0.11111,-0,-0,0.66667
0.99337,0.47712,8.9403,-0.034323,-0.029012,0.13186,0.81829,-0.27276,-1.9936,1.0911,4.1602e-07,-0.99678,0,0,0.11111,-0,-0,0.66667
0.6562,0.28182,5.9058,-0.32727,-19.971,106.39,5.1541,-1.718,-1.6245,6.8722,2.4869e-14,-0.81225,0,0,0.11111,-0,-0,0.66667
0.22067,0.98312,1.986,0.72468,74.426,447.39,-3.8379,1.2793,-0.13378,-5.1172,-6.8998e-11,-0.06689,0,0,0.11111,-0,-0,0.66667
0.68614,0.8728,6.1753,0.55921,31.817,90.593,-9.2086,3.0695,-0.89113,-12.278,1.0951e-12,-0.44556,0,0,0.11111,-1.3158e-15,-1.1374e-16,0.66667
0.68694,0.31488,6.1824,-0.27768,-15.698,89.526,4.5779,-1.526,-1.73,6.1039,3.1504e-12,-0.86499,0,0,0.11111,-0,-0,0.66667
0.64074,0.58544,5.7667,0.12817,8.0865,115.05,-1.9709,0.65697,-1.9456,-2.6279,2.3259e-13,-0.9728,0,0,0.11111,5.2633e-16,0,0.66667
0.070549,0.94505,0.63494,0.66758,71.659,591.52,-1.1303,0.37678,-0.4131,-1.5071,-1.0231e-06,-0.20655,0,0,0.11111,-0,-0,0.66667
0.24296,0.21133,2.1867,-0.43301,-43.836,426.32,2.5249,-0.84165,-1.3311,3.3666,-2.451e-11,-0.66556,0,0,0.11111,-2.6316e-16,0,0.66667
0.87084,0.17019,7.8375,-0.49472,-12.748,18.017,10.34,-3.4466,-1.1285,13.786,-7.0324e-09,-0.56424,0,0,0.11111,-0,-0,0.66667
0.73474,0.14917,6.6127,-0.52624,-25.997,66.541,9.2796,-3.0932,-1.0191,12.373,-1.7764e-12,-0.50955,0,0,0.11111,1.0527e-15,0,0.66667
0.16782,0.72634,1.5103,0.33951,35.477,497.1,-1.3674,0.4558,-1.5894,-1.8232,-9.6835e-10,-0.79469,0,0,0.11111,-0,-0,0.66667
0.29859,0.30533,2.6873,-0.29201,-28.581,375.44,2.0926,-0.69753,-1.6986,2.7901,-4.5075e-12,-0.84928,0,0,0.11111,-2.6316e-16,0,0.66667
0.56272,0.36168,5.0645,-0.20748,-15.2,164.44,2.8021,-0.93402,-1.8504,3.7361,1.0987e-12,-0.92522,0,0,0.11111,-0,-0,0.66667
0.82645,0.99167,7.438,0.73751,25.234,31.595,-14.628,4.8761,-0.067719,-19.504,6.9546e-10,-0.033859,0,0,0.11111,4.5238e-16,0,0.66667
0.20052,0.16403,1.8046,-0.50395,-52.077,466.11,2.4252,-0.8084,-1.0976,3.2336,1.9701e-10,-0.5488,0,0,0.11111,-0,-0,0.66667
0.10167,0.99874,0.91499,0.74812,79.959,561.2,-1.8254,0.60846,-0.0087165,-2.4338,8.8558e-08,-0.0043582,0,0,0.11111,-1.3158e-16,0,0.66667
0.38187,0.53458,3.4368,0.051867,4.7547,302.75,-0.47536,0.15845,-1.9888,-0.63381,6.4372e-12,-0.99441,0,0,0.11111,-0,-0,0.66667
0.91235,0.24369,8.2112,-0.38447,-6.7943,8.9055,8.4185,-2.8062,-1.4726,11.225,-3.6425e-08,-0.73629,0,0,0.11111,-5.2633e-16,0,0.66667
0.26051,0.52966,2.3446,0.044484,4.4523,409.94,-0.27813,0.092709,-1.9924,-0.37084,1.3346e-11,-0.99618,0,0,0.11111,-6.5791e-16,0,0.66667
0.1083,0.56559,0.97474,0.098388,10.445,554.51,-0.25574,0.085247,-1.9688,-0.34099,-1.9504e-08,-0.98441,0,0,0.11111,2.6316e-16,0,0.66667
0.055943,0.15873,0.50349,-0.51191,-54.954,605.78,0.68731,-0.2291,-1.0669,0.91641,-3.7856e-08,-0.53344,0,0,0.11111,-0,-0,0.66667
0.35167,0.32482,3.165,-0.26277,-24.735,328.63,2.2178,-0.73927,-1.7518,2.9571,7.9625e-13,-0.8759,0,0,0.11111,5.2633e-16,0,0.66667
0.037627,0.37532,0.33864,-0.18702,-20.067,623.72,0.16889,-0.056296,-1.8747,0.22518,-1.0971e-07,-0.93737,0,0,0.11111,-1.3158e-16,0,0.66667
0.58303,0.57185,5.2473,0.10778,7.6219,150.85,-1.5082,0.50272,-1.9571,-2.0109,2.2571e-12,-0.97856,0,0,0.11111,-0,-0,0.66667
0.67256,0.39057,6.053,-0.16415,-9.6179,97.089,2.6496,-0.8832,-1.9069,3.5328,1.3944e-13,-0.95346,0,0,0.11111,1.0527e-15,0,0.66667
0.46048,0.89103,4.1444,0.58654,49.781,239.56,-6.4822,2.1607,-0.77404,-8.643,-1.3705e-12,-0.38702,0,0,0.11111,1.0527e-15,0,0.66667
0.74112,0.92567,6.6701,0.6385,30.98,64.032,-11.357,3.7856,-0.54791,-15.143,1.3717e-11,-0.27395,0,0,0.11111,-0,-0,0.66667
0.50102,0.1426,4.5092,-0.53611,-43.212,208.69,6.4464,-2.1488,-0.98034,8.5953,3.8725e-13,-0.49017,0,0,0.11111,-0,-0,0.66667
0.70235,0.51993,6.3212,0.029896,1.6186,81.367,-0.50394,0.16798,-1.9995,-0.67192,-3.9263e-13,-0.99977,0,0,0.11111,-0,-0,0.66667
0.23064,0.34984,2.0758,-0.22524,-22.913,437.65,1.2468,-0.4156,-1.8193,1.6624,-2.3854e-11,-0.90964,0,0,0.11111,-5.2633e-16,0,0.66667
0.74461,0.047222,6.7015,-0.67917,-32.61,62.63,12.137,-4.0457,-0.3578,16.183,7.4456e-12,-0.1789,0,0,0.11111,-0,-0,0.66667
0.50164,0.77911,4.5147,0.41867,33.67,208.01,-5.0404,1.6801,-1.3794,-6.7206,-1.0552e-12,-0.6897,0,0,0.11111,-0,-0,0.66667
0.70537,0.68015,6.3483,0.27022,14.527,80.053,-4.5746,1.5249,-1.7414,-6.0995,-5.1261e-12,-0.87072,0,0,0.11111,5.2633e-16,0,0.66667
0.4467,0.08029,4.0203,-0.62956,-54.317,250.45,6.7494,-2.2498,-0.58822,8.9992,3.0269e-12,-0.29411,0,0,0.11111,-5.2633e-16,0,0.66667
0.50594,0.34805,4.5535,-0.22793,-18.195,204.59,2.7677,-0.92255,-1.8138,3.6902,-2.6041e-12,-0.9069,0,0,0.11111,1.0527e-15,0,0.66667
0.041535,0.68024,0.37382,0.27035,29.011,619.88,-0.2695,0.089834,-1.7385,-0.35933,1.2642e-07,-0.86925,0,0,0.11111,-3.2895e-17,0,0.66667
0.48931,0.53802,4.4038,0.057029,4.6514,216.87,-0.66972,0.22324,-1.9871,-0.89296,-1.919e-12,-0.99356,0,0,0.11111,-0,-0,0.66667
0.14229,0.87903,1.2806,0.56854,60.018,521.75,-1.9415,0.64717,-0.85296,-2.5887,3.0615e-10,-0.42648,0,0,0.11111,5.2633e-16,0,0.66667
0.1425,0.33311,1.2825,-0.25034,-26.358,521.4,0.85614,-0.28538,-1.7784,1.1415,4.1854e-09,-0.8892,0,0,0.11111,-1.3158e-16,0,0.66667
0.43335,0.40162,3.9002,-0.14758,-12.862,260.41,1.5348,-0.51161,-1.9221,2.0465,-1.7224e-12,-0.96105,0,0,0.11111,2.6316e-16,0,0.66667
0.57621,0.92844,5.1859,0.64267,46.263,156.26,-8.8875,2.9625,-0.53279,-11.85,-1.517e-12,-0.26639,0,0,0.11111,-0,-0,0.66667
0.34305,0.49925,3.0874,-0.0011251,-0.10656,336.01,0.0092633,-0.0030878,-2.0042,0.012351,7.2794e-13,-1.0021,0,0,0.11111,-1.6777e-15,0,0.66667
0.16049,0.33873,1.4444,-0.2419,-25.326,504.08,0.93175,-0.31058,-1.7913,1.2423,1.5354e-09,-0.89567,0,0,0.11111,2.6316e-16,0,0.66667
0.74141,0.77551,6.6727,0.41326,19.93,63.197,-7.3535,2.4512,-1.3908,-9.8046,-1.0062e-11,-0.69538,0,0,0.11111,-0,-0,0.66667
0.96309,0.98507,8.6678,0.72761,5.6686,3.8179,-16.818,5.606,-0.1154,-22.424,7.3394e-06,-0.0577,0,0,0.11111,-0,-0,0.66667
0.73364,0.45643,6.6028,-0.065352,-3.2214,66.246,1.1507,-0.38356,-1.9875,1.5342,4.8e-12,-0.99377,0,0,0.11111,-0,-0,0.66667
0.077064,0.52718,0.69358,0.040764,4.3527,585.01,-0.075396,0.025132,-1.9972,-0.10053,5.9256e-08,-0.99859,0,0,0.11111,-6.5791e-17,0,0.66667
0.84091,0.1331,7.5682,-0.55035,-17.259,26.344,11.107,-3.7023,-0.92339,14.809,-2.0105e-10,-0.4617,0,0,0.11111,-0,-0,0.66667
0.067514,0.3904,0.60763,-0.1644,-17.583,594.37,0.26639,-0.088797,-1.902,0.35519,7.8619e-09,-0.95099,0,0,0.11111,-0,-0,0.66667
0.43631,0.89494,3.9268,0.5924,51.67,258.62,-6.2033,2.0678,-0.75431,-8.2711,-1.3407e-12,-0.37715,0,0,0.11111,-0,-0,0.66667
0.92886,0.65588,8.3598,0.23382,3.3418,5.9123,-5.2124,1.7375,-1.8045,-6.9499,3.6435e-08,-0.90227,0,0,0.11111,2.9606e-15,0,0.66667
0.26318,0.68553,2.3686,0.2783,27.834,407.57,-1.7578,0.58594,-1.7263,-2.3437,1.7392e-11,-0.86314,0,0,0.11111,-6.5791e-17,0,0.66667
0.12795,0.10336,1.1516,-0.59497,-63.076,535.61,1.8271,-0.60902,-0.74142,2.4361,8.0896e-09,-0.37071,0,0,0.11111,-0,-0,0.66667
0.76224,0.22871,6.8601,-0.40693,-18.246,54.129,7.4442,-2.4814,-1.4108,9.9256,2.8618e-11,-0.7054,0,0,0.11111,-0,-0,0.66667
0.92861,0.36518,8.3575,-0.20223,-2.8978,5.8983,4.507,-1.5023,-1.8522,6.0093,-3.8054e-08,-0.92609,0,0,0.11111,-0,-0,0.66667
0.32577,0.24551,2.9319,-0.38174,-36.687,351.34,2.9846,-0.99486,-1.4832,3.9795,-1.1322e-12,-0.74159,0,0,0.11111,-6.5791e-16,0,0.66667
0.23246,0.2141,2.0921,-0.42885,-43.644,436.08,2.3925,-0.79751,-1.3479,3.19,-7.1554e-12,-0.67397,0,0,0.11111,-3.9475e-16,0,0.66667
0.18249,0.7706,1.6424,0.40591,42.211,483.14,-1.7777,0.59258,-1.4124,-2.3703,-1.9299e-10,-0.70622,0,0,0.11111,-2.6316e-16,0,0.66667
0.96324,0.61619,8.6691,0.17428,1.2624,1.8835,-4.029,1.343,-1.8901,-5.372,-1.321e-07,-0.94507,0,0,0.11111,1.0527e-15,0,0.66667
0.57663,0.98105,5.1897,0.72157,51.986,156.23,-9.986,3.3287,-0.15038,-13.315,-2.8439e-12,-0.075189,0,0,0.11111,-0,-0,0.66667
0.86009,0.31223,7.7408,-0.28165,-7.7752,20.197,5.8139,-1.938,-1.7223,7.7518,-5.1276e-09,-0.86114,0,0,0.11111,-2.6316e-16,0,0.66667
0.30834,0.77585,2.7751,0.41378,40.272,366.82,-3.0621,1.0207,-1.3906,-4.0828,1.2395e-12,-0.69532,0,0,0.11111,-5.2633e-16,0,0.66667
0.056436,0.24122,0.50793,-0.38818,-41.624,605.27,0.52578,-0.17526,-1.4621,0.70103,4.9953e-08,-0.73107,0,0,0.11111,6.5791e-17,0,0.66667
0.4538,0.85581,4.0842,0.53372,45.617,244.66,-5.8129,1.9376,-0.98999,-7.7505,2.0384e-13,-0.495,0,0,0.11111,-0,-0,0.66667
0.20711,0.3319,1.864,-0.25215,-25.933,459.73,1.2533,-0.41778,-1.7729,1.6711,3.1455e-11,-0.88643,0,0,0.11111,-0,-0,0.66667
0.51898,0.38886,4.6709,-0.16671,-13.063,195.03,2.0765,-0.69215,-1.9006,2.7686,2.0324e-12,-0.95029,0,0,0.11111,-0,-0,0.66667
0.53799,0.30862,4.8419,-0.28707,-21.887,181.59,3.7065,-1.2355,-1.7053,4.942,5.0271e-13,-0.85266,0,0,0.11111,-1.0389e-16,0,0.66667
0.29429,0.54457,2.6486,0.066859,6.5567,379.21,-0.47222,0.15741,-1.9843,-0.62963,4.0936e-12,-0.99216,0,0,0.11111,-0,-0,0.66667
0.30745,0.34045,2.7671,-0.23933,-23.279,367.47,1.766,-0.58866,-1.7955,2.3547,-4.6577e-12,-0.89773,0,0,0.11111,2.2261e-16,0,0.66667
0.024174,0.36262,0.21756,-0.20608,-22.132,636.95,0.11956,-0.039853,-1.8464,0.15941,-2.2595e-07,-0.92318,0,0,0.11111,-0,-0,0.66667
0.4204,0.86712,3.7836,0.55069,48.815,271.34,-5.5562,1.8521,-0.92375,-7.4083,-1.7879e-12,-0.46187,0,0,0.11111,-0,-0,0.66667
0.32369,0.11956,2.9132,-0.57066,-55.034,353.41,4.4332,-1.4777,-0.84132,5.9109,6.6125e-13,-0.42066,0,0,0.11111,-2.6316e-16,0,0.66667
0.61949,0.2447,5.5754,-0.38296,-25.322,128.1,5.6937,-1.8979,-1.4771,7.5916,6.0396e-14,-0.73855,0,0,0.11111,-2.6316e-16,0,0.66667
0.85976,0.64633,7.7379,0.2195,6.0655,20.176,-4.5292,1.5097,-1.8321,-6.0389,4.4132e-09,-0.91606,0,0,0.11111,-0,-0,0.66667
0.49264,0.092421,4.4338,-0.61137,-49.884,215.1,7.2284,-2.4095,-0.66972,9.6379,-1.2368e-12,-0.33486,0,0,0.11111,-2.6316e-16,0,0.66667
0.082708,0.71921,0.74437,0.32881,35.114,579.52,-0.65269,0.21756,-1.6155,-0.87026,-4.9946e-08,-0.80777,0,0,0.11111,-0,-0,0.66667
0.93348,0.034588,8.4013,-0.69812,-9.6427,6.8735,15.64,-5.2134,-0.26698,20.854,-4.9636e-07,-0.13349,0,0,0.11111,-0,-5.1718e-17,0.66667
0.80833,0.59907,7.2749,0.1486,5.4794,35.944,-2.8829,0.96096,-1.9209,-3.8438,1.2573e-10,-0.96045,0,0,0.11111,-0,-0,0.66667
0.36552,0.88209,3.2897,0.57314,53.49,317.11,-5.0278,1.6759,-0.83009,-6.7038,9.3747e-13,-0.41504,0,0,0.11111,-0,-0,0.66667
0.33073,0.072396,2.9766,-0.64141,-61.594,347.33,5.0912,-1.6971,-0.53763,6.7882,-3.5838e-13,-0.26882,0,0,0.11111,-0,-0,0.66667
0.93793,0.86542,8.4414,0.54812,6.9712,5.5853,-12.338,4.1128,-0.93514,-16.451,1.1407e-07,-0.46757,0,0,0.11111,-1.0527e-15,0,0.66667
0.37489,0.79099,3.374,0.43648,40.346,308.93,-3.9272,1.3091,-1.3265,-5.2363,1.4235e-12,-0.66325,0,0,0.11111,-0,-0,0.66667
0.6358,0.63864,5.7222,0.20796,13.269,118.03,-3.1734,1.0578,-1.8445,-4.2312,-3.797e-13,-0.92223,0,0,0.11111,-0,-0,0.66667
0.98534,0.328,8.8681,-0.258,-0.67806,0.65694,6.1014,-2.0338,-1.7656,8.1351,-2.5466e-08,-0.88281,0,0,0.11111,-2.1053e-15,0,0.66667
0.03674,0.65771,0.33066,0.23656,25.39,624.59,-0.20859,0.069529,-1.8003,-0.27812,1.7757e-07,-0.90013,0,0,0.11111,-1.3158e-16,0,0.66667
0.31463,0.0093527,2.8317,-0.73597,-71.601,361.69,5.5574,-1.8525,-0.075117,7.4099,3.0496e-12,-0.037558,0,0,0.11111,-1.0527e-15,0,0.66667
0.23124,0.72638,2.0811,0.33958,34.556,437.15,-1.8845,0.62818,-1.59,-2.5127,2.8919e-11,-0.79502,0,0,0.11111,-5.2633e-16,0,0.66667
0.92237,0.61519,8.3013,0.17279,2.6896,6.8067,-3.825,1.275,-1.8971,-5.1,2.7951e-08,-0.94855,0,0,0.11111,-0,-0,0.66667
0.55114,0.35017,4.9602,-0.22475,-16.78,172.37,2.9728,-0.99093,-1.8196,3.9637,9.3037e-13,-0.9098,0,0,0.11111,-0,-0,0.66667
0.053714,0.80622,0.48342,0.45934,49.298,607.95,-0.59214,0.19738,-1.2478,-0.78952,-9.1264e-08,-0.62388,0,0,0.11111,-6.5791e-17,0,0.66667
0.75525,0.52341,6.7972,0.035118,1.6089,56.6,-0.63655,0.21218,-1.994,-0.84874,5.9341e-13,-0.99699,0,0,0.11111,-0,-0,0.66667
0.68408,0.71792,6.1568,0.32688,18.628,91.113,-5.3667,1.7889,-1.6209,-7.1556,-1.2568e-13,-0.81047,0,0,0.11111,-1.3816e-15,0,0.66667
0.66217,0.34227,5.9596,-0.23659,-14.224,102.89,3.7599,-1.2533,-1.8,5.0132,-1.5277e-13,-0.9,0,0,0.11111,1.1842e-15,0,0.66667
0.95573,0.022927,8.6016,-0.71561,-6.6542,4.399,16.414,-5.4714,-0.17974,21.886,-1.587e-05,-0.089872,0,0,0.11111,-0,-0,0.66667
0.8746,0.64374,7.8714,0.21561,5.3585,16.407,-4.5258,1.5086,-1.8379,-6.0343,8.9208e-09,-0.91897,0,0,0.11111,-0,-0,0.66667
0.75325,0.43548,6.7793,-0.096785,-4.4665,57.487,1.7497,-0.58323,-1.9675,2.3329,2.1219e-11,-0.98373,0,0,0.11111,-1.579e-15,0,0.66667
0.22267,0.40135,2.004,-0.14798,-15.106,445.08,0.7908,-0.2636,-1.9218,1.0544,-1.2045e-11,-0.96091,0,0,0.11111,3.9475e-16,0,0.66667
0.13801,0.47717,1.2421,-0.034245,-3.6081,525.69,0.11343,-0.037811,-1.9963,0.15124,-2.8667e-10,-0.99817,0,0,0.11111,-0,-0,0.66667
0.22089,0.46397,1.988,-0.054052,-5.5214,446.72,0.28654,-0.095515,-1.9911,0.38206,5.6492e-12,-0.99557,0,0,0.11111,-0,-0,0.66667
0.20551,0.68147,1.8496,0.27221,28.019,461.25,-1.3426,0.44753,-1.7376,-1.7901,-3.1965e-11,-0.8688,0,0,0.11111,1.3158e-16,0,0.66667
0.56796,0.424,5.1117,-0.11399,-8.2748,160.84,1.5539,-0.51795,-1.9517,2.0718,4.8173e-13,-0.97583,0,0,0.11111,-0,-0,0.66667
0.66304,0.12591,5.9674,-0.56114,-33.816,103.1,8.9295,-2.9765,-0.87929,11.906,-1.5188e-13,-0.43964,0,0,0.11111,-0,-0,0.66667
0.52742,0.039493,4.7468,-0.69076,-53.789,189.92,8.7437,-2.9146,-0.30279,11.658,2.5135e-12,-0.1514,0,0,0.11111,-0,-0,0.66667
0.056349,0.29911,0.50714,-0.30134,-32.294,605.34,0.40753,-0.13584,-1.6747,0.54337,5.7116e-09,-0.83735,0,0,0.11111,6.5791e-17,0,0.66667
0.36316,0.039103,3.2685,-0.69135,-64.757,319.34,6.0257,-2.0086,-0.29999,8.0343,1.859e-12,-0.15,0,0,0.11111,-0,-0,0.66667
0.96773,0.87059,8.7095,0.55588,3.6663,2.6091,-12.911,4.3035,-0.90441,-17.214,-1.116e-06,-0.45221,0,0,0.11111,-5.2633e-16,6.6437e-17,0.66667
0.69551,0.87182,6.2596,0.55772,30.951,85.718,-9.3097,3.1032,-0.89234,-12.413,-7.8515e-13,-0.44617,0,0,0.11111,1.3158e-15,0,0.66667
0.36974,0.69169,3.3277,0.28754,26.666,313.15,-2.5515,0.85051,-1.7049,-3.402,3.1393e-12,-0.85244,0,0,0.11111,1.0527e-15,0,0.66667
0.67163,0.61842,6.0446,0.17763,10.433,97.609,-2.8632,0.95439,-1.8918,-3.8176,-1.8181e-12,-0.9459,0,0,0.11111,-0,-0,0.66667
0.26511,0.76073,2.386,0.3911,39.104,405.88,-2.4884,0.82947,-1.4593,-3.3179,1.4e-11,-0.72965,0,0,0.11111,-5.2633e-16,0,0.66667
0.077478,0.81861,0.6973,0.47791,51.139,584.68,-0.88865,0.29622,-1.1913,-1.1849,-8.2749e-08,-0.59567,0,0,0.11111,-0,-0,0.66667
0.52807,0.090709,4.7526,-0.61394,-47.697,189.24,7.7808,-2.5936,-0.66051,10.374,5.0626e-13,-0.33025,0,0,0.11111,1.3158e-15,0,0.66667
0.28977,0.06578,2.6079,-0.65133,-64.344,383.77,4.5296,-1.5099,-0.48998,6.0395,7.4603e-12,-0.24499,0,0,0.11111,-0,-0,0.66667
0.48165,0.58499,4.3349,0.12748,10.502,222.68,-1.4736,0.49122,-1.9426,-1.9649,1.8241e-13,-0.97129,0,0,0.11111,-5.2633e-16,0,0.66667
0.90199,0.6359,8.118,0.20385,3.9937,10.431,-4.4129,1.471,-1.851,-5.8838,2.4417e-08,-0.9255,0,0,0.11111,-0,-0,0.66667
0.65174,0.1193,5.8657,-0.57105,-35.337,109.49,8.9322,-2.9774,-0.83964,11.91,2.3386e-12,-0.41982,0,0,0.11111,-1.0527e-15,0,0.66667
0.72332,0.28612,6.5099,-0.32082,-16.368,71.372,5.5694,-1.8565,-1.6332,7.4258,1.0739e-11,-0.81661,0,0,0.11111,-0,-0,0.66667
0.10259,0.07752,0.92328,-0.63372,-67.616,560.24,1.5603,-0.52009,-0.56943,2.0804,-1.6472e-07,-0.28472,0,0,0.11111,-1.3158e-16,0,0.66667
0.47966,0.16321,4.3169,-0.50519,-41.847,224.65,5.8157,-1.9386,-1.0913,7.7542,-2.732e-12,-0.54567,0,0,0.11111,-0,-0,0.66667
0.40434,0.72655,3.6391,0.33982,30.543,284.18,-3.2977,1.0992,-1.5908,-4.3969,8.8929e-13,-0.79542,0,0,0.11111,-0,-0,0.66667
0.64686,0.2863,5.8217,-0.32055,-19.981,111.72,4.9763,-1.6588,-1.633,6.6351,-6.1995e-13,-0.81648,0,0,0.11111,-0,-0,0.66667
0.28774,0.79918,2.5896,0.44878,44.287,385.35,-3.0991,1.033,-1.2814,-4.1321,6.5183e-12,-0.64069,0,0,0.11111,-0,-0,0.66667
0.38306,0.18867,3.4476,-0.46699,-42.867,302.07,4.2933,-1.4311,-1.2233,5.7244,3.8178e-12,-0.61165,0,0,0.11111,-1.0527e-15,0,0.66667
0.98102,0.27259,8.8292,-0.34111,-1.2276,1.0467,8.0312,-2.6771,-1.586,10.708,4.6337e-07,-0.793,0,0,0.11111,1.0527e-15,0,0.66667
0.11481,0.20952,1.0333,-0.43572,-46.269,548.27,1.2006,-0.4002,-1.3231,1.6008,1.2583e-08,-0.66156,0,0,0.11111,-0,-0,0.66667
0.19991,0.41875,1.7992,-0.12187,-12.567,466.49,0.58471,-0.1949,-1.9468,0.77962,4.1898e-11,-0.97339,0,0,0.11111,-0,-0,0.66667
0.23905,0.42839,2.1514,-0.10741,-10.876,429.79,0.61622,-0.20541,-1.9576,0.82162,-1.5237e-11,-0.97879,0,0,0.11111,2.6316e-16,0,0.66667
0.69665,0.5648,6.2699,0.097198,5.347,84.292,-1.6251,0.54171,-1.9651,-2.1668,-3.5195e-12,-0.98254,0,0,0.11111,2.1053e-15,0,0.66667
0.71369,0.93119,6.4232,0.64679,34.177,76.92,-11.079,3.6929,-0.51123,-14.771,9.7078e-13,-0.25562,0,0,0.11111,-5.2633e-16,0,0.66667
0.78475,0.092771,7.0628,-0.61084,-25.223,45.718,11.505,-3.8349,-0.67405,15.34,9.6135e-10,-0.33703,0,0,0.11111,1.1184e-15,0,0.66667
0.38104,0.80416,3.4294,0.45624,41.951,303.76,-4.1723,1.3908,-1.2579,-5.5631,1.3589e-12,-0.62893,0,0,0.11111,-0,-0,0.66667
0.8524,0.41338,7.6716,-0.12993,-3.7631,22.072,2.6581,-0.88602,-1.9378,3.5441,-2.3207e-09,-0.9689,0,0,0.11111,-0,-0,0.66667
0.69735,0.60291,6.2761,0.15437,8.4784,83.977,-2.5836,0.86121,-1.9132,-3.4448,-2.1505e-12,-0.95662,0,0,0.11111,-0,-0,0.66667
0.71326,0.81707,6.4193,0.47561,25.068,76.58,-8.1415,2.7138,-1.1944,-10.855,-6.5015e-12,-0.5972,0,0,0.11111,-0,-0,0.66667
0.82199,0.10694,7.3979,-0.58959,-20.521,32.386,11.631,-3.8771,-0.76161,15.508,1.436e-09,-0.3808,0,0,0.11111,-0,-0,0.66667
0.62892,0.28476,5.6603,-0.32287,-20.924,122.28,4.8734,-1.6245,-1.6293,6.4978,-1.7724e-12,-0.81463,0,0,0.11111,2.1053e-15,0,0.66667
0.42223,0.39104,3.8,-0.16344,-14.414,269.39,1.6562,-0.55206,-1.9083,2.2082,-2.639e-13,-0.95413,0,0,0.11111,-0,-0,0.66667
0.030799,0.44358,0.27719,-0.084627,-9.0823,630.43,0.062554,-0.020851,-1.9783,0.083405,-1.7024e-07,-0.98913,0,0,0.11111,-0,-0,0.66667
0.59546,0.31477,5.3591,-0.27785,-19.228,142.96,3.9707,-1.3236,-1.728,5.2943,8.0114e-13,-0.86401,0,0,0.11111,-0,-0,0.66667
0.56376,0.1086,5.0739,-0.5871,-43.121,164.42,7.9436,-2.6479,-0.77633,10.591,5.0022e-12,-0.38816,0,0,0.11111,-1.0527e-15,0,0.66667
0.60081,0.042332,5.4073,-0.6865,-47.314,140.5,9.899,-3.2997,-0.32176,13.199,-6.4926e-13,-0.16088,0,0,0.11111,-0,-0,0.66667
0.32285,0.21016,2.9057,-0.43476,-41.892,353.97,3.3688,-1.1229,-1.3262,4.4917,-1.3567e-13,-0.6631,0,0,0.11111,-5.2633e-16,0,0.66667
0.55488,0.28243,4.9939,-0.32636,-24.24,169.92,4.3462,-1.4487,-1.62,5.7949,3.3338e-12,-0.81,0,0,0.11111,-2.1053e-15,0,0.66667
0.17166,0.64815,1.5449,0.22223,23.175,493.38,-0.91551,0.30517,-1.8283,-1.2207,-7.3483e-10,-0.91413,0,0,0.11111,2.6316e-16,0,0.66667
0.64986,0.42536,5.8487,-0.11196,-6.9213,109.75,1.7462,-0.58207,-1.953,2.3283,6.0751e-13,-0.97648,0,0,0.11111,-1.0527e-15,0,0.66667
0.071673,0.80958,0.64506,0.46437,49.727,590.35,-0.79879,0.26626,-1.2318,-1.0651,-1.3391e-07,-0.61592,0,0,0.11111,-1.7615e-16,0,0.66667
0.87508,0.94955,7.8757,0.67433,16.984,17.722,-14.162,4.7207,-0.38699,-18.883,5.7648e-08,-0.1935,0,0,0.11111,-0,-0,0.66667
0.21614,0.28575,1.9452,-0.32137,-32.933,451.27,1.667,-0.55568,-1.6338,2.2227,-2.0002e-11,-0.8169,0,0,0.11111,-0,-0,0.66667
0.29384,0.91009,2.6446,0.61514,60.581,380.05,-4.3381,1.446,-0.65527,-5.7842,-3.0913e-12,-0.32764,0,0,0.11111,-0,-0,0.66667
0.88474,0.87537,7.9626,0.56306,13.067,15.009,-11.956,3.9853,-0.87201,-15.941,1.3899e-08,-0.43601,0,0,0.11111,-0,-0,0.66667
0.88359,0.66685,7.9523,0.25028,5.797,14.366,-5.3074,1.7691,-1.7748,-7.0766,1.4019e-08,-0.88738,0,0,0.11111,-0,-0,0.66667
0.83627,0.8254,7.5264,0.4881,15.685,27.52,-9.7964,3.2655,-1.1502,-13.062,9.916e-10,-0.57511,0,0,0.11111,-0,-0,0.66667
0.32694,0.67756,2.9424,0.26634,25.554,350.21,-2.0898,0.6966,-1.75,-2.7864,8.0758e-13,-0.87499,0,0,0.11111,5.2633e-16,0,0.66667
0.90234,0.30937,8.1211,-0.28594,-5.5944,10.508,6.1924,-2.0641,-1.7093,8.2565,-3.1023e-08,-0.85463,0,0,0.11111,2.6715e-16,0,0.66667
0.7718,0.9036,6.9462,0.6054,26.313,50.807,-11.214,3.738,-0.69556,-14.952,3.2812e-10,-0.34778,0,0,0.11111,2.6316e-16,0,0.66667
0.65808,0.3206,5.9227,-0.2691,-16.34,105.23,4.2502,-1.4167,-1.744,5.667,2.256e-13,-0.87201,0,0,0.11111,-0,-0,0.66667
0.8998,0.67711,8.0982,0.26566,5.3261,10.964,-5.7371,1.9124,-1.7467,-7.6494,2.6957e-08,-0.87334,0,0,0.11111,-1.0527e-15,0,0.66667
0.78313,0.19468,7.0482,-0.45798,-18.959,45.832,8.6078,-2.8693,-1.2558,11.477,-4.8544e-11,-0.62789,0,0,0.11111,-0,-0,0.66667
0.42475,0.25533,3.8227,-0.367,-32.322,267.53,3.7412,-1.2471,-1.5217,4.9882,3.2094e-12,-0.76086,0,0,0.11111,-1.0527e-15,0,0.66667
0.32426,0.30159,2.9183,-0.29762,-28.617,352.6,2.3161,-0.77203,-1.6841,3.0881,-1.438e-12,-0.84206,0,0,0.11111,-0,-0,0.66667
0.39388,0.39443,3.5449,-0.15835,-14.36,292.72,1.4969,-0.49897,-1.9104,1.9959,6.2417e-13,-0.95521,0,0,0.11111,-0,-0,0.66667
0.061412,0.24962,0.55271,-0.37557,-40.245,600.38,0.55355,-0.18452,-1.5022,0.73807,8.1904e-08,-0.75111,0,0,0.11111,-8.2239e-18,0,0.66667
0.36343,0.10731,3.2709,-0.58904,-55.082,318.92,5.1378,-1.7126,-0.76513,6.8504,1.8701e-12,-0.38257,0,0,0.11111,-0,-0,0.66667
0.35304,0.7713,3.1774,0.40695,38.305,327.58,-3.4481,1.1494,-1.4089,-4.5974,-1.1395e-12,-0.70444,0,0,0.11111,-0,-0,0.66667
0.86562,0.6549,7.7906,0.23236,6.1685,18.665,-4.8272,1.6091,-1.807,-6.4363,5.6728e-09,-0.90348,0,0,0.11111,1.4474e-15,0,0.66667
0.8887,0.57654,7.9983,0.11482,2.5413,13.06,-2.4489,0.8163,-1.9541,-3.2652,9.3267e-09,-0.97706,0,0,0.11111,-0,-0,0.66667
0.96305,0.81396,8.6675,0.47094,3.5226,2.6361,-10.885,3.6283,-1.2105,-14.513,1.6305e-07,-0.60527,0,0,0.11111,-4.2106e-15,0,0.66667
0.3282,0.027373,2.9538,-0.70894,-68.274,349.67,5.5842,-1.8614,-0.21766,7.4456,-1.3576e-12,-0.10883,0,0,0.11111,-0,-0,0.66667
0.69332,0.95508,6.2399,0.68263,38.217,87.276,-11.359,3.7862,-0.34087,-15.145,-7.0699e-13,-0.17044,0,0,0.11111,-0,-0,0.66667
0.63307,0.5994,5.6976,0.1491,9.5657,119.6,-2.2654,0.75512,-1.9189,-3.0205,3.1242e-13,-0.95945,0,0,0.11111,-0,-0,0.66667
0.24244,0.79486,2.182,0.4423,44.792,426.81,-2.5736,0.85786,-1.3017,-3.4314,2.064e-11,-0.65085,0,0,0.11111,-0,-0,0.66667
0.86999,0.89016,7.8299,0.58524,15.233,18.567,-12.22,4.0732,-0.7803,-16.293,1.0513e-08,-0.39015,0,0,0.11111,-0,-0,0.66667
0.2141,0.29111,1.9269,-0.31333,-32.138,453.18,1.61,-0.53668,-1.6495,2.1467,-1.2805e-11,-0.82474,0,0,0.11111,-0,-0,0.66667
0.74771,0.97281,6.7294,0.70922,33.729,61.384,-12.727,4.2423,-0.21306,-16.969,1.1343e-11,-0.10653,0,0,0.11111,-0,-5.9519e-17,0.66667
0.14466,0.96519,1.302,0.69778,73.728,519.55,-2.4226,0.80755,-0.26861,-3.2302,-2.6652e-09,-0.1343,0,0,0.11111,2.6316e-16,0,0.66667
0.10682,0.12218,0.96138,-0.56673,-60.366,556.09,1.4529,-0.4843,-0.85939,1.9372,-2.0378e-08,-0.4297,0,0,0.11111,-6.5791e-17,1.0703e-18,0.66667
0.72032,0.95738,6.4829,0.68608,35.585,73.864,-11.861,3.9536,-0.32796,-15.814,1.7319e-13,-0.16398,0,0,0.11111,-0,-0,0.66667
0.52632,0.94254,4.7369,0.66382,51.749,190.62,-8.3851,2.795,-0.43215,-11.18,-9.2815e-13,-0.21608,0,0,0.11111,1.0527e-15,0,0.66667
0.44292,0.27849,3.9862,-0.33226,-28.689,252.94,3.5319,-1.1773,-1.6065,4.7093,2.6756e-13,-0.80324,0,0,0.11111,-2.6316e-16,0,0.66667
0.77818,0.95955,7.0036,0.68933,29.302,48.597,-12.874,4.2914,-0.31044,-17.166,2.7625e-11,-0.15522,0,0,0.11111,-0,-0,0.66667
0.35874,0.71202,3.2287,0.31804,29.775,322.58,-2.7383,0.91275,-1.6437,-3.651,7.3275e-13,-0.82186,0,0,0.11111,2.1242e-16,0,0.66667
0.85335,0.49528,7.6801,-0.007086,-0.20386,21.752,0.14512,-0.048375,-1.9982,0.1935,1.4158e-09,-0.99912,0,0,0.11111,3.158e-15,0,0.66667
0.96217,0.57067,8.6596,0.10601,0.78919,1.8989,-2.448,0.81601,-1.9578,-3.264,5.0356e-08,-0.97891,0,0,0.11111,-0,-0,0.66667
0.97913,0.85427,8.8121,0.53141,2.2167,1.7928,-12.488,4.1625,-0.99405,-16.65,-3.3143e-06,-0.49702,0,0,0.11111,2.1053e-15,0,0.66667
0.27763,0.48881,2.4987,-0.016783,-1.663,394.29,0.11182,-0.037275,-1.9983,0.1491,5.1868e-13,-0.99913,0,0,0.11111,7.8949e-16,0,0.66667
0.41501,0.88573,3.7351,0.5786,51.59,275.79,-5.763,1.921,-0.80717,-7.684,-7.7138e-13,-0.40359,0,0,0.11111,-0,-0,0.66667
0.72501,0.30149,6.5251,-0.29776,-15.108,70.528,5.1812,-1.7271,-1.6824,6.9082,1.0357e-11,-0.8412,0,0,0.11111,1.0527e-15,0,0.66667
0.89487,0.35344,8.0538,-0.21984,-4.6127,11.881,4.7215,-1.5738,-1.827,6.2953,-2.0221e-08,-0.91351,0,0,0.11111,2.1053e-15,0,0.66667
0.71131,0.15703,6.4018,-0.51445,-27.29,77.646,8.7825,-2.9275,-1.0578,11.71,-1.1227e-12,-0.52888,0,0,0.11111,-0,-0,0.66667
0.75813,0.89858,6.8232,0.59787,27.33,56.445,-10.878,3.6261,-0.72676,-14.504,-8.0597e-11,-0.36338,0,0,0.11111,-5.2633e-16,0,0.66667
0.8834,0.36374,7.9506,-0.20439,-4.737,14.335,4.3334,-1.4445,-1.8489,5.7779,-1.1066e-08,-0.92444,0,0,0.11111,-1.0527e-15,0,0.66667
0.36695,0.32603,3.3025,-0.26096,-24.255,315.51,2.2982,-0.76606,-1.7551,3.0643,5.8309e-13,-0.87757,0,0,0.11111,-5.2633e-16,0,0.66667
0.54254,0.69403,4.8829,0.29104,22.036,178.41,-3.7896,1.2632,-1.698,-5.0529,-3.173e-13,-0.84898,0,0,0.11111,-0,-0,0.66667
0.53477,0.56825,4.8129,0.10238,7.8364,183.71,-1.314,0.438,-1.9626,-1.752,2.206e-13,-0.98132,0,0,0.11111,-0,-0,0.66667
0.64758,0.45064,5.8282,-0.074034,-4.5998,111.05,1.1506,-0.38355,-1.9779,1.5342,-1.1204e-12,-0.98893,0,0,0.11111,1.0527e-15,0,0.66667
0.89518,0.59869,8.0567,0.14804,3.093,11.72,-3.1806,1.0602,-1.9213,-4.2407,7.966e-09,-0.96063,0,0,0.11111,-0,-0,0.66667
0.60083,0.0087298,5.4074,-0.73691,-50.841,140.66,10.626,-3.542,-0.066853,14.168,3.5172e-13,-0.033426,0,0,0.11111,-0,-0,0.66667
0.96994,0.18092,8.7294,-0.47863,-2.8956,2.1416,11.142,-3.7139,-1.188,14.856,1.3561e-06,-0.59401,0,0,0.11111,-5.2633e-16,0,0.66667
0.73214,0.71999,6.5892,0.32998,16.38,67.249,-5.7982,1.9327,-1.6149,-7.731,-1.4248e-11,-0.80744,0,0,0.11111,-0,-0,0.66667
0.41529,0.77649,3.7376,0.41473,36.898,275.28,-4.1336,1.3779,-1.3867,-5.5115,-8.3444e-13,-0.69333,0,0,0.11111,5.0907e-16,0,0.66667
0.58114,0.78705,5.2302,0.43058,30.629,152.49,-6.0054,2.0018,-1.3412,-8.0072,-3.6415e-14,-0.6706,0,0,0.11111,-0,-0,0.66667
0.92232,0.76645,8.3009,0.39967,6.2786,7.2929,-8.847,2.949,-1.4351,-11.796,8.3872e-08,-0.71757,0,0,0.11111,-1.0527e-15,0,0.66667
0.6185,0.055975,5.5665,-0.66604,-44.333,129.44,9.8867,-3.2956,-0.42073,13.182,2.3803e-13,-0.21037,0,0,0.11111,5.2633e-16,0,0.66667
0.70993,0.86622,6.3894,0.54933,29.278,78.433,-9.3596,3.1199,-0.92473,-12.48,-7.5824e-12,-0.46237,0,0,0.11111,-1.0527e-15,0,0.66667
0.66129,0.83645,5.9516,0.50468,30.509,103.91,-8.0098,2.6699,-1.0929,-10.68,-4.7251e-13,-0.54647,0,0,0.11111,-5.2633e-16,0,0.66667
0.33615,0.16339,3.0253,-0.50492,-48.208,342.38,4.0734,-1.3578,-1.0913,5.4312,-2.0686e-12,-0.54564,0,0,0.11111,-0,-0,0.66667
0.20333,0.68331,1.83,0.27496,28.329,463.3,-1.3418,0.44728,-1.7356,-1.7891,-5.202e-11,-0.86779,0,0,0.11111,6.5791e-17,0,0.66667
0.40781,0.60288,3.6703,0.15432,13.808,281.17,-1.5104,0.50346,-1.9171,-2.0139,-6.6336e-13,-0.95854,0,0,0.11111,-0,-0,0.66667
0.15077,0.59032,1.3569,0.13548,14.222,513.4,-0.49022,0.16341,-1.9336,-0.65362,-2.5959e-09,-0.9668,0,0,0.11111,-2.1154e-17,0,0.66667
0.82633,0.26684,7.437,-0.34973,-11.82,30.237,6.9359,-2.312,-1.5663,9.2479,-6.5657e-10,-0.78313,0,0,0.11111,-1.0527e-15,0,0.66667
0.71046,0.78904,6.3941,0.43356,23.021,77.847,-7.3927,2.4642,-1.3293,-9.857,-4.8166e-12,-0.66466,0,0,0.11111,-0,-0,0.66667
0.40106,0.61814,3.6095,0.17722,15.963,286.76,-1.7058,0.56859,-1.8868,-2.2744,-1.653e-12,-0.94342,0,0,0.11111,-2.8885e-16,0,0.66667
0.17138,0.049424,1.5424,-0.67586,-70.775,493.92,2.78,-0.92665,-0.37892,3.7066,-6.7644e-09,-0.18946,0,0,0.11111,2.6316e-16,1.2808e-16,0.66667
0.8758,0.63445,7.8822,0.20168,4.9653,16.099,-4.2391,1.413,-1.8582,-5.6521,8.2061e-09,-0.9291,0,0,0.11111,-0,-0,0.66667
0.63906,0.89305,5.7516,0.58958,37.538,116.88,-9.0427,3.0142,-0.76557,-12.057,-6.4571e-13,-0.38278,0,0,0.11111,-0,1.5187e-16,0.66667
0.9966,0.21687,8.9694,-0.4247,-0.14279,0.77359,10.158,-3.386,-1.3594,13.544,-1.4511e-06,-0.67968,0,0,0.11111,4.1069e-16,0,0.66667
0.1011,0.98751,0.90988,0.73126,78.148,561.74,-1.7743,0.59143,-0.09603,-2.3657,-1.0721e-07,-0.048015,0,0,0.11111,-1.3158e-16,0,0.66667
0.24485,0.66684,2.2036,0.25026,25.278,424.45,-1.4706,0.4902,-1.7755,-1.9608,2.2092e-11,-0.88775,0,0,0.11111,-0,-0,0.66667
0.083655,0.23528,0.75289,-0.39709,-42.418,578.61,0.79724,-0.26575,-1.4372,1.063,4.5421e-08,-0.71859,0,0,0.11111,1.3158e-16,0,0.66667
0.74474,0.00090398,6.7027,-0.74864,-36.007,62.868,13.381,-4.4604,-0.00668,17.841,9.9103e-12,-0.00334,0,0,0.11111,-0,-0,0.66667
0.15958,0.2859,1.4362,-0.32115,-33.648,504.99,1.23,-0.40999,-1.6335,1.6399,1.7124e-09,-0.81677,0,0,0.11111,-0,-0,0.66667
0.88166,0.70227,7.9349,0.30341,7.1487,14.909,-6.4201,2.14,-1.6701,-8.5601,1.2954e-08,-0.83503,0,0,0.11111,-0,-0,0.66667
0.49148,0.99858,4.4233,0.74787,61.258,216.33,-8.8216,2.9405,-0.010023,-11.762,1.7852e-13,-0.0050117,0,0,0.11111,-1.9737e-15,0,0.66667
0.52617,0.41923,4.7355,-0.12116,-9.3935,189.83,1.53,-0.50999,-1.9459,2.04,3.1103e-12,-0.97295,0,0,0.11111,-0,-0,0.66667
0.04252,0.78422,0.38268,0.42633,45.792,618.93,-0.43506,0.14502,-1.3534,-0.58008,-2.172e-07,-0.6767,0,0,0.11111,-1.3158e-16,0,0.66667
0.61405,0.85366,5.5265,0.53049,35.535,131.77,-7.818,2.606,-0.99792,-10.424,-3.4062e-13,-0.49896,0,0,0.11111,-0,-0,0.66667
0.22761,0.71451,2.0485,0.32177,32.797,440.52,-1.7577,0.58591,-1.6301,-2.3436,2.3713e-11,-0.81507,0,0,0.11111,-0,-0,0.66667
0.2135,0.71716,1.9215,0.32574,33.422,453.75,-1.6691,0.55638,-1.622,-2.2255,2.3304e-11,-0.81102,0,0,0.11111,-9.8686e-17,0,0.66667
0.89532,0.2267,8.0579,-0.40995,-8.6166,12.216,8.8089,-2.9363,-1.4011,11.745,-3.107e-08,-0.70057,0,0,0.11111,-2.1053e-15,0,0.66667
0.88801,0.79504,7.9921,0.44257,9.9376,13.858,-9.4321,3.144,-1.3038,-12.576,1.6582e-08,-0.65189,0,0,0.11111,-0,-0,0.66667
0.0052652,0.64798,0.047387,0.22198,23.855,655.57,-0.02805,0.0093497,-1.8231,-0.0374,-3.3254e-07,-0.91156,0,0,0.11111,-4.1119e-18,0,0.66667
0.8323,0.28814,7.4907,-0.31778,-10.394,28.281,6.3478,-2.1159,-1.6401,8.4638,-1.044e-09,-0.82006,0,0,0.11111,-0,-0,0.66667
0.9023,0.90172,8.1207,0.60259,11.971,11.532,-13.049,4.3497,-0.70865,-17.399,4.7031e-08,-0.35432,0,0,0.11111,-1.579e-15,0,0.66667
0.51195,0.85414,4.6075,0.53122,42.18,200.66,-6.5269,2.1756,-0.99592,-8.7026,-5.7065e-13,-0.49796,0,0,0.11111,-0,-0,0.66667
0.65617,0.66839,5.9056,0.25258,15.403,106.29,-3.9777,1.3259,-1.7769,-5.3036,7.4252e-13,-0.88847,0,0,0.11111,-1.0527e-15,0,0.66667
0.76779,0.41411,6.9101,-0.12883,-5.6388,51.368,2.374,-0.79133,-1.9421,3.1653,2.3852e-11,-0.97105,0,0,0.11111,-0,-0,0.66667
0.68544,0.83276,6.169,0.49915,28.418,90.787,-8.2113,2.7371,-1.1151,-10.948,-2.454e-12,-0.55755,0,0,0.11111,1.0527e-15,0,0.66667
0.45912,0.97478,4.132,0.71217,60.661,240.92,-7.8473,2.6158,-0.1949,-10.463,-4.6185e-14,-0.09745,0,0,0.11111,-0,-0,0.66667
0.57345,0.11401,5.1611,-0.57899,-41.831,157.91,7.9685,-2.6562,-0.80653,10.625,3.0189e-12,-0.40327,0,0,0.11111,-0,-0,0.66667
0.57406,0.77051,5.1665,0.40576,29.214,157.12,-5.5904,1.8635,-1.4135,-7.4538,-4.5475e-13,-0.70676,0,0,0.11111,-0,-0,0.66667
0.84213,0.47502,7.5792,-0.037463,-1.1548,24.968,0.75716,-0.25239,-1.997,1.0096,-8.161e-10,-0.9985,0,0,0.11111,-0,-0,0.66667
0.24044,0.97903,2.164,0.71854,73.082,428.97,-4.1464,1.3821,-0.16201,-5.5286,-1.6954e-11,-0.081004,0,0,0.11111,-0,-0,0.66667
0.75723,0.56479,6.815,0.097187,4.422,55.776,-1.7662,0.58874,-1.9649,-2.355,-1.9892e-11,-0.98247,0,0,0.11111,-0,-0,0.66667
0.81234,0.75023,7.311,0.37534,13.623,34.94,-7.3177,2.4392,-1.5043,-9.7569,2.4293e-10,-0.75215,0,0,0.11111,2.1053e-15,0,0.66667
0.79703,0.80607,7.1733,0.45911,17.918,40.593,-8.7822,2.9274,-1.2547,-11.71,-9.6937e-11,-0.62735,0,0,0.11111,5.2633e-16,0,0.66667
0.80771,0.26664,7.2694,-0.35005,-12.982,36.485,6.7856,-2.2619,-1.5626,9.0475,-1.408e-10,-0.78128,0,0,0.11111,-9.5652e-16,0,0.66667
0.82928,0.93794,7.4635,0.65691,22.067,30.325,-13.074,4.3581,-0.4693,-17.432,-1.3322e-08,-0.23465,0,0,0.11111,-0,-0,0.66667
0.41752,0.65419,3.7576,0.23129,20.503,273.27,-2.3176,0.77253,-1.8096,-3.0901,-5.9353e-13,-0.9048,0,0,0.11111,1.3158e-16,0,0.66667
0.61789,0.76972,5.561,0.40459,26.846,129.12,-5.9997,1.9999,-1.4154,-7.9997,-7.0211e-13,-0.7077,0,0,0.11111,-0,-0,0.66667
0.75525,0.51887,6.7972,0.028308,1.2969,56.6,-0.51311,0.17104,-1.9952,-0.68414,-7.3974e-13,-0.99758,0,0,0.11111,-2.1053e-15,0,0.66667
0.76977,0.0099375,6.9279,-0.73509,-32.331,52.169,13.58,-4.5268,-0.077626,18.107,4.8701e-11,-0.038813,0,0,0.11111,-0,-0,0.66667
0.9586,0.017567,8.6274,-0.72365,-6.3073,4.1783,16.649,-5.5496,-0.13593,22.198,-1.1919e-05,-0.067965,0,0,0.11111,-2.2704e-15,0,0.66667
0.97508,0.037552,8.7757,-0.69367,-3.6295,2.7933,16.233,-5.411,-0.28722,21.644,4.562e-05,-0.14361,0,0,0.11111,-0,-0,0.66667
0.56473,0.92279,5.0826,0.63418,46.543,163.89,-8.5955,2.8652,-0.57059,-11.461,-6.8834e-13,-0.28529,0,0,0.11111,-0,-0,0.66667
0.46574,0.80396,4.1917,0.45595,38.393,235.23,-5.0964,1.6988,-1.2609,-6.7953,-2.0561e-13,-0.63046,0,0,0.11111,-0,-0,0.66667
0.83553,0.050552,7.5197,-0.67417,-21.906,28.469,13.519,-4.5063,-0.38132,18.025,8.0231e-09,-0.19066,0,0,0.11111,-1.0527e-15,0,0.66667
0.21996,0.088681,1.9796,-0.61698,-63.293,447.93,3.2571,-1.0857,-0.64926,4.3428,-3.3556e-10,-0.32463,0,0,0.11111,3.9475e-16,0,0.66667
0.7664,0.7811,6.8976,0.42165,18.623,52.435,-7.7557,2.5852,-1.3721,-10.341,-5.5991e-12,-0.68606,0,0,0.11111,1.2829e-15,0,0.66667
0.19201,0.95311,1.7281,0.67967,70.627,474.31,-3.1321,1.044,-0.35594,-4.1761,1.4516e-10,-0.17797,0,0,0.11111,-0,-0,0.66667
0.59163,0.43464,5.3246,-0.098046,-6.8263,145.26,1.3922,-0.46405,-1.9677,1.8562,6.1195e-13,-0.98385,0,0,0.11111,-3.9475e-16,0,0.66667
0.60683,0.4064,5.4615,-0.1404,-9.5006,135.62,2.0448,-0.6816,-1.9318,2.7264,3.5039e-13,-0.96591,0,0,0.11111,-0,-0,0.66667
0.44184,0.77908,3.9766,0.41861,36.216,253.9,-4.4391,1.4797,-1.3767,-5.9188,8.1712e-13,-0.68836,0,0,0.11111,-2.6316e-16,0,0.66667
0.86455,0.66916,7.781,0.25373,6.7897,18.977,-5.2648,1.7549,-1.7691,-7.0197,5.7348e-09,-0.88456,0,0,0.11111,2.1053e-15,0,0.66667
0.54348,0.82878,4.8913,0.49316,37.366,178.1,-6.4326,2.1442,-1.1346,-8.5768,-1.2101e-12,-0.5673,0,0,0.11111,-0,-0,0.66667
0.49273,0.55387,4.4346,0.080802,6.5613,214.31,-0.95552,0.31851,-1.9744,-1.274,-4.3764e-12,-0.9872,0,0,0.11111,-0,-0,0.66667
0.41813,0.22147,3.7631,-0.41779,-37.065,272.98,4.1925,-1.3975,-1.3796,5.59,6.1195e-13,-0.68978,0,0,0.11111,-0,-0,0.66667
0.062225,0.86446,0.56003,0.54669,58.664,599.63,-0.81643,0.27214,-0.94091,-1.0886,-1.2102e-07,-0.47045,0,0,0.11111,-6.5791e-17,1.3263e-16,0.66667
0.36215,0.97278,3.2593,0.70917,66.501,320.24,-6.1638,2.0546,-0.21275,-8.2184,-2.6468e-13,-0.10638,0,0,0.11111,-0,-0,0.66667
0.092815,0.84327,0.83534,0.51491,54.972,569.71,-1.147,0.38233,-1.0613,-1.5293,-2.7848e-09,-0.53064,0,0,0.11111,-1.6037e-16,0,0.66667
0.56564,0.81434,5.0907,0.47151,34.464,162.88,-6.4009,2.1336,-1.2104,-8.5346,1.438e-12,-0.60522,0,0,0.11111,-0,-0,0.66667
0.6405,0.12523,5.7645,-0.56215,-35.662,115.96,8.6415,-2.8805,-0.88166,11.522,2.1343e-12,-0.44083,0,0,0.11111,-2.1053e-15,0,0.66667
0.76778,0.55578,6.91,0.083668,3.6612,51.34,-1.5417,0.51391,-1.9764,-2.0556,5.087e-12,-0.98818,0,0,0.11111,-0,-0,0.66667
0.63254,0.38361,5.6928,-0.17458,-11.215,119.94,2.6503,-0.88344,-1.8892,3.5338,4.5786e-13,-0.94461,0,0,0.11111,-0,-0,0.66667
0.18706,0.16559,1.6835,-0.50162,-52.117,478.85,2.252,-0.75066,-1.1087,3.0026,-7.5826e-11,-0.55437,0,0,0.11111,-0,-0,0.66667
0.75024,0.28735,6.7522,-0.31897,-14.907,59.073,5.7434,-1.9145,-1.6423,7.6579,2.1851e-11,-0.82115,0,0,0.11111,2.1053e-15,0,0.66667
0.54886,0.83253,4.9397,0.49879,37.479,174.38,-6.5704,2.1901,-1.1164,-8.7606,-1.0885e-12,-0.55821,0,0,0.11111,5.2633e-16,0,0.66667
0.10217,0.51943,0.91953,0.029144,3.0978,560.48,-0.071465,0.023822,-1.9944,-0.095286,-1.021e-08,-0.99718,0,0,0.11111,-0,-0,0.66667
0.024827,0.7116,0.22344,0.3174,34.106,636.32,-0.18912,0.063041,-1.6398,-0.25216,5.584e-07,-0.81988,0,0,0.11111,-3.2895e-17,0,0.66667
0.29875,0.048527,2.6887,-0.67721,-66.538,375.75,4.8555,-1.6185,-0.37044,6.474,1.1622e-12,-0.18522,0,0,0.11111,-0,-0,0.66667
0.69002,0.60901,6.2101,0.16351,9.1603,87.775,-2.7078,0.90259,-1.9052,-3.6104,-1.3602e-12,-0.9526,0,0,0.11111,-1.0527e-15,0,0.66667
0.93279,0.52742,8.3951,0.041127,0.55309,5.1558,-0.92071,0.3069,-1.9932,-1.2276,-1.0889e-08,-0.99662,0,0,0.11111,-1.0527e-15,0,0.66667
0.9665,0.089648,8.6985,-0.61553,-4.2625,2.9708,14.278,-4.7592,-0.6544,19.037,7.8306e-07,-0.3272,0,0,0.11111,1.0527e-15,0,0.66667
0.76455,0.44707,6.8809,-0.079398,-3.5168,52.677,1.4569,-0.48563,-1.98,1.9425,3.1317e-12,-0.98999,0,0,0.11111,-0,-0,0.66667
0.29325,0.24457,2.6392,-0.38314,-37.655,380.32,2.6965,-0.89884,-1.4779,3.5954,-9.3785e-12,-0.73896,0,0,0.11111,8.3155e-16,0,0.66667
0.62207,0.93099,5.5986,0.64648,42.705,127.2,-9.6517,3.2172,-0.51439,-12.869,-7.3719e-13,-0.2572,0,0,0.11111,-5.2633e-16,0,0.66667
0.2311,0.31647,2.0799,-0.2753,-28.005,437.25,1.5269,-0.50896,-1.7309,2.0359,-2.447e-11,-0.86547,0,0,0.11111,-0,-0,0.66667
0.75069,0.24721,6.7562,-0.37919,-17.71,59.005,6.8317,-2.2772,-1.4926,9.1089,1.9663e-11,-0.74632,0,0,0.11111,-1.3158e-15,0,0.66667
0.16587,0.0021379,1.4928,-0.74679,-78.431,499.26,2.9728,-0.99095,-0.015925,3.9638,2.0475e-09,-0.0079623,0,0,0.11111,-1.0527e-15,0,0.66667
0.75647,0.56323,6.8082,0.094842,4.327,56.099,-1.7219,0.57396,-1.967,-2.2958,-2.28e-11,-0.9835,0,0,0.11111,2.1053e-15,0,0.66667
0.86859,0.77441,7.8173,0.41161,10.748,18.314,-8.5805,2.8602,-1.3956,-11.441,7.2788e-09,-0.69779,0,0,0.11111,5.1431e-16,0,0.66667
0.51951,0.49522,4.6756,-0.0071758,-0.56164,194.59,0.089469,-0.029823,-1.9995,0.11929,2.2609e-12,-0.99977,0,0,0.11111,2.6316e-16,0,0.66667
0.065635,0.96551,0.59071,0.69826,75.033,596.34,-1.0999,0.36664,-0.26709,-1.4666,6.7546e-07,-0.13355,0,0,0.11111,8.2239e-17,0,0.66667
0.44889,0.18768,4.04,-0.46848,-40.234,248.4,5.0472,-1.6824,-1.2199,6.7295,1.9531e-12,-0.60996,0,0,0.11111,-0,-0,0.66667
0.83783,0.79776,7.5405,0.44664,14.209,26.917,-8.981,2.9937,-1.2883,-11.975,7.4276e-10,-0.64417,0,0,0.11111,-0,-0,0.66667
0.17975,0.31887,1.6178,-0.27169,-28.257,485.67,1.1721,-0.3907,-1.7354,1.5628,4.4321e-10,-0.86769,0,0,0.11111,-0,-0,0.66667
0.038559,0.64731,0.34703,0.22097,23.712,622.8,-0.20449,0.068164,-1.824,-0.27266,1.4249e-07,-0.91198,0,0,0.11111,-0,-0,0.66667
0.73269,0.46514,6.5942,-0.052295,-2.5855,66.68,0.91959,-0.30653,-1.9926,1.2261,4.4758e-12,-0.99629,0,0,0.11111,1.0527e-15,0,0.66667
0.56304,0.50767,5.0674,0.011504,0.84182,164.13,-0.15545,0.051816,-2.0029,-0.20726,-1.0629e-12,-1.0015,0,0,0.11111,-0,-0,0.66667
0.042061,0.4233,0.37855,-0.11506,-12.339,619.36,0.11614,-0.038715,-1.9511,0.15486,2.8348e-08,-0.97557,0,0,0.11111,-6.5791e-17,0,0.66667
0.98489,0.79755,8.864,0.44633,1.278,1.1984,-10.55,3.5166,-1.2947,-14.067,-3.235e-07,-0.64735,0,0,0.11111,-0,-0,0.66667
0.56933,0.96942,5.124,0.70413,51.348,161.02,-9.6212,3.2071,-0.23608,-12.828,-5.2163e-12,-0.11804,0,0,0.11111,-0,-0,0.66667
0.58516,0.34209,5.2664,-0.23686,-16.697,149.57,3.3264,-1.1088,-1.7992,4.4352,1.9251e-13,-0.8996,0,0,0.11111,1.4474e-15,0,0.66667
0.78991,0.25661,7.1092,-0.36508,-14.664,42.998,6.9211,-2.307,-1.524,9.2281,-9.2681e-12,-0.76199,0,0,0.11111,-2.1053e-15,0,0.66667
0.90263,0.44197,8.1237,-0.087045,-1.6914,10.184,1.8857,-0.62856,-1.9731,2.5142,-9.2271e-09,-0.98653,0,0,0.11111,-0,-0,0.66667
0.060751,0.48691,0.54676,-0.019642,-2.102,601,0.028638,-0.0095463,-1.9999,0.038184,-3.4138e-07,-0.99994,0,0,0.11111,6.5791e-17,0,0.66667
0.34851,0.42516,3.1366,-0.11226,-10.588,331.28,0.93899,-0.313,-1.9535,1.252,2.1519e-12,-0.97675,0,0,0.11111,-5.2633e-16,0,0.66667
0.20009,0.85509,1.8008,0.53263,55.067,466.53,-2.5578,0.85261,-0.99112,-3.4104,6.7885e-11,-0.49556,0,0,0.11111,-5.2633e-16,0,0.66667
0.46515,0.11181,4.1864,-0.58229,-49.146,235.93,6.5005,-2.1668,-0.79364,8.6673,2.8373e-12,-0.39682,0,0,0.11111,-0,-0,0.66667
0.091468,0.023298,0.82321,-0.71505,-76.542,571.11,1.5697,-0.52324,-0.18299,2.0929,-1.2121e-06,-0.091495,0,0,0.11111,-0,9.9851e-17,0.66667
0.068086,0.34419,0.61277,-0.23372,-25.001,593.82,0.38191,-0.1273,-1.8052,0.50921,3.1648e-08,-0.90258,0,0,0.11111,-0,-0,0.66667
0.30089,0.64732,2.708,0.22098,21.587,373.33,-1.5958,0.53192,-1.8255,-2.1277,3.1326e-12,-0.91274,0,0,0.11111,-0,-0,0.66667
0.90435,0.165,8.1391,-0.50251,-9.7244,10.743,10.907,-3.6355,-1.1035,14.542,-3.0206e-08,-0.55175,0,0,0.11111,-0,-0,0.66667
0.97554,0.09895,8.7799,-0.60157,-3.014,2.3007,14.085,-4.6949,-0.71137,18.78,1.1157e-05,-0.35569,0,0,0.11111,-2.1053e-15,0,0.66667
0.76372,0.42414,6.8735,-0.11379,-5.0564,53.043,2.0857,-0.69522,-1.955,2.7809,1.22e-11,-0.9775,0,0,0.11111,1.0527e-15,0,0.66667
0.00074091,0.7009,0.0066682,0.30134,32.398,660.02,-0.0053582,0.0017855,-1.6798,-0.0071446,-8.2632e-07,-0.8399,0,0,0.11111,-1.028e-18,0,0.66667
0.73522,0.5078,6.6169,0.011694,0.57345,65.509,-0.20634,0.068781,-2.0024,-0.27513,2.0979e-12,-1.0012,0,0,0.11111,-0,-0,0.66667
0.021993,0.48901,0.19793,-0.016483,-1.7697,639.1,0.0087,-0.002901,-1.9966,0.0116,-1.513e-06,-0.99832,0,0,0.11111,3.9747e-17,0,0.66667
0.16857,0.88915,1.5171,0.58373,61.117,496.54,-2.3615,0.78717,-0.78792,-3.1487,-2.7634e-09,-0.39396,0,0,0.11111,-0,-0,0.66667
0.010514,0.5907,0.094626,0.13605,14.615,650.4,-0.03433,0.011443,-1.9333,-0.045774,-2.3701e-08,-0.96666,0,0,0.11111,-1.7447e-17,0,0.66667
0.14913,0.66125,1.3421,0.24188,25.416,515.01,-0.8657,0.28857,-1.7901,-1.1543,-3.0291e-09,-0.89503,0,0,0.11111,-0,-0,0.66667
0.68751,0.849,6.1875,0.52349,29.658,89.769,-8.6377,2.8792,-1.0302,-11.517,-3.32e-12,-0.51509,0,0,0.11111,-0,-0,0.66667
0.70202,0.66322,6.3182,0.24483,13.283,81.702,-4.125,1.375,-1.7895,-5.5,-4.7069e-12,-0.89474,0,0,0.11111,-0,-0,0.66667
0.37108,0.62406,3.3397,0.18608,17.228,311.94,-1.6572,0.55241,-1.8773,-2.2096,2.2415e-12,-0.93863,0,0,0.11111,-7.237e-16,0,0.66667
0.73119,0.38961,6.5807,-0.16559,-8.2306,67.449,2.9059,-0.96863,-1.9021,3.8745,1.002e-11,-0.95103,0,0,0.11111,-1.0527e-15,0,0.66667
0.8473,0.93495,7.6257,0.65242,19.783,24.899,-13.267,4.4224,-0.48695,-17.69,3.937e-08,-0.24347,0,0,0.11111,-2.6316e-16,0,0.66667
0.13036,0.34722,1.1732,-0.22917,-24.209,533.13,0.71698,-0.23899,-1.8122,0.95597,7.1981e-09,-0.90609,0,0,0.11111,-0,-0,0.66667
0.087407,0.31784,0.78667,-0.27324,-29.146,574.92,0.5732,-0.19106,-1.7327,0.76426,3.6681e-08,-0.86637,0,0,0.11111,2.6316e-16,0,0.66667
0.37192,0.38719,3.3473,-0.16922,-15.654,311.21,1.5105,-0.5035,-1.8979,2.014,1.0825e-13,-0.94896,0,0,0.11111,-0,-0,0.66667
0.40388,0.36851,3.635,-0.19723,-17.719,284.43,1.9118,-0.63728,-1.8627,2.5491,1.0373e-12,-0.93135,0,0,0.11111,-7.8949e-16,0,0.66667
0.2764,0.26887,2.4876,-0.3467,-34.424,395.54,2.2999,-0.76664,-1.5709,3.0665,-5.302e-12,-0.78544,0,0,0.11111,2.6316e-16,0,0.66667
0.75417,0.94955,6.7875,0.67432,31.33,58.434,-12.205,4.0684,-0.382,-16.274,3.5254e-11,-0.191,0,0,0.11111,-0,-0,0.66667
0.32179,0.38059,2.8961,-0.17911,-17.242,354.71,1.3832,-0.46108,-1.8841,1.8443,-8.4177e-13,-0.94205,0,0,0.11111,-0,-0,0.66667
0.80014,0.32556,7.2013,-0.26167,-10.033,39.005,5.0249,-1.675,-1.7561,6.6999,-7.274e-11,-0.87803,0,0,0.11111,-0,-0,0.66667
0.91131,0.010434,8.2018,-0.73435,-13.427,10.516,16.061,-5.3538,-0.08084,21.415,2.9072e-07,-0.04042,0,0,0.11111,-0,-0,0.66667
0.51315,0.34174,4.6183,-0.23739,-18.763,199.32,2.9236,-0.97455,-1.8012,3.8982,1.7795e-12,-0.90061,0,0,0.11111,-1.4474e-15,0,0.66667
0.42942,0.85161,3.8648,0.52741,46.301,264.01,-5.4356,1.8119,-1.0086,-7.2474,-2.4989e-12,-0.50432,0,0,0.11111,1.0527e-15,0,0.66667
0.091595,0.89346,0.82435,0.59018,63.074,570.93,-1.2974,0.43246,-0.76228,-1.7298,-1.9588e-08,-0.38114,0,0,0.11111,-1.3158e-16,1.4932e-16,0.66667
0.27368,0.57463,2.4631,0.11194,11.12,397.9,-0.73527,0.24509,-1.9528,-0.98035,5.3281e-12,-0.97638,0,0,0.11111,-0,-0,0.66667
0.88665,0.22596,7.9798,-0.41106,-9.3262,14.062,8.7472,-2.9157,-1.3985,11.663,-1.5094e-08,-0.69927,0,0,0.11111,-0,-0,0.66667
0.24594,0.84764,2.2135,0.52147,52.754,423.64,-3.078,1.026,-1.0329,-4.104,5.6656e-11,-0.51644,0,0,0.11111,-0,-0,0.66667
0.62119,0.40113,5.5907,-0.14831,-9.7533,126.75,2.211,-0.73701,-1.9215,2.948,9.0039e-13,-0.96077,0,0,0.11111,5.2633e-16,0,0.66667
0.49501,0.13347,4.4551,-0.5498,-44.68,213.19,6.5317,-2.1772,-0.92369,8.7089,1.5206e-12,-0.46184,0,0,0.11111,-1.0527e-15,0,0.66667
0.094373,0.39387,0.84935,-0.15919,-16.951,568.1,0.36056,-0.12019,-1.9128,0.48075,2.2266e-08,-0.95639,0,0,0.11111,-0,-0,0.66667
0.89937,0.2333,8.0943,-0.40005,-8.0912,11.372,8.635,-2.8783,-1.4283,11.513,-3.397e-08,-0.71415,0,0,0.11111,-0,-0,0.66667
0.067771,0.42028,0.60994,-0.11958,-12.787,594.12,0.19449,-0.064832,-1.9471,0.25933,2.0135e-08,-0.97355,0,0,0.11111,-1.3158e-16,0,0.66667
0.6807,0.99542,6.1263,0.74312,43.062,94.124,-12.14,4.0468,-0.034707,-16.187,-3.6771e-13,-0.017354,0,0,0.11111,-1.3158e-15,0,0.66667
0.972,0.03792,8.748,-0.69312,-4.0745,2.9798,16.169,-5.3897,-0.29192,21.559,3.9803e-05,-0.14596,0,0,0.11111,-0,-0,0.66667
0.70937,0.60707,6.3844,0.16061,8.5276,77.924,-2.7343,0.91144,-1.9058,-3.6457,-3.6868e-12,-0.95291,0,0,0.11111,-1.0527e-15,0,0.66667
0.32591,0.44267,2.9332,-0.085998,-8.2518,351.04,0.67266,-0.22422,-1.9751,0.89688,1.1209e-12,-0.98754,0,0,0.11111,-0,-0,0.66667
0.07344,0.089115,0.66096,-0.61633,-66.088,588.67,1.0863,-0.36211,-0.64852,1.4484,3.4412e-07,-0.32426,0,0,0.11111,-9.8686e-17,0,0.66667
0.57974,0.45462,5.2176,-0.068069,-4.8413,152.99,0.94709,-0.3157,-1.9849,1.2628,-8.8651e-14,-0.99246,0,0,0.11111,-0,-0,0.66667
0.73352,0.54604,6.6017,0.069061,3.4056,66.305,-1.2158,0.40526,-1.9855,-1.621,-3.7575e-12,-0.99275,0,0,0.11111,-0,-0,0.66667
0.35885,0.30163,3.2296,-0.29756,-27.852,322.47,2.5627,-0.85423,-1.6883,3.4169,2.6619e-12,-0.84415,0,0,0.11111,-5.2633e-16,0,0.66667
0.65375,0.45072,5.8838,-0.073922,-4.5287,107.51,1.1598,-0.38661,-1.9809,1.5464,-1.0963e-12,-0.99045,0,0,0.11111,1.0527e-15,0,0.66667
0.56659,0.28236,5.0993,-0.32645,-23.784,161.97,4.4392,-1.4797,-1.6213,5.9189,4.4906e-12,-0.81064,0,0,0.11111,-2.1053e-15,0,0.66667
0.034106,0.81002,0.30696,0.46503,49.998,627.21,-0.38065,0.12688,-1.2322,-0.50754,2.8659e-07,-0.6161,0,0,0.11111,7.4015e-17,0,0.66667
0.92069,0.71045,8.2863,0.31568,5.0416,7.3298,-6.9755,2.3252,-1.648,-9.3007,5.7471e-08,-0.82402,0,0,0.11111,-0,-0,0.66667
0.38001,0.39284,3.4201,-0.16074,-14.764,304.36,1.466,-0.48867,-1.9062,1.9547,1.7321e-12,-0.95312,0,0,0.11111,-5.2633e-16,0,0.66667
0.3794,0.47358,3.4146,-0.039633,-3.6411,304.83,0.36088,-0.12029,-1.9937,0.48117,-3.6439e-12,-0.99686,0,0,0.11111,-0,-0,0.66667
0.84636,0.95139,7.6172,0.67708,20.671,25.281,-13.753,4.5844,-0.37016,-18.338,1.7934e-08,-0.18508,0,0,0.11111,-0,-0,0.66667
0.48428,0.74198,4.3585,0.36298,29.845,220.91,-4.2187,1.4062,-1.5356,-5.625,-5.0804e-13,-0.76781,0,0,0.11111,-0,-0,0.66667
0.45107,0.58382,4.0596,0.12573,10.745,246.32,-1.3612,0.45372,-1.9448,-1.8149,-1.1301e-12,-0.97241,0,0,0.11111,5.2633e-16,0,0.66667
0.63986,0.077903,5.7587,-0.63315,-40.278,116.55,9.7229,-3.241,-0.57727,12.964,1.7337e-12,-0.28863,0,0,0.11111,-0,-0,0.66667
0.21177,0.37721,1.9059,-0.18419,-18.899,455.31,0.93614,-0.31205,-1.8779,1.2482,-1.6168e-11,-0.93897,0,0,0.11111,-0,-0,0.66667
0.5283,0.65954,4.7547,0.2393,18.506,188.4,-3.0342,1.0114,-1.7972,-4.0456,1.0125e-12,-0.89862,0,0,0.11111,-2.1053e-15,0,0.66667
0.66857,0.73875,6.0171,0.35812,21.228,99.544,-5.7463,1.9154,-1.5436,-7.6617,-6.2839e-13,-0.77178,0,0,0.11111,-0,-0,0.66667
0.53878,0.53461,4.849,0.051909,3.9487,180.87,-0.67122,0.22374,-1.9887,-0.89496,2.5646e-12,-0.99436,0,0,0.11111,-0,-0,0.66667
0.70876,0.51033,6.3789,0.015493,0.82365,78.155,-0.26353,0.087845,-1.9971,-0.35138,5.0407e-13,-0.99854,0,0,0.11111,-0,-0,0.66667
0.59854,0.27236,5.3868,-0.34145,-23.508,141.09,4.9049,-1.635,-1.584,6.5399,9.2859e-13,-0.792,0,0,0.11111,-0,-0,0.66667
0.84141,0.97782,7.5726,0.71673,22.569,26.907,-14.473,4.8245,-0.17426,-19.298,-2.2627e-09,-0.08713,0,0,0.11111,-0,-0,0.66667
0.87917,0.69178,7.9125,0.28767,6.9111,15.451,-6.0698,2.0233,-1.7053,-8.0931,1.1544e-08,-0.85267,0,0,0.11111,-0,-0,0.66667
0.097839,0.91423,0.88055,0.62134,66.349,564.86,-1.459,0.48633,-0.62646,-1.9453,1.0084e-08,-0.31323,0,0,0.11111,-0,-0,0.66667
0.25859,0.81313,2.3273,0.46969,47.168,411.93,-2.915,0.97167,-1.2145,-3.8867,2.863e-11,-0.60724,0,0,0.11111,-0,-0,0.66667
0.054656,0.72675,0.49191,0.34013,36.466,607.01,-0.44616,0.14872,-1.5863,-0.59488,-1.4282e-08,-0.79316,0,0,0.11111,-0,-0,0.66667
0.22889,0.72613,2.06,0.3392,34.557,439.34,-1.8634,0.62112,-1.5892,-2.4845,3.0102e-11,-0.7946,0,0,0.11111,-0,-0,0.66667
0.72092,0.92251,6.4883,0.63376,32.768,73.38,-10.965,3.6551,-0.57258,-14.62,-1.1158e-11,-0.28629,0,0,0.11111,-0,-0,0.66667
0.078545,0.26805,0.70691,-0.34793,-37.185,583.6,0.65588,-0.21863,-1.5728,0.8745,6.7509e-08,-0.78638,0,0,0.11111,-0,-0,0.66667
0.15512,0.29818,1.3961,-0.30273,-31.761,509.26,1.127,-0.37568,-1.6762,1.5027,2.1352e-09,-0.8381,0,0,0.11111,-0,-0,0.66667
0.77077,0.53238,6.9369,0.04857,2.101,50.103,-0.89847,0.29949,-1.9911,-1.198,-3.1801e-11,-0.99554,0,0,0.11111,2.1053e-15,0,0.66667
0.44433,0.61235,3.9989,0.16852,14.514,251.67,-1.7971,0.59903,-1.8964,-2.3961,7.5928e-13,-0.94821,0,0,0.11111,-5.2633e-16,0,0.66667
0.29012,0.25853,2.6111,-0.36221,-35.664,383.12,2.522,-0.84067,-1.5312,3.3627,-1.1202e-11,-0.76562,0,0,0.11111,5.2633e-16,0,0.66667
0.64398,0.052056,5.7959,-0.67192,-42.395,114.28,10.385,-3.4616,-0.39433,13.847,1.6165e-12,-0.19717,0,0,0.11111,-0,-0,0.66667
0.88694,0.78263,7.9824,0.42394,9.5996,14.036,-9.0243,3.0081,-1.3615,-12.032,1.5236e-08,-0.68073,0,0,0.11111,-0,-0,0.66667
0.037605,0.21276,0.33845,-0.43086,-46.299,623.76,0.38887,-0.12962,-1.3381,0.51849,3.567e-08,-0.66903,0,0,0.11111,-3.2895e-17,0,0.66667
0.69309,0.34974,6.2378,-0.22539,-12.529,86.241,3.7492,-1.2497,-1.8178,4.9989,2.1105e-12,-0.90889,0,0,0.11111,-0,-0,0.66667
0.66855,0.79927,6.017,0.4489,26.644,99.75,-7.2027,2.4009,-1.283,-9.6036,-4.4809e-13,-0.64148,0,0,0.11111,1.0527e-15,0,0.66667
0.86801,0.95452,7.8121,0.68178,18.085,19.485,-14.203,4.7343,-0.34462,-18.937,-4.3104e-09,-0.17231,0,0,0.11111,-1.0279e-15,0,0.66667
0.19637,0.81264,1.7673,0.46895,48.527,470,-2.2101,0.73671,-1.2171,-2.9469,2.1388e-10,-0.60855,0,0,0.11111,-0,-0,0.66667
0.71279,0.15627,6.4151,-0.5156,-27.234,76.922,8.8204,-2.9401,-1.0541,11.761,2.327e-12,-0.52704,0,0,0.11111,-2.1053e-15,0,0.66667
0.1039,0.056099,0.93511,-0.66585,-71.053,558.98,1.6604,-0.55346,-0.42203,2.2138,-1.6004e-07,-0.21102,0,0,0.11111,-0,-0,0.66667
0.056626,0.54676,0.50964,0.070139,7.5101,605.05,-0.095321,0.031774,-1.9801,-0.12709,-8.5686e-08,-0.99007,0,0,0.11111,-1.3158e-16,0,0.66667
0.6808,0.40741,6.1272,-0.13889,-7.9695,92.623,2.2693,-0.75644,-1.9302,3.0258,1.4877e-12,-0.96512,0,0,0.11111,-0,-0,0.66667
0.022635,0.96403,0.20371,0.69604,75.077,638.51,-0.37811,0.12606,-0.27556,-0.50413,4.17e-05,-0.13778,0,0,0.11111,-0,-0,0.66667
0.044299,0.56065,0.39869,0.090972,9.7534,617.16,-0.09672,0.03224,-1.9721,-0.12896,-1.3702e-07,-0.98605,0,0,0.11111,-9.0463e-17,0,0.66667
0.036953,0.65012,0.33258,0.22519,24.167,624.38,-0.19971,0.066571,-1.818,-0.26628,1.6113e-07,-0.90902,0,0,0.11111,6.5791e-17,0,0.66667
0.46541,0.98725,4.1887,0.73087,61.815,236.09,-8.1637,2.7212,-0.10017,-10.885,9.8588e-13,-0.050083,0,0,0.11111,-0,-0,0.66667
0.75787,0.97817,6.8208,0.71726,32.936,57.033,-13.046,4.3487,-0.16829,-17.395,3.0215e-11,-0.084146,0,0,0.11111,-2.1053e-15,0,0.66667
0.9922,0.35965,8.9298,-0.21052,-0.2402,0.33434,5.0131,-1.671,-1.8397,6.6841,-2.4916e-07,-0.91983,0,0,0.11111,2.1053e-15,0,0.66667
0.22661,0.051699,2.0395,-0.67245,-68.818,441.78,3.6572,-1.2191,-0.38961,4.8762,-1.3085e-10,-0.1948,0,0,0.11111,2.6316e-16,0,0.66667
0.79238,0.9928,7.1314,0.73919,29.696,43.378,-14.057,4.6858,-0.056134,-18.743,-7.2493e-12,-0.028067,0,0,0.11111,2.1053e-15,1.0035e-16,0.66667
0.79525,0.63474,7.1572,0.20211,7.9142,40.71,-3.8574,1.2858,-1.8564,-5.1432,5.0071e-11,-0.92818,0,0,0.11111,-0,-0,0.66667
0.87224,0.73008,7.8502,0.34512,8.7567,17.234,-7.2247,2.4082,-1.5766,-9.6329,8.8929e-09,-0.78831,0,0,0.11111,-0,-0,0.66667
0.31426,0.1988,2.8283,-0.4518,-43.808,361.6,3.4076,-1.1359,-1.2755,4.5434,3.1974e-14,-0.63777,0,0,0.11111,-0,-0,0.66667
0.13293,0.97676,1.1963,0.71514,75.832,530.88,-2.2814,0.76048,-0.17925,-3.0419,-3.4859e-08,-0.089625,0,0,0.11111,-0,-0,0.66667
0.7967,0.4663,7.1703,-0.050555,-1.965,40.051,0.96666,-0.32222,-1.9957,1.2889,5.3686e-11,-0.99783,0,0,0.11111,1.579e-15,0,0.66667
0.56746,0.72882,5.1072,0.34323,24.974,161.41,-4.6745,1.5582,-1.5795,-6.2326,2.1529e-12,-0.78973,0,0,0.11111,-1.0527e-15,0,0.66667
0.41465,0.95374,3.7319,0.68061,60.798,276.29,-6.7733,2.2578,-0.35022,-9.031,-2.0259e-12,-0.17511,0,0,0.11111,-0,-0,0.66667
0.058642,0.28368,0.52778,-0.32448,-34.769,603.09,0.45667,-0.15222,-1.6258,0.60889,3.285e-08,-0.8129,0,0,0.11111,1.3158e-16,0,0.66667
0.0065569,0.5739,0.059012,0.11085,11.908,654.29,-0.017443,0.0058145,-1.9538,-0.023258,1.1918e-07,-0.97692,0,0,0.11111,-0,-0,0.66667
0.31602,0.75669,2.8442,0.38504,37.265,359.96,-2.9203,0.97344,-1.4727,-3.8938,-5.2336e-13,-0.73633,0,0,0.11111,-0,-0,0.66667
0.27146,0.081049,2.4431,-0.62843,-62.759,400.34,4.0942,-1.3647,-0.59356,5.4589,-4.7158e-12,-0.29678,0,0,0.11111,-2.6316e-16,0,0.66667
0.47572,0.10702,4.2815,-0.58947,-49.124,227.82,6.7302,-2.2434,-0.76188,8.9736,-1.4651e-12,-0.38094,0,0,0.11111,-0,-0,0.66667
0.92361,0.70004,8.3125,0.30007,4.6149,6.8339,-6.6515,2.2172,-1.6811,-8.8687,6.2924e-08,-0.84057,0,0,0.11111,-0,-0,0.66667
0.41668,0.22976,3.7502,-0.40536,-36.011,274.13,4.0538,-1.3513,-1.4139,5.4051,2.0242e-12,-0.70694,0,0,0.11111,-0,-0,0.66667
0.28788,0.10823,2.591,-0.58766,-58.075,385.38,4.0603,-1.3534,-0.76951,5.4137,-1.45e-12,-0.38475,0,0,0.11111,-0,-0,0.66667
0.84525,0.91623,7.6072,0.62435,19.143,25.368,-12.665,4.2218,-0.61577,-16.887,3.0211e-10,-0.30789,0,0,0.11111,-2.1053e-15,0,0.66667
0.30695,0.78329,2.7625,0.42494,41.401,368.07,-3.1305,1.0435,-1.357,-4.1739,3.0216e-12,-0.67851,0,0,0.11111,-0,-0,0.66667
0.91558,0.72742,8.2403,0.34113,5.7997,8.2341,-7.496,2.4987,-1.5841,-9.9946,4.5861e-08,-0.79203,0,0,0.11111,-0,-0,0.66667
0.86341,0.41234,7.7707,-0.13149,-3.5401,19.109,2.7248,-0.90825,-1.9379,3.633,-2.5402e-09,-0.96897,0,0,0.11111,2.1053e-15,0,0.66667
0.63882,0.45407,5.7494,-0.068897,-4.3645,116.15,1.0563,-0.3521,-1.9843,1.4084,-6.95e-13,-0.99213,0,0,0.11111,-0,-0,0.66667
0.74768,0.11919,6.7291,-0.57122,-27.065,60.873,10.25,-3.4167,-0.84102,13.667,-1.1304e-11,-0.42051,0,0,0.11111,-1.0527e-15,0,0.66667
0.15732,0.51803,1.4159,0.02704,2.8323,507.09,-0.1021,0.034032,-1.9996,-0.13613,-2.9743e-10,-0.99979,0,0,0.11111,-5.2633e-16,0,0.66667
0.60287,0.40279,5.4259,-0.14582,-9.9425,138.12,2.1098,-0.70327,-1.9229,2.8131,-1.1837e-12,-0.96143,0,0,0.11111,7.0481e-16,0,0.66667
0.32704,0.77317,2.9433,0.40975,39.352,350.25,-3.2161,1.072,-1.4056,-4.2881,3.6215e-12,-0.70278,0,0,0.11111,-2.6316e-16,0,0.66667
0.48868,0.32935,4.3981,-0.25597,-20.911,217.46,3.0021,-1.0007,-1.7656,4.0028,1.8139e-12,-0.88281,0,0,0.11111,-1.0527e-15,0,0.66667
0.22539,0.050825,2.0285,-0.67376,-68.994,442.92,3.6446,-1.2149,-0.38343,4.8594,-1.0431e-10,-0.19171,0,0,0.11111,2.6316e-16,0,0.66667
0.90196,0.60304,8.1176,0.15455,3.0262,10.374,-3.3456,1.1152,-1.9139,-4.4608,1.623e-08,-0.95696,0,0,0.11111,-0,-0,0.66667
0.41153,0.42271,3.7038,-0.11593,-10.334,278.1,1.145,-0.38167,-1.9501,1.5267,2.4059e-13,-0.97507,0,0,0.11111,-5.2633e-16,0,0.66667
0.47673,0.70617,4.2906,0.30926,25.659,226.57,-3.5384,1.1795,-1.6572,-4.7179,-9.4946e-13,-0.82862,0,0,0.11111,-0,-0,0.66667
0.7214,0.15836,6.4926,-0.51246,-26.383,72.747,8.8726,-2.9575,-1.0676,11.83,1.8653e-11,-0.53382,0,0,0.11111,-0,-0,0.66667
0.1222,0.17644,1.0998,-0.48533,-51.469,541.12,1.4233,-0.47445,-1.1626,1.8978,2.4587e-09,-0.58129,0,0,0.11111,1.3158e-16,0,0.66667
0.50307,0.68793,4.5276,0.28189,22.598,206.77,-3.4034,1.1345,-1.7188,-4.5379,-3.9755e-12,-0.85938,0,0,0.11111,2.1053e-15,0,0.66667
0.81315,0.36156,7.3183,-0.20766,-7.4861,34.345,4.0525,-1.3508,-1.8495,5.4034,-2.3196e-10,-0.92475,0,0,0.11111,1.0527e-15,0,0.66667
0.67734,0.69818,6.0961,0.29728,17.23,94.663,-4.8326,1.6109,-1.6838,-6.4434,-3.5603e-12,-0.84189,0,0,0.11111,2.1053e-15,0,0.66667
0.32165,0.80098,2.8949,0.45147,43.546,355.05,-3.4851,1.1617,-1.2728,-4.6469,1.8401e-12,-0.63642,0,0,0.11111,-0,-0,0.66667
0.71067,0.039029,6.396,-0.69146,-36.901,78.571,11.793,-3.9312,-0.29772,15.725,1.6422e-12,-0.14886,0,0,0.11111,-0,-0,0.66667
0.93444,0.58484,8.41,0.12727,1.671,4.983,-2.8541,0.95138,-1.9424,-3.8055,9.8112e-09,-0.9712,0,0,0.11111,-0,-0,0.66667
0.89478,0.50953,8.053,0.014295,0.29946,11.727,-0.30697,0.10232,-1.9982,-0.4093,3.7249e-08,-0.99911,0,0,0.11111,-4.2106e-15,0,0.66667
0.74223,0.14996,6.6801,-0.52505,-25.31,63.138,9.3531,-3.1177,-1.0176,12.471,2.5935e-12,-0.50882,0,0,0.11111,-0,-0,0.66667
0.2661,0.93073,2.3949,0.64609,64.74,405.26,-4.1262,1.3754,-0.51938,-5.5016,-3.1761e-12,-0.25969,0,0,0.11111,-2.6316e-16,0,0.66667
0.37249,0.86234,3.3524,0.54351,50.405,311.13,-4.8589,1.6196,-0.94999,-6.4785,2.5713e-12,-0.47499,0,0,0.11111,-4.4111e-16,0,0.66667
0.55842,0.31668,5.0258,-0.27499,-20.299,167.44,3.6854,-1.2285,-1.7308,4.9138,2.3759e-12,-0.8654,0,0,0.11111,-0,-0,0.66667
0.38105,0.070133,3.4294,-0.6448,-59.429,304.07,5.8968,-1.9656,-0.51973,7.8624,2.0113e-12,-0.25986,0,0,0.11111,-0,-0,0.66667
0.45575,0.84494,4.1017,0.51742,44.116,243.11,-5.6594,1.8865,-1.0497,-7.5459,-1.5126e-12,-0.52486,0,0,0.11111,-0,-0,0.66667
0.79353,0.18086,7.1417,-0.47872,-18.98,41.946,9.117,-3.039,-1.1851,12.156,3.0749e-11,-0.59256,0,0,0.11111,-1.579e-15,0,0.66667
0.10394,0.71371,0.93546,0.32057,34.094,558.8,-0.79968,0.26656,-1.6332,-1.0662,-2.7075e-08,-0.81662,0,0,0.11111,6.5791e-17,0,0.66667
0.973,0.92263,8.757,0.63395,3.5421,2.6107,-14.804,4.9346,-0.56968,-19.738,-1.5344e-05,-0.28484,0,0,0.11111,-0,-0,0.66667
0.70462,0.8528,6.3416,0.52921,28.623,81.012,-8.9493,2.9831,-1.0061,-11.932,-1.1182e-12,-0.50304,0,0,0.11111,-0,-0,0.66667
0.86473,0.52076,7.7826,0.031139,0.83019,18.712,-0.64625,0.21542,-1.9946,-0.86167,9.249e-10,-0.99731,0,0,0.11111,-0,-0,0.66667
0.78168,0.68811,7.0351,0.28216,11.712,45.99,-5.2934,1.7645,-1.7216,-7.0579,-1.7969e-11,-0.86081,0,0,0.11111,-0,-0,0.66667
0.43218,0.39892,3.8897,-0.15162,-13.231,261.35,1.5726,-0.52421,-1.9167,2.0968,7.8826e-14,-0.95833,0,0,0.11111,-0,-0,0.66667
0.94251,0.66326,8.4826,0.24489,2.8259,4.1099,-5.5395,1.8465,-1.7854,-7.386,-2.1e-09,-0.89268,0,0,0.11111,2.1053e-15,0,0.66667
0.25309,0.76368,2.2778,0.39553,39.814,416.93,-2.4025,0.80082,-1.4434,-3.2033,1.8963e-11,-0.72172,0,0,0.11111,-0,-0,0.66667
0.046248,0.68612,0.41624,0.27918,29.947,615.25,-0.30988,0.10329,-1.7271,-0.41317,8.9959e-08,-0.86355,0,0,0.11111,9.7309e-17,0,0.66667
0.096878,0.058385,0.8719,-0.66242,-70.785,565.81,1.5402,-0.51339,-0.44034,2.0536,3.0854e-08,-0.22017,0,0,0.11111,1.9737e-16,0,0.66667
0.20074,0.92202,1.8066,0.63304,65.507,466.02,-3.0498,1.0166,-0.57558,-4.0664,-1.4491e-10,-0.28779,0,0,0.11111,-0,-0,0.66667
0.53908,0.92003,4.8517,0.63004,48.162,181.5,-8.1514,2.7171,-0.58588,-10.869,-1.2896e-12,-0.29294,0,0,0.11111,-0,-0,0.66667
0.2236,0.96428,2.0124,0.69642,71.397,444.61,-3.7373,1.2458,-0.27458,-4.9831,4.4392e-11,-0.13729,0,0,0.11111,3.9475e-16,0,0.66667
0.83532,0.38831,7.5179,-0.16754,-5.3759,27.106,3.3588,-1.1196,-1.8975,4.4784,-9.1548e-10,-0.94875,0,0,0.11111,-0,-0,0.66667
0.0093387,0.58342,0.084048,0.12514,13.443,651.55,-0.028047,0.0093488,-1.942,-0.037396,-1.9351e-07,-0.971,0,0,0.11111,8.2239e-18,0,0.66667
0.7459,0.015099,6.7131,-0.72735,-34.824,62.261,13.021,-4.3403,-0.1177,17.361,-1.0463e-12,-0.058848,0,0,0.11111,-0,-0,0.66667
0.96901,0.0082624,8.7211,-0.73761,-4.8471,3.4279,17.154,-5.718,-0.0693,22.872,-1.0088e-05,-0.03465,0,0,0.11111,-4.2106e-15,0,0.66667
0.26718,0.74307,2.4046,0.36461,36.404,403.96,-2.338,0.77934,-1.5293,-3.1173,1.2485e-11,-0.76466,0,0,0.11111,-0,-0,0.66667
0.62382,0.32965,5.6143,-0.25552,-16.726,125.26,3.8255,-1.2752,-1.7698,5.1007,7.2609e-13,-0.88492,0,0,0.11111,-0,-0,0.66667
0.71478,0.52636,6.433,0.039541,2.0656,75.196,-0.67832,0.22611,-1.9941,-0.90442,-3.5377e-13,-0.99704,0,0,0.11111,-1.0527e-15,0,0.66667
0.32696,0.7978,2.9426,0.4467,42.918,350.36,-3.5052,1.1684,-1.2925,-4.6736,1.9422e-12,-0.64627,0,0,0.11111,-3.872e-16,0,0.66667
0.43313,0.90443,3.8981,0.60665,53.104,261.19,-6.3061,2.102,-0.69132,-8.4082,-3.5527e-14,-0.34566,0,0,0.11111,-1.3158e-16,0,0.66667
0.73441,0.54863,6.6097,0.072945,3.5868,65.895,-1.2857,0.42857,-1.9849,-1.7143,-4.5868e-12,-0.99244,0,0,0.11111,1.0527e-15,0,0.66667
0.13115,0.57227,1.1804,0.10841,11.445,532.34,-0.34124,0.11375,-1.956,-0.45499,-5.3182e-09,-0.97799,0,0,0.11111,-2.6316e-16,0,0.66667
0.14369,0.47577,1.2932,-0.036347,-3.8233,520.22,0.12534,-0.041781,-1.9955,0.16712,3.519e-10,-0.99775,0,0,0.11111,-0,-0,0.66667
0.37541,0.69567,3.3787,0.2935,27.086,308.34,-2.6444,0.88146,-1.6973,-3.5259,-6.5037e-13,-0.84863,0,0,0.11111,-0,-0,0.66667
0.22841,0.19772,2.0557,-0.45343,-46.247,439.87,2.4856,-0.82853,-1.2668,3.3141,-6.0126e-11,-0.6334,0,0,0.11111,-0,-0,0.66667
0.30699,0.88371,2.7629,0.57556,56.164,368.23,-4.2405,1.4135,-0.8203,-5.654,1.3611e-12,-0.41015,0,0,0.11111,-0,-0,0.66667
0.15007,0.072026,1.3506,-0.64196,-67.67,514.31,2.3121,-0.77069,-0.53248,3.0828,2.6009e-08,-0.26624,0,0,0.11111,-0,-0,0.66667
0.096636,0.18496,0.86972,-0.47256,-50.394,565.97,1.096,-0.36533,-1.207,1.4613,3.3212e-08,-0.60352,0,0,0.11111,1.9737e-16,0,0.66667
0.91598,0.64756,8.2439,0.22134,3.7301,7.9196,-4.8658,1.6219,-1.8238,-6.4877,3.2657e-08,-0.91189,0,0,0.11111,-1.0527e-15,0,0.66667
0.34589,0.11261,3.113,-0.58109,-55.114,334.01,4.8239,-1.608,-0.80019,6.4319,6.4797e-12,-0.40009,0,0,0.11111,5.2633e-16,0,0.66667
0.56597,0.13305,5.0937,-0.55042,-40.256,162.84,7.4765,-2.4922,-0.92247,9.9686,2.2338e-12,-0.46124,0,0,0.11111,-0,-0,0.66667
0.5472,0.55488,4.9248,0.082323,6.1812,175,-1.0811,0.36037,-1.9796,-1.4415,2.2544e-12,-0.98982,0,0,0.11111,-5.2633e-16,0,0.66667
0.45036,0.74018,4.0532,0.36028,30.856,247.09,-3.8941,1.298,-1.5387,-5.1921,4.7051e-13,-0.76935,0,0,0.11111,-5.2633e-16,0,0.66667
0.74782,0.86528,6.7304,0.54792,25.933,60.731,-9.8338,3.2779,-0.93349,-13.112,-1.5516e-12,-0.46674,0,0,0.11111,-1.0527e-15,0,0.66667
0.33158,0.45399,2.9842,-0.069014,-6.5941,346.05,0.5492,-0.18307,-1.9824,0.73227,1.8086e-12,-0.99118,0,0,0.11111,-0,-0,0.66667
0.89248,0.95819,8.0323,0.68728,15.04,13.892,-14.721,4.9071,-0.32175,-19.628,2.4311e-07,-0.16087,0,0,0.11111,1.0527e-15,0,0.66667
0.068033,0.51241,0.6123,0.018622,1.991,593.86,-0.030407,0.010135,-1.9966,-0.040542,-8.5579e-08,-0.99832,0,0,0.11111,-0,-0,0.66667
0.57489,0.96135,5.174,0.69202,49.977,157.29,-9.5481,3.1827,-0.29724,-12.731,-2.1325e-12,-0.14862,0,0,0.11111,-5.2633e-16,-9.5142e-17,0.66667
0.33905,0.43135,3.0515,-0.10297,-9.7838,339.51,0.83793,-0.27931,-1.9612,1.1172,-3.2674e-13,-0.9806,0,0,0.11111,-2.6316e-16,0,0.66667
0.3639,0.66764,3.2751,0.25147,23.432,318.1,-2.1962,0.73207,-1.7737,-2.9283,1.5998e-12,-0.88684,0,0,0.11111,-0,-0,0.66667
0.3051,0.37781,2.7459,-0.18329,-17.852,369.55,1.3421,-0.44736,-1.879,1.7895,1.4049e-12,-0.93948,0,0,0.11111,-0,-0,0.66667
0.60359,0.94863,5.4323,0.67295,46.124,138.71,-9.7484,3.2495,-0.38764,-12.998,-1.2728e-12,-0.19382,0,0,0.11111,1.0527e-15,0,0.66667
0.23441,0.46749,2.1097,-0.048765,-4.9489,434.09,0.27434,-0.091448,-1.9968,0.36579,-2.1073e-11,-0.99838,0,0,0.11111,-5.5922e-16,0,0.66667
0.29431,0.43836,2.6488,-0.092459,-9.0675,379.2,0.65307,-0.21769,-1.9713,0.87076,-3.1713e-12,-0.98567,0,0,0.11111,-0,-0,0.66667
0.28549,0.42049,2.5695,-0.11926,-11.762,387.16,0.81715,-0.27238,-1.9481,1.0895,-3.596e-12,-0.97403,0,0,0.11111,-0,-0,0.66667
0.0067954,0.58364,0.061159,0.12547,13.479,654.06,-0.020462,0.0068207,-1.9416,-0.027283,-1.0421e-07,-0.97079,0,0,0.11111,-0,-0,0.66667
0.37162,0.0048918,3.3446,-0.74266,-69.122,312.25,6.6237,-2.2079,-0.039103,8.8316,-7.8648e-13,-0.019551,0,0,0.11111,-0,-6.9493e-17,0.66667
0.048897,0.076676,0.44008,-0.63499,-68.31,612.71,0.74518,-0.24839,-0.56723,0.99357,1.594e-06,-0.28362,0,0,0.11111,-6.5791e-17,0,0.66667
0.87438,0.14969,7.8694,-0.52546,-13.207,17.265,11.027,-3.6756,-1.0217,14.703,2.3856e-12,-0.51083,0,0,0.11111,1.579e-15,0,0.66667
0.72182,0.92676,6.4964,0.64014,33.012,72.971,-11.09,3.6965,-0.54284,-14.786,-1.0359e-11,-0.27142,0,0,0.11111,-0,-0,0.66667
0.59531,0.62135,5.3578,0.18202,12.592,142.95,-2.6006,0.86688,-1.8847,-3.4675,1.8179e-12,-0.94233,0,0,0.11111,-1.579e-15,0,0.66667
0.74388,0.72732,6.6949,0.34099,16.291,61.929,-6.0876,2.0292,-1.5845,-8.1168,-2.0906e-11,-0.79224,0,0,0.11111,2.1053e-15,0,0.66667
0.90109,0.89498,8.1098,0.59247,11.901,11.721,-12.813,4.271,-0.75006,-17.084,4.24e-08,-0.37503,0,0,0.11111,-1.0527e-15,0,0.66667
0.69409,0.53893,6.2468,0.058402,3.2349,85.595,-0.97287,0.32429,-1.9857,-1.2972,7.4629e-13,-0.99285,0,0,0.11111,-0,-0,0.66667
0.59076,0.78029,5.3168,0.42044,29.392,146.22,-5.9611,1.987,-1.3727,-7.9481,2.3355e-12,-0.68637,0,0,0.11111,-1.25e-15,0,0.66667
0.12426,0.25482,1.1183,-0.36778,-38.944,539.07,1.0968,-0.3656,-1.5225,1.4624,1.0261e-08,-0.76126,0,0,0.11111,-0,-0,0.66667
0.40458,0.13421,3.6412,-0.54868,-49.409,284.28,5.3277,-1.7759,-0.9312,7.1036,-4.4853e-13,-0.4656,0,0,0.11111,1.0527e-15,0,0.66667
0.57895,0.47578,5.2106,-0.036332,-2.5875,153.5,0.50482,-0.16827,-1.9983,0.6731,-2.678e-12,-0.99916,0,0,0.11111,2.1053e-15,0,0.66667
0.60284,0.39327,5.4256,-0.16009,-10.917,138.14,2.3162,-0.77208,-1.9063,3.0883,1.8905e-12,-0.95317,0,0,0.11111,-7.1391e-16,0,0.66667
0.96078,0.57742,8.647,0.11613,0.89844,2.0276,-2.6778,0.8926,-1.9493,-3.5704,1.1068e-08,-0.97464,0,0,0.11111,-0,-0,0.66667
0.2055,0.25097,1.8495,-0.37355,-38.475,461.31,1.8423,-0.61411,-1.5058,2.4564,1.166e-11,-0.7529,0,0,0.11111,-0,-0,0.66667
0.66315,0.28458,5.9684,-0.32312,-19.397,102.48,5.1427,-1.7142,-1.6271,6.857,-4.3032e-13,-0.81357,0,0,0.11111,2.1053e-15,0,0.66667
0.25643,0.71292,2.3079,0.31938,32.073,413.8,-1.9656,0.65519,-1.6354,-2.6208,1.9821e-11,-0.81771,0,0,0.11111,-0,-0,0.66667
0.41776,0.90282,3.7599,0.60424,53.745,273.59,-6.0582,2.0194,-0.70162,-8.0776,2.1583e-12,-0.35081,0,0,0.11111,-5.3423e-16,0,0.66667
0.97195,0.79455,8.7476,0.44182,2.471,1.8741,-10.306,3.4354,-1.3055,-13.742,-1.3464e-06,-0.65275,0,0,0.11111,-0,-0,0.66667
0.33108,0.21938,2.9797,-0.42092,-40.309,346.71,3.3446,-1.1149,-1.3714,4.4595,2.7918e-12,-0.6857,0,0,0.11111,-0,-0,0.66667
0.36202,0.80588,3.2582,0.45882,42.891,319.93,-3.9865,1.3288,-1.2522,-5.3154,8.431e-13,-0.62608,0,0,0.11111,-2.6316e-16,0,0.66667
0.43957,0.88818,3.9561,0.58227,50.6,256,-6.1427,2.0476,-0.79537,-8.1903,4.6319e-13,-0.39768,0,0,0.11111,-0,-0,0.66667
0.040668,0.2298,0.36601,-0.4053,-43.533,620.75,0.39559,-0.13186,-1.4136,0.52745,8.9821e-08,-0.70679,0,0,0.11111,-6.5791e-17,0,0.66667
0.39857,0.98348,3.5871,0.72522,65.854,289.61,-6.9372,2.3124,-0.12721,-9.2497,-3.7139e-12,-0.063606,0,0,0.11111,9.44e-16,0,0.66667
0.61899,0.75301,5.5709,0.37952,25.119,128.4,-5.638,1.8793,-1.4866,-7.5174,1.4255e-13,-0.74328,0,0,0.11111,-0,-0,0.66667
0.57808,0.34732,5.2027,-0.22902,-16.348,154.2,3.1774,-1.0591,-1.8183,4.2366,-1.3265e-12,-0.90914,0,0,0.11111,2.1053e-15,0,0.66667
0.87341,0.69227,7.8607,0.2884,7.2431,16.823,-6.0454,2.0151,-1.7065,-8.0605,9.5079e-09,-0.85326,0,0,0.11111,2.1053e-15,0,0.66667
0.64119,0.48266,5.7707,-0.02601,-1.639,114.75,0.40025,-0.13342,-2.0005,0.53366,1.0034e-12,-1.0003,0,0,0.11111,-1.0527e-15,0,0.66667
0.55696,0.28943,5.0126,-0.31585,-23.379,168.49,4.2219,-1.4073,-1.6435,5.6292,1.5548e-12,-0.82174,0,0,0.11111,-0,-0,0.66667
0.64065,0.67751,5.7658,0.26626,16.818,115.25,-4.0939,1.3646,-1.7519,-5.4586,-1.1768e-13,-0.87597,0,0,0.11111,5.2633e-16,0,0.66667
0.047617,0.81433,0.42855,0.47149,50.639,613.94,-0.53882,0.17961,-1.2135,-0.71843,-2.4987e-07,-0.60677,0,0,0.11111,-0,-0,0.66667
0.99612,0.68887,8.9651,0.28331,0.095194,0.38391,-6.7729,2.2577,-1.715,-9.0306,5.6525e-07,-0.85748,0,0,0.11111,-0,-0,0.66667
0.15171,0.22945,1.3653,-0.40583,-42.654,512.59,1.4776,-0.49253,-1.413,1.9701,1.9635e-09,-0.70648,0,0,0.11111,-0,-0,0.66667
0.41845,0.81781,3.766,0.47671,42.304,272.8,-4.7875,1.5958,-1.192,-6.3833,-8.6908e-13,-0.59602,0,0,0.11111,-0,-0,0.66667
0.29525,0.80281,2.6573,0.45422,44.612,378.58,-3.2186,1.0729,-1.268,-4.2915,4.5055e-12,-0.63402,0,0,0.11111,-0,-0,0.66667
0.57722,0.81039,5.195,0.46559,33.363,155.15,-6.4499,2.15,-1.2329,-8.5999,9.9165e-13,-0.61645,0,0,0.11111,1.4474e-15,0,0.66667
0.55956,0.38471,5.036,-0.17294,-12.734,166.55,2.3224,-0.77414,-1.8937,3.0966,1.4613e-12,-0.94685,0,0,0.11111,-0,-0,0.66667
0.35211,0.38676,3.169,-0.16986,-15.977,328.19,1.4355,-0.47849,-1.8948,1.914,-2.0139e-13,-0.94739,0,0,0.11111,5.2633e-16,0,0.66667
0.97363,0.5925,8.7627,0.13875,0.70172,1.0811,-3.2421,1.0807,-1.9312,-4.3228,1.9393e-09,-0.96558,0,0,0.11111,7.8949e-16,0,0.66667
0.75127,0.074357,6.7614,-0.63846,-29.933,59.544,11.512,-3.8373,-0.55258,15.349,4.0141e-11,-0.27629,0,0,0.11111,-0,-0,0.66667
0.88984,0.47627,8.0086,-0.035598,-0.77965,12.771,0.76023,-0.25341,-1.9985,1.0136,1.8316e-09,-0.99926,0,0,0.11111,2.1053e-15,0,0.66667
0.45541,0.35388,4.0987,-0.21918,-18.645,242.97,2.3956,-0.79854,-1.8299,3.1942,8.2601e-14,-0.91497,0,0,0.11111,-0,-0,0.66667
0.59941,0.38751,5.3947,-0.16873,-11.582,140.33,2.4273,-0.80911,-1.8966,3.2364,-3.5527e-15,-0.94829,0,0,0.11111,-0,-0,0.66667
0.41345,0.26606,3.7211,-0.3509,-31.259,276.7,3.482,-1.1607,-1.5595,4.6426,1.3798e-12,-0.77973,0,0,0.11111,-5.2633e-16,0,0.66667
0.30426,0.81819,2.7383,0.47729,46.61,370.54,-3.4852,1.1617,-1.188,-4.647,-1.9726e-12,-0.59399,0,0,0.11111,-0,-0,0.66667
0.52547,0.88331,4.7292,0.57497,44.812,191,-7.2511,2.417,-0.82264,-9.6681,-7.1498e-13,-0.41132,0,0,0.11111,-0,-0,0.66667
0.19097,0.46084,1.7187,-0.058738,-6.0783,474.95,0.26921,-0.089737,-1.9874,0.35895,5.7958e-11,-0.99371,0,0,0.11111,-1.3158e-16,0,0.66667
0.2141,0.36253,1.9269,-0.2062,-21.138,453.13,1.0595,-0.35318,-1.8472,1.4127,-1.4759e-11,-0.9236,0,0,0.11111,2.6316e-16,0,0.66667
0.51079,0.3033,4.5971,-0.29505,-23.406,201.11,3.6169,-1.2056,-1.689,4.8226,1.4719e-12,-0.84448,0,0,0.11111,5.2633e-16,0,0.66667
0.013852,0.4555,0.12467,-0.066746,-7.1686,647.11,0.02219,-0.0073977,-1.9854,0.029586,-1.5335e-06,-0.99269,0,0,0.11111,-0,-0,0.66667
0.44549,0.60343,4.0094,0.15514,13.343,250.74,-1.6587,0.55291,-1.9119,-2.2116,-1.1925e-12,-0.95595,0,0,0.11111,-0,-0,0.66667
0.9967,0.13602,8.9703,-0.54597,-0.23872,1.2411,13.06,-4.3534,-0.93973,17.413,-3.7795e-07,-0.46987,0,0,0.11111,-0,-1.2015e-16,0.66667
0.82268,0.39534,7.4041,-0.157,-5.3923,31.097,3.0998,-1.0333,-1.9104,4.133,-4.9766e-10,-0.95518,0,0,0.11111,1.0527e-15,0,0.66667
0.083461,0.43763,0.75114,-0.093562,-9.9806,578.75,0.18741,-0.06247,-1.9685,0.24988,-1.8587e-09,-0.98423,0,0,0.11111,-0,-0,0.66667
0.65589,0.91258,5.903,0.61887,37.969,107.29,-9.7418,3.2473,-0.64206,-12.989,-2.1227e-13,-0.32103,0,0,0.11111,-0,8.501e-17,0.66667
0.22539,0.92737,2.0285,0.64106,65.616,442.87,-3.4678,1.1559,-0.53642,-4.6237,1.0733e-11,-0.26821,0,0,0.11111,-2.6316e-16,0,0.66667
0.11796,0.88753,1.0616,0.5813,61.772,545.28,-1.6456,0.54854,-0.7959,-2.1942,1.9045e-09,-0.39795,0,0,0.11111,-0,-0,0.66667
0.34868,0.49436,3.1381,-0.0084663,-0.79825,331.12,0.070848,-0.023616,-1.9986,0.094464,2.7813e-12,-0.99929,0,0,0.11111,2.6316e-16,0,0.66667
0.67717,0.62839,6.0945,0.19259,11.157,94.618,-3.1299,1.0433,-1.8671,-4.1732,-1.4779e-12,-0.93355,0,0,0.11111,-0,-0,0.66667
0.55076,0.47968,4.9569,-0.030475,-2.2752,172.52,0.40283,-0.13428,-1.9957,0.53711,1.6516e-12,-0.99787,0,0,0.11111,-0,-0,0.66667
0.043963,0.78433,0.39566,0.42649,45.804,617.52,-0.44999,0.15,-1.3542,-0.59999,-2.1581e-07,-0.6771,0,0,0.11111,-0,-0,0.66667
0.85675,0.0087876,7.7108,-0.73682,-21.15,22.679,15.151,-5.0502,-0.070154,20.201,-6.1881e-09,-0.035077,0,0,0.11111,4.2106e-15,-1.0639e-16,0.66667
0.4776,0.76365,4.2984,0.39548,32.803,226.03,-4.5331,1.511,-1.4413,-6.0441,4.4542e-13,-0.72064,0,0,0.11111,-0,-0,0.66667
0.85678,0.40213,7.711,-0.1468,-4.134,20.887,3.0187,-1.0062,-1.9245,4.0249,-2.7613e-09,-0.96223,0,0,0.11111,-5.2633e-16,0,0.66667
0.18765,0.18459,1.6889,-0.47311,-49.13,478.27,2.1307,-0.71025,-1.2088,2.841,3.7885e-10,-0.60442,0,0,0.11111,6.5791e-17,0,0.66667
0.083733,0.59121,0.7536,0.13681,14.595,578.49,-0.27494,0.091647,-1.9324,-0.36659,-2.5303e-08,-0.9662,0,0,0.11111,-1.6448e-16,0,0.66667
0.51597,0.75327,4.6437,0.37991,29.942,197.45,-4.7045,1.5682,-1.4912,-6.2726,-2.4203e-12,-0.74558,0,0,0.11111,-0,-0,0.66667
0.45454,0.079215,4.0909,-0.63118,-53.976,244.29,6.8856,-2.2952,-0.58517,9.1808,2.4301e-12,-0.29259,0,0,0.11111,5.2633e-16,0,0.66667
0.013894,0.80385,0.12505,0.45578,49.047,647.08,-0.15199,0.050662,-1.263,-0.20265,1.3987e-08,-0.63148,0,0,0.11111,-0,-0,0.66667
0.039355,0.13732,0.35419,-0.54401,-58.512,622.06,0.51383,-0.17127,-0.94505,0.6851,1.4597e-06,-0.47252,0,0,0.11111,6.5791e-17,0,0.66667
0.093633,0.42198,0.8427,-0.11702,-12.461,568.82,0.26298,-0.087659,-1.9549,0.35064,1.3035e-08,-0.97747,0,0,0.11111,1.3158e-16,0,0.66667
0.040677,0.40013,0.3661,-0.14981,-16.069,620.72,0.14626,-0.048752,-1.9183,0.19501,-1.5615e-07,-0.95917,0,0,0.11111,6.5791e-17,0,0.66667
0.17574,0.76862,1.5817,0.40294,42.006,489.56,-1.6995,0.56649,-1.4217,-2.266,-4.2739e-10,-0.71086,0,0,0.11111,-0,-0,0.66667
0.57554,0.29493,5.1798,-0.3076,-22.067,155.98,4.2488,-1.4163,-1.6638,5.6651,1.9726e-12,-0.83189,0,0,0.11111,-0,-0,0.66667
0.47675,0.54357,4.2908,0.065361,5.4167,226.39,-0.74786,0.24929,-1.9821,-0.99715,-2.7152e-12,-0.99106,0,0,0.11111,-0,-0,0.66667
0.97977,0.095186,8.8179,-0.60722,-2.5045,2.0981,14.278,-4.7595,-0.68875,19.038,7.6466e-06,-0.34437,0,0,0.11111,-0,-0,0.66667
0.070737,0.36442,0.63663,-0.20337,-21.744,591.22,0.34525,-0.11508,-1.8504,0.46034,3.6975e-08,-0.92519,0,0,0.11111,6.5791e-17,0,0.66667
0.86742,0.45709,7.8067,-0.06437,-1.684,18.036,1.3401,-0.44669,-1.9826,1.7867,-4.707e-10,-0.99131,0,0,0.11111,1.0527e-15,0,0.66667
0.57852,0.75118,5.2067,0.37678,26.908,154.11,-5.2313,1.7438,-1.4999,-6.9751,1.6613e-12,-0.74995,0,0,0.11111,-0,-0,0.66667
0.87648,0.76618,7.8883,0.39927,9.8282,16.354,-8.3989,2.7996,-1.4348,-11.198,8.8632e-09,-0.71738,0,0,0.11111,-1.0527e-15,0,0.66667
0.055714,0.13538,0.50142,-0.54694,-58.736,606.01,0.73132,-0.24377,-0.93393,0.9751,-1.0453e-08,-0.46696,0,0,0.11111,1.3158e-16,0,0.66667
0.099154,0.065607,0.89238,-0.65159,-69.587,563.59,1.5506,-0.51686,-0.48938,2.0674,-1.6867e-07,-0.24469,0,0,0.11111,-2.6316e-16,0,0.66667
0.86309,0.33672,7.7679,-0.24493,-6.6194,19.339,5.0735,-1.6912,-1.7863,6.7646,-5.17e-09,-0.89313,0,0,0.11111,-0,-0,0.66667
0.57038,0.17495,5.1335,-0.48757,-35.362,159.73,6.6745,-2.2248,-1.1521,8.8993,3.6469e-12,-0.57603,0,0,0.11111,-1.0527e-15,0,0.66667
0.55849,0.65161,5.0264,0.22742,16.78,167.33,-3.0483,1.0161,-1.8157,-4.0644,-9.5768e-13,-0.90787,0,0,0.11111,1.0527e-15,0,0.66667
0.013013,0.89615,0.11711,0.59422,64.036,647.95,-0.18557,0.061851,-0.74489,-0.24743,-1.0024e-05,-0.37244,0,0,0.11111,1.6448e-17,0,0.66667
0.64225,0.11172,5.7803,-0.58241,-36.82,115,8.9774,-2.9925,-0.79534,11.97,1.6964e-12,-0.39767,0,0,0.11111,-0,-0,0.66667
0.84766,0.59015,7.629,0.13523,4.0344,23.415,-2.7511,0.91704,-1.9349,-3.6682,2.4572e-09,-0.96743,0,0,0.11111,-2.6316e-16,0,0.66667
0.99613,0.38683,8.9651,-0.16975,-0.047808,0.17883,4.0582,-1.3527,-1.8966,5.4109,-3.3545e-07,-0.94828,0,0,0.11111,-0,-0,0.66667
0.43295,0.31054,3.8966,-0.28419,-24.797,260.83,2.953,-0.98433,-1.7125,3.9373,1.2006e-12,-0.85627,0,0,0.11111,-1.9737e-16,0,0.66667
0.31141,0.19017,2.8027,-0.46475,-45.159,364.14,3.4735,-1.1578,-1.2353,4.6313,-2.9354e-13,-0.61766,0,0,0.11111,-0,-0,0.66667
0.40477,0.16796,3.6429,-0.49806,-44.815,284.04,4.8384,-1.6128,-1.1197,6.4512,1.851e-12,-0.55983,0,0,0.11111,-0,-0,0.66667
0.22803,0.4193,2.0522,-0.12104,-12.324,440.06,0.66242,-0.22081,-1.9454,0.88323,-1.0226e-11,-0.97271,0,0,0.11111,-0,-0,0.66667
0.2261,0.81613,2.0349,0.4742,48.429,442.05,-2.5732,0.85772,-1.1988,-3.4309,6.1956e-11,-0.59938,0,0,0.11111,5.2633e-16,0,0.66667
0.43364,0.22349,3.9028,-0.41477,-36.204,260.44,4.3167,-1.4389,-1.3881,5.7556,1.4477e-13,-0.69404,0,0,0.11111,-0,-0,0.66667
0.68454,0.32333,6.1609,-0.265,-15.074,90.772,4.3537,-1.4512,-1.7502,5.8049,2.367e-12,-0.87512,0,0,0.11111,-0,-0,0.66667
0.66074,0.85717,5.9466,0.53576,32.448,104.31,-8.4959,2.832,-0.97788,-11.328,-3.1974e-13,-0.48894,0,0,0.11111,-0,-0,0.66667
0.77249,0.27764,6.9524,-0.33354,-14.37,49.74,6.1838,-2.0613,-1.6028,8.2451,2.5429e-11,-0.80139,0,0,0.11111,-0,-0,0.66667
0.21681,0.25066,1.9513,-0.37401,-38.33,450.67,1.9462,-0.64873,-1.5052,2.5949,-4.7222e-12,-0.75258,0,0,0.11111,-5.2633e-16,0,0.66667
0.72871,0.40707,6.5584,-0.1394,-6.982,68.586,2.4379,-0.81263,-1.9302,3.2505,6.6311e-12,-0.96509,0,0,0.11111,-0,-0,0.66667
0.79525,0.59001,7.1573,0.13502,5.2838,40.635,-2.577,0.859,-1.9375,-3.436,8.2458e-12,-0.96877,0,0,0.11111,-1.0527e-15,0,0.66667
0.56181,0.50053,5.0563,0.00080059,0.058705,164.96,-0.010795,0.0035983,-2.0043,-0.014393,-2.3662e-12,-1.0022,0,0,0.11111,-0,-0,0.66667
0.46567,0.96338,4.191,0.69507,58.732,235.8,-7.7682,2.5894,-0.2826,-10.358,1.3691e-12,-0.1413,0,0,0.11111,-2.6316e-16,7.4876e-17,0.66667
0.1582,0.082714,1.4238,-0.62593,-65.798,506.49,2.3765,-0.79217,-0.60807,3.1687,-6.1937e-10,-0.30404,0,0,0.11111,-0,-0,0.66667
0.046453,0.33579,0.41808,-0.24631,-26.416,615.05,0.2746,-0.091534,-1.7878,0.36614,-9.6141e-08,-0.89392,0,0,0.11111,-0,-0,0.66667
0.46383,0.13498,4.1745,-0.54753,-46.262,236.88,6.0951,-2.0317,-0.93244,8.1268,3.2463e-12,-0.46622,0,0,0.11111,-1.0527e-15,0,0.66667
0.6543,0.80689,5.8887,0.46033,28.264,107.74,-7.2286,2.4095,-1.2482,-9.6382,-1.8985e-12,-0.62411,0,0,0.11111,1.4401e-15,0,0.66667
0.21255,0.23422,1.9129,-0.39868,-40.945,454.69,2.0337,-0.6779,-1.4324,2.7116,-3.3213e-11,-0.71619,0,0,0.11111,-0,-0,0.66667
0.39995,0.31306,3.5995,-0.28042,-25.3,287.75,2.6917,-0.89722,-1.7195,3.5889,2.6805e-12,-0.85974,0,0,0.11111,-0,-0,0.66667
0.49764,0.13385,4.4787,-0.54923,-44.478,211.23,6.5596,-2.1865,-0.92823,8.7461,2.1938e-13,-0.46412,0,0,0.11111,-0,-0,0.66667
0.9549,0.56247,8.5941,0.093712,0.83843,2.5554,-2.1477,0.71589,-1.9716,-2.8636,1.6575e-07,-0.98582,0,0,0.11111,-2.2122e-15,0,0.66667
0.87745,0.93564,7.897,0.65347,16.147,17.064,-13.761,4.587,-0.48339,-18.348,1.8795e-07,-0.24169,0,0,0.11111,-1.1842e-15,0,0.66667
0.87405,0.9128,7.8664,0.61921,15.67,17.718,-12.989,4.3297,-0.63963,-17.319,3.3533e-09,-0.31982,0,0,0.11111,-0,-0,0.66667
0.9966,0.1661,8.9694,-0.50086,-0.20526,1.0546,11.98,-3.9932,-1.1076,15.973,-1.7159e-06,-0.55382,0,0,0.11111,-0,-1.1359e-16,0.66667
0.77345,0.46386,6.9611,-0.054206,-2.3206,49.017,1.0062,-0.33541,-1.9876,1.3416,2.0457e-11,-0.9938,0,0,0.11111,1.579e-15,0,0.66667
0.20306,0.40338,1.8275,-0.14493,-14.926,463.52,0.70632,-0.23544,-1.9302,0.94175,-6.778e-12,-0.96508,0,0,0.11111,-0,-0,0.66667
0.83989,0.6164,7.559,0.1746,5.4588,25.732,-3.5196,1.1732,-1.8909,-4.6927,1.3044e-09,-0.94543,0,0,0.11111,1.0527e-15,0,0.66667
0.16625,0.80773,1.4962,0.4616,48.307,498.67,-1.8417,0.61392,-1.241,-2.4557,1.549e-11,-0.62049,0,0,0.11111,-2.6316e-16,0,0.66667
0.88909,0.90186,8.0018,0.6028,13.516,14.222,-12.863,4.2875,-0.71041,-17.15,-3.3994e-10,-0.3552,0,0,0.11111,1.0527e-15,0,0.66667
0.33858,0.2391,3.0472,-0.39135,-37.255,340.12,3.1801,-1.06,-1.4536,4.2401,-9.9654e-13,-0.7268,0,0,0.11111,-5.2633e-16,0,0.66667
0.28794,0.9023,2.5915,0.60344,59.644,385.35,-4.1702,1.3901,-0.70358,-5.5603,-2.1894e-13,-0.35179,0,0,0.11111,3.9475e-16,0,0.66667
0.60622,0.68511,5.456,0.27767,18.828,136.14,-4.0399,1.3466,-1.7267,-5.3866,7.2653e-13,-0.86333,0,0,0.11111,-1.3158e-15,0,0.66667
0.060612,0.36258,0.5455,-0.20613,-22.069,601.14,0.29985,-0.09995,-1.85,0.3998,-6.9775e-09,-0.92501,0,0,0.11111,6.5791e-17,0,0.66667
0.90709,0.46791,8.1638,-0.048132,-0.89312,9.324,1.0478,-0.34928,-1.9958,1.3971,-5.168e-08,-0.99789,0,0,0.11111,1.25e-15,0,0.66667
0.38107,0.19756,3.4296,-0.45366,-41.713,303.73,4.1491,-1.383,-1.266,5.5321,9.8455e-13,-0.63301,0,0,0.11111,-0,-0,0.66667
0.78998,0.8593,7.1098,0.53894,21.729,43.466,-10.218,3.406,-0.96458,-13.624,1.3548e-10,-0.48229,0,0,0.11111,-0,-0,0.66667
0.71055,0.77097,6.3949,0.40645,21.567,77.739,-6.9313,2.3104,-1.4101,-9.2417,-3.5847e-12,-0.70503,0,0,0.11111,-1.0527e-15,0,0.66667
0.70415,0.27606,6.3373,-0.3359,-18.134,80.777,5.6766,-1.8922,-1.6018,7.5688,6.2395e-12,-0.8009,0,0,0.11111,-1.579e-15,0,0.66667
0.53263,0.1956,4.7936,-0.45659,-35.155,185.65,5.8367,-1.9456,-1.2608,7.7822,2.6867e-13,-0.63042,0,0,0.11111,-0,-0,0.66667
0.46668,0.88395,4.2001,0.57593,48.516,234.74,-6.4505,2.1502,-0.82175,-8.6007,-9.8188e-13,-0.41088,0,0,0.11111,-0,-0,0.66667
0.6454,0.052621,5.8086,-0.67107,-42.209,113.46,10.395,-3.4649,-0.39727,13.859,1.3225e-12,-0.19864,0,0,0.11111,5.2633e-16,0,0.66667
0.69158,0.00065314,6.2242,-0.74902,-42.203,88.44,12.432,-4.144,-0.0055308,16.576,4.2721e-13,-0.0027654,0,0,0.11111,-0,-0,0.66667
0.23582,0.80525,2.1224,0.45787,46.533,432.97,-2.5914,0.86379,-1.2567,-3.4552,3.4203e-11,-0.62835,0,0,0.11111,-2.6316e-16,0,0.66667
0.75381,0.46888,6.7843,-0.046674,-2.1494,57.224,0.8444,-0.28147,-1.9929,1.1259,-6.0539e-12,-0.99645,0,0,0.11111,-0,-0,0.66667
0.93662,0.86543,8.4296,0.54814,7.1177,5.7562,-12.322,4.1072,-0.93437,-16.429,1.3751e-07,-0.46718,0,0,0.11111,-0,-1.2417e-16,0.66667
0.8151,0.45436,7.3359,-0.068458,-2.4418,33.556,1.3392,-0.4464,-1.9835,1.7856,-1.5947e-10,-0.99176,0,0,0.11111,-0,-0,0.66667
0.73061,0.045553,6.5755,-0.68167,-34.253,68.998,11.953,-3.9843,-0.34684,15.937,1.0179e-12,-0.17342,0,0,0.11111,-0,-0,0.66667
0.82171,0.12038,7.3954,-0.56942,-19.833,32.4,11.23,-3.7432,-0.84543,14.973,-5.0628e-10,-0.42272,0,0,0.11111,-0,-0,0.66667
0.0069549,0.31145,0.062594,-0.28282,-30.402,653.9,0.047209,-0.015736,-1.7144,0.062945,4.1871e-07,-0.8572,0,0,0.11111,-1.028e-18,0,0.66667
0.17482,0.55718,1.5734,0.085764,8.93,490.33,-0.35985,0.11995,-1.9744,-0.4798,-3.8753e-10,-0.98719,0,0,0.11111,-0,-0,0.66667
0.34198,0.2631,3.0778,-0.35535,-33.729,337.12,2.9165,-0.97218,-1.5522,3.8887,1.0014e-13,-0.77612,0,0,0.11111,5.2633e-16,0,0.66667
0.73352,0.46297,6.6017,-0.055542,-2.7388,66.3,0.97778,-0.32593,-1.9922,1.3037,5.0657e-12,-0.99608,0,0,0.11111,-0,-0,0.66667
0.97837,0.14085,8.8054,-0.53873,-2.3372,1.8629,12.65,-4.2166,-0.96566,16.866,3.8264e-06,-0.48283,0,0,0.11111,2.1053e-15,0,0.66667
0.73288,0.21193,6.5959,-0.43211,-21.434,67.134,7.6004,-2.5335,-1.3382,10.134,1.1175e-11,-0.6691,0,0,0.11111,-5.2633e-16,0,0.66667
0.47899,0.50457,4.3109,0.006852,0.56623,224.67,-0.078769,0.026256,-1.9986,-0.10503,3.331e-12,-0.99928,0,0,0.11111,-2.1053e-15,0,0.66667
0.92105,0.61173,8.2895,0.1676,2.6524,7.0089,-3.7049,1.235,-1.9027,-4.9398,2.5371e-08,-0.95134,0,0,0.11111,-0,-0,0.66667
0.3777,0.35179,3.3993,-0.22231,-20.466,306.34,2.0152,-0.67173,-1.8247,2.6869,1.064e-12,-0.91237,0,0,0.11111,-1.0527e-15,0,0.66667
0.64169,0.93411,5.7752,0.65117,41.275,115.54,-10.028,3.3428,-0.49557,-13.371,-1.6875e-12,-0.24778,0,0,0.11111,1.3158e-15,0,0.66667
0.0015045,0.80301,0.01354,0.45452,48.92,659.27,-0.016411,0.0054692,-1.2673,-0.021881,-1.627e-06,-0.63363,0,0,0.11111,-0,2.2254e-16,0.66667
0.17936,0.05775,1.6142,-0.66338,-69.256,486.31,2.8556,-0.95186,-0.43339,3.8074,4.0493e-09,-0.21669,0,0,0.11111,3.2895e-16,0,0.66667
0.29484,0.44,2.6535,-0.089995,-8.8228,378.72,0.63682,-0.21227,-1.9732,0.84909,-2.8271e-12,-0.98662,0,0,0.11111,-0,-0,0.66667
0.38699,0.65195,3.4829,0.22793,20.809,298.52,-2.117,0.70565,-1.8153,-2.8226,2.504e-12,-0.90765,0,0,0.11111,-6.5791e-16,0,0.66667
0.45982,0.095491,4.1384,-0.60676,-51.553,240.12,6.6961,-2.232,-0.68969,8.9281,4.6465e-12,-0.34485,0,0,0.11111,-0,-0,0.66667
0.79672,0.59366,7.1705,0.14049,5.4625,40.099,-2.6863,0.89542,-1.9351,-3.5817,-1.6682e-11,-0.96754,0,0,0.11111,-1.176e-15,0,0.66667
0.27985,0.23424,2.5186,-0.39865,-39.515,392.45,2.6774,-0.89248,-1.4366,3.5699,-5.8451e-12,-0.71831,0,0,0.11111,-5.2633e-16,0,0.66667
0.082662,0.06807,0.74395,-0.6479,-69.399,579.67,1.2853,-0.42845,-0.50659,1.7138,2.2004e-07,-0.25329,0,0,0.11111,-0,-0,0.66667
0.52137,0.56691,4.6923,0.10036,7.8354,193.27,-1.2558,0.41861,-1.9628,-1.6745,1.4361e-12,-0.98138,0,0,0.11111,-0,-0,0.66667
0.98115,0.53115,8.8304,0.046732,0.1613,0.59207,-1.1004,0.36681,-1.9934,-1.4672,-6.1115e-07,-0.99672,0,0,0.11111,-1.102e-15,0,0.66667
0.40076,0.89873,3.6068,0.59809,54.093,287.53,-5.7526,1.9175,-0.7264,-7.6701,-2.1902e-12,-0.3632,0,0,0.11111,5.2633e-16,0,0.66667
0.25719,0.32695,2.3147,-0.25957,-26.046,413.06,1.6022,-0.53408,-1.7577,2.1363,-1.689e-11,-0.87886,0,0,0.11111,5.2633e-16,0,0.66667
0.77634,0.79751,6.9871,0.44627,18.98,48.468,-8.315,2.7717,-1.29,-11.087,-3.9148e-11,-0.64502,0,0,0.11111,-0,-0,0.66667
0.61558,0.36792,5.5403,-0.19812,-13.181,130.23,2.927,-0.97567,-1.8585,3.9027,1.4646e-12,-0.92923,0,0,0.11111,-1.0527e-15,0,0.66667
0.0075483,0.74472,0.067935,0.36707,39.479,653.32,-0.066499,0.022166,-1.5189,-0.088666,-6.2462e-07,-0.75945,0,0,0.11111,-0,-0,0.66667
0.98621,0.73741,8.8758,0.35612,0.89289,0.86023,-8.4289,2.8096,-1.5503,-11.239,-1.6289e-08,-0.77513,0,0,0.11111,-0,-0,0.66667
0.48892,0.69282,4.4003,0.28922,23.626,217.32,-3.3938,1.1313,-1.7017,-4.525,-1.3878e-13,-0.85085,0,0,0.11111,-0,-0,0.66667
0.30402,0.41774,2.7362,-0.12339,-12.024,370.49,0.90028,-0.30009,-1.9433,1.2004,-1.1926e-12,-0.97164,0,0,0.11111,5.2633e-16,0,0.66667
0.66508,0.70055,5.9857,0.30082,17.971,101.37,-4.8016,1.6005,-1.6756,-6.4022,-1.3127e-12,-0.83782,0,0,0.11111,1.0527e-15,0,0.66667
0.28556,0.65862,2.57,0.23793,23.477,387.15,-1.6307,0.54356,-1.7985,-2.1742,6.1093e-12,-0.89925,0,0,0.11111,1.0527e-15,0,0.66667
0.46354,0.45538,4.1719,-0.066924,-5.636,236.55,0.74453,-0.24818,-1.9821,0.99271,7.4007e-13,-0.99104,0,0,0.11111,-0,-0,0.66667
0.65182,0.80568,5.8664,0.45852,28.313,109.15,-7.1729,2.391,-1.2515,-9.5639,-8.2023e-13,-0.62575,0,0,0.11111,1.0527e-15,0,0.66667
0.12188,0.20821,1.0969,-0.43769,-46.4,541.41,1.2803,-0.42677,-1.3186,1.7071,7.3155e-09,-0.65932,0,0,0.11111,-1.3158e-16,0,0.66667
0.46722,0.709,4.205,0.3135,26.316,233.88,-3.5154,1.1718,-1.6523,-4.6872,2.8888e-13,-0.82615,0,0,0.11111,5.2633e-16,0,0.66667
0.73521,0.73287,6.6169,0.3493,17.174,65.872,-6.1634,2.0545,-1.5687,-8.2178,-1.595e-11,-0.78435,0,0,0.11111,-0,-0,0.66667
0.96052,0.8993,8.6447,0.59895,4.8805,3.3769,-13.807,4.6024,-0.72226,-18.41,4.4075e-06,-0.36113,0,0,0.11111,-1.579e-15,0,0.66667
0.021389,0.63735,0.19251,0.20602,22.129,639.69,-0.10576,0.035253,-1.8468,-0.14101,1.8039e-07,-0.92342,0,0,0.11111,3.2895e-17,0,0.66667
0.83248,0.66735,7.4923,0.25102,8.1922,28.1,-5.0153,1.6718,-1.7746,-6.687,9.5597e-10,-0.88731,0,0,0.11111,-0,-0,0.66667
0.93915,0.50438,8.4523,0.00657,0.079894,4.3025,-0.14808,0.049361,-2.0021,-0.19745,-6.5089e-07,-1.001,0,0,0.11111,-0,-0,0.66667
0.98582,0.81944,8.8724,0.47916,1.292,1.2807,-11.337,3.7789,-1.1858,-15.116,9.7369e-08,-0.5929,0,0,0.11111,2.1053e-15,0,0.66667
0.93783,0.14503,8.4405,-0.53245,-6.7736,5.535,11.984,-3.9948,-0.99539,15.979,-9.3405e-08,-0.4977,0,0,0.11111,-0,-0,0.66667
0.12925,0.31695,1.1633,-0.27458,-29.021,534.21,0.85176,-0.28392,-1.7314,1.1357,8.3149e-09,-0.8657,0,0,0.11111,-0,-0,0.66667
0.88602,0.45458,7.9742,-0.068132,-1.5424,13.618,1.4488,-0.48293,-1.9819,1.9317,-6.9759e-09,-0.99093,0,0,0.11111,-0,-0,0.66667
0.15286,0.39646,1.3758,-0.15531,-16.295,511.39,0.56979,-0.18993,-1.9138,0.75972,2.3345e-09,-0.95691,0,0,0.11111,-1.3158e-16,0,0.66667
0.36052,0.3097,3.2446,-0.28545,-26.68,321.03,2.4699,-0.82328,-1.7135,3.2931,4.1367e-13,-0.85674,0,0,0.11111,5.2633e-16,0,0.66667
0.36116,0.066237,3.2505,-0.65064,-61.01,320.97,5.6397,-1.8799,-0.49694,7.5196,2.5953e-12,-0.24847,0,0,0.11111,1.0527e-15,0,0.66667
0.27979,0.66117,2.5181,0.24175,23.939,392.39,-1.6233,0.5411,-1.7946,-2.1644,7.143e-12,-0.8973,0,0,0.11111,-0,-0,0.66667
0.3548,0.85379,3.1932,0.53068,49.944,326.23,-4.5189,1.5063,-0.99726,-6.0252,4.2371e-12,-0.49863,0,0,0.11111,-1.0527e-15,0,0.66667
0.543,0.856,4.887,0.53399,40.513,178.52,-6.959,2.3197,-0.98512,-9.2787,-1.4557e-12,-0.49256,0,0,0.11111,-0,-0,0.66667
0.078517,0.23343,0.70665,-0.39986,-42.752,583.64,0.7535,-0.25117,-1.4347,1.0047,7.6845e-08,-0.71735,0,0,0.11111,-0,-0,0.66667
0.37287,0.14908,3.3558,-0.52638,-48.789,310.78,4.7105,-1.5702,-1.0161,6.2807,6.0396e-13,-0.50803,0,0,0.11111,-2.6316e-16,0,0.66667
0.58322,0.82772,5.249,0.49158,34.869,151.26,-6.8808,2.2936,-1.1388,-9.1744,7.0299e-13,-0.56941,0,0,0.11111,-0,-0,0.66667
0.13425,0.012047,1.2082,-0.73193,-77.603,529.62,2.3583,-0.78609,-0.092764,3.1444,2.1457e-08,-0.046382,0,0,0.11111,5.2633e-16,0,0.66667
0.24299,0.89676,2.1869,0.59514,60.351,426.46,-3.4707,1.1569,-0.73823,-4.6276,8.0716e-11,-0.36912,0,0,0.11111,-2.6316e-16,0,0.66667
0.31278,0.075172,2.815,-0.63724,-61.986,363.16,4.7836,-1.5945,-0.5596,6.3781,2.3732e-12,-0.2798,0,0,0.11111,-0,-0,0.66667
0.074534,0.26455,0.6708,-0.35318,-37.771,587.52,0.63176,-0.21059,-1.5557,0.84235,8.6446e-08,-0.77784,0,0,0.11111,-1.3158e-16,0,0.66667
0.80769,0.34351,7.2692,-0.23473,-8.6895,36.273,4.5502,-1.5167,-1.804,6.067,-1.5945e-10,-0.90198,0,0,0.11111,-1.8093e-16,0,0.66667
0.2634,0.12764,2.3706,-0.55854,-55.992,407.62,3.5308,-1.1769,-0.89258,4.7078,-5.0212e-11,-0.44629,0,0,0.11111,-0,-1.1027e-16,0.66667
0.4106,0.45806,3.6954,-0.062905,-5.6119,278.85,0.6199,-0.20663,-1.9846,0.82653,6.567e-14,-0.99231,0,0,0.11111,-0,-0,0.66667
0.40541,0.83519,3.6487,0.50278,45.214,283.52,-4.8921,1.6307,-1.104,-6.5227,-9.5213e-13,-0.55201,0,0,0.11111,-0,-0,0.66667
0.30474,0.99385,2.7426,0.74077,72.563,370.5,-5.4177,1.8059,-0.046792,-7.2236,1.3722e-12,-0.023396,0,0,0.11111,7.8949e-16,0,0.66667
0.12774,0.27162,1.1496,-0.34257,-36.236,535.69,1.0502,-0.35008,-1.583,1.4003,8.9448e-09,-0.7915,0,0,0.11111,-0,-0,0.66667
0.89356,0.27205,8.042,-0.34193,-7.285,12.397,7.3329,-2.4443,-1.5844,9.7772,-2.4923e-08,-0.79219,0,0,0.11111,-0,-0,0.66667
0.68139,0.3169,6.1326,-0.27465,-15.751,92.456,4.4914,-1.4971,-1.7302,5.9885,8.8196e-13,-0.86512,0,0,0.11111,2.1053e-15,0,0.66667
0.26689,0.1912,2.402,-0.46321,-46.296,404.32,2.967,-0.98901,-1.24,3.956,-1.0485e-11,-0.61999,0,0,0.11111,1.0527e-15,0,0.66667
0.092431,0.84151,0.83188,0.51226,54.693,570.08,-1.1364,0.37879,-1.07,-1.5152,-1.6693e-09,-0.535,0,0,0.11111,-1.3711e-16,0,0.66667
0.1235,0.73021,1.1115,0.34532,36.567,539.81,-1.0235,0.34116,-1.5777,-1.3646,-1.0577e-08,-0.78884,0,0,0.11111,-0,-0,0.66667
0.27644,0.3347,2.4879,-0.24795,-24.603,395.44,1.645,-0.54833,-1.7799,2.1933,-1.0269e-11,-0.88996,0,0,0.11111,-0,-0,0.66667
0.049043,0.94023,0.44139,0.66035,71.06,612.58,-0.77726,0.25909,-0.45138,-1.0363,-1.5978e-06,-0.22569,0,0,0.11111,-1.3158e-16,0,0.66667
0.14515,0.37122,1.3063,-0.19317,-20.317,518.83,0.6729,-0.2243,-1.8667,0.8972,3.0284e-09,-0.93336,0,0,0.11111,-6.5791e-17,0,0.66667
0.47503,0.7379,4.2753,0.35685,29.682,227.94,-4.0683,1.3561,-1.5448,-5.4244,6.3283e-13,-0.7724,0,0,0.11111,-0,-0,0.66667
0.93598,0.14027,8.4238,-0.5396,-7.0711,5.8052,12.121,-4.0404,-0.96624,16.162,-1.2458e-07,-0.48312,0,0,0.11111,-0,3.4422e-17,0.66667
0.43407,0.47495,3.9066,-0.037572,-3.2714,259.8,0.39141,-0.13047,-1.9949,0.52188,-4.2277e-13,-0.99745,0,0,0.11111,-0,-0,0.66667
0.70914,0.71212,6.3823,0.31818,16.93,78.253,-5.4152,1.8051,-1.6382,-7.2202,-5.7647e-12,-0.8191,0,0,0.11111,5.2633e-16,0,0.66667
0.57031,0.50896,5.1327,0.01344,0.97161,159.24,-0.18396,0.061321,-1.9969,-0.24529,8.8769e-13,-0.99845,0,0,0.11111,-0,-0,0.66667
0.97624,0.55261,8.7862,0.078916,0.3546,0.87138,-1.849,0.61633,-1.9753,-2.4653,1.2096e-07,-0.98767,0,0,0.11111,1.0527e-15,0,0.66667
0.17821,0.58353,1.6039,0.1253,13.031,487.1,-0.5359,0.17863,-1.9419,-0.71454,-3.4215e-10,-0.97093,0,0,0.11111,-2.6316e-16,0,0.66667
0.73911,0.70115,6.6519,0.30173,14.638,64.002,-5.3522,1.7841,-1.6746,-7.1362,-1.5511e-11,-0.8373,0,0,0.11111,-1.0527e-15,0,0.66667
0.35041,0.64576,3.1537,0.21864,20.597,329.69,-1.8387,0.6129,-1.8276,-2.4516,-2.8966e-13,-0.9138,0,0,0.11111,5.2633e-16,0,0.66667
0.99121,0.38334,8.9209,-0.17499,-0.23419,0.30828,4.1629,-1.3876,-1.8888,5.5506,-1.6968e-07,-0.94441,0,0,0.11111,-0,-0,0.66667
0.35281,0.13027,3.1753,-0.55459,-52.293,327.98,4.696,-1.5653,-0.90457,6.2613,8.705e-12,-0.45229,0,0,0.11111,-1.0527e-15,0,0.66667
0.97878,0.15083,8.809,-0.52375,-2.2183,1.779,12.303,-4.1011,-1.0231,16.405,3.2026e-06,-0.51157,0,0,0.11111,1.579e-15,0,0.66667
0.86037,0.64047,7.7433,0.2107,5.7978,20.001,-4.3507,1.4502,-1.8444,-5.8009,4.6442e-09,-0.9222,0,0,0.11111,-0,-0,0.66667
0.59774,0.91003,5.3796,0.61505,42.575,142.23,-8.8233,2.9411,-0.65477,-11.764,5.3202e-13,-0.32739,0,0,0.11111,-0,-0,0.66667
0.027448,0.32369,0.24703,-0.26446,-28.405,633.73,0.17421,-0.058072,-1.7504,0.23229,-3.5575e-07,-0.87522,0,0,0.11111,6.5791e-17,0,0.66667
0.18553,0.038911,1.6698,-0.69163,-72.065,480.47,3.0797,-1.0266,-0.30054,4.1062,1.65e-09,-0.15027,0,0,0.11111,-0,-9.7398e-17,0.66667
0.056512,0.027569,0.50861,-0.70865,-76.245,605.27,0.96113,-0.32038,-0.21306,1.2815,-1.0301e-05,-0.10653,0,0,0.11111,9.8686e-17,0,0.66667
0.79246,0.66157,7.1322,0.24235,9.6102,41.802,-4.6093,1.5364,-1.7904,-6.1457,3.0524e-11,-0.8952,0,0,0.11111,2.1053e-15,0,0.66667
0.073951,0.96627,0.66556,0.69941,75.07,588.2,-1.2413,0.41377,-0.2606,-1.6551,-4.7609e-06,-0.1303,0,0,0.11111,1.6448e-17,1.1153e-16,0.66667
0.78646,0.98878,7.0781,0.73317,30.187,45.581,-13.839,4.6128,-0.086872,-18.451,5.7737e-11,-0.043436,0,0,0.11111,-2.1053e-15,0,0.66667
0.027952,0.91755,0.25157,0.62633,67.48,633.28,-0.42017,0.14007,-0.60477,-0.56022,1.3121e-05,-0.30239,0,0,0.11111,-0,-0,0.66667
0.25521,0.65201,2.2969,0.22802,22.901,414.87,-1.3966,0.46554,-1.814,-1.8621,1.7212e-11,-0.90701,0,0,0.11111,-1.3158e-16,0,0.66667
0.29758,0.77834,2.6783,0.41751,40.93,376.45,-2.9819,0.99396,-1.384,-3.9759,4.9791e-12,-0.69201,0,0,0.11111,-7.237e-16,0,0.66667
0.56461,0.38915,5.0815,-0.16628,-12.141,163.13,2.2532,-0.75106,-1.9025,3.0042,1.3374e-12,-0.95123,0,0,0.11111,-0,-0,0.66667
0.56206,0.93534,5.0586,0.653,48.153,165.75,-8.8087,2.9362,-0.48824,-11.745,-4.13e-13,-0.24412,0,0,0.11111,1.4474e-15,3.3936e-17,0.66667
0.8874,0.7612,7.9866,0.3918,8.8264,13.842,-8.3444,2.7815,-1.4538,-11.126,1.687e-08,-0.72692,0,0,0.11111,-0,-0,0.66667
0.63738,0.98187,5.7364,0.7228,46.319,118.32,-11.057,3.6856,-0.14197,-14.742,-6.6969e-13,-0.070985,0,0,0.11111,-0,-0,0.66667
0.16146,0.39915,1.4532,-0.15127,-15.827,503.13,0.58619,-0.1954,-1.9171,0.78159,9.449e-10,-0.95855,0,0,0.11111,3.5877e-16,0,0.66667
0.026995,0.37125,0.24295,-0.19313,-20.738,634.18,0.12512,-0.041708,-1.867,0.16683,-2.2864e-07,-0.93348,0,0,0.11111,8.2239e-18,0,0.66667
0.76198,0.9189,6.8578,0.62835,28.351,54.935,-11.491,3.8303,-0.59535,-15.321,8.5851e-12,-0.29767,0,0,0.11111,-0,2.1566e-17,0.66667
0.53557,0.25423,4.8201,-0.36866,-28.232,183.41,4.7386,-1.5795,-1.5162,6.3182,5.9552e-13,-0.75811,0,0,0.11111,-0,-0,0.66667
0.57863,0.89551,5.2077,0.59327,42.491,154.53,-8.2388,2.7463,-0.75173,-10.985,1.7319e-13,-0.37586,0,0,0.11111,-0,-0,0.66667
0.41411,0.023823,3.7269,-0.71427,-63.874,276.81,7.0987,-2.3662,-0.18374,9.465,-2.7844e-13,-0.091872,0,0,0.11111,5.2633e-16,0,0.66667
0.58982,0.11237,5.3083,-0.58144,-40.815,147.21,8.2306,-2.7435,-0.79688,10.974,1.1839e-12,-0.39844,0,0,0.11111,-1.0527e-15,0,0.66667
0.40563,0.5458,3.6507,0.068703,6.1594,282.94,-0.66884,0.22295,-1.986,-0.89178,-3.0593e-12,-0.99302,0,0,0.11111,-5.2633e-16,0,0.66667
0.44569,0.43046,4.0112,-0.10431,-8.968,250.56,1.1158,-0.37192,-1.9591,1.4877,-3.0546e-12,-0.97954,0,0,0.11111,2.6316e-16,0,0.66667
0.59274,0.62907,5.3347,0.19361,13.458,144.61,-2.7543,0.91808,-1.8699,-3.6723,3.2312e-12,-0.93494,0,0,0.11111,-2.1053e-15,0,0.66667
0.49234,0.31065,4.4311,-0.28402,-23.097,214.74,3.356,-1.1187,-1.7117,4.4747,1.3454e-12,-0.85587,0,0,0.11111,5.2633e-16,0,0.66667
0.059103,0.71322,0.53193,0.31983,34.269,602.64,-0.45368,0.15123,-1.6363,-0.6049,-3.3469e-08,-0.81817,0,0,0.11111,-6.5791e-17,0,0.66667
0.97679,0.42932,8.7911,-0.10602,-0.46474,0.85943,2.4854,-0.82847,-1.9577,3.3139,3.2171e-07,-0.97883,0,0,0.11111,1.0527e-15,0,0.66667
0.85514,0.54424,7.6962,0.066367,1.8878,21.275,-1.3621,0.45403,-1.983,-1.8161,1.6164e-09,-0.9915,0,0,0.11111,-0,-0,0.66667
0.37909,0.50191,3.4118,0.0028618,0.26299,305.1,-0.026037,0.0086789,-2,-0.034716,3.2883e-12,-1,0,0,0.11111,-2.1053e-15,0,0.66667
0.54652,0.047108,4.9187,-0.67934,-51.383,176.46,8.9106,-2.9702,-0.36236,11.881,5.0484e-12,-0.18118,0,0,0.11111,-1.0527e-15,0,0.66667
0.93287,0.63826,8.3959,0.20739,2.7943,5.2981,-4.6433,1.5478,-1.8454,-6.1911,2.6818e-08,-0.92272,0,0,0.11111,2.1053e-15,0,0.66667
0.39797,0.71966,3.5817,0.32949,29.794,289.45,-3.147,1.049,-1.6128,-4.196,2.8619e-12,-0.80639,0,0,0.11111,1.0527e-15,0,0.66667
0.94477,0.71087,8.503,0.3163,3.5173,3.9923,-7.172,2.3907,-1.642,-9.5626,4.8914e-09,-0.82098,0,0,0.11111,-0,-0,0.66667
0.030486,0.42722,0.27438,-0.10918,-11.718,630.74,0.079881,-0.026627,-1.9604,0.10651,-2.5262e-07,-0.98021,0,0,0.11111,-3.2895e-17,0,0.66667
0.7458,0.91331,6.7122,0.61997,29.6,61.874,-11.097,3.699,-0.63253,-14.796,-7.1561e-12,-0.31626,0,0,0.11111,-0,-0,0.66667
0.79701,0.45601,7.1731,-0.06599,-2.5616,39.944,1.2623,-0.42076,-1.9882,1.683,-1.5785e-11,-0.99409,0,0,0.11111,-0,-0,0.66667
0.19384,0.65975,1.7445,0.23962,24.781,472.27,-1.1147,0.37158,-1.7943,-1.4863,-1.2032e-10,-0.89717,0,0,0.11111,-0,-0,0.66667
0.16287,0.049645,1.4658,-0.67553,-70.948,502.06,2.6405,-0.88017,-0.37488,3.5207,-5.1547e-09,-0.18744,0,0,0.11111,-2.6316e-16,0,0.66667
0.59108,0.052066,5.3197,-0.6719,-47.135,146.66,9.5315,-3.1772,-0.39512,12.709,4.6629e-13,-0.19756,0,0,0.11111,-5.2633e-16,-1.1706e-16,0.66667
0.47969,0.053234,4.3172,-0.67015,-55.643,225,7.7152,-2.5717,-0.40178,10.287,-9.2504e-13,-0.20089,0,0,0.11111,-5.2633e-16,1.1568e-17,0.66667
0.58654,0.50702,5.2789,0.010534,0.74013,148.53,-0.14829,0.049429,-1.9974,-0.19772,-1.2124e-12,-0.9987,0,0,0.11111,-0,-0,0.66667
0.13227,0.082697,1.1904,-0.62595,-66.309,531.45,1.9871,-0.66236,-0.60428,2.6495,-1.5734e-08,-0.30214,0,0,0.11111,-0,-0,0.66667
0.27774,0.69664,2.4996,0.29496,29.253,394.29,-1.9661,0.65536,-1.6902,-2.6215,8.8398e-12,-0.8451,0,0,0.11111,-0,-0,0.66667
0.069672,0.33608,0.62705,-0.24588,-26.298,592.27,0.41114,-0.13705,-1.7828,0.54818,4.021e-08,-0.89139,0,0,0.11111,6.5791e-17,0,0.66667
0.108,0.11412,0.97197,-0.57882,-61.647,554.95,1.5003,-0.50009,-0.81063,2.0003,-7.9666e-09,-0.40532,0,0,0.11111,-1.3158e-16,0,0.66667
0.71638,0.17926,6.4474,-0.48111,-25.129,75.077,8.2718,-2.7573,-1.1778,11.029,4.7091e-12,-0.5889,0,0,0.11111,1.0527e-15,0,0.66667
0.026402,0.13146,0.23762,-0.5528,-59.514,634.79,0.35028,-0.11676,-0.91222,0.46704,-4.6843e-06,-0.45611,0,0,0.11111,-6.5791e-17,0,0.66667
0.53965,0.9154,4.8569,0.6231,47.585,181.09,-8.0702,2.6901,-0.61709,-10.76,-1.104e-12,-0.30854,0,0,0.11111,-0,-0,0.66667
0.29866,0.76246,2.688,0.39369,38.559,375.46,-2.8219,0.94063,-1.4502,-3.7625,3.8034e-12,-0.72508,0,0,0.11111,-5.2633e-16,0,0.66667
0.8685,0.39235,7.8165,-0.16147,-4.195,17.839,3.3656,-1.1219,-1.9047,4.4875,-4.7853e-09,-0.95237,0,0,0.11111,1.0527e-15,0,0.66667
0.54504,0.88012,4.9053,0.57018,43.146,177.19,-7.4585,2.4862,-0.84592,-9.9447,-1.7812e-12,-0.42296,0,0,0.11111,-0,1.6411e-16,0.66667
0.99755,0.020554,8.9779,-0.71917,-0.34665,2.1009,17.218,-5.7392,-0.16145,22.957,6.6119e-05,-0.080725,0,0,0.11111,-2.1053e-15,-3.5546e-16,0.66667
0.56108,0.72499,5.0497,0.33748,24.817,165.71,-4.5445,1.5148,-1.5973,-6.0593,-5.2802e-13,-0.79865,0,0,0.11111,2.1053e-15,0,0.66667
0.5621,0.31103,5.0589,-0.28346,-20.799,164.95,3.8239,-1.2746,-1.7189,5.0986,8.7708e-14,-0.85944,0,0,0.11111,1.579e-15,0,0.66667
0.33511,0.77139,3.016,0.40708,38.86,343.17,-3.274,1.0913,-1.4083,-4.3653,6.0103e-12,-0.70416,0,0,0.11111,-5.2633e-16,0,0.66667
0.25232,0.21904,2.2709,-0.42145,-42.45,417.66,2.5522,-0.85073,-1.3706,3.4029,-2.2548e-11,-0.6853,0,0,0.11111,-0,-0,0.66667
0.42737,0.8209,3.8463,0.48135,42.326,265.58,-4.9372,1.6457,-1.1743,-6.5829,-3.848e-12,-0.58717,0,0,0.11111,-0,-0,0.66667
0.22718,0.12757,2.0446,-0.55865,-57.076,441.12,3.0459,-1.0153,-0.88881,4.0612,-2.4326e-10,-0.4444,0,0,0.11111,5.2633e-16,0,0.66667
0.070876,0.2131,0.63788,-0.43035,-46.076,591.12,0.73204,-0.24401,-1.3395,0.97606,1.3593e-07,-0.66973,0,0,0.11111,-9.8686e-17,0,0.66667
0.42505,0.76592,3.8255,0.39888,35.129,267.33,-4.0691,1.3564,-1.4338,-5.4254,-1.4779e-12,-0.71692,0,0,0.11111,5.2633e-16,0,0.66667
0.10642,0.55692,0.95775,0.085385,9.068,556.35,-0.21807,0.072692,-1.9746,-0.29077,-1.7311e-08,-0.98728,0,0,0.11111,-1.3158e-16,0,0.66667
0.72312,0.39708,6.5081,-0.15438,-7.8684,71.237,2.6792,-0.89308,-1.9141,3.5723,5.0373e-12,-0.95703,0,0,0.11111,1.0527e-15,0,0.66667
0.29839,0.56864,2.6855,0.10296,10.07,375.53,-0.73732,0.24577,-1.9645,-0.98309,1.5865e-12,-0.98223,0,0,0.11111,-0,-0,0.66667
0.49036,0.24559,4.4133,-0.38162,-31.14,216.35,4.4912,-1.4971,-1.4807,5.9882,-1.5716e-12,-0.74033,0,0,0.11111,5.5352e-16,0,0.66667
0.19558,0.42938,1.7602,-0.10593,-10.942,470.58,0.49722,-0.16574,-1.9577,0.66296,1.4873e-10,-0.97887,0,0,0.11111,-2.6316e-16,0,0.66667
0.68083,0.02707,6.1274,-0.7094,-41.058,93.924,11.591,-3.8638,-0.20899,15.455,2.5135e-13,-0.10449,0,0,0.11111,-0,-0,0.66667
0.83083,0.60977,7.4774,0.16466,5.4165,28.497,-3.2832,1.0944,-1.9037,-4.3777,6.6812e-10,-0.95183,0,0,0.11111,-0,-0,0.66667
0.22041,0.50139,1.9837,0.0020806,0.21257,447.17,-0.011006,0.0036686,-2.0027,-0.014674,3.6591e-11,-1.0014,0,0,0.11111,-0,-0,0.66667
0.0078087,0.61138,0.070278,0.16707,17.95,653.06,-0.03131,0.010436,-1.898,-0.041746,-1.8259e-07,-0.94901,0,0,0.11111,-0,-0,0.66667
0.2509,0.1504,2.2581,-0.5244,-52.914,419.07,3.1578,-1.0526,-1.0253,4.2104,-2.7006e-11,-0.51264,0,0,0.11111,-0,-0,0.66667
0.62764,0.88734,5.6487,0.58102,37.895,123.64,-8.752,2.9173,-0.79992,-11.669,-2.5873e-12,-0.39996,0,0,0.11111,1.0527e-15,0,0.66667
0.31082,0.28871,2.7974,-0.31694,-30.771,364.53,2.3642,-0.78808,-1.6446,3.1523,-1.3802e-12,-0.8223,0,0,0.11111,-0,-0,0.66667
0.83621,0.88998,7.5259,0.58498,18.868,27.886,-11.74,3.9133,-0.78054,-15.653,3.3056e-09,-0.39027,0,0,0.11111,-0,-0,0.66667
0.85274,0.33432,7.6747,-0.24851,-7.1937,22.132,5.086,-1.6953,-1.7781,6.7814,-3.2989e-09,-0.88903,0,0,0.11111,-1.0527e-15,0,0.66667
0.37174,0.67645,3.3457,0.26467,24.499,311.43,-2.3613,0.78711,-1.7506,-3.1484,2.1505e-12,-0.87528,0,0,0.11111,-0,-0,0.66667
0.36533,0.17567,3.288,-0.48649,-45.364,317.13,4.2655,-1.4218,-1.1562,5.6874,1.2657e-12,-0.57811,0,0,0.11111,-5.2633e-16,0,0.66667
0.016563,0.1602,0.14906,-0.5097,-54.872,644.46,0.2026,-0.067536,-1.0796,0.27014,-9.0435e-07,-0.53979,0,0,0.11111,-6.5791e-17,0,0.66667
0.54968,0.67011,4.9471,0.25516,19.1,173.41,-3.3662,1.1221,-1.7685,-4.4883,9.3858e-13,-0.88423,0,0,0.11111,-0,-0,0.66667
0.15427,0.22486,1.3884,-0.4127,-43.343,510.13,1.528,-0.50934,-1.3959,2.0374,1.6517e-09,-0.69797,0,0,0.11111,-0,-0,0.66667
0.11268,0.77965,1.0141,0.41948,44.561,550.33,-1.1344,0.37814,-1.3752,-1.5125,-1.5971e-08,-0.68758,0,0,0.11111,-3.2895e-17,0,0.66667
0.053338,0.17701,0.48004,-0.48449,-52.011,608.32,0.6202,-0.20673,-1.163,0.82694,7.9261e-08,-0.58151,0,0,0.11111,-6.5791e-17,0,0.66667
0.17928,0.97401,1.6136,0.71102,74.28,486.43,-3.0594,1.0198,-0.2005,-4.0792,-1.2967e-10,-0.10025,0,0,0.11111,-0,-0,0.66667
0.15593,0.26048,1.4034,-0.35928,-37.697,508.51,1.3445,-0.44818,-1.5445,1.7927,2.0523e-09,-0.77226,0,0,0.11111,-2.6316e-16,0,0.66667
0.03549,0.11481,0.31941,-0.57778,-62.185,625.86,0.49214,-0.16405,-0.81187,0.65618,1.1599e-06,-0.40593,0,0,0.11111,3.2895e-17,0,0.66667
0.98243,0.08499,8.8419,-0.62252,-2.2284,2.0451,14.678,-4.8926,-0.6234,19.571,5.0927e-07,-0.3117,0,0,0.11111,1.0527e-15,-1.0618e-16,0.66667
0.6583,0.74969,5.9247,0.37453,22.756,105.29,-5.9173,1.9724,-1.5037,-7.8898,-1.0232e-12,-0.75185,0,0,0.11111,4.6054e-16,0,0.66667
0.38699,0.55282,3.4829,0.07923,7.2297,298.45,-0.73588,0.24529,-1.977,-0.98117,-8.6736e-13,-0.98852,0,0,0.11111,-0,-0,0.66667
0.062485,0.063575,0.56237,-0.65464,-70.334,599.4,0.98173,-0.32724,-0.48155,1.309,-4.8235e-07,-0.24077,0,0,0.11111,-2.6316e-16,1.7479e-17,0.66667
0.047245,0.75793,0.42521,0.38689,41.526,614.29,-0.43869,0.14623,-1.4714,-0.58493,-2.5858e-08,-0.7357,0,0,0.11111,-0,-0,0.66667
0.80495,0.90286,7.2446,0.60428,22.852,38.237,-11.674,3.8914,-0.69994,-15.565,1.5727e-09,-0.34997,0,0,0.11111,-0,-0,0.66667
0.42278,0.45365,3.805,-0.069521,-6.126,268.91,0.70541,-0.23514,-1.9852,0.94055,-6.8029e-13,-0.9926,0,0,0.11111,-0,-0,0.66667
0.10826,0.93002,0.97434,0.64504,68.749,554.73,-1.676,0.55865,-0.52318,-2.2346,2.1473e-07,-0.26159,0,0,0.11111,-0,-9.5797e-17,0.66667
0.16703,0.48184,1.5033,-0.027247,-2.8447,497.77,0.10923,-0.036409,-1.9956,0.14564,2.8177e-10,-0.9978,0,0,0.11111,-2.6316e-16,0,0.66667
0.68019,0.93436,6.1218,0.65155,37.717,94.047,-10.636,3.5454,-0.48898,-14.182,6.4304e-13,-0.24449,0,0,0.11111,-1.0527e-15,0,0.66667
0.42723,0.51986,3.8451,0.029795,2.6131,265.3,-0.3055,0.10183,-1.9949,-0.40734,-8.5712e-13,-0.99743,0,0,0.11111,-0,-0,0.66667
0.096808,0.74691,0.87127,0.37036,39.461,565.76,-0.86049,0.28683,-1.5131,-1.1473,-3.478e-08,-0.75654,0,0,0.11111,-1.6448e-16,0,0.66667
0.39201,0.345,3.5281,-0.2325,-21.128,294.32,2.1874,-0.72913,-1.8109,2.9165,5.3157e-13,-0.90547,0,0,0.11111,-0,-0,0.66667
0.044756,0.050428,0.4028,-0.67436,-72.609,616.79,0.72435,-0.24144,-0.3839,0.9658,1.2048e-05,-0.19195,0,0,0.11111,6.5791e-17,0,0.66667
0.27103,0.50175,2.4392,0.00262,0.26065,400.31,-0.017042,0.0056808,-1.9992,-0.022723,5.8976e-12,-0.99959,0,0,0.11111,-2.1053e-15,0,0.66667
0.50308,0.93003,4.5277,0.64504,51.935,207.43,-7.7881,2.596,-0.52074,-10.384,-5.52e-13,-0.26037,0,0,0.11111,-0,-0,0.66667
0.45748,0.73319,4.1173,0.34979,29.711,241.49,-3.8405,1.2802,-1.5635,-5.1207,3.3706e-13,-0.78175,0,0,0.11111,-0,-0,0.66667
0.76863,0.51012,6.9177,0.015173,0.66171,50.969,-0.2799,0.093302,-1.9991,-0.37321,1.4704e-11,-0.99956,0,0,0.11111,-0,-0,0.66667
0.16023,0.065735,1.4421,-0.6514,-68.451,504.57,2.505,-0.83499,-0.4912,3.34,-3.0988e-10,-0.2456,0,0,0.11111,-0,-0,0.66667
0.51004,0.47306,4.5904,-0.040405,-3.205,201.48,0.49459,-0.16486,-1.9929,0.65946,3.067e-14,-0.99643,0,0,0.11111,-1.0527e-15,0,0.66667
0.14153,0.57578,1.2737,0.11367,11.965,522.31,-0.38608,0.12869,-1.9565,-0.51478,-2.7812e-09,-0.97825,0,0,0.11111,-0,-0,0.66667
0.18937,0.87093,1.7043,0.55639,57.789,476.7,-2.5287,0.84291,-0.90129,-3.3716,-2.7071e-10,-0.45065,0,0,0.11111,-3.9475e-16,0,0.66667
0.4099,0.99863,3.6891,0.74795,67.204,280.33,-7.358,2.4527,-0.011465,-9.8106,4.3836e-12,-0.0057325,0,0,0.11111,-3.2895e-16,0,0.66667
0.14586,0.053295,1.3128,-0.67006,-70.748,518.38,2.3457,-0.78189,-0.40188,3.1276,7.5597e-09,-0.20094,0,0,0.11111,1.3158e-16,0,0.66667
0.56233,0.039981,5.0609,-0.69003,-50.896,165.68,9.3125,-3.1042,-0.31093,12.417,5.5635e-12,-0.15546,0,0,0.11111,-1.0527e-15,0,0.66667
0.45523,0.75448,4.0971,0.38172,32.517,243.29,-4.1705,1.3902,-1.4835,-5.5606,-1.3456e-12,-0.74177,0,0,0.11111,1.0527e-15,0,0.66667
0.9421,0.96945,8.4789,0.70417,8.5034,5.8028,-15.921,5.3071,-0.23689,-21.229,-1.2216e-05,-0.11844,0,0,0.11111,-0,-0,0.66667
0.66999,0.20952,6.03,-0.43573,-25.766,98.926,7.0064,-2.3355,-1.3263,9.3419,1.3549e-12,-0.66314,0,0,0.11111,-5.2633e-16,0,0.66667
0.10314,0.39609,0.92828,-0.15587,-16.568,559.55,0.38584,-0.12861,-1.9113,0.51445,1.1478e-08,-0.95567,0,0,0.11111,1.3158e-16,0,0.66667
0.60711,0.34802,5.464,-0.22797,-15.425,135.53,3.3216,-1.1072,-1.8167,4.4288,-5.4001e-13,-0.90834,0,0,0.11111,-0,-0,0.66667
0.42033,0.68516,3.783,0.27774,24.557,271.02,-2.8018,0.93394,-1.7284,-3.7358,5.5178e-13,-0.86422,0,0,0.11111,-1.3158e-16,0,0.66667
0.50063,0.38817,4.5057,-0.16774,-13.482,208.46,2.0154,-0.6718,-1.9028,2.6872,-4.8406e-13,-0.9514,0,0,0.11111,-0,-0,0.66667
0.65581,0.97596,5.9022,0.71395,43.905,107.67,-11.237,3.7457,-0.19125,-14.983,5.2403e-13,-0.095625,0,0,0.11111,-0,-0,0.66667
0.18572,0.4786,1.6715,-0.032101,-3.3287,479.94,0.14308,-0.047694,-1.9977,0.19078,1.3671e-10,-0.99887,0,0,0.11111,-0,-0,0.66667
0.35953,0.58538,3.2358,0.12807,11.971,321.78,-1.1051,0.36836,-1.9456,-1.4734,9.1782e-13,-0.9728,0,0,0.11111,2.6316e-16,0,0.66667
0.48038,0.92355,4.3234,0.63532,52.676,224.39,-7.3247,2.4416,-0.56369,-9.7662,1.8558e-12,-0.28185,0,0,0.11111,-1.0952e-15,0,0.66667
0.61478,0.10255,5.533,-0.59617,-39.923,131.5,8.7963,-2.9321,-0.73448,11.728,5.2136e-13,-0.36724,0,0,0.11111,-0,-0,0.66667
0.28556,0.84647,2.57,0.51971,51.394,387.4,-3.5618,1.1873,-1.0394,-4.749,6.4078e-12,-0.51969,0,0,0.11111,-1.0527e-15,0,0.66667
0.50277,0.28156,4.525,-0.32766,-26.287,207.04,3.9537,-1.3179,-1.6199,5.2716,-1.4746e-12,-0.80995,0,0,0.11111,2.1053e-15,0,0.66667
0.27855,0.93816,2.5069,0.65723,65.385,393.93,-4.3937,1.4646,-0.46578,-5.8582,6.5223e-12,-0.23289,0,0,0.11111,-0,-0,0.66667
0.57239,0.9367,5.1515,0.65505,47.476,158.83,-8.9986,2.9995,-0.4736,-11.998,-7.1498e-13,-0.2368,0,0,0.11111,-6.5791e-17,0,0.66667
0.34229,0.29746,3.0806,-0.30381,-28.819,336.8,2.4958,-0.83192,-1.6734,3.3277,2.2153e-12,-0.83671,0,0,0.11111,-5.2633e-16,0,0.66667
0.83916,0.90905,7.5524,0.61358,19.484,27.111,-12.357,4.1191,-0.66092,-16.476,1.9706e-09,-0.33046,0,0,0.11111,2.1053e-15,0,0.66667
0.68591,0.55116,6.1732,0.076742,4.3445,89.87,-1.2633,0.42111,-1.9806,-1.6844,-5.9874e-13,-0.9903,0,0,0.11111,-1.0527e-15,0,0.66667
0.81613,0.50449,7.3452,0.0067357,0.23899,33.193,-0.13193,0.043978,-1.9998,-0.17591,-4.5713e-10,-0.99992,0,0,0.11111,-4.2106e-15,0,0.66667
0.15425,0.59451,1.3882,0.14176,14.866,510.06,-0.52478,0.17493,-1.931,-0.69971,-2.5024e-09,-0.96549,0,0,0.11111,-0,-0,0.66667
0.18519,0.774,1.6667,0.41099,42.697,480.56,-1.8267,0.60891,-1.4004,-2.4356,-1.3193e-10,-0.70021,0,0,0.11111,-0,-0,0.66667
0.54259,0.58437,4.8834,0.12656,9.5727,178.22,-1.6481,0.54937,-1.9419,-2.1975,8.3444e-13,-0.97095,0,0,0.11111,5.2633e-16,0,0.66667
0.061398,0.40484,0.55258,-0.14274,-15.278,600.37,0.21034,-0.070112,-1.9311,0.28045,2.6959e-08,-0.96553,0,0,0.11111,-1.2249e-16,0,0.66667
0.53806,0.35769,4.8425,-0.21347,-16.266,181.46,2.7566,-0.91886,-1.8353,3.6754,2.0235e-12,-0.91767,0,0,0.11111,-0,-0,0.66667
0.336,0.87976,3.024,0.56965,54.436,342.6,-4.5936,1.5312,-0.84429,-6.1248,-3.6104e-13,-0.42215,0,0,0.11111,1.0527e-15,0,0.66667
0.32445,0.50967,2.9201,0.014503,1.393,352.31,-0.11293,0.037645,-1.9986,-0.15058,1.7065e-12,-0.99929,0,0,0.11111,-0,-0,0.66667
0.22985,0.82909,2.0687,0.49364,50.333,438.56,-2.7231,0.90771,-1.132,-3.6309,2.6381e-12,-0.566,0,0,0.11111,-2.6316e-16,0,0.66667
0.0046867,0.61641,0.042181,0.17461,18.761,656.13,-0.01964,0.0065466,-1.8902,-0.026187,-2.651e-07,-0.94512,0,0,0.11111,-0,-0,0.66667
0.68707,0.89772,6.1837,0.59658,33.887,90.221,-9.8374,3.2791,-0.73804,-13.117,-1.6698e-12,-0.36902,0,0,0.11111,1.0527e-15,1.0447e-16,0.66667
0.75278,0.68346,6.775,0.2752,12.74,57.89,-4.9719,1.6573,-1.7316,-6.6292,-2.4081e-11,-0.86582,0,0,0.11111,1.0527e-15,0,0.66667
0.33828,0.13222,3.0446,-0.55167,-52.615,340.58,4.4789,-1.493,-0.91621,5.9719,3.253e-12,-0.45811,0,0,0.11111,-0,-0,0.66667
0.4698,0.51337,4.2282,0.02006,1.6766,231.71,-0.22618,0.075393,-2.0008,-0.30157,9.6936e-14,-1.0004,0,0,0.11111,-0,-0,0.66667
0.79738,0.22182,7.1764,-0.41728,-16.244,40.348,7.9855,-2.6618,-1.385,10.647,-7.3628e-11,-0.6925,0,0,0.11111,2.1053e-15,0,0.66667
0.64747,0.62309,5.8272,0.18463,11.48,111.19,-2.869,0.95634,-1.8774,-3.8254,-4.9516e-13,-0.93872,0,0,0.11111,1.4474e-15,0,0.66667
0.022978,0.49389,0.2068,-0.0091693,-0.98441,638.13,0.0050566,-0.0016874,-1.9976,0.0067411,-2.811e-06,-0.99879,0,0,0.11111,-3.2895e-17,0,0.66667
0.28397,0.53922,2.5558,0.05883,5.8072,388.53,-0.40095,0.13365,-1.9881,-0.53459,2.9734e-12,-0.99407,0,0,0.11111,-0,-0,0.66667
0.95439,0.38983,8.5896,-0.16526,-1.4991,2.6765,3.7853,-1.2618,-1.9048,5.0471,9.2154e-08,-0.95238,0,0,0.11111,-2.1053e-15,0,0.66667
0.88315,0.60933,7.9484,0.16399,3.806,14.338,-3.4759,1.1586,-1.9016,-4.6345,1.1265e-08,-0.95081,0,0,0.11111,1.0527e-15,0,0.66667
0.32522,0.93694,2.927,0.65541,63.207,352.19,-5.1156,1.7052,-0.4741,-6.8208,-3.4075e-12,-0.23705,0,0,0.11111,6.0857e-16,0,0.66667
0.91063,0.54656,8.1957,0.069836,1.2474,8.6885,-1.5263,0.50876,-1.9812,-2.035,2.5338e-08,-0.99058,0,0,0.11111,2.1053e-15,0,0.66667
0.47918,0.33199,4.3126,-0.25202,-20.838,224.65,2.8982,-0.96608,-1.7723,3.8643,4.1545e-13,-0.88613,0,0,0.11111,-5.2633e-16,0,0.66667
0.20207,0.0064462,1.8186,-0.74033,-76.68,464.88,3.5903,-1.1968,-0.05399,4.7871,6.8265e-11,-0.026995,0,0,0.11111,-0,-8.6175e-17,0.66667
0.27145,0.14925,2.443,-0.52613,-52.479,400.22,3.4276,-1.1425,-1.014,4.5702,-4.7278e-12,-0.50698,0,0,0.11111,-0,-0,0.66667
0.24098,0.060174,2.1688,-0.65974,-67.027,428.4,3.8156,-1.2719,-0.45105,5.0875,1.3309e-11,-0.22553,0,0,0.11111,5.2633e-16,0,0.66667
0.055575,0.050093,0.50018,-0.67486,-72.585,606.18,0.90014,-0.30005,-0.37806,1.2002,-5.6787e-06,-0.18903,0,0,0.11111,-0,-0,0.66667
0.43714,0.88836,3.9342,0.58254,50.757,257.94,-6.1116,2.0372,-0.79668,-8.1488,4.3965e-13,-0.39834,0,0,0.11111,-0,-1.2881e-16,0.66667
0.90458,0.38064,8.1412,-0.17904,-3.4154,9.9006,3.8869,-1.2956,-1.888,5.1825,-2.1006e-08,-0.94402,0,0,0.11111,-0,-0,0.66667
0.52576,0.082671,4.7318,-0.62599,-48.808,190.92,7.8989,-2.633,-0.60465,10.532,3.2245e-12,-0.30233,0,0,0.11111,-5.2633e-16,0,0.66667
0.54546,0.030784,4.9091,-0.70382,-53.348,177.27,9.2137,-3.0712,-0.24194,12.285,3.2623e-12,-0.12097,0,0,0.11111,1.9737e-16,-7.739e-18,0.66667
0.227,0.55039,2.043,0.07558,7.6984,441.01,-0.41176,0.13725,-1.977,-0.54901,7.4784e-12,-0.98851,0,0,0.11111,-2.6316e-16,0,0.66667
0.046401,0.57717,0.41761,0.11575,12.409,615.09,-0.12891,0.042969,-1.9554,-0.17187,1.5858e-08,-0.97771,0,0,0.11111,-0,-0,0.66667
0.12581,0.61854,1.1323,0.17781,18.801,537.52,-0.53686,0.17895,-1.8907,-0.71582,-7.1278e-09,-0.94536,0,0,0.11111,-1.3158e-16,0,0.66667
0.21513,0.41516,1.9361,-0.12727,-13.037,452.14,0.65708,-0.21903,-1.9419,0.87611,2.1514e-11,-0.97093,0,0,0.11111,-0,-0,0.66667
0.87339,0.74188,7.8605,0.36282,9.1317,16.997,-7.6052,2.5351,-1.5337,-10.14,9.2821e-09,-0.76687,0,0,0.11111,-1.0527e-15,0,0.66667
0.98833,0.9501,8.895,0.67514,1.6174,2.0826,-16.014,5.3381,-0.3782,-21.352,4.6339e-05,-0.1891,0,0,0.11111,-0,-0,0.66667
0.017766,0.46314,0.1599,-0.055283,-5.9366,643.26,0.023572,-0.007858,-1.9905,0.031429,-8.8772e-07,-0.99527,0,0,0.11111,-3.2895e-17,0,0.66667
0.44331,0.1646,3.9898,-0.5031,-43.495,252.88,5.3527,-1.7842,-1.0981,7.1369,1.4415e-12,-0.54905,0,0,0.11111,1.0527e-15,0,0.66667
0.3692,0.049496,3.3228,-0.67576,-62.959,314.16,5.9877,-1.9959,-0.37409,7.9836,4.7029e-13,-0.18704,0,0,0.11111,-5.2633e-16,0,0.66667
0.53646,0.41015,4.8282,-0.13478,-10.291,182.53,1.7352,-0.57842,-1.9343,2.3137,8.5409e-13,-0.96717,0,0,0.11111,-0,-0,0.66667
0.61652,0.96458,5.5487,0.69687,46.599,130.75,-10.311,3.4371,-0.27154,-13.748,2.8475e-12,-0.13577,0,0,0.11111,-1.3158e-15,0,0.66667
0.396,0.60956,3.564,0.16433,14.874,290.95,-1.5618,0.52061,-1.9019,-2.0824,-8.944e-13,-0.95093,0,0,0.11111,-5.2633e-16,0,0.66667
0.18386,0.15177,1.6548,-0.52235,-54.349,481.9,2.305,-0.76833,-1.0299,3.0733,-3.5973e-10,-0.51493,0,0,0.11111,-6.5791e-17,0,0.66667
0.58527,0.1641,5.2675,-0.50386,-35.615,149.95,7.0775,-2.3592,-1.095,9.4366,1.3434e-12,-0.54752,0,0,0.11111,-0,-0,0.66667
0.033297,0.65908,0.29967,0.23861,25.617,627.98,-0.19068,0.063561,-1.7995,-0.25424,2.1221e-07,-0.89976,0,0,0.11111,-0,-0,0.66667
0.89398,0.57297,8.0458,0.10945,2.3112,11.934,-2.3483,0.78278,-1.957,-3.1311,1.8312e-08,-0.97849,0,0,0.11111,-0,-0,0.66667
0.64441,0.81161,5.7997,0.46741,29.351,113.43,-7.229,2.4097,-1.2237,-9.6386,1.1258e-12,-0.61185,0,0,0.11111,-1.1842e-15,0,0.66667
0.094544,0.090236,0.8509,-0.61465,-65.671,568.06,1.3947,-0.46489,-0.66033,1.8596,2.7552e-08,-0.33016,0,0,0.11111,-1.6448e-16,0,0.66667
0.55137,0.38788,4.9624,-0.16818,-12.548,172.16,2.2255,-0.74183,-1.8979,2.9673,1.9749e-12,-0.94895,0,0,0.11111,-1.0527e-15,0,0.66667
0.12897,0.86454,1.1608,0.54682,57.924,534.59,-1.6926,0.5642,-0.93587,-2.2568,-2.5139e-09,-0.46793,0,0,0.11111,-0,-0,0.66667
0.11882,0.62957,1.0694,0.19435,20.588,544.3,-0.55423,0.18474,-1.8641,-0.73897,-8.9641e-09,-0.93204,0,0,0.11111,-2.6316e-16,0,0.66667
0.26555,0.068562,2.3899,-0.64716,-64.868,405.76,4.1244,-1.3748,-0.51523,5.4993,9.2619e-12,-0.25761,0,0,0.11111,-0,-8.2292e-17,0.66667
0.76291,0.97716,6.8662,0.71575,32.272,54.907,-13.105,4.3684,-0.17892,-17.474,-2.577e-11,-0.089459,0,0,0.11111,-0,-0,0.66667
0.69822,0.50659,6.284,0.0098848,0.54134,83.464,-0.16564,0.055214,-1.9984,-0.22086,-1.6229e-12,-0.99919,0,0,0.11111,-0,-0,0.66667
0.55885,0.20512,5.0297,-0.44233,-32.683,167.41,5.9327,-1.9776,-1.3035,7.9102,1.8718e-12,-0.65174,0,0,0.11111,1.0527e-15,0,0.66667
0.25523,0.70714,2.297,0.31071,31.221,414.9,-1.9033,0.63442,-1.6548,-2.5377,1.8983e-11,-0.8274,0,0,0.11111,-2.6316e-16,0,0.66667
0.51787,0.62492,4.6608,0.18738,14.707,195.85,-2.329,0.77632,-1.8774,-3.1053,-5.6843e-13,-0.93871,0,0,0.11111,2.4672e-17,0,0.66667
0.92975,0.75604,8.3678,0.38405,5.4575,6.1286,-8.5698,2.8566,-1.4734,-11.426,1.1128e-07,-0.73672,0,0,0.11111,-0,-0,0.66667
0.18532,0.29997,1.6679,-0.30005,-31.145,480.39,1.3345,-0.44483,-1.6806,1.7793,2.7205e-10,-0.84031,0,0,0.11111,2.6316e-16,0,0.66667
0.73421,0.71474,6.6079,0.32211,15.882,66.277,-5.6758,1.8919,-1.6356,-7.5678,-1.4619e-11,-0.81779,0,0,0.11111,-5.2633e-16,0,0.66667
0.87218,0.66614,7.8496,0.24921,6.3113,17.05,-5.2166,1.7389,-1.7793,-6.9554,8.5145e-09,-0.88967,0,0,0.11111,-0,-0,0.66667
0.66946,0.85609,6.0251,0.53414,31.68,99.477,-8.582,2.8607,-0.98603,-11.443,-5.6133e-13,-0.49301,0,0,0.11111,-0,-0,0.66667
0.2037,0.15554,1.8333,-0.51669,-53.329,463.12,2.5259,-0.84198,-1.0552,3.3679,1.5666e-10,-0.52762,0,0,0.11111,4.9343e-17,0,0.66667
0.12917,0.18059,1.1625,-0.47912,-50.716,534.37,1.4853,-0.49509,-1.183,1.9804,6.3234e-09,-0.5915,0,0,0.11111,1.3158e-16,0,0.66667
0.51503,0.26628,4.6353,-0.35058,-27.659,198.09,4.3334,-1.4445,-1.5659,5.7779,1.6369e-12,-0.78293,0,0,0.11111,-0,-0,0.66667
0.13031,0.5904,1.1728,0.13561,14.32,533.16,-0.4241,0.14137,-1.9336,-0.56546,-4.4438e-09,-0.96679,0,0,0.11111,-0,-0,0.66667
0.8257,0.050328,7.4313,-0.67451,-23.106,31.539,13.367,-4.4555,-0.38281,17.822,2.3305e-09,-0.19141,0,0,0.11111,1.0527e-15,0,0.66667
0.52364,0.82894,4.7128,0.49341,38.513,192.12,-6.2009,2.067,-1.1316,-8.2679,-7.8471e-13,-0.56581,0,0,0.11111,-6.2012e-16,0,0.66667
0.29142,0.8793,2.6228,0.56895,56.087,382.17,-3.9793,1.3264,-0.84779,-5.3058,9.4686e-12,-0.42389,0,0,0.11111,-0,-0,0.66667
0.56813,0.71415,5.1131,0.32122,23.342,160.93,-4.3799,1.46,-1.6317,-5.8399,1.9575e-12,-0.81586,0,0,0.11111,-2.6316e-16,0,0.66667
0.26064,0.35571,2.3457,-0.21643,-21.671,409.87,1.3538,-0.45128,-1.8316,1.8051,-1.2193e-11,-0.91582,0,0,0.11111,-0,-0,0.66667
0.58447,0.10427,5.2602,-0.5936,-42.079,150.71,8.3265,-2.7755,-0.74483,11.102,1.0321e-12,-0.37241,0,0,0.11111,-0,-0,0.66667
0.23212,0.012567,2.0891,-0.73115,-74.688,436.72,4.0732,-1.3577,-0.099906,5.4309,-6.0192e-11,-0.049953,0,0,0.11111,-0,1.2654e-16,0.66667
0.21905,0.75306,1.9715,0.37959,38.864,448.57,-1.9956,0.6652,-1.4921,-2.6608,1.871e-11,-0.74606,0,0,0.11111,-5.2633e-16,0,0.66667
0.51851,0.65488,4.6666,0.23231,18.222,195.43,-2.8909,0.96365,-1.8094,-3.8546,-2.097e-12,-0.90469,0,0,0.11111,-2.6316e-16,0,0.66667
0.83542,0.9508,7.5187,0.67621,21.987,28.511,-13.558,4.5193,-0.3715,-18.077,-7.4079e-09,-0.18575,0,0,0.11111,-0,-0,0.66667
0.64477,0.94235,5.8029,0.66352,41.785,113.8,-10.268,3.4225,-0.43414,-13.69,1.2941e-12,-0.21707,0,0,0.11111,-2.1053e-15,0,0.66667
0.094191,0.083239,0.84772,-0.62514,-66.805,568.41,1.4132,-0.47106,-0.61377,1.8842,7.3774e-08,-0.30688,0,0,0.11111,-0,-0,0.66667
0.13407,0.96471,1.2066,0.69706,73.874,529.77,-2.2429,0.74763,-0.27073,-2.9905,-3.8789e-08,-0.13537,0,0,0.11111,-0,-0,0.66667
0.3903,0.50048,3.5127,0.00071809,0.06532,295.67,-0.0067265,0.0022422,-2.0049,-0.0089687,5.9864e-12,-1.0024,0,0,0.11111,-0,-0,0.66667
0.31956,0.072127,2.8761,-0.64181,-62.137,357.16,4.9224,-1.6408,-0.53294,6.5632,3.5478e-12,-0.26647,0,0,0.11111,-0,-0,0.66667
0.89122,0.96181,8.021,0.69271,15.331,14.182,-14.817,4.9388,-0.29727,-19.755,2.6243e-07,-0.14863,0,0,0.11111,1.579e-15,0,0.66667
0.89129,0.34245,8.0216,-0.23633,-5.1235,12.656,5.0553,-1.6851,-1.8056,6.7404,-1.7854e-08,-0.9028,0,0,0.11111,-3.9475e-16,0,0.66667
0.029824,0.14414,0.26842,-0.53379,-57.445,631.42,0.38208,-0.12736,-0.98862,0.50944,-2.5372e-06,-0.49431,0,0,0.11111,-0,-0,0.66667
0.21052,0.79144,1.8947,0.43716,44.952,456.62,-2.2087,0.73625,-1.318,-2.945,9.0032e-12,-0.65899,0,0,0.11111,-0,-0,0.66667
0.38835,0.20918,3.4952,-0.43623,-39.839,297.59,4.0658,-1.3553,-1.3242,5.4211,-8.0735e-13,-0.6621,0,0,0.11111,5.2633e-16,0,0.66667
0.17637,0.45022,1.5874,-0.074676,-7.771,488.85,0.3161,-0.10537,-1.9787,0.42147,2.8051e-10,-0.98933,0,0,0.11111,-0,-0,0.66667
0.91869,0.54374,8.2682,0.06561,1.0675,7.3052,-1.4466,0.4822,-1.9843,-1.9288,1.1469e-08,-0.99215,0,0,0.11111,-0,-0,0.66667
0.1896,0.32043,1.7064,-0.26936,-27.908,476.31,1.2257,-0.40856,-1.7432,1.6342,2.1228e-10,-0.8716,0,0,0.11111,-0,-0,0.66667
0.73399,0.41842,6.6059,-0.12237,-6.0264,66.119,2.1556,-0.71853,-1.95,2.8741,8.7566e-12,-0.97501,0,0,0.11111,-0,-0,0.66667
0.95692,0.78192,8.6122,0.42288,3.6824,3.0121,-9.7119,3.2373,-1.3647,-12.949,1.983e-07,-0.68235,0,0,0.11111,-4.2106e-15,0,0.66667
0.47772,0.45006,4.2995,-0.074904,-6.2002,225.65,0.85879,-0.28626,-1.9775,1.1451,-6.5925e-13,-0.98875,0,0,0.11111,-1.0527e-15,0,0.66667
0.81422,0.39825,7.328,-0.15262,-5.4702,33.915,2.9824,-0.99413,-1.9188,3.9765,-3.4216e-10,-0.95942,0,0,0.11111,-5.2633e-16,0,0.66667
0.42822,0.80021,3.854,0.45031,39.548,264.85,-4.628,1.5427,-1.2765,-6.1706,-3.6873e-12,-0.63827,0,0,0.11111,-0,-0,0.66667
0.81345,0.93087,7.321,0.6463,23.516,35.461,-12.618,4.2058,-0.51773,-16.823,2.6167e-09,-0.25886,0,0,0.11111,-5.2633e-16,0,0.66667
0.7617,0.55632,6.8553,0.084486,3.7819,53.873,-1.5445,0.51482,-1.9741,-2.0593,-8.2018e-12,-0.98705,0,0,0.11111,-1.579e-15,0,0.66667
0.9596,0.20572,8.6364,-0.44142,-3.6055,2.8277,10.166,-3.3887,-1.3047,13.555,-2.5902e-07,-0.65234,0,0,0.11111,-1.0527e-15,0,0.66667
0.3366,0.22655,3.0294,-0.41017,-39.112,341.87,3.3135,-1.1045,-1.3995,4.418,1.9125e-12,-0.69976,0,0,0.11111,-0,-0,0.66667
0.76659,0.68871,6.8993,0.28306,12.464,52.054,-5.2078,1.7359,-1.7189,-6.9438,-2.4763e-11,-0.85943,0,0,0.11111,-0,-0,0.66667
0.92162,0.40088,8.2946,-0.14868,-2.3352,6.8966,3.2885,-1.0962,-1.9255,4.3847,-1.1377e-08,-0.96277,0,0,0.11111,5.2633e-16,0,0.66667
0.81077,0.81939,7.2969,0.47909,17.564,35.766,-9.3224,3.1075,-1.1857,-12.43,2.1665e-10,-0.59283,0,0,0.11111,-2.1053e-15,0,0.66667
0.81434,0.89498,7.329,0.59247,21.424,34.942,-11.579,3.8598,-0.75314,-15.439,-1.9565e-09,-0.37657,0,0,0.11111,-0,-0,0.66667
0.9483,0.37711,8.5347,-0.18434,-1.9043,3.3416,4.1953,-1.3984,-1.8787,5.5938,5.5108e-08,-0.93933,0,0,0.11111,-2.1053e-15,0,0.66667
0.29068,0.29189,2.6161,-0.31216,-30.714,382.57,2.1778,-0.72592,-1.6512,2.9037,-7.3688e-12,-0.82561,0,0,0.11111,-0,-0,0.66667
0.44015,0.95285,3.9613,0.67928,59.079,255.75,-7.1756,2.3919,-0.3595,-9.5675,-5.8531e-13,-0.17975,0,0,0.11111,-0,-0,0.66667
0.10606,0.80128,0.95452,0.45191,48.09,556.78,-1.1503,0.38343,-1.2734,-1.5337,-2.6776e-08,-0.63671,0,0,0.11111,-0,-0,0.66667
0.87728,0.15756,7.8955,-0.51366,-12.621,16.53,10.815,-3.605,-1.0638,14.42,7.8981e-09,-0.53192,0,0,0.11111,-0,-0,0.66667
0.3437,0.89534,3.0933,0.59302,56.35,335.93,-4.8917,1.6306,-0.75352,-6.5222,2.025e-13,-0.37676,0,0,0.11111,-0,-0,0.66667
0.90524,0.92055,8.1472,0.63083,12.192,11.101,-13.705,4.5684,-0.58734,-18.274,8.0283e-08,-0.29367,0,0,0.11111,-0,-0,0.66667
0.20386,0.19547,1.8347,-0.45679,-47.116,462.92,2.2349,-0.74497,-1.2612,2.9799,-5.8471e-11,-0.63058,0,0,0.11111,-0,-0,0.66667
0.34961,0.80318,3.1465,0.45478,42.945,330.61,-3.8158,1.2719,-1.2626,-5.0878,1.245e-12,-0.63128,0,0,0.11111,2.6316e-16,0,0.66667
0.69048,0.77674,6.2143,0.41511,23.29,87.935,-6.879,2.293,-1.3879,-9.172,-4.0155e-12,-0.69397,0,0,0.11111,1.3158e-15,0,0.66667
0.92271,0.56264,8.3044,0.093958,1.4541,6.6754,-2.0807,0.69357,-1.9728,-2.7743,6.172e-08,-0.98639,0,0,0.11111,-0,-0,0.66667
0.68795,0.53771,6.1915,0.056569,3.1852,88.793,-0.934,0.31133,-1.9923,-1.2453,-2.0128e-13,-0.99615,0,0,0.11111,-0,-0,0.66667
0.34009,0.3772,3.0608,-0.1842,-17.492,338.63,1.5035,-0.50117,-1.8797,2.0047,5.9053e-13,-0.93986,0,0,0.11111,1.0527e-15,0,0.66667
0.040043,0.92407,0.36039,0.63611,68.485,621.4,-0.61132,0.20377,-0.55869,-0.8151,-6.7286e-06,-0.27935,0,0,0.11111,-0,-0,0.66667
0.33175,0.17309,2.9858,-0.49037,-46.967,346.21,3.9043,-1.3014,-1.1442,5.2057,-1.5219e-12,-0.57209,0,0,0.11111,-0,-0,0.66667
0.47616,0.25174,4.2854,-0.37238,-30.935,227.09,4.2555,-1.4185,-1.5056,5.6741,-1.191e-12,-0.75278,0,0,0.11111,-0,-0,0.66667
0.7304,0.22495,6.5736,-0.41258,-20.619,68.235,7.2324,-2.4108,-1.3942,9.6432,1.3402e-11,-0.69711,0,0,0.11111,-0,-0,0.66667
0.89363,0.85203,8.0427,0.52805,11.332,12.961,-11.325,3.775,-1.0087,-15.1,2.7045e-08,-0.50434,0,0,0.11111,-0,-0,0.66667
0.006309,0.32109,0.056781,-0.26836,-28.846,654.54,0.040635,-0.013545,-1.7418,0.05418,4.1541e-07,-0.87088,0,0,0.11111,-0,-0,0.66667
0.076734,0.73156,0.69061,0.34734,37.133,585.37,-0.63967,0.21322,-1.5728,-0.85289,-7.6154e-08,-0.78639,0,0,0.11111,-0,-0,0.66667
0.28179,0.26187,2.5361,-0.3572,-35.353,390.65,2.4157,-0.80525,-1.5494,3.221,-8.0689e-12,-0.77469,0,0,0.11111,-0,-0,0.66667
0.53562,0.1882,4.8206,-0.46771,-35.854,183.55,6.0123,-2.0041,-1.2223,8.0164,9.4502e-13,-0.61115,0,0,0.11111,-0,-0,0.66667
0.53579,0.95077,4.8221,0.67616,51.988,183.95,-8.6946,2.8982,-0.37286,-11.593,-1.7133e-12,-0.18643,0,0,0.11111,-0,-0,0.66667
0.42526,0.96481,3.8274,0.69721,61.626,267.72,-7.1159,2.372,-0.27194,-9.4879,-1.4584e-12,-0.13597,0,0,0.11111,-7.8949e-16,0,0.66667
0.88364,0.033297,7.9527,-0.70005,-16.519,15.866,14.846,-4.9488,-0.25611,19.795,1.2312e-07,-0.12805,0,0,0.11111,-0,-0,0.66667
0.72735,0.61572,6.5462,0.17358,8.7333,69.253,-3.0302,1.0101,-1.8904,-4.0402,-8.8412e-12,-0.94522,0,0,0.11111,5.2633e-16,0,0.66667
0.13596,0.8092,1.2237,0.4638,48.998,527.79,-1.5134,0.50448,-1.2345,-2.0179,-3.4049e-09,-0.61726,0,0,0.11111,-6.5791e-17,0,0.66667
0.23514,0.12705,2.1162,-0.55942,-56.932,433.71,3.157,-1.0523,-0.89118,4.2093,-1.2786e-10,-0.44559,0,0,0.11111,-0,-0,0.66667
0.50531,0.11181,4.5478,-0.58228,-46.694,205.64,7.0615,-2.3538,-0.79244,9.4153,2.0415e-12,-0.39622,0,0,0.11111,-0,-0,0.66667
0.36252,0.11994,3.2627,-0.5701,-53.338,319.67,4.9601,-1.6534,-0.84478,6.6135,2.5833e-12,-0.42239,0,0,0.11111,-7.8949e-16,0,0.66667
0.80862,0.54022,7.2776,0.060326,2.2201,35.782,-1.1707,0.39024,-1.9863,-1.561,5.2213e-11,-0.99314,0,0,0.11111,-0,-0,0.66667
0.41934,0.064992,3.774,-0.65251,-57.987,272.41,6.5669,-2.189,-0.48759,8.7559,2.1223e-12,-0.24379,0,0,0.11111,-0,-0,0.66667
0.94116,0.03024,8.4705,-0.70464,-8.6435,5.9182,15.916,-5.3054,-0.2352,21.222,1.1716e-05,-0.1176,0,0,0.11111,5.2633e-16,0,0.66667
0.18246,0.41005,1.6421,-0.13493,-14.011,483.06,0.59086,-0.19695,-1.9343,0.78781,4.4239e-10,-0.96715,0,0,0.11111,-0,-0,0.66667
0.48279,0.038145,4.3451,-0.69278,-57.322,222.71,8.0272,-2.6757,-0.29547,10.703,-1.3012e-12,-0.14774,0,0,0.11111,-0,9.0509e-17,0.66667
0.89425,0.90652,8.0482,0.60977,13.072,13.166,-13.087,4.3623,-0.67874,-17.449,4.805e-08,-0.33937,0,0,0.11111,-0,-0,0.66667
0.065736,0.63568,0.59162,0.20352,21.775,596.12,-0.32109,0.10703,-1.8524,-0.42811,-2.0007e-08,-0.9262,0,0,0.11111,-0,-0,0.66667
0.27923,0.6332,2.5131,0.1998,19.788,392.88,-1.339,0.44633,-1.8593,-1.7853,8.8473e-12,-0.92965,0,0,0.11111,-0,-0,0.66667
0.20277,0.21508,1.825,-0.42737,-44.09,463.92,2.0798,-0.69328,-1.3548,2.7731,5.6273e-11,-0.67742,0,0,0.11111,-0,-0,0.66667
0.98481,0.92867,8.8633,0.64301,1.9939,2.0454,-15.198,5.0659,-0.53333,-20.264,1.2842e-05,-0.26667,0,0,0.11111,1.0527e-15,2.1338e-16,0.66667
0.46845,0.39867,4.2161,-0.15199,-12.728,232.79,1.7088,-0.5696,-1.9217,2.2784,4.6108e-13,-0.96083,0,0,0.11111,5.2633e-16,0,0.66667
0.88817,0.87912,7.9935,0.56868,12.827,14.277,-12.122,4.0407,-0.85142,-16.163,-3.3941e-09,-0.42571,0,0,0.11111,-0,-2.2844e-18,0.66667
0.85393,0.94951,7.6853,0.67427,19.645,23.146,-13.819,4.6062,-0.38145,-18.425,6.6751e-09,-0.19072,0,0,0.11111,-0,-0,0.66667
0.10397,0.078431,0.93572,-0.63235,-67.449,558.9,1.5779,-0.52596,-0.57609,2.1038,-1.5936e-07,-0.28805,0,0,0.11111,-1.3158e-16,0,0.66667
0.34994,0.82452,3.1495,0.48679,45.971,330.36,-4.0884,1.3628,-1.1551,-5.4511,2.2422e-12,-0.57754,0,0,0.11111,5.2633e-16,0,0.66667
0.4967,0.0012393,4.4703,-0.74814,-60.863,212.44,8.9184,-2.9728,-0.010778,11.891,4.5777e-12,-0.0053892,0,0,0.11111,-0,-0,0.66667
0.8789,0.34239,7.9101,-0.23642,-5.6857,15.421,4.9869,-1.6623,-1.8016,6.6492,-1.1774e-08,-0.90079,0,0,0.11111,-1.579e-15,0,0.66667
0.98185,0.26024,8.8367,-0.35964,-1.2353,1.0575,8.4747,-2.8249,-1.5406,11.3,4.8476e-07,-0.77029,0,0,0.11111,-2.1053e-15,0,0.66667
0.33695,0.53122,3.0325,0.046824,4.4556,341.34,-0.37865,0.12622,-1.9912,-0.50487,-2.8677e-13,-0.99562,0,0,0.11111,6.2913e-16,0,0.66667
0.78195,0.077452,7.0375,-0.63382,-26.492,46.893,11.895,-3.9649,-0.57433,15.86,1.8216e-10,-0.28716,0,0,0.11111,-0,-0,0.66667
0.85872,0.044453,7.7285,-0.68332,-19.312,21.893,14.083,-4.6942,-0.34262,18.777,1.1583e-08,-0.17131,0,0,0.11111,2.1053e-15,0,0.66667
0.28125,0.89533,2.5312,0.593,58.848,391.39,-4.0027,1.3342,-0.75369,-5.3369,-1.279e-13,-0.37685,0,0,0.11111,2.6316e-16,1.1965e-16,0.66667
0.19893,0.76491,1.7903,0.39737,41.051,467.53,-1.8971,0.63238,-1.4372,-2.5295,-7.1451e-11,-0.71861,0,0,0.11111,2.6316e-16,0,0.66667
0.64661,0.71678,5.8195,0.32517,20.281,111.87,-5.0462,1.6821,-1.623,-6.7282,-4.7606e-13,-0.81148,0,0,0.11111,2.6316e-16,0,0.66667
0.56414,0.77004,5.0773,0.40507,29.657,163.75,-5.4843,1.8281,-1.4181,-7.3124,4.6319e-13,-0.70905,0,0,0.11111,5.2633e-16,0,0.66667
0.15458,0.13706,1.3912,-0.54441,-57.241,509.91,2.0196,-0.67322,-0.9476,2.6929,1.4547e-09,-0.4738,0,0,0.11111,2.6316e-16,-4.9608e-17,0.66667
0.74217,0.62283,6.6796,0.18425,8.837,62.449,-3.2818,1.0939,-1.8778,-4.3757,-1.0889e-11,-0.9389,0,0,0.11111,-1.4474e-15,0,0.66667
0.36009,0.84422,3.2408,0.51633,48.374,321.66,-4.4622,1.4874,-1.0564,-5.9496,3.9551e-12,-0.52819,0,0,0.11111,-0,-0,0.66667
0.60467,0.055232,5.4421,-0.66715,-45.627,138.01,9.6818,-3.2273,-0.41622,12.909,-4.9027e-13,-0.20811,0,0,0.11111,5.2633e-16,-7.1177e-18,0.66667
0.006493,0.7986,0.058437,0.44789,48.202,654.36,-0.069796,0.023264,-1.2842,-0.093061,-1.2724e-06,-0.64208,0,0,0.11111,-0,-0,0.66667
0.59052,0.79943,5.3146,0.44914,31.424,146.43,-6.3654,2.1218,-1.2823,-8.4872,4.2766e-13,-0.64114,0,0,0.11111,-0,-0,0.66667
0.73343,0.88798,6.6008,0.58197,28.908,67.327,-10.244,3.4147,-0.79814,-13.659,-1.45e-11,-0.39907,0,0,0.11111,-1.0527e-15,1.2781e-16,0.66667
0.34567,0.39184,3.1111,-0.16224,-15.338,333.77,1.3459,-0.44865,-1.9074,1.7946,6.6569e-13,-0.9537,0,0,0.11111,5.2633e-16,0,0.66667
0.75933,0.75572,6.834,0.38358,17.375,55.299,-6.9903,2.3301,-1.475,-9.3204,-2.5409e-11,-0.73751,0,0,0.11111,-0,-0,0.66667
0.42697,0.74292,3.8427,0.36438,32.016,265.74,-3.7339,1.2446,-1.5265,-4.9785,-3.5527e-13,-0.76323,0,0,0.11111,2.5282e-16,0,0.66667
0.4232,0.39173,3.8088,-0.16241,-14.308,268.61,1.6495,-0.54984,-1.908,2.1994,1.0877e-12,-0.954,0,0,0.11111,-0,-0,0.66667
0.29935,0.95199,2.6942,0.67798,66.588,375.2,-4.8709,1.6236,-0.36597,-6.4946,-4.1522e-13,-0.18299,0,0,0.11111,-0,-0,0.66667
0.74106,0.040197,6.6695,-0.6897,-33.519,64.259,12.267,-4.0889,-0.30633,16.356,1.471e-11,-0.15317,0,0,0.11111,-0,-0,0.66667
0.91708,0.19076,8.2538,-0.46386,-7.7961,8.3442,10.21,-3.4032,-1.2342,13.613,-4.2838e-08,-0.61712,0,0,0.11111,2.1053e-15,0,0.66667
0.4431,0.36569,3.9879,-0.20147,-17.378,252.67,2.1425,-0.71417,-1.8537,2.8567,-2.0728e-12,-0.92686,0,0,0.11111,5.2633e-16,0,0.66667
0.98698,0.79473,8.8829,0.4421,1.0665,1.1014,-10.472,3.4907,-1.3053,-13.963,1.5456e-07,-0.65263,0,0,0.11111,-2.1053e-15,0,0.66667
0.79949,0.64503,7.1954,0.21755,8.3613,39.175,-4.1742,1.3914,-1.832,-5.5657,7.1483e-11,-0.91601,0,0,0.11111,-0,-0,0.66667
0.31124,0.50736,2.8011,0.011042,1.0706,364.03,-0.082483,0.027494,-2.0019,-0.10998,4.6921e-13,-1.001,0,0,0.11111,-0,-0,0.66667
0.23311,0.98419,2.0979,0.72628,74.149,435.8,-4.0632,1.3544,-0.12637,-5.4176,7.1709e-11,-0.063186,0,0,0.11111,5.2633e-16,1.3156e-16,0.66667
0.35894,0.13272,3.2304,-0.55092,-51.686,322.71,4.7459,-1.582,-0.92437,6.3279,1.9837e-12,-0.46219,0,0,0.11111,-0,1.0591e-16,0.66667
0.40467,0.41456,3.642,-0.12817,-11.503,283.75,1.2448,-0.41492,-1.9434,1.6597,2.2109e-12,-0.9717,0,0,0.11111,-0,-0,0.66667
0.4959,0.6795,4.4631,0.26925,21.791,212.07,-3.2045,1.0682,-1.7414,-4.2727,1.0503e-13,-0.87068,0,0,0.11111,-0,-0,0.66667
0.70153,0.37924,6.3138,-0.18114,-9.8358,81.871,3.0499,-1.0166,-1.8857,4.0665,2.8382e-12,-0.94283,0,0,0.11111,-0,-0,0.66667
0.841,0.2069,7.569,-0.43965,-13.731,25.949,8.8739,-2.958,-1.3128,11.832,-1.2227e-09,-0.65642,0,0,0.11111,-0,-0,0.66667
0.059074,0.43867,0.53167,-0.091996,-9.848,602.65,0.13043,-0.043477,-1.9707,0.17391,-1.2719e-07,-0.98534,0,0,0.11111,-0,-0,0.66667
0.45307,0.78614,4.0776,0.42921,36.671,245.05,-4.6671,1.5557,-1.3495,-6.2229,-2.2005e-12,-0.67476,0,0,0.11111,1.0527e-15,0,0.66667
0.42756,0.30497,3.848,-0.29255,-25.675,265.18,3.0019,-1.0006,-1.6939,4.0026,1.1893e-12,-0.84694,0,0,0.11111,-0,-0,0.66667
0.42403,0.4577,3.8163,-0.063455,-5.5842,267.89,0.64577,-0.21526,-1.9865,0.86102,-1.355e-12,-0.99326,0,0,0.11111,-5.2633e-16,0,0.66667
0.56368,0.41811,5.0731,-0.12283,-8.9812,163.73,1.6617,-0.5539,-1.9484,2.2156,7.2176e-13,-0.97422,0,0,0.11111,-0,-0,0.66667
0.9398,0.21483,8.4582,-0.42776,-5.2262,4.907,9.6482,-3.2161,-1.3509,12.864,-8.8407e-08,-0.67545,0,0,0.11111,-1.579e-15,0,0.66667
0.33032,0.68057,2.9729,0.27085,25.923,347.24,-2.1472,0.71574,-1.7403,-2.863,2.2387e-12,-0.87017,0,0,0.11111,5.2633e-16,0,0.66667
0.94897,0.44349,8.5407,-0.084761,-0.86166,3.1662,1.9305,-0.64349,-1.9738,2.5739,2.313e-08,-0.98689,0,0,0.11111,-0,-0,0.66667
0.24588,0.58462,2.213,0.12693,12.808,423.45,-0.74903,0.24968,-1.9417,-0.99871,1.3288e-11,-0.97086,0,0,0.11111,2.6316e-16,0,0.66667
0.54841,0.11128,4.9356,-0.58308,-43.899,174.89,7.6744,-2.5581,-0.79269,10.232,2.9625e-12,-0.39634,0,0,0.11111,1.0527e-15,0,0.66667
0.7134,0.87394,6.4206,0.5609,29.603,76.764,-9.6036,3.2012,-0.88075,-12.805,-7.3177e-12,-0.44037,0,0,0.11111,-1.3158e-16,0,0.66667
0.88062,0.85869,7.9256,0.53803,12.893,15.843,-11.371,3.7904,-0.9685,-15.162,5.3075e-09,-0.48425,0,0,0.11111,-0,-0,0.66667
0.7817,0.32071,7.0353,-0.26893,-11.16,45.96,5.0453,-1.6818,-1.7463,6.7271,1.4066e-11,-0.87316,0,0,0.11111,-0,-0,0.66667
0.96576,0.29485,8.6919,-0.30772,-2.0875,1.9289,7.1325,-2.3775,-1.6631,9.51,2.6968e-07,-0.83154,0,0,0.11111,-0,-0,0.66667
0.55114,0.15396,4.9603,-0.51907,-38.873,172.85,6.8659,-2.2886,-1.0419,9.1545,5.4241e-12,-0.52093,0,0,0.11111,-1.3158e-15,0,0.66667
0.90543,0.76401,8.1488,0.39601,7.5405,10.193,-8.6053,2.8684,-1.4449,-11.474,3.4839e-08,-0.72247,0,0,0.11111,2.1053e-15,0,0.66667
0.65468,0.78061,5.8922,0.42091,25.806,107.43,-6.6135,2.2045,-1.3731,-8.818,-1.5543e-13,-0.68655,0,0,0.11111,-6.5791e-17,0,0.66667
0.16901,0.38375,1.5211,-0.17437,-18.198,495.9,0.7073,-0.23577,-1.8921,0.94307,8.6294e-10,-0.94605,0,0,0.11111,-0,-0,0.66667
0.030661,0.79387,0.27595,0.4408,47.394,630.59,-0.32437,0.10812,-1.3121,-0.43249,9.1214e-07,-0.65603,0,0,0.11111,-0,-0,0.66667
0.76078,0.52148,6.847,0.03222,1.447,54.241,-0.5883,0.1961,-1.9947,-0.7844,-3.3731e-12,-0.99737,0,0,0.11111,-0,-0,0.66667
0.67762,0.93804,6.0986,0.65706,38.289,95.444,-10.686,3.5619,-0.46426,-14.248,7.3008e-13,-0.23213,0,0,0.11111,-0,-0,0.66667
0.28831,0.61978,2.5948,0.17967,17.693,384.64,-1.2432,0.41441,-1.8833,-1.6576,4.8301e-12,-0.94164,0,0,0.11111,-2.6316e-16,0,0.66667
0.10602,0.11989,0.95415,-0.57016,-60.745,556.87,1.4507,-0.48357,-0.84429,1.9343,-1.5656e-08,-0.42215,0,0,0.11111,1.9737e-16,0,0.66667
0.68946,0.0081631,6.2051,-0.73776,-41.788,89.492,12.208,-4.0692,-0.066093,16.277,3.3484e-13,-0.033047,0,0,0.11111,-0,-0,0.66667
0.74945,0.37868,6.7451,-0.18197,-8.5144,59.214,3.2731,-1.091,-1.8862,4.3642,1.8463e-11,-0.9431,0,0,0.11111,2.1053e-15,0,0.66667
0.55828,0.81749,5.0245,0.47623,35.236,167.87,-6.3809,2.127,-1.193,-8.5078,-3.2285e-13,-0.59652,0,0,0.11111,-0,-0,0.66667
0.66524,0.27045,5.9871,-0.34432,-20.571,101.36,5.4973,-1.8324,-1.576,7.3297,2.2782e-13,-0.78801,0,0,0.11111,-0,-0,0.66667
0.40406,0.16452,3.6365,-0.50321,-45.313,284.63,4.8799,-1.6266,-1.1007,6.5065,1.7262e-12,-0.55034,0,0,0.11111,-0,-0,0.66667
0.86609,0.64831,7.7948,0.22247,5.8858,18.531,-4.6243,1.5414,-1.8218,-6.1657,5.9836e-09,-0.9109,0,0,0.11111,-1.0527e-15,0,0.66667
0.5324,0.2351,4.7916,-0.39735,-30.583,185.7,5.0772,-1.6924,-1.4407,6.7696,-7.7938e-13,-0.72033,0,0,0.11111,1.0527e-15,0,0.66667
0.89484,0.3014,8.0536,-0.29791,-6.2647,12.031,6.3979,-2.1326,-1.6832,8.5305,-2.5016e-08,-0.84161,0,0,0.11111,1.0527e-15,0,0.66667
0.73971,0.030675,6.6574,-0.70399,-34.38,64.925,12.498,-4.166,-0.23736,16.664,2.0104e-11,-0.11868,0,0,0.11111,-4.6054e-16,0,0.66667
0.5229,0.73523,4.7061,0.35284,27.527,192.41,-4.428,1.476,-1.5546,-5.904,-2.1401e-12,-0.77731,0,0,0.11111,-1.0527e-15,0,0.66667
0.71966,0.35729,6.4769,-0.21406,-11.031,72.959,3.6973,-1.2324,-1.8395,4.9297,7.5733e-12,-0.91974,0,0,0.11111,1.0527e-15,0,0.66667
0.88675,0.58768,7.9807,0.13152,2.9609,13.502,-2.7991,0.93303,-1.938,-3.7321,9.4054e-09,-0.96902,0,0,0.11111,1.579e-15,0,0.66667
0.19451,0.80572,1.7506,0.45858,47.485,471.75,-2.1408,0.71359,-1.2501,-2.8544,9.1616e-11,-0.62506,0,0,0.11111,-0,-0,0.66667
0.42981,0.76106,3.8682,0.39159,34.313,263.49,-4.0394,1.3465,-1.4522,-5.3859,-1.3922e-12,-0.72608,0,0,0.11111,-0,-0,0.66667
0.85935,0.051229,7.7342,-0.67316,-18.936,21.678,13.883,-4.6278,-0.39275,18.511,3.4373e-08,-0.19638,0,0,0.11111,-1.0527e-15,1.2136e-16,0.66667
0.030496,0.3059,0.27447,-0.29115,-31.27,630.74,0.21309,-0.071032,-1.7018,0.28413,-3.6841e-07,-0.8509,0,0,0.11111,-0,-0,0.66667
0.13308,0.81319,1.1977,0.46978,49.671,530.58,-1.5005,0.50015,-1.2141,-2.0006,-4.0557e-09,-0.60706,0,0,0.11111,5.2633e-16,0,0.66667
0.40535,0.062281,3.6481,-0.65658,-59.17,283.86,6.3874,-2.1291,-0.47127,8.5165,1.5823e-12,-0.23564,0,0,0.11111,2.6316e-16,3.6545e-18,0.66667
0.11236,0.96136,1.0112,0.69205,73.737,550.78,-1.8662,0.62206,-0.29737,-2.4882,-4.2773e-08,-0.14868,0,0,0.11111,-6.5791e-17,0,0.66667
0.72615,0.042525,6.5354,-0.68621,-34.967,71.098,11.959,-3.9864,-0.32311,15.945,-7.1054e-15,-0.16156,0,0,0.11111,-0,-0,0.66667
0.97481,0.36479,8.7733,-0.20282,-0.97996,1.0931,4.745,-1.5817,-1.8515,6.3266,2.3151e-07,-0.92576,0,0,0.11111,-0,-0,0.66667
0.48907,0.64006,4.4016,0.21009,17.15,217.13,-2.466,0.822,-1.8413,-3.288,-2.2178e-12,-0.92067,0,0,0.11111,-0,-0,0.66667
0.96027,0.59781,8.6424,0.14672,1.1518,2.1034,-3.3813,1.1271,-1.9217,-4.5084,-1.6182e-07,-0.96084,0,0,0.11111,-2.1053e-15,0,0.66667
0.13577,0.63742,1.2219,0.20613,21.741,527.88,-0.67168,0.22389,-1.8472,-0.89557,-5.7626e-09,-0.92358,0,0,0.11111,-0,-0,0.66667
0.70044,0.16041,6.304,-0.50939,-27.863,83.059,8.5632,-2.8544,-1.0784,11.418,2.8324e-12,-0.5392,0,0,0.11111,-0,-0,0.66667
0.58286,0.50707,5.2457,0.010607,0.75018,150.94,-0.14837,0.049458,-1.9984,-0.19783,1.7302e-12,-0.99918,0,0,0.11111,-0,-0,0.66667
0.79173,0.15422,7.1256,-0.51867,-20.745,42.741,9.8556,-3.2852,-1.0428,13.141,7.3542e-11,-0.52139,0,0,0.11111,4.9756e-16,0,0.66667
0.5377,0.032374,4.8393,-0.70144,-53.802,182.68,9.0519,-3.0173,-0.24951,12.069,3.5527e-14,-0.12476,0,0,0.11111,2.1053e-15,0,0.66667
0.97989,0.7481,8.819,0.37215,1.4364,1.1896,-8.7519,2.9173,-1.5073,-11.669,-7.0938e-07,-0.75366,0,0,0.11111,-7.8949e-16,0,0.66667
0.43965,0.39214,3.9569,-0.16179,-14.005,255.38,1.7071,-0.56904,-1.9076,2.2762,-8.6864e-13,-0.95382,0,0,0.11111,-5.2633e-16,0,0.66667
0.95027,0.5597,8.5525,0.089546,0.88642,3.0283,-2.0422,0.68074,-1.9725,-2.723,-1.0225e-08,-0.98627,0,0,0.11111,-2.6316e-16,0,0.66667
0.91828,0.069413,8.2645,-0.64588,-10.838,8.8888,14.234,-4.7448,-0.51644,18.979,-1.5125e-07,-0.25822,0,0,0.11111,-0,-0,0.66667
0.42387,0.83958,3.8148,0.50936,44.967,268.46,-5.1817,1.7272,-1.0793,-6.9089,1.2577e-12,-0.53966,0,0,0.11111,-7.8949e-16,0,0.66667
0.41052,0.40633,3.6947,-0.1405,-12.537,278.94,1.3843,-0.46142,-1.9301,1.8457,2.6268e-12,-0.96505,0,0,0.11111,-0,-0,0.66667
0.019947,0.15337,0.17952,-0.51994,-55.974,641.13,0.24891,-0.082972,-1.0385,0.33188,-2.6674e-06,-0.51924,0,0,0.11111,8.2239e-18,0,0.66667
0.44849,0.183,4.0364,-0.47549,-40.858,248.73,5.1182,-1.7061,-1.1953,6.8242,3.153e-14,-0.59765,0,0,0.11111,-2.6316e-16,0,0.66667
0.19941,0.66022,1.7947,0.24034,24.798,467,-1.1502,0.38341,-1.7946,-1.5336,-4.8036e-11,-0.89731,0,0,0.11111,-0,-0,0.66667
0.33593,0.65222,3.0233,0.22833,21.756,342.3,-1.8408,0.61361,-1.8128,-2.4545,1.0879e-12,-0.9064,0,0,0.11111,8.5682e-16,0,0.66667
0.28252,0.058519,2.5426,-0.66222,-65.726,390.34,4.4901,-1.4967,-0.44357,5.9868,1.1102e-13,-0.22178,0,0,0.11111,-6.5791e-16,0,0.66667
0.6702,0.42633,6.0318,-0.11051,-6.511,98.339,1.7775,-0.59249,-1.958,2.37,1.3622e-13,-0.97901,0,0,0.11111,1.0527e-15,0,0.66667
0.44017,0.44975,3.9616,-0.075378,-6.52,254.93,0.79631,-0.26544,-1.98,1.0617,-1.8984e-12,-0.98998,0,0,0.11111,-0,-0,0.66667
0.60025,0.34235,5.4022,-0.23648,-16.214,139.86,3.4067,-1.1356,-1.8,4.5423,-4.4609e-13,-0.9,0,0,0.11111,-6.5791e-17,0,0.66667
0.84352,0.70547,7.5917,0.3082,9.4527,24.875,-6.2394,2.0798,-1.6657,-8.3192,2.0321e-09,-0.83287,0,0,0.11111,-1.0527e-15,0,0.66667
0.83277,0.6182,7.4949,0.1773,5.7711,27.904,-3.5436,1.1812,-1.8871,-4.7247,9.9951e-10,-0.94355,0,0,0.11111,1.0527e-15,0,0.66667
0.58556,0.98599,5.27,0.72899,51.712,150.42,-10.245,3.4149,-0.10774,-13.66,-1.6787e-13,-0.053872,0,0,0.11111,-1.0527e-15,0,0.66667
0.44054,0.038786,3.9648,-0.69182,-60.156,255.48,7.3145,-2.4382,-0.29841,9.7527,-3.1686e-12,-0.1492,0,0,0.11111,-0,-0,0.66667
0.40041,0.82476,3.6037,0.48715,44.012,287.63,-4.6814,1.5605,-1.154,-6.2419,-3.3751e-12,-0.57698,0,0,0.11111,-0,-0,0.66667
0.071127,0.73671,0.64014,0.35507,37.993,590.86,-0.60612,0.20204,-1.5491,-0.80816,-9.4086e-08,-0.77454,0,0,0.11111,-2.1581e-16,0,0.66667
0.46738,0.98111,4.2064,0.72167,60.883,234.55,-8.0951,2.6984,-0.15003,-10.793,1.5152e-12,-0.075017,0,0,0.11111,-0,-0,0.66667
0.40304,0.4091,3.6274,-0.13636,-12.257,285.1,1.319,-0.43966,-1.9346,1.7586,3.2798e-12,-0.96728,0,0,0.11111,-0,-0,0.66667
0.20153,0.61706,1.8138,0.17558,18.096,464.97,-0.84925,0.28308,-1.8922,-1.1323,-7.9662e-11,-0.9461,0,0,0.11111,-0,-0,0.66667
0.80272,0.92677,7.2245,0.64015,24.486,39.171,-12.333,4.1109,-0.54078,-16.444,-6.7081e-10,-0.27039,0,0,0.11111,-0,-0,0.66667
0.69815,0.77512,6.2833,0.41268,22.678,83.977,-6.9147,2.3049,-1.3932,-9.2195,-4.0692e-12,-0.6966,0,0,0.11111,5.2633e-16,0,0.66667
0.97541,0.64526,8.7787,0.21789,1.0268,1.0817,-5.1006,1.7002,-1.8287,-6.8009,-2.4017e-07,-0.91437,0,0,0.11111,1.0527e-15,0,0.66667
0.38552,0.12996,3.4696,-0.55506,-50.89,300.15,5.1356,-1.7119,-0.90339,6.8475,5.7216e-12,-0.4517,0,0,0.11111,-1.0527e-15,0,0.66667
0.41693,0.73451,3.7523,0.35176,31.227,273.87,-3.5198,1.1733,-1.5582,-4.6931,-1.974e-12,-0.77908,0,0,0.11111,5.2633e-16,0,0.66667
0.51973,0.99757,4.6776,0.74636,58.829,195.59,-9.3098,3.1033,-0.019299,-12.413,1.3936e-12,-0.0096497,0,0,0.11111,-2.6316e-16,0,0.66667
0.35329,0.024974,3.1796,-0.71254,-67.309,327.85,6.0416,-2.0139,-0.19297,8.0554,4.9623e-12,-0.096484,0,0,0.11111,-5.2633e-16,0,0.66667
0.54525,0.83111,4.9072,0.49666,37.53,176.88,-6.4993,2.1664,-1.1244,-8.6658,-1.1817e-12,-0.56218,0,0,0.11111,-0,-0,0.66667
0.88975,0.49816,8.0078,-0.0027625,-0.060545,12.786,0.058991,-0.019664,-2.0037,0.078655,-2.6212e-08,-1.0019,0,0,0.11111,3.2895e-15,0,0.66667
0.73052,0.93548,6.5747,0.65321,32.807,68.929,-11.452,3.8175,-0.48311,-15.27,-3.5376e-12,-0.24156,0,0,0.11111,-2.6316e-16,-1.1508e-16,0.66667
0.20651,0.14358,1.8586,-0.53462,-55.124,460.48,2.6498,-0.88325,-0.98315,3.533,4.6856e-11,-0.49157,0,0,0.11111,-0,-0,0.66667
0.80015,0.65123,7.2014,0.22685,8.6935,38.947,-4.3563,1.4521,-1.8173,-5.8083,5.9935e-11,-0.90864,0,0,0.11111,-1.579e-15,0,0.66667
0.79531,0.20932,7.1578,-0.43601,-17.136,41.161,8.3224,-2.7741,-1.3258,11.097,-1.8419e-11,-0.66289,0,0,0.11111,-0,-0,0.66667
0.79909,0.59601,7.1918,0.14402,5.5413,39.234,-2.7621,0.92069,-1.9281,-3.6828,-3.0513e-11,-0.96406,0,0,0.11111,-0,-0,0.66667
0.3168,0.49343,2.8512,-0.0098512,-0.9514,359.08,0.074901,-0.024967,-1.9988,0.099868,-2.5887e-12,-0.9994,0,0,0.11111,7.8949e-16,0,0.66667
0.61295,0.86959,5.5166,0.55439,37.232,132.51,-8.1555,2.7185,-0.90712,-10.874,-1.0738e-12,-0.45356,0,0,0.11111,-2.6316e-16,0,0.66667
0.65229,0.99038,5.8706,0.73556,45.624,109.74,-11.515,3.8384,-0.075346,-15.354,-9.7788e-13,-0.037673,0,0,0.11111,1.0527e-15,0,0.66667
0.12023,0.84892,1.082,0.52339,55.552,543.05,-1.5102,0.50339,-1.025,-2.0136,5.2867e-09,-0.5125,0,0,0.11111,-2.6316e-16,0,0.66667
0.91868,0.46765,8.2681,-0.04853,-0.78963,7.2998,1.07,-0.35667,-1.9926,1.4267,3.7588e-09,-0.99632,0,0,0.11111,1.1842e-15,0,0.66667
0.36814,0.84175,3.3132,0.51262,47.701,314.78,-4.5291,1.5097,-1.0643,-6.0389,-8.4421e-13,-0.53215,0,0,0.11111,-0,-0,0.66667
0.68838,0.16083,6.1954,-0.50876,-28.749,89.271,8.4052,-2.8017,-1.083,11.207,3.479e-12,-0.54149,0,0,0.11111,-0,-0,0.66667
0.92834,0.017931,8.355,-0.7231,-10.762,7.7276,16.111,-5.3703,-0.13835,21.481,-2.0632e-06,-0.069173,0,0,0.11111,-0,-0,0.66667
0.67487,0.62506,6.0738,0.18759,10.93,95.853,-3.0384,1.0128,-1.8763,-4.0512,-4.1953e-12,-0.93816,0,0,0.11111,2.1053e-15,0,0.66667
0.93848,0.4245,8.4463,-0.11325,-1.3941,4.4361,2.5507,-0.85024,-1.9567,3.401,3.9297e-08,-0.97836,0,0,0.11111,-0,-0,0.66667
0.69911,0.84806,6.292,0.52209,28.67,83.773,-8.76,2.92,-1.0305,-11.68,-2.8422e-12,-0.51525,0,0,0.11111,-0,-0,0.66667
0.17086,0.74637,1.5377,0.36955,38.583,494.21,-1.5154,0.50513,-1.5176,-2.0205,-6.8062e-10,-0.75882,0,0,0.11111,2.6316e-16,0,0.66667
0.72891,0.18436,6.5601,-0.47346,-23.8,69.089,8.2825,-2.7608,-1.2019,11.043,8.3906e-12,-0.60095,0,0,0.11111,-1.1e-15,0,0.66667
0.40572,0.53414,3.6515,0.05121,4.5906,282.86,-0.49865,0.16622,-1.9948,-0.66487,-2.9687e-12,-0.99739,0,0,0.11111,-1.0527e-15,0,0.66667
0.31857,0.61105,2.8672,0.16657,16.072,357.55,-1.2736,0.42452,-1.8989,-1.6981,4.3082e-12,-0.94946,0,0,0.11111,-0,-0,0.66667
0.78065,0.35957,7.0258,-0.21064,-8.7726,46.284,3.9465,-1.3155,-1.8451,5.262,1.0343e-11,-0.92254,0,0,0.11111,-0,-0,0.66667
0.79049,0.36944,7.1144,-0.19584,-7.8277,42.479,3.7154,-1.2385,-1.8618,4.9539,-2.448e-12,-0.9309,0,0,0.11111,1.579e-15,0,0.66667
0.94901,0.35226,8.5411,-0.22161,-2.2604,3.3206,5.0474,-1.6825,-1.8245,6.7298,5.654e-08,-0.91223,0,0,0.11111,-0,-0,0.66667
0.20319,0.74756,1.8287,0.37134,38.285,463.49,-1.8108,0.60361,-1.5147,-2.4144,-1.2424e-11,-0.75733,0,0,0.11111,-3.9475e-16,0,0.66667
0.53266,0.3068,4.794,-0.2898,-22.274,185.35,3.7047,-1.2349,-1.7037,4.9397,-5.9286e-14,-0.85187,0,0,0.11111,2.6316e-16,0,0.66667
0.77212,0.48237,6.9491,-0.026439,-1.1377,49.548,0.48995,-0.16332,-1.995,0.65326,1.0462e-12,-0.99748,0,0,0.11111,-0,-0,0.66667
0.51635,0.57954,4.6471,0.11931,9.3818,196.91,-1.4785,0.49283,-1.9521,-1.9713,1.3003e-12,-0.97603,0,0,0.11111,-1.0527e-15,0,0.66667
0.22879,0.53442,2.0591,0.051636,5.2548,439.33,-0.28353,0.094509,-1.9894,-0.37804,3.4005e-11,-0.99469,0,0,0.11111,-0,-0,0.66667
0.99529,0.92434,8.9576,0.63651,0.5421,1.6946,-15.204,5.0681,-0.55781,-20.272,9.0757e-07,-0.27891,0,0,0.11111,-1.0527e-15,0,0.66667
0.88932,0.73493,8.0039,0.35239,7.7982,13.321,-7.5213,2.5071,-1.5603,-10.028,1.9905e-08,-0.78014,0,0,0.11111,1.0527e-15,0,0.66667
0.57714,0.2361,5.1943,-0.39585,-28.345,155.06,5.4831,-1.8277,-1.4451,7.3109,1.1191e-13,-0.72257,0,0,0.11111,1.0527e-15,0,0.66667
0.53805,0.24345,4.8424,-0.38483,-29.364,181.69,4.9693,-1.6564,-1.4714,6.6258,5.3735e-13,-0.73569,0,0,0.11111,5.2633e-16,0,0.66667
0.83998,0.28499,7.5598,-0.32251,-10.102,25.953,6.5016,-2.1672,-1.6302,8.6688,-1.6626e-09,-0.81508,0,0,0.11111,-0,-0,0.66667
0.91463,0.66044,8.2317,0.24067,4.1223,8.182,-5.2829,1.761,-1.7922,-7.0439,3.6865e-08,-0.89612,0,0,0.11111,2.1053e-15,0,0.66667
0.81959,0.85147,7.3763,0.5272,18.536,32.947,-10.37,3.4567,-1.0095,-13.827,8.1437e-12,-0.50475,0,0,0.11111,-0,-0,0.66667
0.43281,0.67654,3.8953,0.2648,23.106,260.93,-2.7506,0.91688,-1.7491,-3.6675,7.5917e-13,-0.87456,0,0,0.11111,-0,-0,0.66667
0.85562,0.96994,7.7006,0.70491,20.348,22.827,-14.475,4.8251,-0.23374,-19.3,5.9863e-09,-0.11687,0,0,0.11111,-2.1053e-15,1.9255e-17,0.66667
0.22561,0.09507,2.0304,-0.60739,-62.138,442.64,3.2888,-1.0963,-0.68702,4.385,2.4208e-10,-0.34351,0,0,0.11111,-5.2633e-16,0,0.66667
0.54052,0.4383,4.8646,-0.092554,-7.0223,179.66,1.2006,-0.40022,-1.9685,1.6009,2.1549e-13,-0.98427,0,0,0.11111,-2.1053e-15,0,0.66667
0.31515,0.66325,2.8364,0.24488,23.693,360.62,-1.8522,0.61739,-1.7874,-2.4695,3.0811e-12,-0.89371,0,0,0.11111,-0,-0,0.66667
0.11963,0.32401,1.0767,-0.26399,-27.968,543.53,0.75798,-0.25266,-1.7502,1.0106,1.2203e-08,-0.8751,0,0,0.11111,-0,-0,0.66667
0.14551,0.41987,1.3096,-0.12019,-12.637,518.46,0.41974,-0.13991,-1.9468,0.55965,1.9619e-09,-0.97341,0,0,0.11111,-2.6316e-16,0,0.66667
0.9366,0.14387,8.4294,-0.5342,-6.9295,5.7013,12.008,-4.0027,-0.98784,16.011,-1.2173e-07,-0.49392,0,0,0.11111,1.0527e-15,0,0.66667
0.19499,0.99856,1.7549,0.74783,77.693,471.57,-3.4997,1.1666,-0.010187,-4.6663,-1.4008e-10,-0.0050936,0,0,0.11111,9.8686e-17,0,0.66667
0.64991,0.17651,5.8492,-0.48524,-30.106,110.3,7.5686,-2.5229,-1.1604,10.092,5.3291e-13,-0.58022,0,0,0.11111,-0,-0,0.66667
0.23912,0.45247,2.1521,-0.071301,-7.219,429.71,0.40919,-0.1364,-1.9802,0.54559,-6.6532e-12,-0.99009,0,0,0.11111,5.2633e-16,0,0.66667
0.52547,0.34398,4.7292,-0.23402,-18.173,190.42,2.9513,-0.98378,-1.8046,3.9351,-7.1521e-13,-0.90231,0,0,0.11111,-0,-0,0.66667
0.13063,0.85588,1.1757,0.53382,56.515,532.98,-1.6736,0.55788,-0.98462,-2.2315,-4.3515e-09,-0.49231,0,0,0.11111,-0,-0,0.66667
0.28954,0.51812,2.6059,0.027185,2.674,383.49,-0.1889,0.062968,-1.9947,-0.25187,4.6222e-12,-0.99734,0,0,0.11111,-0,-0,0.66667
0.40052,0.98596,3.6047,0.72894,66.073,288,-7.007,2.3357,-0.10847,-9.3426,-1.3012e-12,-0.054236,0,0,0.11111,-0,-0,0.66667
0.70668,0.93804,6.3601,0.65705,35.435,80.412,-11.144,3.7146,-0.46578,-14.858,4.0643e-12,-0.23289,0,0,0.11111,-2.1053e-15,0,0.66667
0.90107,0.40516,8.1096,-0.14226,-2.8095,10.534,3.0765,-1.0255,-1.9275,4.1019,-1.2812e-08,-0.96375,0,0,0.11111,-1.4474e-15,0,0.66667
0.42858,0.59949,3.8572,0.14924,13.074,264.25,-1.5351,0.51169,-1.9189,-2.0467,-8.4266e-14,-0.95943,0,0,0.11111,-0,-0,0.66667
0.71382,0.00089213,6.4244,-0.74866,-39.655,77.26,12.826,-4.2753,-0.0067817,17.101,4.1664e-12,-0.0033909,0,0,0.11111,-0,-0,0.66667
0.13909,0.17137,1.2518,-0.49295,-52.045,524.79,1.6455,-0.5485,-1.1375,2.194,5.671e-09,-0.56875,0,0,0.11111,-0,-0,0.66667
0.10058,0.26769,0.90518,-0.34847,-37.094,562.09,0.84113,-0.28038,-1.5656,1.1215,3.1064e-08,-0.78281,0,0,0.11111,-0,-0,0.66667
0.44811,0.26291,4.033,-0.35564,-30.535,248.85,3.8247,-1.2749,-1.5484,5.0996,8.6153e-14,-0.77422,0,0,0.11111,-0,-0,0.66667
0.76051,0.36574,6.8446,-0.20139,-9.0616,54.477,3.6758,-1.2253,-1.8541,4.9011,2.2582e-11,-0.92705,0,0,0.11111,-0,-0,0.66667
0.23162,0.18404,2.0845,-0.47394,-48.274,436.9,2.6345,-0.87818,-1.2024,3.5127,-7.3319e-11,-0.60119,0,0,0.11111,3.9753e-16,0,0.66667
0.80913,0.60592,7.2822,0.15888,5.8365,35.673,-3.0853,1.0284,-1.9097,-4.1137,1.5126e-10,-0.95485,0,0,0.11111,-0,-0,0.66667
0.25241,0.45778,2.2717,-0.06333,-6.3672,417.41,0.38364,-0.12788,-1.9863,0.51152,-5.9282e-12,-0.99314,0,0,0.11111,-0,-0,0.66667
0.083801,0.94775,0.75421,0.67162,71.948,578.57,-1.3508,0.45026,-0.39412,-1.801,1.7692e-07,-0.19706,0,0,0.11111,-0,-0,0.66667
0.513,0.18077,4.617,-0.47885,-37.94,199.79,5.8956,-1.9652,-1.1854,7.8608,-3.1175e-13,-0.5927,0,0,0.11111,3.0376e-16,0,0.66667
0.00097781,0.69041,0.0088003,0.28562,30.705,659.79,-0.0067026,0.0022337,-1.7133,-0.008937,-7.0664e-07,-0.85667,0,0,0.11111,-0,-3.0538e-16,0.66667
0.70811,0.81301,6.373,0.46951,25.115,79.101,-7.9793,2.6598,-1.2159,-10.639,-8.4275e-12,-0.60795,0,0,0.11111,-0,-0,0.66667
0.73906,0.29006,6.6515,-0.31491,-15.282,64.047,5.5857,-1.8619,-1.646,7.4476,1.5896e-11,-0.82301,0,0,0.11111,-0,-0,0.66667
0.97332,0.83098,8.7599,0.49647,2.6602,1.9855,-11.597,3.8658,-1.122,-15.463,-2.5579e-06,-0.56102,0,0,0.11111,-0,-0,0.66667
0.66316,0.7083,5.9685,0.31245,18.754,102.45,-4.973,1.6577,-1.6504,-6.6306,-1.0822e-12,-0.8252,0,0,0.11111,5.2633e-16,0,0.66667
0.49422,0.29566,4.448,-0.30651,-24.869,213.37,3.6356,-1.2119,-1.6637,4.8474,8.6153e-13,-0.83183,0,0,0.11111,-0,-0,0.66667
0.073623,0.5094,0.66261,0.014096,1.5059,588.38,-0.024907,0.0083023,-1.998,-0.03321,-2.345e-07,-0.99899,0,0,0.11111,-0,-0,0.66667
0.5343,0.45209,4.8087,-0.071862,-5.504,184.03,0.92149,-0.30716,-1.9813,1.2287,-1.4747e-12,-0.99067,0,0,0.11111,1.0527e-15,0,0.66667
0.14183,0.40311,1.2765,-0.14533,-15.299,522.02,0.49471,-0.1649,-1.9279,0.65961,2.5209e-09,-0.96397,0,0,0.11111,3.9475e-16,0,0.66667
0.80239,0.59772,7.2215,0.14658,5.5561,38.045,-2.8227,0.9409,-1.9224,-3.7636,-9.1414e-12,-0.96118,0,0,0.11111,-2.1053e-15,0,0.66667
0.57615,0.058198,5.1853,-0.6627,-47.729,156.36,9.1636,-3.0545,-0.4403,12.218,-3.4017e-13,-0.22015,0,0,0.11111,1.3158e-15,6.2477e-17,0.66667
0.21291,0.32221,1.9162,-0.26668,-27.36,454.27,1.3627,-0.45424,-1.745,1.817,2.498e-12,-0.87252,0,0,0.11111,-5.2633e-16,0,0.66667
0.70706,0.23416,6.3635,-0.39877,-21.37,79.453,6.7668,-2.2556,-1.4335,9.0224,5.2016e-12,-0.71674,0,0,0.11111,-1.0527e-15,0,0.66667
0.33301,0.48022,2.9971,-0.029665,-2.8313,344.79,0.23709,-0.07903,-1.9952,0.31612,-3.4996e-13,-0.99758,0,0,0.11111,-5.2633e-16,0,0.66667
0.6691,0.6906,6.0219,0.2859,16.911,99.128,-4.5911,1.5304,-1.7104,-6.1215,2.6423e-13,-0.85522,0,0,0.11111,-2.1053e-15,0,0.66667
0.77955,0.074944,7.016,-0.63758,-26.91,47.844,11.929,-3.9762,-0.55596,15.905,6.9378e-11,-0.27798,0,0,0.11111,-2.1053e-15,-1.2613e-16,0.66667
0.086576,0.25356,0.77919,-0.36966,-39.461,575.75,0.76809,-0.25603,-1.5124,1.0241,4.1085e-08,-0.75622,0,0,0.11111,-0,-0,0.66667
0.51066,0.065925,4.5959,-0.65111,-51.889,201.89,7.9799,-2.66,-0.49178,10.64,1.0743e-12,-0.24589,0,0,0.11111,-0,-0,0.66667
0.10367,0.17119,0.93307,-0.49321,-52.531,559.12,1.2272,-0.40906,-1.1328,1.6363,3.9624e-08,-0.56641,0,0,0.11111,1.3158e-16,0,0.66667
0.64946,0.12302,5.8452,-0.56547,-35.168,110.78,8.8139,-2.938,-0.86176,11.752,3.0322e-12,-0.43088,0,0,0.11111,-1.3158e-15,0,0.66667
0.3155,0.033824,2.8395,-0.69926,-67.95,360.86,5.2948,-1.7649,-0.26237,7.0597,1.7852e-13,-0.13118,0,0,0.11111,1.0527e-15,0,0.66667
0.6435,0.067169,5.7915,-0.64925,-40.988,114.48,10.027,-3.3423,-0.50196,13.369,-2.2027e-13,-0.25098,0,0,0.11111,2.1053e-15,0,0.66667
0.048554,0.67673,0.43698,0.2651,28.428,612.99,-0.30892,0.10297,-1.7516,-0.41189,7.1142e-08,-0.87579,0,0,0.11111,-6.5791e-17,0,0.66667
0.867,0.23599,7.803,-0.39602,-10.454,18.672,8.2403,-2.7468,-1.4396,10.987,-6.7104e-09,-0.71982,0,0,0.11111,-1.0527e-15,0,0.66667
0.47816,0.47888,4.3034,-0.031673,-2.6202,225.31,0.36348,-0.12116,-1.9942,0.48464,-8.8707e-13,-0.99708,0,0,0.11111,1.0527e-15,0,0.66667
0.79355,0.50768,7.142,0.011514,0.45371,41.209,-0.21928,0.073094,-1.9994,-0.29237,1.4661e-11,-0.99969,0,0,0.11111,-4.2106e-15,0,0.66667
0.22664,0.019746,2.0397,-0.72038,-73.772,441.81,3.9184,-1.3061,-0.1522,5.2245,-5.9195e-11,-0.076101,0,0,0.11111,-0,-0,0.66667
0.33497,0.25484,3.0148,-0.36774,-35.097,343.24,2.9564,-0.98548,-1.5173,3.9419,-4.0481e-12,-0.75865,0,0,0.11111,-0,-0,0.66667
0.76377,0.9978,6.874,0.7467,33.596,54.684,-13.688,4.5625,-0.019877,-18.25,2.0268e-12,-0.0099383,0,0,0.11111,-3.2895e-15,0,0.66667
0.85342,0.91213,7.6808,0.61819,18.022,23.036,-12.662,4.2206,-0.6395,-16.882,-1.7272e-09,-0.31975,0,0,0.11111,-0,-0,0.66667
0.43712,0.35022,3.9341,-0.22467,-19.509,257.44,2.357,-0.78567,-1.8243,3.1427,2.2538e-13,-0.91216,0,0,0.11111,-0,-0,0.66667
0.93033,0.55636,8.373,0.084533,1.1791,5.523,-1.8874,0.62915,-1.9725,-2.5166,2.2023e-08,-0.98625,0,0,0.11111,-5.2633e-16,0,0.66667
0.57961,0.018522,5.2165,-0.72222,-51.765,154.27,10.047,-3.3489,-0.14704,13.395,3.3546e-12,-0.073522,0,0,0.11111,-2.1053e-15,0,0.66667
0.049097,0.99358,0.44188,0.74037,79.757,612.55,-0.87241,0.2908,-0.052203,-1.1632,3.3185e-06,-0.026102,0,0,0.11111,-0,-0,0.66667
0.45286,0.070823,4.0758,-0.64377,-55.169,245.64,6.9969,-2.3323,-0.53022,9.3292,2.1219e-12,-0.26511,0,0,0.11111,-0,-0,0.66667
0.1604,0.3685,1.4436,-0.19726,-20.648,504.16,0.75936,-0.25312,-1.8609,1.0125,1.4912e-09,-0.93046,0,0,0.11111,1.3158e-16,0,0.66667
0.73282,0.089993,6.5954,-0.61501,-30.633,67.72,10.817,-3.6056,-0.65761,14.422,-1.1763e-11,-0.3288,0,0,0.11111,2.1696e-16,5.5673e-17,0.66667
0.34735,0.95256,3.1262,0.67885,64.398,332.91,-5.6592,1.8864,-0.36064,-7.5456,5.1559e-13,-0.18032,0,0,0.11111,-0,-0,0.66667
0.20118,0.56136,1.8106,0.092041,9.4852,465.28,-0.4444,0.14813,-1.9723,-0.59253,-1.5269e-10,-0.98615,0,0,0.11111,3.2895e-16,0,0.66667
0.84279,0.57898,7.5851,0.11847,3.6394,24.816,-2.3963,0.79878,-1.9524,-3.1951,1.224e-09,-0.9762,0,0,0.11111,-0,-0,0.66667
0.8178,0.15611,7.3602,-0.51584,-18.293,33.502,10.124,-3.3748,-1.0535,13.499,6.7474e-10,-0.52675,0,0,0.11111,2.1382e-16,0,0.66667
0.34365,0.11076,3.0928,-0.58386,-55.476,335.96,4.8154,-1.6051,-0.7916,6.4205,5.0577e-12,-0.3958,0,0,0.11111,-0,1.3055e-16,0.66667
0.40362,0.40093,3.6326,-0.14861,-13.352,284.62,1.4395,-0.47985,-1.9224,1.9194,1.0761e-12,-0.96118,0,0,0.11111,-2.6316e-16,0,0.66667
0.0606,0.29818,0.5454,-0.30274,-32.428,601.17,0.4403,-0.14677,-1.6752,0.58707,3.3198e-08,-0.83758,0,0,0.11111,1.3158e-16,0,0.66667
0.17888,0.86191,1.61,0.54286,56.602,486.66,-2.3306,0.77688,-0.94953,-3.1075,-7.5291e-10,-0.47477,0,0,0.11111,-2.6316e-16,0,0.66667
0.73592,0.10824,6.6233,-0.58764,-28.961,66.203,10.379,-3.4596,-0.77368,13.839,8.8791e-12,-0.38684,0,0,0.11111,-1.0527e-15,0,0.66667
0.56613,0.01939,5.0952,-0.72092,-52.873,163.22,9.7952,-3.2651,-0.15133,13.06,1.5588e-12,-0.075667,0,0,0.11111,-0,-0,0.66667
0.82324,0.18884,7.4091,-0.46673,-16.078,31.552,9.2216,-3.0739,-1.225,12.295,-5.2472e-10,-0.61252,0,0,0.11111,-2.1053e-15,0,0.66667
0.50115,0.43709,4.5104,-0.094362,-7.5774,208.04,1.135,-0.37832,-1.972,1.5133,-5.4245e-13,-0.98599,0,0,0.11111,-1.8093e-16,0,0.66667
0.76786,0.59669,6.9108,0.14503,6.3467,51.35,-2.6728,0.89092,-1.9269,-3.5637,-3.0972e-11,-0.96346,0,0,0.11111,-2.1053e-15,0,0.66667
0.50992,0.59353,4.5893,0.1403,11.133,201.61,-1.717,0.57232,-1.9294,-2.2893,4.6152e-13,-0.96469,0,0,0.11111,6.5791e-17,0,0.66667
0.56807,0.60153,5.1126,0.1523,11.055,160.79,-2.0764,0.69214,-1.9157,-2.7685,1.6092e-12,-0.95787,0,0,0.11111,-0,-0,0.66667
0.18462,0.82906,1.6616,0.49358,51.327,481.17,-2.187,0.729,-1.1336,-2.916,-1.5363e-12,-0.56682,0,0,0.11111,2.6316e-16,0,0.66667
0.5444,0.11315,4.8996,-0.58028,-43.961,177.66,7.5817,-2.5272,-0.80316,10.109,4.6474e-12,-0.40158,0,0,0.11111,-0,1.8934e-17,0.66667
0.20103,0.12017,1.8093,-0.56975,-58.906,465.68,2.7489,-0.91631,-0.84739,3.6652,-4.7781e-10,-0.4237,0,0,0.11111,-0,-1.6284e-16,0.66667
0.55622,0.11992,5.006,-0.57011,-42.383,169.49,7.6106,-2.5369,-0.84261,10.147,3.471e-12,-0.4213,0,0,0.11111,-2.6316e-16,0,0.66667
0.14144,0.22933,1.273,-0.406,-42.803,522.48,1.3782,-0.4594,-1.4166,1.8376,4.0395e-09,-0.70831,0,0,0.11111,-0,-0,0.66667
0.18601,0.67068,1.6741,0.25602,26.562,479.71,-1.1429,0.38098,-1.7685,-1.5239,-2.9064e-10,-0.88425,0,0,0.11111,2.6316e-16,0,0.66667
0.76478,0.26109,6.8831,-0.35837,-15.905,52.953,6.5777,-2.1926,-1.546,8.7703,2.9251e-11,-0.773,0,0,0.11111,-0,-0,0.66667
0.070886,0.28377,0.63798,-0.32434,-34.699,591.09,0.55179,-0.18393,-1.6244,0.73572,7.9334e-08,-0.81222,0,0,0.11111,-2.6316e-16,0,0.66667
0.36931,0.27069,3.3238,-0.34396,-31.923,313.56,3.0487,-1.0162,-1.5772,4.065,6.2128e-13,-0.78862,0,0,0.11111,5.2633e-16,0,0.66667
0.87788,0.1537,7.9009,-0.51945,-12.708,16.411,10.944,-3.6481,-1.0417,14.592,7.3486e-09,-0.52083,0,0,0.11111,-2.6316e-16,0,0.66667
0.10434,0.81473,0.93904,0.4721,50.266,558.46,-1.1822,0.39406,-1.2069,-1.5763,-2.862e-08,-0.60343,0,0,0.11111,-2.6316e-16,0,0.66667
0.35915,0.43564,3.2324,-0.096545,-9.0265,322.1,0.83219,-0.2774,-1.9716,1.1096,2.4897e-13,-0.98582,0,0,0.11111,7.237e-16,0,0.66667
0.11396,0.97971,1.0256,0.71957,76.67,549.24,-1.968,0.65602,-0.15753,-2.6241,-3.5876e-09,-0.078765,0,0,0.11111,-0,-0,0.66667
0.87654,0.071392,7.8889,-0.64291,-15.987,17.229,13.525,-4.5083,-0.53216,18.033,-1.1578e-07,-0.26608,0,0,0.11111,-0,-0,0.66667
0.12624,0.20061,1.1361,-0.44909,-47.561,537.19,1.3606,-0.45353,-1.2849,1.8141,7.0121e-09,-0.64243,0,0,0.11111,-2.6316e-16,0,0.66667
0.25456,0.13766,2.291,-0.54352,-54.745,415.72,3.3205,-1.1068,-0.9481,4.4274,-1.8815e-11,-0.47405,0,0,0.11111,-0,-0,0.66667
0.42191,0.18885,3.7972,-0.46673,-41.267,269.98,4.726,-1.5753,-1.2307,6.3013,2.1156e-12,-0.61533,0,0,0.11111,-0,-0,0.66667
0.66526,0.27306,5.9873,-0.34041,-20.336,101.34,5.435,-1.8117,-1.5858,7.2467,1.2186e-12,-0.79288,0,0,0.11111,-1.0527e-15,0,0.66667
0.34471,0.26224,3.1023,-0.35664,-33.78,334.75,2.9505,-0.98349,-1.5501,3.934,4.4809e-13,-0.77507,0,0,0.11111,-5.2633e-16,0,0.66667
0.2135,0.84467,1.9215,0.517,53.133,453.89,-2.6491,0.88304,-1.0491,-3.5322,1.9907e-10,-0.52455,0,0,0.11111,-0,-0,0.66667
0.37339,0.58753,3.3605,0.1313,12.129,309.95,-1.1766,0.3922,-1.9407,-1.5688,2.4123e-12,-0.97035,0,0,0.11111,-5.2633e-16,0,0.66667
0.57102,0.974,5.1392,0.71101,51.708,159.91,-9.744,3.248,-0.2006,-12.992,-3.8654e-12,-0.1003,0,0,0.11111,-0,-0,0.66667
0.99075,0.12581,8.9168,-0.56129,-0.97204,1.4493,13.346,-4.4488,-0.87884,17.795,-5.2684e-06,-0.43942,0,0,0.11111,-0,-0,0.66667
0.32717,0.63899,2.9445,0.20849,19.995,349.98,-1.6371,0.54569,-1.8478,-2.1828,3.742e-12,-0.92388,0,0,0.11111,-0,-0,0.66667
0.3622,0.55245,3.2598,0.078675,7.3368,319.47,-0.68391,0.22797,-1.9781,-0.91188,2.6446e-12,-0.98906,0,0,0.11111,5.2633e-16,0,0.66667
0.70624,0.099204,6.3561,-0.60119,-32.419,80.434,10.19,-3.3967,-0.71524,13.587,-4.4409e-13,-0.35762,0,0,0.11111,-0,-0,0.66667
0.29894,0.44449,2.6904,-0.083263,-8.1409,375.04,0.59737,-0.19912,-1.9767,0.79649,-1.7166e-12,-0.98834,0,0,0.11111,-0,-0,0.66667
0.3497,0.51382,3.1473,0.020736,1.9535,330.24,-0.17403,0.058012,-1.9961,-0.23205,1.8192e-12,-0.99805,0,0,0.11111,-1.0527e-15,0,0.66667
0.99471,0.016505,8.9524,-0.72524,-0.79935,2.1875,17.314,-5.7712,-0.12781,23.085,-4.0435e-06,-0.063907,0,0,0.11111,-4.2106e-15,0,0.66667
0.60427,0.94035,5.4384,0.66053,45.202,138.24,-9.5792,3.1931,-0.4479,-12.772,-2.073e-12,-0.22395,0,0,0.11111,2.1053e-15,0,0.66667
0.82881,0.22529,7.4593,-0.41207,-13.765,29.605,8.1967,-2.7322,-1.3996,10.929,-7.1553e-10,-0.69978,0,0,0.11111,-0,-0,0.66667
0.031666,0.037053,0.28499,-0.69442,-74.864,629.64,0.52775,-0.17593,-0.28929,0.70366,-1.5603e-05,-0.14465,0,0,0.11111,-0,-0,0.66667
0.14549,0.46343,1.3094,-0.054849,-5.7664,518.48,0.19152,-0.06384,-1.9882,0.25536,1.601e-09,-0.99411,0,0,0.11111,-1.3158e-16,0,0.66667
0.72773,0.63177,6.5496,0.19765,9.9341,69.102,-3.452,1.1507,-1.859,-4.6027,-9.9141e-12,-0.92952,0,0,0.11111,-0,-0,0.66667
0.53974,0.8246,4.8577,0.4869,37.101,180.69,-6.3072,2.1024,-1.1545,-8.4096,-1.5588e-12,-0.57723,0,0,0.11111,-0,-0,0.66667
0.99526,0.69767,8.9574,0.29651,0.15663,0.4322,-7.0826,2.3609,-1.6859,-9.4435,5.8358e-07,-0.84293,0,0,0.11111,-0,-0,0.66667
0.49563,0.63463,4.4607,0.20194,16.343,212.21,-2.4021,0.80071,-1.8538,-3.2028,-1.8534e-12,-0.92688,0,0,0.11111,-0,-0,0.66667
0.3841,0.69951,3.4569,0.29927,27.406,301,-2.7588,0.91961,-1.6791,-3.6784,-9.4369e-13,-0.83953,0,0,0.11111,-0,-0,0.66667
0.19437,0.49297,1.7494,-0.010542,-1.0893,471.72,0.049176,-0.016392,-1.9975,0.065568,1.1627e-10,-0.99873,0,0,0.11111,-5.2633e-16,0,0.66667
0.59017,0.13924,5.3115,-0.54114,-37.936,146.87,7.6647,-2.5549,-0.95801,10.22,5.1781e-13,-0.479,0,0,0.11111,-0,-0,0.66667
0.76663,0.18293,6.8996,-0.47561,-21.011,52.49,8.7507,-2.9169,-1.1988,11.668,5.9304e-11,-0.59941,0,0,0.11111,-5.2633e-16,0,0.66667
0.92444,0.35378,8.32,-0.21933,-3.3275,6.551,4.8662,-1.6221,-1.8294,6.4883,-3.8684e-08,-0.91469,0,0,0.11111,-0,-0,0.66667
0.13763,0.68109,1.2386,0.27163,28.643,526.11,-0.89721,0.29907,-1.738,-1.1963,-5.5487e-09,-0.86899,0,0,0.11111,-0,-0,0.66667
0.0080899,0.92709,0.072809,0.64064,69.083,652.8,-0.12438,0.041447,-0.53818,-0.16585,-1.9921e-05,-0.26909,0,0,0.11111,-0,-0,0.66667
0.47796,0.63293,4.3016,0.1994,16.507,225.53,-2.2873,0.76244,-1.8565,-3.0498,-4.206e-12,-0.92824,0,0,0.11111,1.0527e-15,0,0.66667
0.18295,0.61762,1.6465,0.17643,18.32,482.6,-0.77467,0.25822,-1.8882,-1.0329,-2.4799e-10,-0.94409,0,0,0.11111,-1.3158e-16,0,0.66667
0.61034,0.9303,5.493,0.64544,43.643,134.4,-9.4545,3.1515,-0.52156,-12.606,3.3573e-13,-0.26078,0,0,0.11111,-0,-0,0.66667
0.62027,0.93104,5.5824,0.64656,42.866,128.3,-9.625,3.2083,-0.51248,-12.833,-2.9843e-13,-0.25624,0,0,0.11111,-0,-0,0.66667
0.40963,0.15897,3.6867,-0.51155,-45.818,280.07,5.0291,-1.6764,-1.0701,6.7055,2.339e-12,-0.53504,0,0,0.11111,-0,-0,0.66667
0.67721,0.13441,6.0948,-0.54838,-31.915,95.312,8.9128,-2.9709,-0.92894,11.884,7.7094e-13,-0.46447,0,0,0.11111,-0,-0,0.66667
0.19967,0.42881,1.797,-0.10679,-11.013,466.71,0.51175,-0.17058,-1.9591,0.68233,1.2104e-10,-0.97954,0,0,0.11111,-0,-0,0.66667
0.80858,0.53504,7.2772,0.052556,1.9345,35.792,-1.0199,0.33996,-1.99,-1.3599,5.1428e-11,-0.99502,0,0,0.11111,-0,-0,0.66667
0.05034,0.87518,0.45306,0.56276,60.481,611.28,-0.6799,0.22663,-0.87489,-0.90654,-3.762e-07,-0.43744,0,0,0.11111,-0,-0,0.66667
0.17186,0.51451,1.5468,0.021767,2.2687,493.15,-0.089781,0.029927,-2.0021,-0.11971,-2.5627e-10,-1.0011,0,0,0.11111,-0,-0,0.66667
0.9806,0.35881,8.8254,-0.21179,-0.76506,0.78667,4.9843,-1.6614,-1.8395,6.6457,1.3388e-07,-0.91976,0,0,0.11111,-0,-0,0.66667
0.90038,0.13807,8.1034,-0.5429,-10.95,11.658,11.732,-3.9105,-0.94972,15.642,-1.673e-08,-0.47486,0,0,0.11111,-0,-0,0.66667
0.93973,0.94373,8.4576,0.66559,8.3214,5.8936,-15.011,5.0038,-0.42605,-20.015,-2.948e-06,-0.21302,0,0,0.11111,-0,-0,0.66667
0.90844,0.39415,8.176,-0.15877,-2.9076,9.1579,3.4616,-1.1539,-1.9111,4.6155,-2.6943e-08,-0.95555,0,0,0.11111,-1.0527e-15,0,0.66667
0.44142,0.70962,3.9728,0.31443,27.19,254.11,-3.3311,1.1104,-1.6476,-4.4414,-1.166e-12,-0.82382,0,0,0.11111,5.2633e-16,0,0.66667
0.9388,0.3666,8.4492,-0.2001,-2.4556,4.4964,4.5085,-1.5028,-1.8598,6.0113,8.3262e-09,-0.9299,0,0,0.11111,-0,-0,0.66667
0.23741,0.2357,2.1367,-0.39645,-40.237,431.44,2.259,-0.75299,-1.4409,3.012,-2.6623e-11,-0.72043,0,0,0.11111,-2.6316e-16,0,0.66667
0.049514,0.71385,0.44563,0.32078,34.406,612.05,-0.3812,0.12707,-1.6351,-0.50826,4.0765e-08,-0.81753,0,0,0.11111,3.2895e-17,0,0.66667
0.55726,0.69712,5.0154,0.29569,21.871,168.25,-3.9546,1.3182,-1.6873,-5.2728,2.0042e-12,-0.84367,0,0,0.11111,-0,-0,0.66667
0.31332,0.828,2.8199,0.49199,47.755,362.48,-3.6996,1.2332,-1.1419,-4.9328,-1.1569e-12,-0.57093,0,0,0.11111,5.2633e-16,0,0.66667
0.53208,0.21201,4.7887,-0.43198,-33.277,185.99,5.5163,-1.8388,-1.3396,7.3551,1.763e-13,-0.66978,0,0,0.11111,5.2633e-16,0,0.66667
0.47161,0.23088,4.2445,-0.40368,-33.734,230.63,4.5691,-1.523,-1.4206,6.0921,-1.863e-12,-0.71028,0,0,0.11111,1.0527e-15,0,0.66667
0.48313,0.64043,4.3482,0.21064,17.326,221.61,-2.4424,0.81414,-1.8441,-3.2565,-3.4617e-13,-0.92207,0,0,0.11111,-1.0527e-15,0,0.66667
0.57008,0.15658,5.1307,-0.51513,-37.395,160,7.048,-2.3493,-1.0554,9.3973,-1.0965e-12,-0.52768,0,0,0.11111,2.1053e-15,0,0.66667
0.92344,0.43216,8.311,-0.10176,-1.5601,6.5659,2.2554,-0.75179,-1.9654,3.0072,-5.3437e-08,-0.98268,0,0,0.11111,-1.579e-15,0,0.66667
0.23619,0.67009,2.1257,0.25513,25.886,432.49,-1.4463,0.48209,-1.7697,-1.9283,2.6123e-11,-0.88485,0,0,0.11111,-0,-0,0.66667
0.87608,0.80874,7.8847,0.46311,11.461,16.641,-9.7374,3.2458,-1.2405,-12.983,7.6072e-09,-0.62027,0,0,0.11111,2.6316e-16,0,0.66667
0.73384,0.74863,6.6045,0.37294,18.424,66.552,-6.5682,2.1894,-1.5099,-8.7576,-1.5809e-11,-0.75493,0,0,0.11111,-1.0527e-15,0,0.66667
0.079211,0.028411,0.7129,-0.70738,-75.873,583.07,1.3448,-0.44826,-0.22409,1.793,1.8343e-06,-0.11204,0,0,0.11111,6.5791e-17,0,0.66667
0.83539,0.86492,7.5185,0.54738,17.712,27.993,-10.975,3.6582,-0.93215,-14.633,-8.8196e-10,-0.46608,0,0,0.11111,-0,-0,0.66667
0.39764,0.23577,3.5788,-0.39635,-35.871,289.79,3.7826,-1.2609,-1.4388,5.0434,1.2512e-12,-0.71938,0,0,0.11111,-0,-0,0.66667
0.33574,0.080976,3.0216,-0.62854,-60.121,342.92,5.0646,-1.6882,-0.59265,6.7527,-1.0147e-12,-0.29632,0,0,0.11111,-5.2633e-16,0,0.66667
0.000393,0.25022,0.003537,-0.37467,-40.301,660.36,0.0035335,-0.0011769,-1.5057,0.0047118,1.404e-06,-0.75285,0,0,0.11111,-0,-7.2761e-18,0.66667
0.24581,0.10531,2.2122,-0.59204,-59.947,423.85,3.4926,-1.1642,-0.7525,4.6568,-5.5234e-11,-0.37625,0,0,0.11111,-0,-0,0.66667
0.68795,0.24636,6.1915,-0.38046,-21.478,89.182,6.2817,-2.0939,-1.4894,8.3755,2.3799e-12,-0.74472,0,0,0.11111,2.6316e-16,0,0.66667
0.85117,0.098149,7.6606,-0.60278,-17.811,23.596,12.314,-4.1045,-0.70626,16.418,1.2427e-08,-0.35313,0,0,0.11111,-0,-0,0.66667
0.24105,0.64252,2.1694,0.21378,21.632,427.96,-1.2368,0.41225,-1.8349,-1.649,2.1851e-11,-0.91745,0,0,0.11111,2.6316e-16,0,0.66667
0.37094,0.38261,3.3385,-0.17608,-16.303,312.05,1.5675,-0.52252,-1.889,2.0901,-4.2799e-13,-0.94448,0,0,0.11111,-0,-0,0.66667
0.15042,0.20899,1.3538,-0.43651,-45.908,513.84,1.5759,-0.5253,-1.3204,2.1012,2.1788e-09,-0.6602,0,0,0.11111,-0,-0,0.66667
0.8035,0.51627,7.2315,0.024406,0.9199,37.58,-0.47065,0.15688,-1.9953,-0.62754,5.2378e-11,-0.99764,0,0,0.11111,-0,-0,0.66667
0.71702,0.198,6.4532,-0.453,-23.603,74.688,7.7956,-2.5985,-1.2718,10.394,5.7483e-12,-0.63589,0,0,0.11111,2.1053e-15,0,0.66667
0.70048,0.76957,6.3043,0.40436,22.075,82.772,-6.7978,2.2659,-1.4189,-9.0638,-2.8546e-12,-0.70944,0,0,0.11111,-1.0527e-15,0,0.66667
0.67885,0.33448,6.1097,-0.24828,-14.328,93.777,4.0451,-1.3484,-1.7784,5.3935,1.9842e-12,-0.88921,0,0,0.11111,-0,-0,0.66667
0.89205,0.13771,8.0284,-0.54343,-11.837,13.35,11.634,-3.8781,-0.95169,15.512,-4.8194e-09,-0.47584,0,0,0.11111,-0,-0,0.66667
0.88303,0.78875,7.9473,0.43313,10.135,14.934,-9.1792,3.0597,-1.3307,-12.239,1.0089e-08,-0.66534,0,0,0.11111,-0,-0,0.66667
0.62537,0.21736,5.6283,-0.42396,-27.712,124.61,6.3631,-2.121,-1.3656,8.4841,6.7191e-13,-0.68278,0,0,0.11111,-4.6054e-16,0,0.66667
0.28878,0.70249,2.599,0.30374,29.92,384.28,-2.1051,0.70171,-1.6692,-2.8068,6.0707e-12,-0.83461,0,0,0.11111,-0,-0,0.66667
0.4031,0.8038,3.6279,0.45569,41.05,285.35,-4.4086,1.4695,-1.2616,-5.8781,-2.1183e-12,-0.63079,0,0,0.11111,5.2633e-16,0,0.66667
0.028957,0.47567,0.26062,-0.036499,-3.9174,632.24,0.025366,-0.0084553,-1.9963,0.033822,4.9732e-08,-0.99816,0,0,0.11111,-0,-0,0.66667
0.91648,0.81417,8.2484,0.47126,7.9798,8.4699,-10.366,3.4552,-1.2096,-13.821,3.7144e-08,-0.6048,0,0,0.11111,2.1053e-15,0,0.66667
0.68745,0.47236,6.187,-0.041454,-2.3372,89.051,0.68394,-0.22798,-1.9986,0.91192,9.9737e-13,-0.99932,0,0,0.11111,-0,-0,0.66667
0.90817,0.43877,8.1735,-0.091846,-1.6854,9.147,2.0019,-0.66729,-1.9724,2.6692,1.4373e-08,-0.98622,0,0,0.11111,-2.1053e-15,0,0.66667
0.30209,0.58412,2.7188,0.12619,12.313,372.22,-0.91485,0.30495,-1.9416,-1.2198,2.9263e-12,-0.9708,0,0,0.11111,-2.6316e-16,0,0.66667
0.94483,0.029775,8.5034,-0.70534,-8.1264,5.4881,15.994,-5.3314,-0.22977,21.326,1.0498e-05,-0.11488,0,0,0.11111,2.6316e-16,0,0.66667
0.86403,0.035656,7.7763,-0.69652,-19.01,20.566,14.443,-4.8145,-0.27427,19.258,-3.9893e-08,-0.13713,0,0,0.11111,-0,-0,0.66667
0.88601,0.39178,7.9741,-0.16234,-3.6789,13.696,3.452,-1.1507,-1.9046,4.6026,-1.2137e-08,-0.95232,0,0,0.11111,-0,-0,0.66667
0.00014133,0.88439,0.001272,0.57659,62.134,660.61,-0.0019533,0.00065873,-0.82183,-0.0026007,1.1426e-05,-0.41091,0,0,0.11111,-0,4.4253e-16,0.66667
0.37724,0.44442,3.3952,-0.083376,-7.6751,306.67,0.75486,-0.25162,-1.9764,1.0065,-9.9348e-13,-0.9882,0,0,0.11111,-0,-0,0.66667
0.12233,0.68876,1.1009,0.28315,29.981,540.92,-0.83126,0.27709,-1.7165,-1.1083,-1.0918e-08,-0.85824,0,0,0.11111,-0,-0,0.66667
0.93281,0.82875,8.3953,0.49312,6.7531,6.0541,-11.04,3.6799,-1.1337,-14.719,1.7184e-07,-0.56685,0,0,0.11111,2.1053e-15,0,0.66667
0.51371,0.7453,4.6234,0.36795,29.089,199.08,-4.5364,1.5121,-1.5204,-6.0486,-2.7973e-12,-0.76022,0,0,0.11111,2.6316e-16,0,0.66667
0.48934,0.2351,4.404,-0.39735,-32.471,217.15,4.6665,-1.5555,-1.4368,6.2219,3.6637e-13,-0.71838,0,0,0.11111,-1.0527e-15,0,0.66667
0.48692,0.82297,4.3823,0.48445,39.751,219.12,-5.6614,1.8871,-1.1659,-7.5485,5.1958e-13,-0.58297,0,0,0.11111,-0,-0,0.66667
0.57029,0.091207,5.1326,-0.61319,-44.567,160.11,8.3927,-2.7976,-0.66154,11.19,2.3013e-12,-0.33077,0,0,0.11111,1.3158e-16,0,0.66667
0.54451,0.97621,4.9006,0.71431,54.234,177.96,-9.3347,3.1116,-0.18672,-12.446,-1.3678e-13,-0.093362,0,0,0.11111,-0,-9.5616e-17,0.66667
0.91711,0.83033,8.254,0.4955,8.3408,8.4512,-10.906,3.6354,-1.1253,-14.542,2.1876e-08,-0.56266,0,0,0.11111,-1.0527e-15,0,0.66667
0.88438,0.7742,7.9595,0.4113,9.5097,14.564,-8.7299,2.91,-1.3965,-11.64,1.2107e-08,-0.69827,0,0,0.11111,-5.2633e-16,0,0.66667
0.78372,0.65947,7.0535,0.23921,9.8412,45.126,-4.4993,1.4998,-1.7979,-5.9991,5.6657e-12,-0.89897,0,0,0.11111,2.1053e-15,0,0.66667
0.32273,0.018392,2.9045,-0.72241,-69.864,354.51,5.5954,-1.8651,-0.14235,7.4605,-4.1744e-14,-0.071175,0,0,0.11111,-0,-0,0.66667
0.78444,0.93563,7.0599,0.65345,27.054,46.009,-12.302,4.1007,-0.48268,-16.403,5.1679e-10,-0.24134,0,0,0.11111,-1.1842e-15,0,0.66667
0.14519,0.66161,1.3067,0.24242,25.503,518.8,-0.8447,0.28157,-1.7902,-1.1263,-3.6443e-09,-0.89508,0,0,0.11111,-0,-0,0.66667
0.86023,0.71005,7.742,0.31507,8.6963,20.229,-6.5048,2.1683,-1.6498,-8.6731,5.0254e-09,-0.82492,0,0,0.11111,-0,-0,0.66667
0.773,0.017775,6.957,-0.72334,-31.412,50.808,13.419,-4.4731,-0.13696,17.892,5.9151e-11,-0.068479,0,0,0.11111,-0,-0,0.66667
0.77597,0.17559,6.9837,-0.48661,-20.745,48.734,9.0622,-3.0207,-1.1561,12.083,1.2967e-11,-0.57806,0,0,0.11111,-0,-0,0.66667
0.5287,0.12477,4.7583,-0.56285,-43.653,188.67,7.1419,-2.3806,-0.87547,9.5225,7.1987e-13,-0.43774,0,0,0.11111,1.3981e-15,7.4367e-21,0.66667
0.45019,0.82772,4.0517,0.49158,42.168,247.43,-5.3113,1.7704,-1.1406,-7.0817,-6.7546e-13,-0.57029,0,0,0.11111,-0,-0,0.66667
0.22663,0.51597,2.0397,0.023962,2.441,441.35,-0.13033,0.043445,-1.9952,-0.17378,5.3171e-12,-0.9976,0,0,0.11111,-0,-0,0.66667
0.80868,0.1989,7.2781,-0.45165,-16.711,36.409,8.7657,-2.9219,-1.2738,11.688,-5.9632e-11,-0.6369,0,0,0.11111,-0,-0,0.66667
0.96593,0.60865,8.6934,0.16297,1.0884,1.6526,-3.7781,1.2594,-1.9055,-5.0375,-1.3625e-07,-0.95275,0,0,0.11111,-0,-0,0.66667
0.54353,0.27461,4.8918,-0.33809,-25.569,177.78,4.4103,-1.4701,-1.5935,5.8804,7.8026e-13,-0.79677,0,0,0.11111,-0,-0,0.66667
0.90221,0.12983,8.1199,-0.55525,-11.009,11.352,12.023,-4.0076,-0.90339,16.03,-2.1445e-08,-0.45169,0,0,0.11111,-2.1053e-15,0,0.66667
0.28235,0.71523,2.5412,0.32284,31.934,390.12,-2.1877,0.72924,-1.6325,-2.917,6.5676e-12,-0.81627,0,0,0.11111,-1.3158e-16,0,0.66667
0.51776,0.9005,4.6598,0.60075,47.362,196.61,-7.4649,2.4883,-0.71822,-9.9533,1.1258e-12,-0.35911,0,0,0.11111,-2.6316e-16,0,0.66667
0.32816,0.69209,2.9535,0.28813,27.623,349.15,-2.2693,0.75642,-1.7094,-3.0257,2.2717e-12,-0.85472,0,0,0.11111,-0,-0,0.66667
0.9918,0.18077,8.9262,-0.47885,-0.67905,1.0794,11.398,-3.7994,-1.1825,15.198,-1.5552e-06,-0.59126,0,0,0.11111,-1.0527e-15,0,0.66667
0.25032,0.96076,2.2528,0.69114,69.905,419.81,-4.1521,1.384,-0.30533,-5.5361,-1.3451e-11,-0.15266,0,0,0.11111,-2.6316e-16,0,0.66667
0.67876,0.94686,6.1088,0.67029,38.961,94.883,-10.919,3.6397,-0.40015,-14.559,3.3751e-14,-0.20008,0,0,0.11111,-0,-0,0.66667
0.7642,0.57436,6.8778,0.11153,4.9473,52.84,-2.0456,0.68188,-1.9575,-2.7275,-1.1972e-11,-0.97876,0,0,0.11111,-0,-0,0.66667
0.032227,0.52775,0.29004,0.041622,4.4663,629.03,-0.032192,0.010731,-1.9971,-0.042923,-3.7998e-07,-0.99857,0,0,0.11111,-6.5791e-17,0,0.66667
0.98227,0.045415,8.8404,-0.68188,-2.519,2.3566,16.075,-5.3583,-0.34754,21.433,2.2972e-06,-0.17377,0,0,0.11111,-0,-1.3043e-16,0.66667
0.091323,0.52092,0.8219,0.031385,3.343,571.07,-0.068788,0.022929,-1.9971,-0.091717,1.144e-09,-0.99853,0,0,0.11111,-0,-0,0.66667
0.61407,0.67922,5.5267,0.26883,17.949,131.24,-3.9619,1.3206,-1.7417,-5.2826,1.5321e-13,-0.87085,0,0,0.11111,-0,-0,0.66667
0.14935,0.55675,1.3442,0.085122,8.9391,514.76,-0.30511,0.1017,-1.9722,-0.40682,-4.2943e-10,-0.98612,0,0,0.11111,1.3158e-16,0,0.66667
0.5208,0.53773,4.6872,0.056594,4.4215,193.67,-0.70737,0.23579,-1.9872,-0.94316,-3.9546e-13,-0.99359,0,0,0.11111,1.0527e-15,0,0.66667
0.093345,0.67424,0.84011,0.26135,27.846,569.12,-0.5855,0.19517,-1.7603,-0.78067,-3.2338e-08,-0.88017,0,0,0.11111,-0,-0,0.66667
0.7812,0.40491,7.0308,-0.14264,-5.9234,45.992,2.6743,-0.89142,-1.9328,3.5657,-2.3605e-11,-0.96642,0,0,0.11111,1.3158e-15,0,0.66667
0.77293,0.22062,6.9564,-0.41907,-18.052,49.761,7.7739,-2.5913,-1.3742,10.365,1.954e-13,-0.68708,0,0,0.11111,-0,-0,0.66667
0.59815,0.038863,5.3833,-0.69171,-47.916,142.21,9.9298,-3.3099,-0.29776,13.24,-4.1922e-13,-0.14888,0,0,0.11111,-0,-0,0.66667
0.014543,0.58802,0.13089,0.13202,14.181,646.43,-0.046082,0.015361,-1.9408,-0.061442,4.781e-09,-0.97042,0,0,0.11111,-8.2239e-18,0,0.66667
0.042024,0.38922,0.37822,-0.16617,-17.822,619.39,0.1676,-0.055865,-1.9,0.22346,-1.1871e-07,-0.95001,0,0,0.11111,-0,-0,0.66667
0.18097,0.21923,1.6287,-0.42116,-43.828,484.59,1.8292,-0.60974,-1.3683,2.439,1.4699e-10,-0.68417,0,0,0.11111,5.2633e-16,0,0.66667
0.97203,0.24904,8.7483,-0.37644,-2.0781,1.6608,8.7818,-2.9273,-1.4971,11.709,8.0994e-07,-0.74856,0,0,0.11111,7.8949e-16,0,0.66667
0.2546,0.50729,2.2914,0.010938,1.0984,415.38,-0.066836,0.022279,-1.9984,-0.089115,3.2359e-12,-0.9992,0,0,0.11111,-0,-0,0.66667
0.75101,0.64354,6.7591,0.21531,10.023,58.573,-3.8809,1.2936,-1.8375,-5.1745,-1.8743e-11,-0.91873,0,0,0.11111,-1.0527e-15,0,0.66667
0.28124,0.96917,2.5311,0.70376,69.945,391.57,-4.7501,1.5834,-0.24443,-6.3335,3.4239e-13,-0.12221,0,0,0.11111,-0,-7.0337e-18,0.66667
0.25552,0.67688,2.2997,0.26532,26.648,414.6,-1.627,0.54234,-1.7477,-2.1694,1.7184e-11,-0.87385,0,0,0.11111,-0,-0,0.66667
0.25786,0.27749,2.3208,-0.33377,-33.494,412.49,2.0656,-0.68853,-1.6021,2.7541,-2.1456e-11,-0.80106,0,0,0.11111,6.5791e-16,0,0.66667
0.29705,0.4832,2.6735,-0.025193,-2.4661,376.72,0.17961,-0.059869,-2.0013,0.23948,1.4181e-12,-1.0006,0,0,0.11111,-5.2633e-16,0,0.66667
0.0089446,0.51066,0.080501,0.015989,1.7174,651.94,-0.0034323,0.0011419,-1.9966,-0.0045775,-3.3066e-06,-0.99832,0,0,0.11111,3.2895e-17,0,0.66667
0.98718,0.13731,8.8846,-0.54404,-1.3469,1.4913,12.889,-4.2965,-0.94765,17.186,-3.1238e-06,-0.47383,0,0,0.11111,2.1053e-15,0,0.66667
0.56646,0.68432,5.0981,0.27648,20.139,161.99,-3.7587,1.2529,-1.7281,-5.0116,1.9891e-12,-0.86407,0,0,0.11111,-5.2633e-16,0,0.66667
0.60184,0.57562,5.4166,0.11344,7.7489,138.75,-1.6385,0.54617,-1.9515,-2.1847,1.2912e-12,-0.97577,0,0,0.11111,-0,-0,0.66667
0.53826,0.63507,4.8443,0.2026,15.432,181.31,-2.6172,0.87241,-1.8516,-3.4896,1.2783e-12,-0.92579,0,0,0.11111,-0,-0,0.66667
0.043838,0.35541,0.39454,-0.21688,-23.262,617.62,0.22818,-0.076061,-1.8326,0.30424,-1.0353e-07,-0.91628,0,0,0.11111,-0,-0,0.66667
0.47152,0.65166,4.2437,0.22749,18.986,230.48,-2.5743,0.85812,-1.8168,-3.4325,6.3816e-13,-0.90842,0,0,0.11111,5.2633e-16,0,0.66667
0.53968,0.22309,4.8571,-0.41537,-31.626,180.6,5.3799,-1.7933,-1.3847,7.1732,-3.2907e-13,-0.69236,0,0,0.11111,-0,-0,0.66667
0.67296,0.38852,6.0566,-0.16722,-9.7884,96.874,2.7008,-0.90026,-1.9027,3.6011,-2.2538e-13,-0.95137,0,0,0.11111,1.0527e-15,0,0.66667
0.53417,0.35692,4.8075,-0.21463,-16.451,184.21,2.7515,-0.91717,-1.8361,3.6687,4.1678e-13,-0.91804,0,0,0.11111,1.0527e-15,0,0.66667
0.055072,0.75775,0.49565,0.38662,41.463,606.6,-0.51101,0.17034,-1.4662,-0.68135,-4.2359e-08,-0.7331,0,0,0.11111,-0,-0,0.66667
0.6201,0.41456,5.5809,-0.12816,-8.4464,127.4,1.9073,-0.63578,-1.9401,2.5431,-3.3795e-13,-0.97006,0,0,0.11111,2.1053e-15,0,0.66667
0.58118,0.29494,5.2306,-0.30758,-21.849,152.26,4.2902,-1.4301,-1.6633,5.7203,2.8906e-12,-0.83166,0,0,0.11111,-1.0527e-15,0,0.66667
0.5456,0.18404,4.9104,-0.47394,-35.783,176.59,6.2059,-2.0686,-1.2042,8.2745,1.6604e-12,-0.60212,0,0,0.11111,4.2469e-16,0,0.66667
0.84328,0.86172,7.5895,0.54257,16.777,25.617,-10.981,3.6603,-0.95639,-14.641,6.0253e-10,-0.47819,0,0,0.11111,-0,-0,0.66667
0.44739,0.99378,4.0265,0.74067,63.971,250.18,-7.9528,2.6509,-0.04775,-10.604,-1.6134e-12,-0.023875,0,0,0.11111,2.6316e-16,0,0.66667
0.60357,0.14087,5.4321,-0.5387,-36.833,138.33,7.8034,-2.6011,-0.96586,10.404,-1.1413e-13,-0.48293,0,0,0.11111,-7.1477e-16,0,0.66667
0.12361,0.31378,1.1125,-0.27933,-29.566,539.67,0.82869,-0.27623,-1.7257,1.1049,1.0473e-08,-0.86285,0,0,0.11111,-0,-0,0.66667
0.25238,0.80233,2.2714,0.45349,45.69,417.64,-2.7469,0.91562,-1.2694,-3.6625,1.9616e-11,-0.6347,0,0,0.11111,-0,-0,0.66667
0.85035,0.95624,7.6532,0.68436,20.399,24.182,-13.967,4.6556,-0.33224,-18.622,7.4729e-09,-0.16612,0,0,0.11111,-0,-0,0.66667
0.016224,0.75945,0.14602,0.38918,41.854,644.78,-0.15154,0.050514,-1.4646,-0.20205,3.9184e-07,-0.7323,0,0,0.11111,-0,-0,0.66667
0.15625,0.92654,1.4063,0.63981,67.31,508.37,-2.3993,0.79976,-0.54851,-3.199,-1.0596e-08,-0.27425,0,0,0.11111,-1.3158e-16,0,0.66667
0.82338,0.089286,7.4105,-0.61607,-21.31,32.036,12.174,-4.0581,-0.64963,16.232,6.0134e-10,-0.32482,0,0,0.11111,-1.0527e-15,0,0.66667
0.22934,0.86686,2.064,0.55029,56.157,439.1,-3.0288,1.0096,-0.92179,-4.0384,1.9433e-10,-0.46089,0,0,0.11111,-0,-0,0.66667
0.25919,0.98398,2.3328,0.72597,73.11,411.7,-4.516,1.5053,-0.12357,-6.0213,2.027e-11,-0.061786,0,0,0.11111,5.2633e-16,0,0.66667
0.70079,0.54162,6.3071,0.062433,3.3952,82.166,-1.0501,0.35002,-1.9868,-1.4001,-3.2241e-13,-0.9934,0,0,0.11111,-0,-0,0.66667
0.96653,0.84862,8.6987,0.52293,3.561,2.5611,-12.13,4.0434,-1.0291,-16.174,-3.9748e-07,-0.51457,0,0,0.11111,-0,-0,0.66667
0.19828,0.3819,1.7845,-0.17715,-18.282,468.04,0.84301,-0.281,-1.8871,1.124,1.1445e-10,-0.94357,0,0,0.11111,-0,-0,0.66667
0.7475,0.68045,6.7275,0.27068,12.762,60.195,-4.8559,1.6186,-1.7403,-6.4746,-2.1518e-11,-0.87015,0,0,0.11111,9.6894e-16,0,0.66667
0.14051,0.45118,1.2646,-0.073233,-7.7107,523.29,0.24695,-0.082317,-1.9846,0.32927,2.1606e-09,-0.99229,0,0,0.11111,2.6316e-16,0,0.66667
0.3825,0.61937,3.4425,0.17905,16.41,302.27,-1.6437,0.54789,-1.884,-2.1916,7.0555e-13,-0.94198,0,0,0.11111,5.2633e-16,0,0.66667
0.32329,0.091756,2.9096,-0.61237,-59.104,353.82,4.7513,-1.5838,-0.66618,6.3351,3.9875e-12,-0.33309,0,0,0.11111,-2.6316e-16,0,0.66667
0.88379,0.90346,7.9541,0.60519,14.186,15.396,-12.837,4.2788,-0.69626,-17.115,-2.6282e-08,-0.34813,0,0,0.11111,1.3158e-15,0,0.66667
0.65538,0.015257,5.8984,-0.72711,-44.773,107.96,11.437,-3.8123,-0.12264,15.249,1.7017e-12,-0.061319,0,0,0.11111,-0,1.3151e-16,0.66667
0.33358,0.55525,3.0022,0.082877,7.907,344.3,-0.66349,0.22116,-1.9739,-0.88466,1.2663e-12,-0.98695,0,0,0.11111,-0,-0,0.66667
0.021608,0.10227,0.19447,-0.5966,-64.275,639.51,0.30939,-0.10314,-0.73242,0.41251,-8.6661e-06,-0.36621,0,0,0.11111,-0,-0,0.66667
0.36901,0.96566,3.3211,0.69848,65.11,314.37,-6.1859,2.062,-0.264,-8.2479,-4.8583e-13,-0.132,0,0,0.11111,8.9874e-16,0,0.66667
0.97218,0.49908,8.7496,-0.001382,-0.0073814,1.0999,0.032246,-0.010745,-2.0008,0.042996,5.3719e-06,-1.0004,0,0,0.11111,-7.8949e-16,0,0.66667
0.5291,0.98487,4.7619,0.7273,56.534,188.83,-9.2356,3.0785,-0.11991,-12.314,-2.534e-12,-0.059955,0,0,0.11111,1.0527e-15,0,0.66667
0.74214,0.58376,6.6793,0.12564,6.0243,62.407,-2.2378,0.74595,-1.9413,-2.9838,-1.0968e-11,-0.97066,0,0,0.11111,-0,-0,0.66667
0.34539,0.49914,3.1085,-0.0012893,-0.12188,333.98,0.010688,-0.0035626,-2.0029,0.01425,-1.5448e-12,-1.0014,0,0,0.11111,2.9606e-16,0,0.66667
0.46059,0.39488,4.1453,-0.15769,-13.329,238.89,1.7431,-0.58103,-1.909,2.3241,1.5911e-12,-0.95448,0,0,0.11111,-0,-0,0.66667
0.21164,0.86318,1.9047,0.54477,56.05,455.66,-2.7671,0.92235,-0.94217,-3.6894,-2.3214e-10,-0.47109,0,0,0.11111,-0,-0,0.66667
0.83696,0.33704,7.5326,-0.24444,-7.7792,26.712,4.9101,-1.6367,-1.7854,6.5468,-1.2651e-09,-0.89272,0,0,0.11111,1.579e-15,0,0.66667
0.35981,0.72877,3.2383,0.34316,32.105,321.69,-2.9633,0.98776,-1.5846,-3.9511,6.2883e-13,-0.79232,0,0,0.11111,1.0527e-15,0,0.66667
0.037088,0.10915,0.33379,-0.58628,-63.098,624.29,0.52185,-0.17395,-0.77555,0.69581,2.5202e-06,-0.38777,0,0,0.11111,-0,-0,0.66667
0.68899,0.76592,6.2009,0.39888,22.462,88.676,-6.5958,2.1986,-1.4358,-8.7944,-2.0961e-12,-0.71792,0,0,0.11111,-0,-0,0.66667
0.15579,0.72701,1.4021,0.34052,35.726,508.63,-1.2732,0.4244,-1.5912,-1.6976,-2.0581e-09,-0.79558,0,0,0.11111,-0,-0,0.66667
0.79875,0.76671,7.1888,0.40006,15.474,39.803,-7.6692,2.5564,-1.432,-10.226,5.8241e-11,-0.71599,0,0,0.11111,-1.0527e-15,0,0.66667
0.015262,0.94685,0.13736,0.67028,72.295,645.75,-0.24551,0.081824,-0.40603,-0.32736,-1.9547e-05,-0.20301,0,0,0.11111,-0,-0,0.66667
0.58562,0.11333,5.2706,-0.58001,-41.022,149.92,8.152,-2.7173,-0.80123,10.869,-3.7215e-13,-0.40062,0,0,0.11111,5.2633e-16,0,0.66667
0.49552,0.19856,4.4596,-0.45216,-36.675,212.62,5.3772,-1.7924,-1.2717,7.1697,4.1966e-13,-0.63583,0,0,0.11111,-0,-0,0.66667
0.99746,0.078256,8.9772,-0.63262,-0.2399,1.6354,15.144,-5.0481,-0.57732,20.192,1.6738e-05,-0.28866,0,0,0.11111,-0,4.6162e-16,0.66667
0.13437,0.36215,1.2093,-0.20677,-21.816,529.24,0.66681,-0.22227,-1.8455,0.88908,6.1243e-09,-0.92277,0,0,0.11111,-0,-0,0.66667
0.67255,0.46955,6.053,-0.045674,-2.675,97.024,0.73724,-0.24575,-1.9969,0.98299,9.4791e-13,-0.99843,0,0,0.11111,-0,-0,0.66667
0.094945,0.52203,0.85451,0.033039,3.5168,567.53,-0.075285,0.025095,-1.9984,-0.10038,-8.9385e-09,-0.99918,0,0,0.11111,-0,-0,0.66667
0.16177,0.3222,1.4559,-0.2667,-27.914,502.87,1.0354,-0.34515,-1.7451,1.3806,1.4684e-09,-0.87257,0,0,0.11111,-0,-0,0.66667
0.98833,0.90904,8.895,0.61356,1.419,1.7688,-14.554,4.8512,-0.66146,-19.405,1.623e-05,-0.33073,0,0,0.11111,-0,-0,0.66667
0.80667,0.64011,7.26,0.21017,7.8152,36.598,-4.0688,1.3563,-1.8406,-5.4251,1.6602e-10,-0.9203,0,0,0.11111,-0,-0,0.66667
0.24464,0.76145,2.2018,0.39217,39.653,424.73,-2.3026,0.76753,-1.4512,-3.0701,2.8787e-11,-0.72558,0,0,0.11111,-0,-0,0.66667
0.8463,0.39634,7.6167,-0.1555,-4.6788,23.827,3.1583,-1.0528,-1.9145,4.2111,-2.2104e-09,-0.95724,0,0,0.11111,-0,-0,0.66667
0.0356,0.97938,0.3204,0.71907,77.528,625.78,-0.61438,0.20479,-0.16026,-0.81918,-6.1139e-06,-0.080131,0,0,0.11111,-0,-0,0.66667
0.53561,0.24299,4.8205,-0.38551,-29.526,183.41,4.9556,-1.6519,-1.4706,6.6075,1.1089e-12,-0.73531,0,0,0.11111,-0,-0,0.66667
0.091475,0.94102,0.82327,0.66153,70.762,571.08,-1.4523,0.48411,-0.44557,-1.9364,-2.8769e-07,-0.22279,0,0,0.11111,2.6316e-16,5.2622e-17,0.66667
0.97091,0.67899,8.7382,0.26848,1.5261,1.4656,-6.2561,2.0854,-1.7447,-8.3415,-3.4693e-07,-0.87237,0,0,0.11111,1.0527e-15,0,0.66667
0.5831,0.53256,5.2479,0.048841,3.453,150.78,-0.6835,0.22783,-1.9911,-0.91133,4.2425e-12,-0.99553,0,0,0.11111,-2.1053e-15,0,0.66667
0.55574,0.45343,5.0017,-0.069854,-5.1738,169.11,0.9317,-0.31057,-1.98,1.2423,8.667e-13,-0.99,0,0,0.11111,1.0527e-15,0,0.66667
0.31797,0.3328,2.8618,-0.2508,-24.218,358.12,1.914,-0.63798,-1.7743,2.5519,8.0735e-13,-0.88716,0,0,0.11111,-5.2633e-16,0,0.66667
0.8499,0.65138,7.6491,0.22708,6.6891,22.891,-4.6318,1.5439,-1.815,-6.1757,2.7474e-09,-0.9075,0,0,0.11111,5.2633e-16,0,0.66667
0.53015,0.10532,4.7714,-0.59202,-45.837,187.7,7.5326,-2.5109,-0.75606,10.044,2.188e-12,-0.37803,0,0,0.11111,-0,-0,0.66667
0.017098,0.25339,0.15388,-0.36991,-39.776,643.92,0.1518,-0.050599,-1.5161,0.2024,-4.2384e-07,-0.75804,0,0,0.11111,-0,-0,0.66667
0.18489,0.92979,1.6641,0.64469,67.148,481.03,-2.8608,0.95359,-0.52284,-3.8144,-3.2057e-09,-0.26142,0,0,0.11111,1.3158e-16,0,0.66667
0.43347,0.2063,3.9012,-0.44055,-38.471,260.62,4.5831,-1.5277,-1.3088,6.1108,4.2144e-13,-0.65439,0,0,0.11111,-0,-0,0.66667
0.079976,0.81745,0.71979,0.47618,50.932,582.23,-0.91399,0.30466,-1.1957,-1.2187,-5.6369e-08,-0.59783,0,0,0.11111,-2.6316e-16,0,0.66667
0.28066,0.34975,2.5259,-0.22538,-22.304,391.59,1.5181,-0.50603,-1.8229,2.0241,-7.8725e-12,-0.91145,0,0,0.11111,-0,-0,0.66667
0.2504,0.73175,2.2536,0.34762,35.03,419.38,-2.089,0.69634,-1.5736,-2.7854,2.4834e-11,-0.78678,0,0,0.11111,-5.2633e-16,0,0.66667
0.00060864,0.017586,0.0054778,-0.72362,-78.122,660.15,0.010743,-0.003658,-0.14074,0.014286,-0.00011524,-0.070372,0,0,0.11111,-2.056e-18,5.1804e-16,0.66667
0.69289,0.69241,6.236,0.28862,16.062,86.44,-4.7995,1.5998,-1.7025,-6.3993,-2.5913e-12,-0.85125,0,0,0.11111,-0,-0,0.66667
0.77389,0.37919,6.965,-0.18121,-7.7503,48.933,3.3658,-1.1219,-1.8814,4.4877,7.9279e-12,-0.94071,0,0,0.11111,-0,-0,0.66667
0.82035,0.78334,7.3831,0.425,14.842,32.375,-8.3676,2.7892,-1.3563,-11.157,2.2729e-10,-0.67814,0,0,0.11111,-2.1053e-15,0,0.66667
0.85163,0.53326,7.6647,0.049896,1.4515,22.239,-1.0198,0.33994,-1.9897,-1.3598,2.4518e-09,-0.99484,0,0,0.11111,-0,-0,0.66667
0.15152,0.91505,1.3637,0.62257,65.581,512.9,-2.2641,0.75468,-0.62046,-3.0187,-5.5609e-10,-0.31023,0,0,0.11111,-2.6316e-16,0,0.66667
0.89004,0.09805,8.0103,-0.60292,-13.409,14.019,12.879,-4.293,-0.71126,17.172,-6.608e-09,-0.35563,0,0,0.11111,-0,-0,0.66667
0.65821,0.5231,5.9239,0.034645,2.1005,104.97,-0.54729,0.18243,-1.9971,-0.72972,2.1633e-12,-0.99853,0,0,0.11111,-1.0527e-15,0,0.66667
0.69613,0.44381,6.2652,-0.084278,-4.6426,84.553,1.408,-0.46935,-1.9727,1.8774,1.2383e-12,-0.98633,0,0,0.11111,-0,-0,0.66667
0.56407,0.79889,5.0766,0.44834,32.846,163.88,-6.0695,2.0232,-1.2868,-8.0926,-1.3944e-13,-0.64339,0,0,0.11111,1.0527e-15,0,0.66667
0.93968,0.71298,8.4571,0.31947,3.8842,4.6179,-7.2048,2.4016,-1.6385,-9.6063,4.0607e-08,-0.81923,0,0,0.11111,5.2633e-16,0,0.66667
0.25185,0.58609,2.2666,0.12913,12.989,417.94,-0.78051,0.26017,-1.9422,-1.0407,1.3738e-11,-0.97112,0,0,0.11111,-2.6316e-16,0,0.66667
0.78688,0.73576,7.082,0.35364,14.384,44.121,-6.6786,2.2262,-1.5531,-8.9049,-3.7499e-12,-0.77654,0,0,0.11111,1.0527e-15,0,0.66667
0.49526,0.56889,4.4573,0.10334,8.3642,212.42,-1.2283,0.40945,-1.9609,-1.6378,-3.5788e-12,-0.98044,0,0,0.11111,-0,-0,0.66667
0.8909,0.55864,8.0181,0.087958,1.9091,12.567,-1.8807,0.62689,-1.9768,-2.5076,1.6207e-08,-0.98841,0,0,0.11111,-2.6316e-16,0,0.66667
0.2762,0.55276,2.4858,0.079134,7.8488,395.6,-0.52456,0.17485,-1.976,-0.69941,3.6989e-12,-0.98802,0,0,0.11111,-0,-0,0.66667
0.015247,0.94548,0.13722,0.66822,72.071,645.76,-0.24451,0.08149,-0.41594,-0.32602,-1.8817e-05,-0.20797,0,0,0.11111,-0,-0,0.66667
0.064891,0.3386,0.58402,-0.24211,-25.911,596.95,0.37705,-0.12568,-1.7928,0.50274,2.6599e-08,-0.89638,0,0,0.11111,9.8686e-17,0,0.66667
0.89964,0.49255,8.0967,-0.01117,-0.22348,10.744,0.24118,-0.080392,-1.9974,0.32157,-2.8229e-08,-0.99871,0,0,0.11111,5.2633e-16,0,0.66667
0.64115,0.15504,5.7704,-0.51744,-32.753,115.46,7.9621,-2.654,-1.0525,10.616,6.648e-13,-0.52623,0,0,0.11111,1.4474e-15,0,0.66667
0.73027,0.016781,6.5724,-0.72483,-36.507,69.333,12.704,-4.2346,-0.13072,16.938,2.0917e-12,-0.065362,0,0,0.11111,-0,1.3086e-16,0.66667
0.50436,0.53648,4.5393,0.054718,4.3745,205.65,-0.66234,0.22078,-1.9886,-0.88313,-8.4632e-13,-0.99432,0,0,0.11111,-0,-0,0.66667
0.55757,0.76151,5.0182,0.39226,29.027,168.18,-5.2491,1.7497,-1.4512,-6.9988,1.2212e-13,-0.72558,0,0,0.11111,-0,-0,0.66667
0.36389,0.93027,3.2751,0.6454,60.375,318.62,-5.6366,1.8789,-0.51787,-7.5154,2.8302e-12,-0.25894,0,0,0.11111,-0,-0,0.66667
0.78264,0.24378,7.0437,-0.38433,-15.918,45.831,7.2189,-2.4063,-1.4771,9.6252,1.6166e-11,-0.73857,0,0,0.11111,-0,-0,0.66667
0.75687,0.73244,6.8118,0.34866,15.925,56.27,-6.3333,2.1111,-1.5651,-8.4444,-2.3413e-11,-0.78257,0,0,0.11111,-0,-0,0.66667
0.70001,0.70832,6.3001,0.31249,17.061,82.827,-5.2498,1.7499,-1.6526,-6.9997,-4.0852e-12,-0.82631,0,0,0.11111,-0,-0,0.66667
0.96189,0.49649,8.657,-0.0052605,-0.039403,1.8796,0.12144,-0.040481,-1.9983,0.16192,-1.3203e-06,-0.99913,0,0,0.11111,1.3158e-15,0,0.66667
0.76884,0.29903,6.9195,-0.30145,-13.165,51.164,5.5624,-1.8541,-1.6764,7.4165,2.4674e-11,-0.83822,0,0,0.11111,-0,-0,0.66667
0.97792,0.91334,8.8013,0.62001,2.8095,2.2555,-14.552,4.8505,-0.63115,-19.402,-1.1775e-05,-0.31557,0,0,0.11111,-0,-0,0.66667
0.59028,0.93306,5.3125,0.64958,45.617,147.11,-9.2024,3.0675,-0.49984,-12.27,-1.0605e-12,-0.24992,0,0,0.11111,-0,9.6822e-17,0.66667
0.61926,0.066769,5.5733,-0.64985,-43.175,128.92,9.6582,-3.2194,-0.49708,12.878,3.2063e-13,-0.24854,0,0,0.11111,-0,-0,0.66667
0.63905,0.57359,5.7515,0.11038,6.9898,116.03,-1.693,0.56432,-1.9583,-2.2573,-6.6969e-13,-0.97913,0,0,0.11111,1.0527e-15,0,0.66667
0.32637,0.88039,2.9373,0.57059,54.919,351.04,-4.4694,1.4898,-0.84435,-5.9592,-4.3654e-13,-0.42217,0,0,0.11111,-0,-0,0.66667
0.033029,0.97528,0.29726,0.71291,76.871,628.3,-0.56513,0.18838,-0.19467,-0.7535,5.6859e-06,-0.097336,0,0,0.11111,-0,-0,0.66667
0.78818,0.97779,7.0936,0.71668,29.282,44.853,-13.557,4.519,-0.17139,-18.076,1.5176e-10,-0.085694,0,0,0.11111,-0,-0,0.66667
0.71019,0.37933,6.3917,-0.18101,-9.5897,77.541,3.0852,-1.0284,-1.8817,4.1136,4.9283e-12,-0.94085,0,0,0.11111,-0,-0,0.66667
0.079032,0.91686,0.71129,0.62529,66.999,583.21,-1.186,0.39534,-0.61236,-1.5814,-5.7759e-08,-0.30618,0,0,0.11111,-0,-0,0.66667
0.14858,0.17761,1.3372,-0.48359,-50.91,515.64,1.7245,-0.57482,-1.166,2.2993,1.4163e-09,-0.58299,0,0,0.11111,-1.3158e-16,0,0.66667
0.68634,0.1682,6.1771,-0.4977,-28.269,90.309,8.1982,-2.7327,-1.1214,10.931,1.7257e-12,-0.56069,0,0,0.11111,-0,-0,0.66667
0.53504,0.36214,4.8153,-0.2068,-15.829,183.59,2.6554,-0.88515,-1.847,3.5406,1.8399e-12,-0.92349,0,0,0.11111,-0,-0,0.66667
0.19121,0.097002,1.7209,-0.6045,-62.775,475,2.7741,-0.92471,-0.70086,3.6988,6.8195e-11,-0.35043,0,0,0.11111,-0,-0,0.66667
0.055953,0.99093,0.50358,0.7364,79.267,605.83,-0.98889,0.32963,-0.069583,-1.3185,1.0089e-06,-0.034792,0,0,0.11111,2.6364e-16,0,0.66667
0.61141,0.67982,5.5027,0.26973,18.104,132.89,-3.958,1.3193,-1.7426,-5.2773,1.1553e-12,-0.8713,0,0,0.11111,-1.0527e-15,0,0.66667
0.053612,0.54387,0.4825,0.065798,7.0477,608.01,-0.084661,0.02822,-1.982,-0.11288,-9.0409e-08,-0.99101,0,0,0.11111,-0,-0,0.66667
0.21358,0.92977,1.9222,0.64465,66.348,453.94,-3.3044,1.1015,-0.52082,-4.4058,-2.4734e-10,-0.26041,0,0,0.11111,-5.12e-18,0,0.66667
0.50266,0.99747,4.524,0.74621,60.224,208.02,-9.0022,3.0007,-0.021453,-12.003,3.7472e-12,-0.010727,0,0,0.11111,-1.579e-15,0,0.66667
0.094031,0.81147,0.84628,0.46721,49.845,568.5,-1.0544,0.35146,-1.2287,-1.4058,-3.2054e-08,-0.61437,0,0,0.11111,3.2895e-17,0,0.66667
0.40891,0.10233,3.6802,-0.5965,-53.523,280.81,5.8539,-1.9513,-0.73534,7.8052,9.7167e-13,-0.36767,0,0,0.11111,-0,-0,0.66667
0.020116,0.081173,0.18104,-0.62824,-67.713,640.97,0.3033,-0.10111,-0.59514,0.4044,-8.5698e-06,-0.29757,0,0,0.11111,-3.2895e-17,0,0.66667
0.11946,0.41425,1.0752,-0.12863,-13.621,543.67,0.36879,-0.12293,-1.9394,0.49172,8.6378e-09,-0.96969,0,0,0.11111,-0,-0,0.66667
0.94006,0.55475,8.4606,0.082129,0.98408,4.2116,-1.8529,0.61765,-1.9767,-2.4706,-3.7072e-08,-0.98833,0,0,0.11111,-1.0527e-15,0,0.66667
0.55886,0.66696,5.0297,0.25044,18.47,167.1,-3.3591,1.1197,-1.7763,-4.4788,1.6831e-12,-0.88814,0,0,0.11111,-0,-0,0.66667
0.68646,0.79412,6.1782,0.44118,25.026,90.099,-7.2684,2.4228,-1.3102,-9.6912,-1.3931e-12,-0.6551,0,0,0.11111,-0,-0,0.66667
0.37777,0.65512,3.3999,0.23268,21.421,306.29,-2.1096,0.70321,-1.8089,-2.8128,1.3849e-12,-0.90447,0,0,0.11111,-1.3158e-16,0,0.66667
0.76312,0.33171,6.8681,-0.25244,-11.256,53.449,4.6234,-1.5411,-1.7738,6.1645,2.3511e-11,-0.88689,0,0,0.11111,1.0527e-15,0,0.66667
0.89639,0.78723,8.0675,0.43084,8.9742,12.061,-9.2688,3.0896,-1.3383,-12.358,3.2604e-08,-0.66917,0,0,0.11111,2.1053e-15,0,0.66667
0.91019,0.22406,8.1917,-0.41391,-7.5008,9.3736,9.0418,-3.0139,-1.3904,12.056,-2.6739e-08,-0.69522,0,0,0.11111,-2.1053e-15,0,0.66667
0.49649,0.25482,4.4684,-0.36778,-29.766,211.76,4.3823,-1.4608,-1.5191,5.8431,-1.0476e-12,-0.75956,0,0,0.11111,1.0527e-15,0,0.66667
0.76261,0.35026,6.8635,-0.22461,-10.031,53.622,4.1109,-1.3703,-1.8209,5.4813,2.5107e-11,-0.91046,0,0,0.11111,-2.1053e-15,0,0.66667
0.70896,0.44553,6.3807,-0.081707,-4.3419,78.074,1.3902,-0.46342,-1.9743,1.8537,1.2782e-12,-0.98716,0,0,0.11111,-0,-0,0.66667
0.9513,0.46996,8.5617,-0.045058,-0.43627,2.8969,1.0287,-0.3429,-1.9953,1.3716,1.9979e-07,-0.99767,0,0,0.11111,-4.2106e-15,0,0.66667
0.24155,0.90823,2.174,0.61234,62.155,427.81,-3.5499,1.1833,-0.66537,-4.7333,1.1244e-10,-0.33269,0,0,0.11111,-0,-0,0.66667
0.56134,0.021485,5.0521,-0.71777,-53.058,166.44,9.6699,-3.2233,-0.17044,12.893,3.8289e-12,-0.085219,0,0,0.11111,-0,-0,0.66667
0.043773,0.8784,0.39396,0.56761,61.043,617.73,-0.5963,0.19877,-0.85516,-0.79507,-2.0691e-06,-0.42758,0,0,0.11111,-0,-0,0.66667
0.92318,0.64989,8.3086,0.22484,3.4682,6.7556,-4.9816,1.6605,-1.8227,-6.6421,3.776e-08,-0.91133,0,0,0.11111,-5.2633e-16,0,0.66667
0.94526,0.42456,8.5073,-0.11316,-1.2369,3.6061,2.5672,-0.85573,-1.9518,3.4229,7.8919e-08,-0.97588,0,0,0.11111,-1.1194e-15,0,0.66667
0.50091,0.2533,4.5082,-0.37005,-29.775,208.48,4.4487,-1.4829,-1.5165,5.9316,2.3874e-12,-0.75827,0,0,0.11111,-0,-0,0.66667
0.58612,0.86306,5.2751,0.5446,38.461,149.5,-7.6607,2.5536,-0.94281,-10.214,-1.2657e-13,-0.4714,0,0,0.11111,-0,-0,0.66667
0.77194,0.98008,6.9475,0.72013,31.396,51.22,-13.341,4.4472,-0.15376,-17.789,-7.7074e-11,-0.076881,0,0,0.11111,-0,-0,0.66667
0.24933,0.27881,2.244,-0.33178,-33.449,420.35,1.9854,-0.66179,-1.6126,2.6472,-2.355e-11,-0.80628,0,0,0.11111,1.9737e-16,0,0.66667
0.37899,0.96089,3.4109,0.69133,63.879,305.9,-6.2882,2.0961,-0.29988,-8.3843,-3.6757e-12,-0.14994,0,0,0.11111,2.6316e-16,0,0.66667
0.28861,0.30959,2.5975,-0.28561,-28.135,384.43,1.9783,-0.65944,-1.7083,2.6377,-1.9771e-12,-0.85417,0,0,0.11111,-5.9212e-16,0,0.66667
0.5388,0.6625,4.8492,0.24375,18.555,180.97,-3.152,1.0507,-1.7866,-4.2026,1.088e-14,-0.89331,0,0,0.11111,-0,-0,0.66667
0.94896,0.80237,8.5406,0.45355,4.7051,3.921,-10.33,3.4432,-1.2675,-13.773,1.2043e-07,-0.63374,0,0,0.11111,-1.0527e-15,0,0.66667
0.3854,0.40379,3.4686,-0.14431,-13.19,299.81,1.3348,-0.44495,-1.9251,1.7798,9.4325e-13,-0.96256,0,0,0.11111,-1.4906e-16,0,0.66667
0.04501,0.98117,0.40509,0.72176,77.761,616.55,-0.77967,0.25988,-0.14891,-1.0396,-1.0442e-05,-0.074455,0,0,0.11111,6.5791e-17,1.2605e-16,0.66667
0.68252,0.34293,6.1427,-0.2356,-13.468,91.803,3.8592,-1.2864,-1.8023,5.1456,2.3404e-12,-0.90114,0,0,0.11111,-6.5791e-17,0,0.66667
0.49503,0.10967,4.4553,-0.5855,-47.605,213.25,6.9561,-2.3187,-0.77924,9.2749,1.088e-12,-0.38962,0,0,0.11111,-1.0527e-15,0,0.66667
0.29651,0.15754,2.6686,-0.51369,-50.442,377.52,3.6556,-1.2185,-1.0664,4.8741,2.9634e-12,-0.53321,0,0,0.11111,-0,-0,0.66667
0.41589,0.082411,3.743,-0.62638,-55.838,275.16,6.2521,-2.084,-0.60268,8.3362,1.8558e-12,-0.30134,0,0,0.11111,-5.2633e-16,0,0.66667
0.86251,0.61661,7.7626,0.17492,4.7412,19.39,-3.6209,1.207,-1.8912,-4.8279,4.6558e-09,-0.94559,0,0,0.11111,-0,-0,0.66667
0.82102,0.6035,7.3892,0.15525,5.3781,31.641,-3.0591,1.0197,-1.9118,-4.0787,4.8121e-10,-0.95592,0,0,0.11111,-0,-0,0.66667
0.17085,0.34657,1.5376,-0.23014,-24.008,494.16,0.94365,-0.31455,-1.815,1.2582,7.4728e-10,-0.90752,0,0,0.11111,-0,-0,0.66667
0.68513,0.38797,6.1662,-0.16805,-9.5367,90.343,2.7633,-0.92109,-1.9001,3.6843,1.7644e-12,-0.95004,0,0,0.11111,-0,-0,0.66667
0.99766,0.59578,8.979,0.14367,-0.008314,0.11752,-3.4399,1.1466,-1.9284,-4.5866,8.7746e-07,-0.96419,0,0,0.11111,-0,-0,0.66667
0.78436,0.50897,7.0592,0.013454,0.55127,44.7,-0.25328,0.084425,-1.9993,-0.3377,-4.6213e-11,-0.99964,0,0,0.11111,-0,-0,0.66667
0.72505,0.71931,6.5254,0.32896,16.696,70.567,-5.7243,1.9081,-1.6143,-7.6324,-1.3392e-11,-0.80715,0,0,0.11111,2.1053e-15,0,0.66667
0.31002,0.56698,2.7902,0.10047,9.7501,365.12,-0.74753,0.24918,-1.9653,-0.99671,3.2455e-12,-0.98264,0,0,0.11111,-0,-0,0.66667
0.15947,0.76608,1.4352,0.39912,41.841,505.13,-1.5275,0.50918,-1.4331,-2.0367,-1.5168e-09,-0.71657,0,0,0.11111,-0,-0,0.66667
0.86432,0.86753,7.7789,0.55129,14.912,19.864,-11.436,3.8119,-0.91798,-15.248,-1.546e-09,-0.45899,0,0,0.11111,5.2633e-16,0,0.66667
0.61035,0.2493,5.4931,-0.37605,-25.32,133.72,5.5085,-1.8362,-1.501,7.3447,-5.8176e-14,-0.75052,0,0,0.11111,3.2895e-16,0,0.66667
0.39009,0.15794,3.5108,-0.51309,-46.822,296.25,4.8037,-1.6012,-1.0683,6.4049,-1.6867e-12,-0.53413,0,0,0.11111,-0,1.1775e-16,0.66667
0.75559,0.31295,6.8003,-0.28057,-12.861,56.687,5.088,-1.696,-1.7195,6.7839,2.5455e-11,-0.85974,0,0,0.11111,-0,-0,0.66667
0.71863,0.3892,6.4677,-0.16619,-8.5875,73.403,2.8664,-0.95545,-1.9054,3.8218,7.6843e-12,-0.95271,0,0,0.11111,-1.0527e-15,0,0.66667
0.64733,0.20474,5.826,-0.44288,-27.62,111.68,6.8806,-2.2935,-1.3,9.1742,7.1188e-13,-0.64999,0,0,0.11111,-0,-0,0.66667
0.20726,0.57026,1.8654,0.10539,10.833,459.54,-0.52424,0.17475,-1.9596,-0.69899,-9.0231e-12,-0.97982,0,0,0.11111,-0,-0,0.66667
0.88553,0.62153,7.9698,0.18229,4.1494,13.828,-3.8742,1.2914,-1.8809,-5.1657,1.1694e-08,-0.94045,0,0,0.11111,1.3158e-15,0,0.66667
0.71901,0.40706,6.4711,-0.1394,-7.1938,73.197,2.4056,-0.80186,-1.9358,3.2074,4.4482e-12,-0.96792,0,0,0.11111,-0,-0,0.66667
0.30263,0.44428,2.7237,-0.08358,-8.1518,371.72,0.60706,-0.20235,-1.9734,0.80941,6.8417e-13,-0.9867,0,0,0.11111,-0,-0,0.66667
0.063598,0.012423,0.57239,-0.73136,-78.647,598.34,1.1163,-0.37211,-0.10033,1.4884,-8.5219e-07,-0.050165,0,0,0.11111,-0,-0,0.66667
0.9128,0.36657,8.2152,-0.20015,-3.4971,8.4347,4.3846,-1.4615,-1.8553,5.8462,-2.4149e-08,-0.92767,0,0,0.11111,1.0527e-15,0,0.66667
0.79385,0.23741,7.1447,-0.39389,-15.565,41.59,7.5045,-2.5015,-1.4481,10.006,-3.022e-12,-0.72407,0,0,0.11111,-0,-0,0.66667
0.49858,0.0023419,4.4873,-0.74649,-60.575,211.04,8.9325,-2.9775,-0.021578,11.91,3.2099e-12,-0.010789,0,0,0.11111,-0,3.6488e-17,0.66667
0.41393,0.8369,3.7253,0.50535,45.066,276.54,-5.0203,1.6734,-1.0897,-6.6937,-4.8983e-13,-0.54487,0,0,0.11111,2.4509e-16,0,0.66667
0.61556,0.5883,5.5401,0.13245,8.8093,130.19,-1.9567,0.65224,-1.9359,-2.609,1.5881e-12,-0.96793,0,0,0.11111,-5.2633e-16,0,0.66667
0.39852,0.85424,3.5866,0.53135,48.118,289.27,-5.0821,1.694,-0.99356,-6.7761,2.2999e-12,-0.49678,0,0,0.11111,-1.0527e-15,0,0.66667
0.038918,0.58008,0.35026,0.12013,12.886,622.45,-0.1122,0.037401,-1.946,-0.1496,1.8256e-08,-0.97298,0,0,0.11111,-4.6088e-17,0,0.66667
0.30197,0.0025177,2.7177,-0.74622,-73.239,372.98,5.4081,-1.8027,-0.019325,7.2107,1.3402e-11,-0.0096624,0,0,0.11111,-2.1053e-15,0,0.66667
0.24628,0.56327,2.2165,0.0949,9.5731,423.08,-0.56093,0.18698,-1.9686,-0.7479,2.2209e-11,-0.98428,0,0,0.11111,-0,-0,0.66667
0.9723,0.88177,8.7507,0.57265,3.2392,2.3672,-13.363,4.4543,-0.83378,-17.817,-5.9228e-06,-0.41689,0,0,0.11111,-0,-0,0.66667
0.7675,0.027742,6.9075,-0.70839,-31.395,52.976,13.048,-4.3495,-0.21785,17.398,1.0866e-10,-0.10892,0,0,0.11111,1.0527e-15,0,0.66667
0.4037,0.24004,3.6333,-0.38994,-35.084,284.77,3.778,-1.2593,-1.4598,5.0374,2.2387e-12,-0.72991,0,0,0.11111,-0,-0,0.66667
0.73663,0.078431,6.6296,-0.63235,-31.13,66.04,11.179,-3.7265,-0.57881,14.906,-2.0816e-11,-0.2894,0,0,0.11111,-1.0527e-15,0,0.66667
0.30266,0.2965,2.7239,-0.30525,-29.799,371.81,2.2172,-0.73908,-1.6664,2.9563,-4.8881e-12,-0.83319,0,0,0.11111,5.2633e-16,0,0.66667
0.5273,0.84864,4.7457,0.52296,40.619,189.57,-6.6181,2.206,-1.0273,-8.8241,6.8301e-13,-0.51363,0,0,0.11111,-2.1053e-15,0,0.66667
0.20714,0.25413,1.8643,-0.36881,-37.959,459.76,1.8335,-0.61117,-1.5161,2.4447,1.647e-11,-0.75805,0,0,0.11111,-5.2633e-16,0,0.66667
0.25426,0.56078,2.2883,0.091172,9.1576,415.7,-0.55636,0.18545,-1.9704,-0.74181,6.8075e-12,-0.9852,0,0,0.11111,-1.3158e-16,0,0.66667
0.43402,0.37209,3.9062,-0.19187,-16.714,259.9,1.9986,-0.66621,-1.8695,2.6649,-3.2124e-12,-0.93475,0,0,0.11111,1.3158e-16,0,0.66667
0.082426,0.85079,0.74183,0.52618,56.286,579.85,-1.0409,0.34697,-1.0147,-1.3879,-2.7212e-08,-0.50733,0,0,0.11111,-0,-0,0.66667
0.85329,0.51655,7.6796,0.024825,0.71453,21.771,-0.50839,0.16946,-1.9954,-0.67786,-8.7749e-11,-0.99768,0,0,0.11111,-0,-0,0.66667
0.91633,0.15595,8.247,-0.51608,-8.7784,8.658,11.35,-3.7832,-1.0524,15.133,-2.108e-09,-0.52622,0,0,0.11111,8.5528e-16,0,0.66667
0.21311,0.096913,1.918,-0.60463,-62.211,454.34,3.0924,-1.0308,-0.699,4.1232,-8.6859e-10,-0.3495,0,0,0.11111,-0,-0,0.66667
0.47372,0.06042,4.2635,-0.65937,-55.144,229.52,7.4966,-2.4989,-0.45355,9.9955,-3.2729e-13,-0.22677,0,0,0.11111,-7.8949e-16,0,0.66667
0.84146,0.25392,7.5731,-0.36912,-11.475,25.62,7.4545,-2.4848,-1.517,9.9393,-1.7024e-09,-0.75852,0,0,0.11111,2.1053e-15,0,0.66667
0.28828,0.099731,2.5945,-0.6004,-59.329,385.04,4.154,-1.3847,-0.71623,5.5387,3.5216e-13,-0.35811,0,0,0.11111,-0,-0,0.66667
0.61071,0.38536,5.4964,-0.17196,-11.55,133.23,2.5204,-0.84013,-1.8968,3.3605,1.1575e-12,-0.94841,0,0,0.11111,-0,-0,0.66667
0.44205,0.65647,3.9784,0.2347,20.271,253.53,-2.49,0.83,-1.8042,-3.32,-9.015e-14,-0.90209,0,0,0.11111,-1.0527e-15,0,0.66667
0.39749,0.19711,3.5774,-0.45433,-41.148,290,4.3343,-1.4448,-1.2636,5.779,3.6011e-12,-0.63182,0,0,0.11111,-1.0527e-15,0,0.66667
0.78937,0.74594,7.1044,0.36891,14.853,43.209,-6.989,2.3297,-1.5143,-9.3187,9.5222e-12,-0.75714,0,0,0.11111,-0,-0,0.66667
0.46451,0.95143,4.1806,0.67715,57.279,236.65,-7.5491,2.5164,-0.36829,-10.065,1.7386e-12,-0.18414,0,0,0.11111,-0,-0,0.66667
0.4648,0.77752,4.1832,0.41628,35.077,235.89,-4.6437,1.5479,-1.3837,-6.1916,2.7978e-13,-0.69185,0,0,0.11111,5.2633e-16,0,0.66667
0.99203,0.85349,8.9283,0.53023,0.75461,1.2789,-12.624,4.2081,-0.99784,-16.832,3.335e-06,-0.49892,0,0,0.11111,-0,-0,0.66667
0.96223,0.57661,8.6601,0.11491,0.85434,1.9016,-2.6538,0.88459,-1.9505,-3.5384,3.0588e-09,-0.97524,0,0,0.11111,-0,-0,0.66667
0.23508,0.043853,2.1157,-0.68422,-69.745,433.9,3.8603,-1.2868,-0.33819,5.1471,-5.4108e-11,-0.16909,0,0,0.11111,-0,-0,0.66667
0.22695,0.52679,2.0426,0.040185,4.0931,441.05,-0.21889,0.072962,-1.9924,-0.29185,2.4409e-11,-0.99619,0,0,0.11111,-0,-0,0.66667
0.66274,0.60061,5.9646,0.15091,9.0555,102.49,-2.4004,0.80014,-1.917,-3.2005,6.9722e-14,-0.95849,0,0,0.11111,-0,-0,0.66667
0.41195,0.8053,3.7075,0.45795,40.898,278.08,-4.5277,1.5092,-1.2525,-6.0369,1.517e-12,-0.62627,0,0,0.11111,2.6316e-16,0,0.66667
0.71875,0.53795,6.4688,0.056932,2.9392,73.272,-0.98208,0.32736,-1.9929,-1.3094,-1.3642e-12,-0.99643,0,0,0.11111,-0,-0,0.66667
0.73345,0.72526,6.6011,0.33788,16.704,66.655,-5.9477,1.9826,-1.597,-7.9303,-1.4118e-11,-0.79851,0,0,0.11111,-0,-0,0.66667
0.78329,0.81524,7.0497,0.47286,19.569,45.812,-8.8894,2.9631,-1.207,-11.853,7.4081e-11,-0.60348,0,0,0.11111,-2.1053e-15,0,0.66667
0.26331,0.57555,2.3698,0.11333,11.326,407.38,-0.71616,0.23872,-1.9549,-0.95489,8.74e-12,-0.97744,0,0,0.11111,-0,-0,0.66667
0.99836,0.56466,8.9852,0.096997,-0.021273,0.061168,-2.3241,0.7747,-1.9692,-3.0988,-3.0761e-06,-0.98458,0,0,0.11111,-0,-0,0.66667
0.4937,0.89602,4.4433,0.59403,48.389,214.26,-7.0386,2.3462,-0.74301,-9.3848,-1.3212e-12,-0.37151,0,0,0.11111,-0,-0,0.66667
0.083927,0.55091,0.75534,0.076359,8.1446,578.3,-0.1538,0.051268,-1.9771,-0.20507,-1.6097e-08,-0.98853,0,0,0.11111,-1.3158e-16,0,0.66667
0.11202,0.027984,1.0081,-0.70802,-75.462,551.12,1.9034,-0.63448,-0.21879,2.5379,1.213e-07,-0.1094,0,0,0.11111,-0,-0,0.66667
0.5615,0.33473,5.0535,-0.2479,-18.203,165.31,3.3407,-1.1136,-1.7841,4.4542,1.4044e-12,-0.89203,0,0,0.11111,-0,-0,0.66667
0.51011,0.7499,4.591,0.37486,29.786,201.71,-4.5892,1.5297,-1.4999,-6.119,-3.1664e-13,-0.74994,0,0,0.11111,3.7419e-16,0,0.66667
0.93484,0.86543,8.4135,0.54814,7.315,5.9923,-12.298,4.0994,-0.93205,-16.397,1.2239e-07,-0.46603,0,0,0.11111,-0,-0,0.66667
0.90083,0.76864,8.1074,0.40295,8.0367,11.094,-8.7118,2.9039,-1.4206,-11.616,3.4859e-08,-0.71029,0,0,0.11111,-0,-0,0.66667
0.4654,0.73271,4.1886,0.34907,29.374,235.33,-3.899,1.2997,-1.5662,-5.1987,1.5559e-12,-0.78308,0,0,0.11111,-0,-0,0.66667
0.20648,0.32326,1.8583,-0.26511,-27.276,460.33,1.3137,-0.43792,-1.7496,1.7517,3.4878e-11,-0.87482,0,0,0.11111,-0,-0,0.66667
0.56442,0.76085,5.0798,0.39128,28.63,163.54,-5.3003,1.7668,-1.4568,-7.067,2.5757e-13,-0.7284,0,0,0.11111,-0,-0,0.66667
0.30873,0.30805,2.7786,-0.28792,-27.989,366.36,2.1334,-0.71113,-1.7051,2.8445,-4.4884e-12,-0.85256,0,0,0.11111,2.6316e-16,0,0.66667
0.65059,0.52348,5.8553,0.035213,2.1728,109.31,-0.54981,0.18327,-1.9938,-0.73309,1.3955e-12,-0.99688,0,0,0.11111,-0,-0,0.66667
0.5151,0.81459,4.6359,0.47188,37.275,198.24,-5.8336,1.9445,-1.2125,-7.7782,-3.9804e-12,-0.60627,0,0,0.11111,2.1053e-15,-5.8773e-19,0.66667
0.84318,0.79205,7.5886,0.43807,13.507,25.301,-8.865,2.955,-1.3207,-11.82,1.5013e-09,-0.66036,0,0,0.11111,-2.1053e-15,0,0.66667
0.13174,0.20217,1.1857,-0.44674,-47.242,531.86,1.4125,-0.47083,-1.2878,1.8833,5.604e-09,-0.64388,0,0,0.11111,-2.6316e-16,0,0.66667
0.25101,0.6546,2.2591,0.2319,23.345,418.75,-1.397,0.46567,-1.8124,-1.8627,1.6071e-11,-0.90619,0,0,0.11111,-0,-0,0.66667
0.59753,0.81349,5.3778,0.47023,32.486,141.98,-6.7435,2.2478,-1.2143,-8.9913,-6.4793e-13,-0.60715,0,0,0.11111,-0,-0,0.66667
0.62521,0.40775,5.6269,-0.13838,-9.0251,124.3,2.0764,-0.69213,-1.9368,2.7685,-1.5545e-12,-0.96839,0,0,0.11111,2.1053e-15,0,0.66667
0.41259,0.43677,3.7133,-0.09485,-8.4455,277.22,0.93923,-0.31308,-1.967,1.2523,-1.4109e-12,-0.98352,0,0,0.11111,-6.5791e-17,0,0.66667
0.90059,0.93606,8.1053,0.65409,13.255,12.096,-14.138,4.7126,-0.47795,-18.85,-1.9346e-07,-0.23898,0,0,0.11111,-1.1842e-15,0,0.66667
0.81028,0.22525,7.2925,-0.41213,-15.119,35.744,8.0145,-2.6715,-1.3973,10.686,-1.53e-10,-0.69864,0,0,0.11111,2.1053e-15,0,0.66667
0.54085,0.42281,4.8676,-0.11579,-8.781,179.44,1.5029,-0.50098,-1.9499,2.0039,-1.3893e-12,-0.97496,0,0,0.11111,1.0527e-15,0,0.66667
0.40503,0.63919,3.6453,0.20879,18.738,283.5,-2.0296,0.67653,-1.8469,-2.7061,-1.6716e-12,-0.92347,0,0,0.11111,-0,-0,0.66667
0.39718,0.33766,3.5746,-0.24351,-22.023,290.02,2.3212,-0.77374,-1.7872,3.095,3.3107e-13,-0.8936,0,0,0.11111,-2.6316e-16,0,0.66667
0.11399,0.36409,1.0259,-0.20387,-21.622,549,0.55773,-0.18591,-1.8507,0.74364,1.2853e-08,-0.92536,0,0,0.11111,-0,-0,0.66667
0.93724,0.14245,8.4352,-0.53632,-6.8889,5.6263,12.064,-4.0213,-0.98069,16.085,-1.1992e-07,-0.49035,0,0,0.11111,-1.1099e-15,1.7082e-16,0.66667
0.23454,0.40188,2.1108,-0.14717,-14.938,433.99,0.82842,-0.27614,-1.9274,1.1046,-2.5994e-11,-0.96372,0,0,0.11111,-0,-0,0.66667
0.15282,0.067395,1.3754,-0.64891,-68.35,511.68,2.3799,-0.79331,-0.50294,3.1732,3.4364e-08,-0.25147,0,0,0.11111,5.2633e-16,0,0.66667
0.51002,0.8732,4.5901,0.55979,44.587,202.13,-6.8521,2.284,-0.88489,-9.1361,-3.384e-12,-0.44245,0,0,0.11111,1.579e-15,0,0.66667
0.45504,0.037538,4.0954,-0.69369,-59.347,244.05,7.5759,-2.5253,-0.29062,10.101,-2.2649e-13,-0.14531,0,0,0.11111,1.0527e-15,0,0.66667
0.074027,0.29194,0.66624,-0.31208,-33.37,588.01,0.55446,-0.18482,-1.6526,0.73929,7.2029e-08,-0.8263,0,0,0.11111,-0,-0,0.66667
0.57557,0.92189,5.1802,0.63284,45.598,156.66,-8.7419,2.914,-0.57627,-11.656,-6.3505e-13,-0.28814,0,0,0.11111,-0,-0,0.66667
0.69854,0.76841,6.2868,0.40261,22.098,83.756,-6.7498,2.2499,-1.4221,-8.9997,-3.5665e-12,-0.71103,0,0,0.11111,-0,-0,0.66667
0.49055,0.93834,4.4149,0.65751,53.834,216.78,-7.7409,2.5803,-0.46193,-10.321,1.1324e-13,-0.23097,0,0,0.11111,-2.1053e-15,0,0.66667
0.072894,0.054061,0.65604,-0.66891,-71.778,589.22,1.1702,-0.39007,-0.40742,1.5603,1.2642e-06,-0.20371,0,0,0.11111,-0,-0,0.66667
0.17966,0.54278,1.617,0.064163,6.6687,485.71,-0.27667,0.092222,-1.9827,-0.36889,-2.8277e-10,-0.99136,0,0,0.11111,-0,-0,0.66667
0.11594,0.24126,1.0434,-0.38811,-41.187,547.16,1.0799,-0.35997,-1.4622,1.4399,1.3485e-08,-0.73108,0,0,0.11111,-1.3158e-16,0,0.66667
0.58346,0.72576,5.2512,0.33864,23.965,150.81,-4.742,1.5807,-1.5907,-6.3226,2.1063e-12,-0.79534,0,0,0.11111,-0,-0,0.66667
0.085088,0.97073,0.76579,0.70609,75.658,577.33,-1.4419,0.48064,-0.22596,-1.9225,1.1935e-06,-0.11298,0,0,0.11111,-0,-0,0.66667
0.38405,0.75733,3.4565,0.386,35.374,301.13,-3.5579,1.186,-1.4681,-4.7439,1.8641e-12,-0.73406,0,0,0.11111,-0,-0,0.66667
0.14716,0.11936,1.3244,-0.57095,-60.188,517.06,2.0165,-0.67216,-0.83904,2.6886,9.612e-10,-0.41952,0,0,0.11111,1.3158e-16,0,0.66667
0.41149,0.61001,3.7034,0.16502,14.713,278.16,-1.6297,0.54322,-1.9011,-2.1729,-5.197e-13,-0.95057,0,0,0.11111,-5.2633e-16,0,0.66667
0.62527,0.24428,5.6275,-0.38358,-25.065,124.58,5.7562,-1.9187,-1.4809,7.675,-3.7215e-13,-0.74046,0,0,0.11111,-0,-0,0.66667
0.35954,0.71342,3.2359,0.32013,29.952,321.9,-2.7624,0.9208,-1.6399,-3.6832,1.6112e-12,-0.81995,0,0,0.11111,-2.6316e-16,0,0.66667
0.89598,0.84621,8.0639,0.51932,10.903,12.444,-11.167,3.7224,-1.0402,-14.89,4.449e-08,-0.52009,0,0,0.11111,-0,-0,0.66667
0.41748,0.10465,3.7573,-0.59303,-52.755,273.8,5.9419,-1.9806,-0.74822,7.9225,1.8505e-12,-0.37411,0,0,0.11111,-1.0527e-15,0,0.66667
0.93366,0.26282,8.4029,-0.35578,-4.7685,5.5024,7.9721,-2.6574,-1.5489,10.629,-9.0463e-08,-0.77447,0,0,0.11111,2.1053e-15,0,0.66667
0.82046,0.32313,7.3841,-0.2653,-9.2298,31.978,5.2241,-1.7414,-1.7471,6.9654,-4.6195e-10,-0.87357,0,0,0.11111,-0,-0,0.66667
0.11664,0.87196,1.0498,0.55794,59.292,546.55,-1.5619,0.52063,-0.89155,-2.0825,-1.6345e-08,-0.44577,0,0,0.11111,-1.9737e-16,0,0.66667
0.10397,0.85778,0.93569,0.53667,57.181,558.85,-1.3391,0.44636,-0.97384,-1.7854,-1.6756e-08,-0.48692,0,0,0.11111,-0,-0,0.66667
0.13281,0.066259,1.1953,-0.65061,-68.933,530.95,2.0738,-0.69126,-0.49317,2.765,-7.2495e-08,-0.24659,0,0,0.11111,-5.2633e-16,0,0.66667
0.63847,0.46753,5.7462,-0.048698,-3.0872,116.35,0.74622,-0.24874,-1.9937,0.99496,-8.2623e-13,-0.99685,0,0,0.11111,6.5791e-17,0,0.66667
0.68459,0.35949,6.1613,-0.21077,-11.982,90.673,3.463,-1.1543,-1.8419,4.6174,2.0235e-12,-0.92094,0,0,0.11111,2.4194e-16,0,0.66667
0.79001,0.30871,7.1101,-0.28694,-11.506,42.798,5.4404,-1.8135,-1.7056,7.2539,-6.1262e-12,-0.85278,0,0,0.11111,1.3158e-15,0,0.66667
0.54233,0.58307,4.8809,0.1246,9.4284,178.41,-1.6218,0.5406,-1.9434,-2.1624,1.2513e-12,-0.97168,0,0,0.11111,-0,-0,0.66667
0.67536,0.50057,6.0782,0.00085322,0.04962,95.495,-0.013829,0.0046098,-2.0008,-0.018439,1.1972e-12,-1.0004,0,0,0.11111,-0,-0,0.66667
0.68675,0.048312,6.1808,-0.67753,-38.59,90.673,11.167,-3.7224,-0.37046,14.889,-3.828e-13,-0.18523,0,0,0.11111,-0,-1.3047e-16,0.66667
0.33823,0.9943,3.0441,0.74145,70.906,340.96,-6.0187,2.0062,-0.043831,-8.025,1.6902e-12,-0.021916,0,0,0.11111,-1.579e-15,0,0.66667
0.65052,0.79776,5.8546,0.44664,27.657,109.86,-6.9732,2.3244,-1.2884,-9.2976,3.9124e-13,-0.6442,0,0,0.11111,-1.0527e-15,0,0.66667
0.4041,0.4784,3.6369,-0.032399,-2.9089,284.2,0.31422,-0.10474,-1.9972,0.41896,1.7436e-12,-0.9986,0,0,0.11111,-0,-0,0.66667
0.64016,0.85952,5.7615,0.53929,34.222,116.09,-8.2856,2.7619,-0.96901,-11.047,-8.1535e-13,-0.48451,0,0,0.11111,1.0527e-15,-1.6384e-16,0.66667
0.93462,0.99731,8.4116,0.74597,10.186,6.9783,-16.733,5.5776,-0.022462,-22.31,1.2118e-06,-0.011231,0,0,0.11111,-0,-4.1346e-17,0.66667
0.42997,0.85972,3.8697,0.53958,47.349,263.59,-5.5681,1.856,-0.96205,-7.4241,-2.9208e-12,-0.48102,0,0,0.11111,-0,-0,0.66667
0.50617,0.36276,4.5555,-0.20586,-16.426,204.4,2.5008,-0.83361,-1.8469,3.3344,-7.4074e-13,-0.92346,0,0,0.11111,-0,-0,0.66667
0.33206,0.37787,2.9886,-0.18319,-17.502,345.66,1.4599,-0.48665,-1.8807,1.9466,-1.0053e-12,-0.94034,0,0,0.11111,-0,-0,0.66667
0.57872,0.95167,5.2085,0.67751,48.592,154.72,-9.4101,3.1367,-0.37081,-12.547,-1.5143e-12,-0.1854,0,0,0.11111,-0,-0,0.66667
0.86342,0.55627,7.7708,0.084402,2.2713,19.072,-1.749,0.58299,-1.9741,-2.332,4.4781e-09,-0.98703,0,0,0.11111,-1.0527e-15,0,0.66667
0.28365,0.12436,2.5528,-0.56347,-55.815,389.18,3.8358,-1.2786,-0.8731,5.1145,2.3779e-12,-0.43655,0,0,0.11111,-2.4672e-16,0,0.66667
0.83439,0.1727,7.5095,-0.49095,-15.944,28.103,9.8314,-3.2771,-1.1405,13.108,-1.0342e-09,-0.57026,0,0,0.11111,1.0527e-15,0,0.66667
0.51948,0.46244,4.6753,-0.056345,-4.4104,194.62,0.70248,-0.23416,-1.9882,0.93663,2.828e-12,-0.99412,0,0,0.11111,-2.6316e-16,0,0.66667
0.22608,0.7184,2.0347,0.3276,33.418,441.96,-1.7775,0.5925,-1.6173,-2.37,2.2923e-11,-0.80865,0,0,0.11111,-9.8686e-17,0,0.66667
0.41945,0.52088,3.775,0.031315,2.7688,271.61,-0.31524,0.10508,-1.9971,-0.42032,2.0132e-12,-0.99854,0,0,0.11111,-0,-0,0.66667
0.16699,0.77954,1.503,0.4193,43.854,497.93,-1.6805,0.56017,-1.3744,-2.2407,-1.0404e-09,-0.6872,0,0,0.11111,3.2895e-16,0,0.66667
0.91239,0.74393,8.2116,0.3659,6.4579,8.8475,-8.0122,2.6707,-1.5222,-10.683,3.9057e-08,-0.76108,0,0,0.11111,-5.2633e-16,0,0.66667
0.057947,0.30546,0.52152,-0.29181,-31.265,603.77,0.40583,-0.13528,-1.6961,0.54111,1.1295e-08,-0.84806,0,0,0.11111,3.2895e-17,0,0.66667
0.604,0.14348,5.436,-0.53478,-36.532,138.04,7.7523,-2.5841,-0.98107,10.336,-3.0242e-13,-0.49053,0,0,0.11111,-1.0527e-15,0,0.66667
0.10395,0.11858,0.93557,-0.57213,-60.982,558.88,1.4274,-0.47579,-0.83461,1.9032,-7.5376e-09,-0.4173,0,0,0.11111,-1.9737e-16,0,0.66667
0.31348,0.43915,2.8213,-0.09127,-8.8361,362.04,0.68667,-0.22889,-1.974,0.91556,-1.3691e-12,-0.98701,0,0,0.11111,-0,-0,0.66667
0.14294,0.17127,1.2865,-0.49309,-52.003,521.07,1.6916,-0.56387,-1.136,2.2555,2.6297e-09,-0.568,0,0,0.11111,2.6316e-16,0,0.66667
0.49951,0.23049,4.4956,-0.40427,-32.6,209.56,4.8465,-1.6155,-1.422,6.462,8.4022e-13,-0.71102,0,0,0.11111,-0,-0,0.66667
0.6361,0.97022,5.7249,0.70532,45.305,119.01,-10.768,3.5892,-0.23098,-14.357,-2.4656e-12,-0.11549,0,0,0.11111,2.1053e-15,-1.4306e-16,0.66667
0.82926,0.41907,7.4633,-0.1214,-4.026,28.95,2.416,-0.80535,-1.9497,3.2214,-4.9634e-10,-0.97486,0,0,0.11111,-0,-0,0.66667
0.45001,0.058475,4.0501,-0.66229,-56.957,247.92,7.1529,-2.3843,-0.44101,9.5372,1.4895e-12,-0.2205,0,0,0.11111,-0,-5.906e-17,0.66667
0.76945,0.51411,6.925,0.021163,0.92007,50.636,-0.39081,0.13027,-1.9974,-0.52108,7.7999e-12,-0.99869,0,0,0.11111,-2.1053e-15,0,0.66667
0.59534,0.24004,5.358,-0.38995,-27.022,143.22,5.5716,-1.8572,-1.461,7.4288,2.105e-13,-0.73049,0,0,0.11111,-0,-0,0.66667
0.97226,0.218,8.7504,-0.42299,-2.3307,1.7902,9.8703,-3.2901,-1.3646,13.16,1.1783e-06,-0.6823,0,0,0.11111,-2.5658e-15,0,0.66667
0.11972,0.99152,1.0774,0.73728,78.471,543.68,-2.1183,0.70612,-0.06553,-2.8245,3.8474e-08,-0.032765,0,0,0.11111,-1.2139e-16,0,0.66667
0.81632,0.66953,7.3469,0.25429,9.0312,33.34,-4.982,1.6607,-1.7691,-6.6427,3.5613e-10,-0.88454,0,0,0.11111,-0,-0,0.66667
0.83516,0.099316,7.5164,-0.60103,-19.511,28.27,12.047,-4.0156,-0.71363,16.062,-7.2649e-09,-0.35681,0,0,0.11111,-0,-0,0.66667
0.79157,0.72079,7.1241,0.33118,13.2,42.297,-6.2916,2.0972,-1.6092,-8.3888,7.9572e-12,-0.80462,0,0,0.11111,2.1053e-15,0,0.66667
0.45482,0.51049,4.0934,0.015738,1.3389,243.35,-0.1718,0.057265,-2.0006,-0.22906,-1.5396e-13,-1.0003,0,0,0.11111,-0,-0,0.66667
0.52721,0.28593,4.7449,-0.3211,-24.887,189.28,4.0629,-1.3543,-1.633,5.4172,8.713e-13,-0.8165,0,0,0.11111,-0,-0,0.66667
0.98538,0.67792,8.8685,0.26688,0.70038,0.67365,-6.3114,2.1038,-1.7492,-8.4152,2.2832e-08,-0.87462,0,0,0.11111,-0,-0,0.66667
0.94464,0.25478,8.5017,-0.36782,-4.114,4.1415,8.3391,-2.7797,-1.5171,11.119,-3.5477e-08,-0.75853,0,0,0.11111,2.1053e-15,0,0.66667
0.763,0.89419,6.867,0.59128,26.551,54.371,-10.828,3.6092,-0.75716,-14.437,-5.9925e-12,-0.37858,0,0,0.11111,-1.0527e-15,4.9604e-17,0.66667
0.46026,0.91705,4.1424,0.62558,53.139,239.82,-6.9103,2.3034,-0.60598,-9.2138,8.5176e-13,-0.30299,0,0,0.11111,-0,-0,0.66667
0.54024,0.41633,4.8621,-0.12551,-9.5278,179.87,1.6273,-0.54244,-1.9416,2.1698,-2.1694e-13,-0.97079,0,0,0.11111,-0,-0,0.66667
0.80456,0.51223,7.241,0.018348,0.68817,37.201,-0.35429,0.1181,-1.9961,-0.47239,9.02e-11,-0.99806,0,0,0.11111,-0,-0,0.66667
0.27687,0.64853,2.4918,0.22279,22.099,395.03,-1.4804,0.49348,-1.8225,-1.9739,1.0128e-11,-0.91123,0,0,0.11111,-2.6316e-16,0,0.66667
0.25653,0.92592,2.3088,0.63888,64.356,414.02,-3.9335,1.3112,-0.54625,-5.2446,-9.5324e-12,-0.27313,0,0,0.11111,2.6316e-16,0,0.66667
0.21386,0.90675,1.9248,0.61013,62.76,453.64,-3.1316,1.0439,-0.67616,-4.1755,1.0036e-09,-0.33808,0,0,0.11111,5.2633e-16,0,0.66667
0.55121,0.32995,4.9609,-0.25507,-19.046,172.35,3.3743,-1.1248,-1.7672,4.499,7.0788e-13,-0.88362,0,0,0.11111,1.0527e-15,0,0.66667
0.9514,0.80414,8.5626,0.45621,4.5055,3.6708,-10.417,3.4723,-1.2616,-13.889,1.7761e-07,-0.6308,0,0,0.11111,-0,-0,0.66667
0.23774,0.12669,2.1396,-0.55996,-56.913,431.29,3.195,-1.065,-0.88587,4.2599,-2.5261e-11,-0.44293,0,0,0.11111,-0,-0,0.66667
0.8016,0.91246,7.2144,0.61869,23.768,39.487,-11.903,3.9675,-0.63791,-15.87,1.4279e-09,-0.31896,0,0,0.11111,2.1053e-15,0,0.66667
0.03041,0.58781,0.27369,0.13171,14.137,630.81,-0.096126,0.032042,-1.9415,-0.12817,6.7296e-08,-0.97073,0,0,0.11111,4.9343e-17,0,0.66667
0.50622,0.39804,4.556,-0.15295,-12.2,204.33,1.8582,-0.61939,-1.9147,2.4776,6.245e-13,-0.95736,0,0,0.11111,-5.2633e-16,0,0.66667
0.28403,0.33822,2.5562,-0.24266,-23.967,388.55,1.6541,-0.55138,-1.7913,2.2055,-5.4662e-12,-0.89566,0,0,0.11111,5.2633e-16,0,0.66667
0.28272,0.82166,2.5445,0.48249,47.779,389.92,-3.2739,1.0913,-1.1741,-4.3652,4.0794e-12,-0.58707,0,0,0.11111,-5.2633e-16,0,0.66667
0.39197,0.10458,3.5278,-0.59314,-54.087,294.82,5.5798,-1.8599,-0.75103,7.4398,2.4132e-12,-0.37551,0,0,0.11111,1.0527e-15,0,0.66667
0.53546,0.88598,4.8191,0.57897,44.464,183.92,-7.4403,2.4801,-0.80694,-9.9204,-2.077e-12,-0.40347,0,0,0.11111,-0,-0,0.66667
0.77289,0.018424,6.956,-0.72236,-31.382,50.85,13.399,-4.4664,-0.142,17.866,6.2691e-11,-0.071,0,0,0.11111,-0,-0,0.66667
0.96166,0.024513,8.6549,-0.71323,-5.7538,3.8563,16.461,-5.4871,-0.18915,21.948,-1.6021e-05,-0.094576,0,0,0.11111,-1.0527e-15,0,0.66667
0.15039,0.88174,1.3535,0.57261,60.304,513.96,-2.0667,0.6889,-0.83239,-2.7556,-6.3309e-10,-0.41619,0,0,0.11111,-0,-0,0.66667
0.39479,0.2005,3.5531,-0.44925,-40.789,292.24,4.2566,-1.4189,-1.2811,5.6755,-5.7421e-13,-0.64056,0,0,0.11111,1.0527e-15,0,0.66667
0.16274,0.45097,1.4647,-0.073544,-7.6899,501.89,0.28725,-0.095748,-1.9782,0.38299,4.9952e-10,-0.98911,0,0,0.11111,-0,-0,0.66667
0.83664,0.37561,7.5298,-0.18659,-5.9441,26.725,3.7467,-1.2489,-1.8751,4.9955,-1.3694e-09,-0.93754,0,0,0.11111,-0,-0,0.66667
0.084802,0.22377,0.76322,-0.41435,-44.26,577.5,0.8433,-0.2811,-1.3877,1.1244,3.7572e-08,-0.69387,0,0,0.11111,-2.6316e-16,0,0.66667
0.85629,0.9379,7.7066,0.65685,18.836,22.424,-13.499,4.4996,-0.46719,-17.999,-1.0705e-08,-0.2336,0,0,0.11111,2.1053e-15,6.7024e-18,0.66667
0.74085,0.74376,6.6676,0.36563,17.653,63.342,-6.5011,2.167,-1.5227,-8.6681,-2.0703e-11,-0.76135,0,0,0.11111,4.3867e-16,0,0.66667
0.85834,0.24122,7.725,-0.38816,-10.87,20.909,7.9962,-2.6654,-1.4668,10.662,-4.0132e-09,-0.7334,0,0,0.11111,-1.0527e-15,0,0.66667
0.88992,0.0033146,8.0093,-0.74503,-16.734,14.725,15.912,-5.3041,-0.030179,21.216,-1.9832e-08,-0.015089,0,0,0.11111,-0,-0,0.66667
0.15078,0.44213,1.357,-0.086804,-9.1117,513.39,0.31411,-0.1047,-1.9719,0.41881,9.9883e-11,-0.98594,0,0,0.11111,5.2633e-16,0,0.66667
0.55669,0.51067,5.0102,0.016011,1.184,168.45,-0.21391,0.071304,-1.9969,-0.28522,-5.5384e-12,-0.99846,0,0,0.11111,2.1053e-15,0,0.66667
0.30252,0.76637,2.7227,0.39955,39.035,372.01,-2.9009,0.96696,-1.4301,-3.8678,1.7706e-12,-0.71507,0,0,0.11111,-0,-0,0.66667
0.27122,0.35213,2.441,-0.22181,-22.075,400.18,1.4438,-0.48128,-1.8232,1.9251,-1.1321e-11,-0.9116,0,0,0.11111,-0,-0,0.66667
0.016434,0.18353,0.14791,-0.47471,-51.088,644.58,0.18724,-0.062413,-1.2022,0.24965,-8.0408e-07,-0.60112,0,0,0.11111,-1.6448e-17,0,0.66667
0.51518,0.65322,4.6366,0.22982,18.112,197.84,-2.8416,0.94721,-1.8164,-3.7888,-1.0973e-12,-0.9082,0,0,0.11111,1.0527e-15,0,0.66667
0.019049,0.48891,0.17144,-0.016638,-1.7866,641.99,0.0076064,-0.0025348,-1.9985,0.010142,9.9181e-07,-0.99924,0,0,0.11111,-3.2895e-17,0,0.66667
0.89823,0.79698,8.0841,0.44547,9.1261,11.736,-9.6032,3.2011,-1.2917,-12.804,3.2362e-08,-0.64583,0,0,0.11111,-0,-0,0.66667
0.26698,0.79501,2.4028,0.44252,44.217,404.21,-2.8355,0.94516,-1.3055,-3.7806,1.1115e-11,-0.65275,0,0,0.11111,-0,-0,0.66667
0.49337,0.90514,4.4404,0.60771,49.535,214.54,-7.1959,2.3986,-0.68574,-9.5945,-4.043e-12,-0.34287,0,0,0.11111,1.0527e-15,0,0.66667
0.63642,0.033281,5.7278,-0.70008,-44.932,118.8,10.693,-3.5643,-0.25731,14.257,1.9034e-12,-0.12866,0,0,0.11111,-0,-0,0.66667
0.0014998,0.75922,0.013498,0.38883,41.828,659.27,-0.013995,0.0046642,-1.4643,-0.018661,-1.407e-06,-0.73213,0,0,0.11111,-0,2.1897e-16,0.66667
0.11324,0.90119,1.0192,0.60179,64.035,549.87,-1.6355,0.54517,-0.71206,-2.1807,1.3585e-08,-0.35603,0,0,0.11111,-1.3158e-16,0,0.66667
0.46654,0.28062,4.1989,-0.32907,-27.649,234.43,3.6846,-1.2282,-1.6172,4.9128,-3.2929e-13,-0.80859,0,0,0.11111,4.2764e-16,0,0.66667
0.62328,0.50271,5.6095,0.0040617,0.26588,125.43,-0.060757,0.020252,-2.0023,-0.081009,-8.6181e-15,-1.0012,0,0,0.11111,-0,-0,0.66667
0.81967,0.030365,7.377,-0.70445,-24.917,33.634,13.858,-4.6194,-0.23434,18.477,-3.797e-10,-0.11717,0,0,0.11111,5.1608e-16,0,0.66667
0.41481,0.35281,3.7333,-0.22079,-19.625,275.48,2.198,-0.73267,-1.8243,2.9307,-2.2848e-13,-0.91214,0,0,0.11111,-0,-0,0.66667
0.92685,0.49431,8.3417,-0.0085361,-0.12495,6.0065,0.18988,-0.063294,-1.9985,0.25318,-2.9866e-07,-0.99927,0,0,0.11111,-1.0527e-15,0,0.66667
0.59738,0.84056,5.3764,0.51085,35.323,142.17,-7.3241,2.4414,-1.0723,-9.7655,-1.5019e-12,-0.53617,0,0,0.11111,1.3158e-15,0,0.66667
0.0018308,0.99116,0.016477,0.73673,79.552,658.95,-0.032735,0.010928,-0.071151,-0.043638,2.5012e-05,-0.035575,0,0,0.11111,-0,4.2722e-16,0.66667
0.68004,0.8623,6.1203,0.54345,31.399,93.779,-8.8696,2.9565,-0.94722,-11.826,-1.1573e-12,-0.47361,0,0,0.11111,-0,-0,0.66667
0.21277,0.50727,1.915,0.010899,1.1174,454.34,-0.055655,0.018552,-1.9977,-0.074207,5.5833e-11,-0.99883,0,0,0.11111,-0,-0,0.66667
0.015256,0.051402,0.1373,-0.6729,-72.579,645.76,0.24636,-0.082107,-0.3934,0.32849,2.0772e-05,-0.1967,0,0,0.11111,1.6448e-17,0,0.66667
0.73575,0.59022,6.6217,0.13533,6.6277,65.318,-2.3897,0.79658,-1.9376,-3.1863,-1.0864e-11,-0.96881,0,0,0.11111,-1.3158e-15,0,0.66667
0.55191,0.4465,4.9672,-0.080252,-5.9809,171.74,1.063,-0.35433,-1.9755,1.4173,1.2307e-12,-0.98774,0,0,0.11111,-0,-0,0.66667
0.78362,0.30711,7.0526,-0.28934,-11.916,45.248,5.4415,-1.8138,-1.7035,7.2554,1.5842e-11,-0.85175,0,0,0.11111,-0,-0,0.66667
0.088169,0.094568,0.79352,-0.60815,-65.048,574.28,1.2869,-0.42896,-0.6843,1.7158,-8.3299e-08,-0.34215,0,0,0.11111,-0,-0,0.66667
0.3557,0.075972,3.2013,-0.63604,-59.897,325.63,5.4298,-1.8099,-0.56072,7.2397,6.8212e-12,-0.28036,0,0,0.11111,-5.2633e-16,4.2583e-17,0.66667
0.2997,0.58124,2.6973,0.12186,11.91,374.36,-0.87652,0.29217,-1.9472,-1.1687,6.376e-13,-0.97359,0,0,0.11111,-0,-0,0.66667
0.569,0.62994,5.121,0.19491,14.129,160.2,-2.6617,0.88723,-1.8631,-3.5489,1.4775e-12,-0.93157,0,0,0.11111,-0,-0,0.66667
0.51015,0.34994,4.5914,-0.22509,-17.863,201.5,2.7559,-0.91863,-1.8183,3.6745,-1.1153e-12,-0.90915,0,0,0.11111,-0,-0,0.66667
0.78213,0.84185,7.0391,0.51278,21.344,46.389,-9.6254,3.2085,-1.0688,-12.834,-1.4715e-10,-0.53442,0,0,0.11111,1.3158e-15,0,0.66667
0.18706,0.10068,1.6835,-0.59898,-62.3,478.93,2.6891,-0.89635,-0.72797,3.5854,-2.1238e-09,-0.36399,0,0,0.11111,-0,-0,0.66667
0.5765,0.95686,5.1885,0.68529,49.348,156.21,-9.4816,3.1605,-0.33168,-12.642,-1.7923e-12,-0.16584,0,0,0.11111,-6.8271e-16,0,0.66667
0.64438,0.26259,5.7994,-0.35611,-22.329,113.22,5.5072,-1.8357,-1.5482,7.343,1.2261e-12,-0.77409,0,0,0.11111,-1.0527e-15,0,0.66667
0.45987,0.40907,4.1388,-0.13639,-11.538,239.44,1.5053,-0.50178,-1.9324,2.0071,-5.7621e-14,-0.96618,0,0,0.11111,1.0527e-15,0,0.66667
0.55798,0.56017,5.0218,0.09025,6.6605,167.59,-1.2086,0.40286,-1.9707,-1.6114,7.484e-13,-0.98534,0,0,0.11111,1.3158e-15,0,0.66667
0.97433,0.008785,8.7689,-0.73682,-4.0186,3.0784,17.23,-5.7432,-0.067658,22.973,1.0968e-05,-0.033829,0,0,0.11111,-0,-0,0.66667
0.75167,0.15333,6.7651,-0.52,-24.271,58.957,9.3808,-3.1269,-1.041,12.508,5.1623e-11,-0.52051,0,0,0.11111,-1.579e-15,0,0.66667
0.38099,0.49936,3.4289,-0.00095643,-0.087742,303.49,0.0087453,-0.0029151,-1.9992,0.01166,1.0239e-12,-0.99958,0,0,0.11111,-6.9081e-16,0,0.66667
0.43402,0.37278,3.9061,-0.19082,-16.623,259.9,1.9877,-0.66256,-1.871,2.6503,-5.036e-13,-0.93552,0,0,0.11111,7.8949e-16,0,0.66667
0.71283,0.58404,6.4155,0.12605,6.6248,76.191,-2.1565,0.71885,-1.9414,-2.8754,-4.6259e-12,-0.97068,0,0,0.11111,5.2633e-16,0,0.66667
0.093712,0.91135,0.84341,0.61703,65.937,568.88,-1.3877,0.46258,-0.65086,-1.8503,-4.0322e-08,-0.32543,0,0,0.11111,-0,7.1888e-17,0.66667
0.63781,0.83104,5.7403,0.49657,31.65,117.36,-7.6011,2.5337,-1.1233,-10.135,7.0166e-13,-0.56163,0,0,0.11111,-7.5532e-16,0,0.66667
0.11436,0.68526,1.0292,0.27789,29.48,548.65,-0.7627,0.25423,-1.7248,-1.0169,-1.5665e-08,-0.86239,0,0,0.11111,1.6544e-16,0,0.66667
0.10185,0.1612,0.91663,-0.5082,-54.156,560.9,1.2422,-0.41408,-1.0797,1.6563,4.795e-08,-0.53987,0,0,0.11111,-0,-0,0.66667
0.66667,0.38966,6,-0.16551,-9.8388,100.32,2.6482,-0.88274,-1.9006,3.5309,-2.0584e-13,-0.95029,0,0,0.11111,1.0527e-15,0,0.66667
0.1671,0.48798,1.5039,-0.018033,-1.8827,497.71,0.072321,-0.024107,-1.9972,0.096428,7.268e-10,-0.99858,0,0,0.11111,-1.9789e-16,0,0.66667
0.76472,0.57545,6.8825,0.11317,5.0102,52.626,-2.077,0.69234,-1.9569,-2.7694,-1.2371e-11,-0.97845,0,0,0.11111,-0,-0,0.66667
0.75059,0.76309,6.7553,0.39463,18.442,59.084,-7.109,2.3697,-1.4492,-9.4787,-2.3041e-11,-0.72459,0,0,0.11111,-0,-0,0.66667
0.31202,0.34367,2.8082,-0.2345,-22.737,363.4,1.7561,-0.58535,-1.8092,2.3414,-3.2537e-12,-0.9046,0,0,0.11111,6.1885e-16,0,0.66667
0.57086,0.56405,5.1378,0.096081,6.94,158.89,-1.3164,0.4388,-1.9658,-1.7552,2.3597e-12,-0.98291,0,0,0.11111,-2.1053e-15,0,0.66667
0.64514,0.68013,5.8063,0.2702,16.899,112.63,-4.1836,1.3945,-1.7393,-5.5782,-4.6718e-13,-0.86965,0,0,0.11111,-0,-0,0.66667
0.81146,0.63461,7.3032,0.20191,7.3383,34.915,-3.9323,1.3108,-1.8575,-5.2431,2.0499e-10,-0.92874,0,0,0.11111,-0,-0,0.66667
0.20147,0.54579,1.8132,0.068685,7.0771,465.01,-0.3321,0.1107,-1.9846,-0.4428,-1.4784e-11,-0.99228,0,0,0.11111,-2.6316e-16,0,0.66667
0.67624,0.97175,6.0862,0.70763,41.43,96.371,-11.485,3.8282,-0.21921,-15.313,-6.8567e-13,-0.10961,0,0,0.11111,-0,-0,0.66667
0.82289,0.74368,7.406,0.36552,12.582,31.387,-7.2188,2.4063,-1.5235,-9.625,5.1233e-10,-0.76176,0,0,0.11111,-1.0527e-15,0,0.66667
0.41439,0.62937,3.7295,0.19406,17.254,275.8,-1.9299,0.64331,-1.8642,-2.5733,-4.1978e-13,-0.93212,0,0,0.11111,-0,-0,0.66667
0.4937,0.79912,4.4433,0.44868,36.478,213.97,-5.3163,1.7721,-1.2817,-7.0883,1.6627e-12,-0.64087,0,0,0.11111,-5.2633e-16,0,0.66667
0.51425,0.092599,4.6282,-0.6111,-48.426,199.17,7.5422,-2.5141,-0.67537,10.056,7.4296e-13,-0.33768,0,0,0.11111,5.3666e-16,0,0.66667
0.93933,0.20945,8.454,-0.43583,-5.3699,4.9928,9.8253,-3.2751,-1.326,13.1,-9.6803e-08,-0.663,0,0,0.11111,-1.0527e-15,0,0.66667
0.051651,0.18478,0.46486,-0.47283,-50.764,609.98,0.58613,-0.19538,-1.2045,0.78151,1.2829e-07,-0.60224,0,0,0.11111,-8.2239e-17,0,0.66667
0.57155,0.32931,5.144,-0.25603,-18.487,158.56,3.5121,-1.1707,-1.7643,4.6828,2.0637e-12,-0.88217,0,0,0.11111,-0,-0,0.66667
0.48976,0.46441,4.4078,-0.05338,-4.3512,216.53,0.62744,-0.20915,-1.9886,0.83658,1.7951e-12,-0.99432,0,0,0.11111,-4.995e-16,0,0.66667
0.34383,0.10821,3.0945,-0.58769,-55.835,335.81,4.8496,-1.6165,-0.77568,6.4661,3.9493e-12,-0.38784,0,0,0.11111,-0,-0,0.66667
0.66992,0.35388,6.0293,-0.21918,-12.931,98.589,3.5239,-1.1746,-1.8303,4.6986,1.0629e-12,-0.91517,0,0,0.11111,-0,-0,0.66667
0.76944,0.22449,6.925,-0.41327,-18.041,51.164,7.6316,-2.5439,-1.3924,10.175,4.3672e-12,-0.6962,0,0,0.11111,-0,-0,0.66667
0.54006,0.79796,4.8605,0.44694,34.023,180.39,-5.793,1.931,-1.2871,-7.724,-8.3711e-13,-0.64355,0,0,0.11111,-1.0527e-15,0,0.66667
0.041638,0.089342,0.37474,-0.61599,-66.294,619.83,0.61556,-0.20518,-0.64971,0.82075,5.8536e-06,-0.32485,0,0,0.11111,8.2239e-17,0,0.66667
0.23508,0.4534,2.1157,-0.069903,-7.0919,433.47,0.39439,-0.13146,-1.9853,0.52585,-4.4794e-12,-0.99266,0,0,0.11111,-0,-0,0.66667
0.02044,0.65854,0.18396,0.2378,25.547,640.63,-0.11666,0.038886,-1.7984,-0.15554,1.8808e-07,-0.89919,0,0,0.11111,-6.5791e-17,0,0.66667
0.32778,0.89207,2.95,0.58811,56.56,349.83,-4.6265,1.5422,-0.77349,-6.1687,-1.5437e-12,-0.38674,0,0,0.11111,-0,1.3045e-16,0.66667
0.46806,0.51805,4.2125,0.02708,2.2682,233.06,-0.3042,0.1014,-2.0001,-0.4056,-2.346e-12,-1.0001,0,0,0.11111,-1.0527e-15,0,0.66667
0.78457,0.58986,7.0611,0.13479,5.5204,44.675,-2.538,0.846,-1.9358,-3.384,3.9005e-11,-0.96789,0,0,0.11111,-1.0527e-15,0,0.66667
0.53227,0.86651,4.7905,0.54976,42.404,186.1,-7.023,2.341,-0.92794,-9.364,-3.0371e-12,-0.46397,0,0,0.11111,5.2633e-16,0,0.66667
0.47743,0.57581,4.2968,0.11372,9.4174,225.89,-1.303,0.43434,-1.9514,-1.7374,-1.5029e-12,-0.97569,0,0,0.11111,-0,-0,0.66667
0.69795,0.16356,6.2815,-0.50466,-27.792,84.313,8.4534,-2.8178,-1.0929,11.271,3.7463e-12,-0.54647,0,0,0.11111,-0,-0,0.66667
0.017417,0.65799,0.15675,0.23698,25.462,643.6,-0.099062,0.033021,-1.8028,-0.13208,8.4496e-08,-0.90141,0,0,0.11111,-0,-0,0.66667
0.69499,0.7636,6.2549,0.3954,21.91,85.556,-6.5952,2.1984,-1.4414,-8.7935,-3.9719e-12,-0.7207,0,0,0.11111,1.0527e-15,0,0.66667
0.31196,0.66653,2.8076,0.24979,24.222,363.46,-1.8702,0.62339,-1.7813,-2.4936,5.0793e-12,-0.89065,0,0,0.11111,-5.2633e-16,0,0.66667
0.55979,0.62212,5.0381,0.18318,13.483,166.41,-2.461,0.82033,-1.8819,-3.2813,1.6049e-12,-0.94094,0,0,0.11111,-1.3158e-16,0,0.66667
0.60681,0.15223,5.4613,-0.52166,-35.437,136.25,7.5971,-2.5324,-1.0336,10.13,-5.2713e-13,-0.51679,0,0,0.11111,-1.6703e-16,0,0.66667
0.18214,0.49022,1.6393,-0.014664,-1.5226,483.34,0.064102,-0.021367,-1.9974,0.085469,-2.7103e-10,-0.99868,0,0,0.11111,-0,-0,0.66667
0.25027,0.47403,2.2525,-0.038954,-3.9208,419.37,0.23398,-0.077993,-1.9987,0.31197,-3.0907e-12,-0.99936,0,0,0.11111,-0,-0,0.66667
0.57882,0.25958,5.2094,-0.36063,-25.738,153.89,5.0098,-1.6699,-1.5405,6.6797,1.5921e-12,-0.77027,0,0,0.11111,-0,-0,0.66667
0.26262,0.56729,2.3636,0.10093,10.091,408.01,-0.63617,0.21206,-1.9643,-0.84822,5.4028e-12,-0.98217,0,0,0.11111,-0,-0,0.66667
0.23942,0.14642,2.1548,-0.53036,-53.841,429.7,3.0475,-1.0158,-0.99817,4.0633,-7.5631e-12,-0.49908,0,0,0.11111,2.6316e-16,0,0.66667
0.35903,0.53876,3.2313,0.058144,5.4364,322.19,-0.50101,0.167,-1.9917,-0.66801,1.3743e-12,-0.99585,0,0,0.11111,-0,-0,0.66667
0.90441,0.57822,8.1397,0.11734,2.2401,9.867,-2.5469,0.84895,-1.9521,-3.3958,1.5201e-08,-0.97607,0,0,0.11111,2.1053e-15,0,0.66667
0.86921,0.8369,7.8229,0.50535,13.182,18.458,-10.542,3.514,-1.0902,-14.056,8.8302e-09,-0.5451,0,0,0.11111,-0,-0,0.66667
0.51404,0.81544,4.6263,0.47316,37.432,199.02,-5.8373,1.9458,-1.2065,-7.783,-1.6933e-12,-0.60327,0,0,0.11111,-0,-0,0.66667
0.051748,0.067147,0.46573,-0.64928,-69.84,609.92,0.80637,-0.26879,-0.50011,1.0752,-1.2036e-07,-0.25005,0,0,0.11111,-0,-0,0.66667
0.80034,0.68407,7.203,0.2761,10.58,38.959,-5.3034,1.7678,-1.7293,-7.0713,8.7045e-11,-0.86463,0,0,0.11111,2.6316e-16,0,0.66667
0.18119,0.35672,1.6307,-0.21492,-22.335,484.28,0.9346,-0.31153,-1.8333,1.2461,3.6086e-10,-0.91664,0,0,0.11111,2.6316e-16,0,0.66667
0.66874,0.1063,6.0187,-0.59055,-35.125,100.04,9.4781,-3.1594,-0.75969,12.638,6.8745e-13,-0.37984,0,0,0.11111,-0,-4.7101e-17,0.66667
0.83537,0.12587,7.5183,-0.56119,-18.169,28.049,11.251,-3.7504,-0.87901,15.002,2.1244e-09,-0.43951,0,0,0.11111,-0,-0,0.66667
0.9648,0.024871,8.6832,-0.71269,-5.2835,3.5995,16.503,-5.5008,-0.19348,22.003,-5.6698e-06,-0.096738,0,0,0.11111,-0,-8.5511e-17,0.66667
0.12685,0.044622,1.1416,-0.68307,-72.516,536.74,2.0795,-0.69315,-0.34216,2.7726,6.8115e-09,-0.17108,0,0,0.11111,-0,-0,0.66667
0.52331,0.95731,4.7098,0.68596,53.73,192.84,-8.6153,2.8718,-0.32433,-11.487,3.6771e-13,-0.16217,0,0,0.11111,5.2633e-16,0,0.66667
0.85061,0.63851,7.6555,0.20777,6.0917,22.664,-4.2416,1.4139,-1.8439,-5.6555,2.3805e-09,-0.92194,0,0,0.11111,-0,-0,0.66667
0.53761,0.51156,4.8385,0.017343,1.3216,181.68,-0.22378,0.074592,-1.9965,-0.29837,4.7218e-12,-0.99825,0,0,0.11111,-0,-0,0.66667
0.73005,0.98469,6.5704,0.72704,36.646,69.446,-12.739,4.2462,-0.11913,-16.985,1.501e-13,-0.059565,0,0,0.11111,-1.9172e-15,0,0.66667
0.78546,0.66195,7.0691,0.24292,9.9227,44.46,-4.5793,1.5264,-1.7895,-6.1058,1.1688e-11,-0.89475,0,0,0.11111,-2.1053e-15,0,0.66667
0.8366,0.44765,7.5294,-0.078532,-2.5,26.644,1.5768,-0.5256,-1.9756,2.1024,-6.6625e-10,-0.98778,0,0,0.11111,2.1053e-15,0,0.66667
0.66653,0.9183,5.9988,0.62745,37.549,101.37,-10.037,3.3457,-0.59817,-13.383,-2.327e-13,-0.29909,0,0,0.11111,-0,-0,0.66667
0.89774,0.63682,8.0797,0.20523,4.1906,11.273,-4.4218,1.4739,-1.8476,-5.8957,2.2693e-08,-0.92382,0,0,0.11111,-0,-0,0.66667
0.64779,0.7446,5.8301,0.36689,22.834,111.26,-5.7041,1.9014,-1.5194,-7.6055,4.4942e-13,-0.7597,0,0,0.11111,-5.2633e-16,0,0.66667
0.94464,0.42481,8.5017,-0.11278,-1.247,3.6781,2.5568,-0.85228,-1.9521,3.4091,8.0379e-08,-0.97606,0,0,0.11111,-0,-0,0.66667
0.6293,0.61683,5.6637,0.17524,11.335,121.87,-2.6467,0.88225,-1.8898,-3.529,1.1049e-12,-0.94488,0,0,0.11111,-5.2633e-16,0,0.66667
0.87243,0.7129,7.8519,0.31936,8.0862,17.129,-6.6868,2.2289,-1.6382,-8.9157,9.2103e-09,-0.81912,0,0,0.11111,1.0527e-15,0,0.66667
0.59566,0.60651,5.3609,0.15977,11.044,142.71,-2.284,0.76133,-1.9103,-3.0453,-3.8169e-13,-0.95515,0,0,0.11111,1.0527e-15,0,0.66667
0.34435,0.44667,3.0991,-0.080001,-7.5695,334.89,0.66116,-0.22039,-1.9804,0.88155,2.3629e-12,-0.99019,0,0,0.11111,-0,-0,0.66667
0.81346,0.022646,7.3211,-0.71603,-26.123,35.767,13.979,-4.6597,-0.17972,18.639,-2.7143e-10,-0.089859,0,0,0.11111,-0,-0,0.66667
0.43238,0.44689,3.8914,-0.079663,-6.9492,261.16,0.82668,-0.27556,-1.9757,1.1022,-6.1601e-13,-0.98786,0,0,0.11111,-0,-0,0.66667
0.12655,0.58318,1.1389,0.12477,13.188,536.8,-0.37893,0.12631,-1.9463,-0.50524,-6.1701e-09,-0.97315,0,0,0.11111,-0,-0,0.66667
0.96857,0.34168,8.7171,-0.23748,-1.4623,1.5694,5.5204,-1.8401,-1.8043,7.3606,2.2952e-07,-0.90214,0,0,0.11111,2.3685e-15,0,0.66667
0.85256,0.45814,7.6731,-0.062792,-1.8159,21.984,1.2848,-0.42827,-1.9835,1.7131,-1.8196e-09,-0.99175,0,0,0.11111,-0,-0,0.66667
0.56126,0.38188,5.0513,-0.17719,-13.01,165.4,2.3867,-0.79558,-1.8908,3.1823,1.4382e-12,-0.9454,0,0,0.11111,-0,-0,0.66667
0.67061,0.97878,6.0355,0.71817,42.646,99.463,-11.559,3.8529,-0.16825,-15.412,2.2204e-14,-0.084125,0,0,0.11111,-0,1.1471e-16,0.66667
0.99772,0.18062,8.9795,-0.47907,-0.069763,0.95002,11.471,-3.8238,-1.1851,15.295,-1.5727e-06,-0.59253,0,0,0.11111,-5.2633e-16,-9.0336e-17,0.66667
0.16131,0.51522,1.4518,0.02283,2.3882,503.26,-0.088385,0.029462,-1.9962,-0.11785,-3.6711e-10,-0.9981,0,0,0.11111,-5.2633e-16,0,0.66667
0.53454,0.58657,4.8109,0.12986,9.9441,183.88,-1.666,0.55533,-1.94,-2.2213,1.0751e-12,-0.96999,0,0,0.11111,-0,-0,0.66667
0.39098,0.9898,3.5188,0.73471,67.201,295.94,-6.8941,2.298,-0.084186,-9.1921,-4.1132e-12,-0.042093,0,0,0.11111,1.0527e-15,0,0.66667
0.54115,0.97415,4.8703,0.71122,54.276,180.29,-9.237,3.079,-0.19991,-12.316,-1.8687e-12,-0.099957,0,0,0.11111,-0,-0,0.66667
0.10338,0.37075,0.9304,-0.19387,-20.609,559.32,0.48101,-0.16034,-1.8649,0.64134,2.2484e-08,-0.93243,0,0,0.11111,6.5791e-17,0,0.66667
0.44074,0.055551,3.9667,-0.66667,-57.933,255.25,7.0519,-2.3506,-0.41974,9.4026,-7.1676e-13,-0.20987,0,0,0.11111,-0,-0,0.66667
0.46146,0.5814,4.1532,0.1221,10.309,238.19,-1.3522,0.45075,-1.9443,-1.803,-9.4569e-13,-0.97217,0,0,0.11111,-5.4648e-16,0,0.66667
0.59589,0.23974,5.363,-0.39039,-27.025,142.86,5.5831,-1.861,-1.459,7.4441,7.7449e-13,-0.72951,0,0,0.11111,-0,-0,0.66667
0.66238,0.4353,5.9614,-0.097048,-5.827,102.66,1.5428,-0.51426,-1.9653,2.057,-4.7584e-13,-0.98266,0,0,0.11111,1.0527e-15,0,0.66667
0.59015,0.89184,5.3113,0.58776,41.238,147.01,-8.3248,2.7749,-0.77085,-11.1,2.3448e-13,-0.38542,0,0,0.11111,-0,-0,0.66667
0.72938,0.65646,6.5644,0.23469,11.739,68.373,-4.1082,1.3694,-1.8039,-5.4776,-1.0364e-11,-0.90196,0,0,0.11111,-0,-0,0.66667
0.5809,0.85343,5.2281,0.53015,37.781,152.87,-7.3912,2.4637,-1.0009,-9.8549,9.428e-13,-0.50044,0,0,0.11111,-1.0527e-15,0,0.66667
0.4431,0.15497,3.9879,-0.51754,-44.762,253.07,5.5038,-1.8346,-1.0469,7.3384,2.061e-12,-0.52343,0,0,0.11111,7.235e-16,0,0.66667
0.49679,0.92105,4.4711,0.63158,51.269,212.05,-7.5303,2.5101,-0.58124,-10.04,-2.9785e-12,-0.29062,0,0,0.11111,1.0527e-15,1.6767e-16,0.66667
0.43009,0.22275,3.8708,-0.41587,-36.438,263.29,4.2927,-1.4309,-1.3833,5.7235,-5.0759e-13,-0.69164,0,0,0.11111,-0,-0,0.66667
0.21007,0.5939,1.8907,0.14084,14.461,456.9,-0.7101,0.2367,-1.9285,-0.9468,-4.1365e-11,-0.96423,0,0,0.11111,5.2633e-16,0,0.66667
0.2268,0.012168,2.0412,-0.73175,-74.943,441.67,3.9831,-1.3277,-0.093479,5.3108,-3.5972e-11,-0.04674,0,0,0.11111,-0,-0,0.66667
0.45739,0.63807,4.1165,0.2071,17.576,241.42,-2.2734,0.7578,-1.8461,-3.0312,-3.7748e-15,-0.92307,0,0,0.11111,1.0527e-15,0,0.66667
0.43355,0.32222,3.902,-0.26667,-23.251,260.34,2.7748,-0.92492,-1.7462,3.6997,1.0458e-12,-0.87312,0,0,0.11111,-0,-0,0.66667
0.77928,0.45019,7.0136,-0.07471,-3.1256,46.699,1.3973,-0.46576,-1.9811,1.8631,1.001e-11,-0.99057,0,0,0.11111,-0,-0,0.66667
0.42086,0.38199,3.7877,-0.17701,-15.633,270.51,1.7879,-0.59596,-1.8913,2.3839,6.698e-13,-0.94567,0,0,0.11111,1.0527e-15,0,0.66667
0.67337,0.689,6.0603,0.28349,16.593,96.791,-4.5815,1.5272,-1.7172,-6.1087,-1.3998e-12,-0.85859,0,0,0.11111,-0,-0,0.66667
0.16604,0.71684,1.4943,0.32526,34.005,498.8,-1.2961,0.43204,-1.6228,-1.7282,-1.1519e-09,-0.81141,0,0,0.11111,-7.4108e-17,0,0.66667
0.82406,0.98348,7.4165,0.72522,25.109,32.301,-14.343,4.781,-0.12874,-19.124,-3.7307e-11,-0.064369,0,0,0.11111,1.0527e-15,0,0.66667
0.68541,0.30098,6.1687,-0.29852,-16.948,90.365,4.9107,-1.6369,-1.684,6.5475,1.7928e-12,-0.84201,0,0,0.11111,1.0527e-15,0,0.66667
0.78905,0.74114,7.1015,0.36171,14.581,43.314,-6.8498,2.2833,-1.5324,-9.1331,6.6942e-12,-0.76618,0,0,0.11111,-0,-0,0.66667
0.35948,0.98533,3.2354,0.72799,68.438,322.56,-6.2808,2.0936,-0.11932,-8.3744,1.6431e-14,-0.059659,0,0,0.11111,-0,-0,0.66667
0.66255,0.62731,5.9629,0.19097,11.467,102.63,-3.0366,1.0122,-1.8691,-4.0488,-1.1888e-12,-0.93453,0,0,0.11111,-0,-0,0.66667
0.21709,0.49256,1.9538,-0.011164,-1.1424,450.28,0.058168,-0.019389,-2.0013,0.077557,-4.3537e-11,-1.0007,0,0,0.11111,7.8949e-16,0,0.66667
0.22101,0.67497,1.9891,0.26245,26.826,446.67,-1.3921,0.46403,-1.7557,-1.8561,2.1827e-11,-0.87786,0,0,0.11111,2.6316e-16,0,0.66667
0.24246,0.15272,2.1821,-0.52092,-52.794,426.87,3.0312,-1.0104,-1.0335,4.0416,-4.3924e-11,-0.51673,0,0,0.11111,-0,-0,0.66667
0.26459,0.13852,2.3813,-0.54222,-54.309,406.51,3.4431,-1.1477,-0.95689,4.5909,-1.8125e-11,-0.47845,0,0,0.11111,-0,-0,0.66667
0.40841,0.23231,3.6757,-0.40153,-35.965,280.9,3.9357,-1.3119,-1.4275,5.2476,2.7836e-12,-0.71373,0,0,0.11111,-0,-0,0.66667
0.8287,0.83192,7.4583,0.49789,16.682,29.901,-9.9023,3.3008,-1.1216,-13.203,7.2191e-10,-0.56081,0,0,0.11111,-0,-0,0.66667
0.94742,0.63041,8.5268,0.19561,2.0568,3.4556,-4.4478,1.4826,-1.8624,-5.9304,-5.4133e-08,-0.9312,0,0,0.11111,2.1053e-15,0,0.66667
0.63246,0.10229,5.6921,-0.59657,-38.53,120.8,9.0554,-3.0185,-0.73218,12.074,1.168e-12,-0.36609,0,0,0.11111,-0,-0,0.66667
0.13474,0.43952,1.2127,-0.090721,-9.5678,528.86,0.29337,-0.097789,-1.9697,0.39116,6.001e-09,-0.98483,0,0,0.11111,-0,-0,0.66667
0.41999,0.4292,3.7799,-0.1062,-9.3853,271.18,1.0704,-0.35681,-1.9613,1.4272,-1.5099e-13,-0.98066,0,0,0.11111,-0,-0,0.66667
0.93619,0.74681,8.4257,0.37021,4.7768,5.201,-8.318,2.7727,-1.5156,-11.091,9.2285e-08,-0.75778,0,0,0.11111,5.2633e-16,0,0.66667
0.32054,0.37835,2.8849,-0.18248,-17.583,355.81,1.4038,-0.46794,-1.8799,1.8718,-3.566e-13,-0.93995,0,0,0.11111,-1.0527e-15,0,0.66667
0.61928,0.15504,5.5735,-0.51744,-34.293,128.53,7.6906,-2.5635,-1.0472,10.254,9.6056e-13,-0.52359,0,0,0.11111,6.5791e-17,0,0.66667
0.93513,0.66733,8.4162,0.25099,3.2726,5.0641,-5.6331,1.8777,-1.7766,-7.5108,2.9847e-08,-0.8883,0,0,0.11111,-2.1053e-15,0,0.66667
0.46068,0.94583,4.1461,0.66875,56.817,239.59,-7.3939,2.4646,-0.40748,-9.8586,-2.0917e-13,-0.20374,0,0,0.11111,-0,-0,0.66667
0.5004,0.9102,4.5036,0.61531,49.696,209.34,-7.3896,2.4632,-0.65798,-9.8528,-2.5269e-13,-0.32899,0,0,0.11111,-1.0527e-15,0,0.66667
0.91869,0.20322,8.2682,-0.44518,-7.3322,8.0164,9.8155,-3.2718,-1.2949,13.087,-5.5164e-08,-0.64745,0,0,0.11111,-0,-0,0.66667
0.92982,0.53804,8.3684,0.057065,0.80155,5.5817,-1.2735,0.42449,-1.9862,-1.6979,-7.8816e-08,-0.9931,0,0,0.11111,-2.1053e-15,0,0.66667
0.90449,0.61406,8.1404,0.1711,3.2667,9.9087,-3.7141,1.238,-1.8973,-4.9521,2.0507e-08,-0.94863,0,0,0.11111,-1.0527e-15,0,0.66667
0.51363,0.47578,4.6227,-0.036323,-2.8668,198.86,0.44776,-0.14925,-1.9967,0.59701,8.2043e-13,-0.99836,0,0,0.11111,-0,-0,0.66667
0.63981,0.044453,5.7583,-0.68332,-43.521,116.75,10.493,-3.4976,-0.34238,13.99,3.0358e-12,-0.17119,0,0,0.11111,-1.0527e-15,0,0.66667
0.58901,0.51044,5.3011,0.015665,1.0957,146.93,-0.22144,0.073814,-1.9976,-0.29526,2.4475e-12,-0.99878,0,0,0.11111,-2.1053e-15,0,0.66667
0.15849,0.46472,1.4265,-0.052914,-5.5404,505.96,0.20128,-0.067093,-1.9916,0.26837,8.447e-10,-0.99578,0,0,0.11111,6.5791e-17,0,0.66667
0.62345,0.88361,5.611,0.57541,37.851,126.15,-8.6098,2.8699,-0.82457,-11.48,-1.5286e-12,-0.41229,0,0,0.11111,-0,-0,0.66667
0.31914,0.89431,2.8723,0.59146,57.241,357.45,-4.5303,1.5101,-0.75365,-6.0404,1.9806e-13,-0.37683,0,0,0.11111,-0,-0,0.66667
0.13074,0.89931,1.1766,0.59896,63.456,532.92,-1.8793,0.62645,-0.72265,-2.5058,-1.6469e-08,-0.36132,0,0,0.11111,1.3158e-16,0,0.66667
0.215,0.12075,1.935,-0.56888,-58.458,452.52,2.9355,-0.97849,-0.84925,3.914,3.173e-10,-0.42462,0,0,0.11111,-1.3158e-16,0,0.66667
0.31366,0.18441,2.8229,-0.47338,-45.929,362.15,3.5635,-1.1878,-1.2064,4.7514,-8.4044e-13,-0.60318,0,0,0.11111,7.8949e-16,0,0.66667
0.95145,0.24594,8.5631,-0.38108,-3.7343,3.4256,8.702,-2.9007,-1.4859,11.603,-1.4559e-08,-0.74294,0,0,0.11111,-1.579e-15,0,0.66667
0.99077,0.53119,8.9169,0.046786,0.065686,0.20897,-1.1125,0.37083,-1.9914,-1.4833,-1.8349e-06,-0.99568,0,0,0.11111,3.1251e-16,0,0.66667
0.86689,0.43779,7.802,-0.093308,-2.4507,18.186,1.9413,-0.6471,-1.9679,2.5884,-6.3534e-09,-0.98397,0,0,0.11111,-0,-0,0.66667
0.46186,0.90018,4.1567,0.60027,50.874,238.52,-6.6538,2.2179,-0.71682,-8.8717,-4.0723e-13,-0.35841,0,0,0.11111,2.6316e-16,0,0.66667
0.46562,0.73428,4.1906,0.35141,29.565,235.17,-3.927,1.309,-1.5605,-5.236,1.0822e-12,-0.78026,0,0,0.11111,-0,-0,0.66667
0.76473,0.7609,6.8826,0.39135,17.382,53.052,-7.1826,2.3942,-1.458,-9.5768,-2.7579e-11,-0.729,0,0,0.11111,-2.1053e-15,0,0.66667
0.098408,0.80443,0.88567,0.45664,48.672,564.23,-1.0785,0.3595,-1.2573,-1.438,-3.263e-08,-0.62864,0,0,0.11111,1.3158e-16,0,0.66667
0.99404,0.64014,8.9463,0.21021,0.15693,0.28624,-5.0149,1.6716,-1.8405,-6.6865,2.7789e-07,-0.92025,0,0,0.11111,-0,-0,0.66667
0.69221,0.81168,6.2299,0.46752,26.131,87.162,-7.7669,2.589,-1.2227,-10.356,2.7978e-14,-0.61133,0,0,0.11111,-3.2895e-16,0,0.66667
0.29929,0.62281,2.6936,0.18422,18.012,374.75,-1.3232,0.44107,-1.881,-1.7643,6.192e-12,-0.94049,0,0,0.11111,-7.8949e-16,0,0.66667
0.90885,0.68066,8.1796,0.27099,4.9549,9.2597,-5.9109,1.9703,-1.7396,-7.8813,3.3761e-08,-0.8698,0,0,0.11111,-1.0527e-15,0,0.66667
0.55258,0.61331,4.9732,0.16997,12.658,171.33,-2.2541,0.75137,-1.8951,-3.0055,4.9005e-13,-0.94755,0,0,0.11111,-5.2633e-16,0,0.66667
0.08519,0.40236,0.76671,-0.14646,-15.62,577.07,0.29944,-0.099813,-1.922,0.39925,3.1751e-08,-0.961,0,0,0.11111,3.2895e-17,0,0.66667
0.10825,0.20183,0.97421,-0.44725,-47.569,554.65,1.1619,-0.3873,-1.2908,1.5492,2.3371e-08,-0.64542,0,0,0.11111,-0,-0,0.66667
0.031665,0.03733,0.28498,-0.694,-74.819,629.64,0.52742,-0.17582,-0.29131,0.70322,-1.5465e-05,-0.14566,0,0,0.11111,-0,-0,0.66667
0.21619,0.15132,1.9458,-0.52302,-53.69,451.36,2.7138,-0.9046,-1.0284,3.6184,-1.1277e-10,-0.51419,0,0,0.11111,-1.3515e-16,0,0.66667
0.051414,0.59795,0.46273,0.14693,15.744,610.17,-0.1813,0.060434,-1.9225,-0.24174,2.7002e-08,-0.96127,0,0,0.11111,-1.3158e-16,0,0.66667
0.51027,0.037254,4.5925,-0.69412,-55.388,202.29,8.5006,-2.8335,-0.28546,11.334,-1.3269e-12,-0.14273,0,0,0.11111,1.0527e-15,0,0.66667
0.08294,0.12949,0.74646,-0.55576,-59.463,579.36,1.1063,-0.36876,-0.90086,1.475,4.5184e-08,-0.45043,0,0,0.11111,2.6316e-16,0,0.66667
0.44312,0.93707,3.9881,0.6556,56.812,253.34,-6.9723,2.3241,-0.47114,-9.2964,-1.1218e-12,-0.23557,0,0,0.11111,-0,-0,0.66667
0.2362,0.86588,2.1258,0.54883,55.817,432.71,-3.1112,1.0371,-0.93044,-4.1483,4.9511e-11,-0.46522,0,0,0.11111,-0,-0,0.66667
0.55972,0.38976,5.0375,-0.16536,-12.172,166.44,2.2214,-0.74045,-1.9027,2.9618,2.7029e-12,-0.95137,0,0,0.11111,-1.0527e-15,0,0.66667
0.43897,0.0036207,3.9507,-0.74457,-64.912,256.86,7.8442,-2.6147,-0.03145,10.459,-1.3922e-12,-0.015725,0,0,0.11111,-0,-0,0.66667
0.83754,0.77516,7.5379,0.41273,13.139,26.907,-8.2964,2.7655,-1.3925,-11.062,1.2939e-09,-0.69623,0,0,0.11111,-1.0527e-15,0,0.66667
0.33654,0.45015,3.0289,-0.074772,-7.1176,341.7,0.60394,-0.20131,-1.9775,0.80526,2.1927e-13,-0.98873,0,0,0.11111,-0,-0,0.66667
0.23023,0.54214,2.0721,0.063215,6.4287,437.99,-0.3493,0.11643,-1.9846,-0.46573,1.9079e-11,-0.99232,0,0,0.11111,-0,-0,0.66667
0.94012,0.40432,8.461,-0.14353,-1.7203,4.257,3.2384,-1.0795,-1.9282,4.3178,-2.966e-08,-0.96411,0,0,0.11111,-1.579e-15,0,0.66667
0.46636,0.43249,4.1973,-0.10127,-8.5003,234.38,1.1335,-0.37782,-1.9647,1.5113,8.008e-13,-0.98237,0,0,0.11111,-7.8949e-16,0,0.66667
0.028158,0.27018,0.25342,-0.34473,-37.043,633.04,0.23297,-0.077656,-1.5772,0.31062,-6.4217e-07,-0.78862,0,0,0.11111,-0,-0,0.66667
0.079436,0.52244,0.71493,0.03366,3.5928,582.69,-0.064172,0.021391,-1.9981,-0.085563,4.8368e-09,-0.99905,0,0,0.11111,1.3158e-16,0,0.66667
0.55557,0.05728,5.0001,-0.66408,-49.5,170.19,8.8547,-2.9516,-0.43007,11.806,3.7597e-12,-0.21503,0,0,0.11111,-7.8949e-16,0,0.66667
0.21077,0.24305,1.8969,-0.38543,-39.612,456.35,1.9497,-0.6499,-1.4696,2.5996,-4.6406e-12,-0.73478,0,0,0.11111,-0,-0,0.66667
0.14824,0.15645,1.3341,-0.51533,-54.274,515.99,1.8334,-0.61112,-1.0547,2.4445,-1.7593e-09,-0.52734,0,0,0.11111,5.2633e-16,0,0.66667
0.19553,0.38159,1.7598,-0.17762,-18.352,470.65,0.83353,-0.27784,-1.8856,1.1114,1.3857e-10,-0.94282,0,0,0.11111,-0,-0,0.66667
0.74475,0.91589,6.7027,0.62384,29.893,62.354,-11.15,3.7168,-0.61446,-14.867,5.4294e-12,-0.30723,0,0,0.11111,-2.1053e-15,0,0.66667
0.94901,0.069248,8.5411,-0.64613,-6.8372,4.7187,14.716,-4.9055,-0.51488,19.622,-2.9936e-07,-0.25744,0,0,0.11111,-0,-8.089e-17,0.66667
0.12938,0.50742,1.1644,0.01113,1.1754,534.05,-0.034558,0.011519,-1.9985,-0.046078,-1.4365e-09,-0.99927,0,0,0.11111,5.2633e-16,0,0.66667
0.87978,0.84159,7.918,0.51239,12.346,15.942,-10.819,3.6063,-1.066,-14.425,-9.2577e-09,-0.53301,0,0,0.11111,1.0527e-15,0,0.66667
0.71192,0.8544,6.4073,0.5316,28.16,77.398,-9.083,3.0277,-0.99271,-12.111,-3.8858e-12,-0.49635,0,0,0.11111,-0,-0,0.66667
0.55684,0.51423,5.0116,0.021348,1.5782,168.34,-0.28529,0.095098,-1.9961,-0.38039,-4.6544e-12,-0.99806,0,0,0.11111,2.1053e-15,0,0.66667
0.067019,0.071265,0.60317,-0.6431,-69.044,594.96,1.0344,-0.3448,-0.52822,1.3792,-1.9385e-07,-0.26411,0,0,0.11111,-0,-0,0.66667
0.78774,0.15648,7.0897,-0.51528,-20.959,44.237,9.7418,-3.2473,-1.055,12.989,2.1175e-10,-0.52751,0,0,0.11111,2.1053e-15,0,0.66667
0.81228,0.093668,7.3105,-0.6095,-22.273,35.709,11.882,-3.9607,-0.68431,15.843,2.8399e-09,-0.34215,0,0,0.11111,1.1835e-15,0,0.66667
0.75458,0.67652,6.7912,0.26479,12.179,57.095,-4.7953,1.5984,-1.7492,-6.3937,-2.1298e-11,-0.87461,0,0,0.11111,-1.0527e-15,0,0.66667
0.55049,0.64035,4.9544,0.21052,15.733,172.8,-2.7813,0.92711,-1.8416,-3.7085,8.8263e-13,-0.92078,0,0,0.11111,-0,-0,0.66667
0.6316,0.10491,5.6844,-0.59263,-38.342,121.3,8.9834,-2.9945,-0.74877,11.978,1.136e-12,-0.37439,0,0,0.11111,-0,-0,0.66667
0.43666,0.89167,3.93,0.58751,51.22,258.33,-6.1571,2.0524,-0.77522,-8.2094,-6.6214e-13,-0.38761,0,0,0.11111,-5.2633e-16,1.3099e-16,0.66667
0.30785,0.48799,2.7706,-0.018015,-1.7508,367.05,0.1331,-0.044368,-1.9972,0.17747,-2.2621e-13,-0.99862,0,0,0.11111,1.0527e-15,0,0.66667
0.20771,0.44408,1.8694,-0.083885,-8.6204,459.12,0.41817,-0.13939,-1.9739,0.55756,1.2241e-11,-0.98696,0,0,0.11111,-5.2633e-16,0,0.66667
0.77076,0.66046,6.9368,0.24068,10.426,50.277,-4.4523,1.4841,-1.7929,-5.9363,-3.0221e-11,-0.89647,0,0,0.11111,-0,-0,0.66667
0.93478,0.97998,8.413,0.71997,9.7795,6.815,-16.152,5.3841,-0.1571,-21.536,-1.0895e-06,-0.078552,0,0,0.11111,-0,-1.2118e-16,0.66667
0.62152,0.31795,5.5936,-0.27308,-17.962,126.68,4.0734,-1.3578,-1.7348,5.4312,1.9966e-12,-0.86742,0,0,0.11111,-0,-0,0.66667
0.53425,0.80619,4.8082,0.45928,35.278,184.51,-5.8889,1.963,-1.2503,-7.8519,-1.6076e-13,-0.62516,0,0,0.11111,-7.8949e-16,0,0.66667
0.88327,0.24692,7.9494,-0.37962,-8.8482,14.726,8.0473,-2.6824,-1.486,10.73,-1.3531e-08,-0.74298,0,0,0.11111,5.2466e-16,0,0.66667
0.044803,0.12335,0.40323,-0.56497,-60.752,616.72,0.60749,-0.2025,-0.86726,0.80999,1.6639e-06,-0.43363,0,0,0.11111,-2.4672e-17,-1.4435e-16,0.66667
0.30268,0.98015,2.7241,0.72022,70.625,372.3,-5.2319,1.744,-0.15345,-6.9758,-7.7138e-13,-0.076726,0,0,0.11111,-0,-0,0.66667
0.38247,0.83569,3.4422,0.50353,46.265,302.63,-4.6221,1.5407,-1.0962,-6.1627,1.2026e-12,-0.54808,0,0,0.11111,5.2633e-16,0,0.66667
0.031099,0.038127,0.2799,-0.69281,-74.692,630.19,0.51711,-0.17238,-0.29753,0.68947,-1.9743e-05,-0.14877,0,0,0.11111,-0,9.0339e-17,0.66667
0.51993,0.45172,4.6794,-0.072419,-5.6651,194.3,0.90367,-0.30122,-1.9799,1.2049,3.3269e-12,-0.98996,0,0,0.11111,-0,-0,0.66667
0.94058,0.87963,8.4652,0.56945,6.9512,5.3419,-12.855,4.2849,-0.84754,-17.139,-1.6168e-07,-0.42377,0,0,0.11111,2.1053e-15,0,0.66667
0.79725,0.31631,7.1752,-0.27554,-10.705,40.085,5.2721,-1.7574,-1.7342,7.0295,-6.1806e-11,-0.86712,0,0,0.11111,-0,-0,0.66667
0.53509,0.91167,4.8158,0.6175,47.479,184.27,-7.9301,2.6434,-0.64391,-10.573,-2.6423e-13,-0.32195,0,0,0.11111,-0,-0,0.66667
0.67654,0.87204,6.0889,0.55806,32.539,95.698,-9.0612,3.0204,-0.89212,-12.082,-2.3981e-13,-0.44606,0,0,0.11111,-1.0527e-15,0,0.66667
0.78523,0.42885,7.0671,-0.10673,-4.3585,44.397,2.0114,-0.67047,-1.9587,2.6819,2.8698e-11,-0.97933,0,0,0.11111,1.0527e-15,0,0.66667
0.26109,0.27632,2.3498,-0.33552,-33.609,409.52,2.1024,-0.70081,-1.5989,2.8033,-1.8792e-11,-0.79947,0,0,0.11111,1.3158e-16,0,0.66667
0.27566,0.85734,2.481,0.53601,53.337,396.39,-3.5462,1.1821,-0.97628,-4.7282,1.9384e-12,-0.48814,0,0,0.11111,-0,-0,0.66667
0.60522,0.35685,5.447,-0.21473,-14.581,136.7,3.119,-1.0397,-1.8348,4.1586,2.0095e-13,-0.91739,0,0,0.11111,-0,-0,0.66667
0.67418,0.58495,6.0676,0.12743,7.4351,96.177,-2.0619,0.6873,-1.9431,-2.7492,-1.6001e-12,-0.97155,0,0,0.11111,5.2633e-16,0,0.66667
0.0036135,0.87296,0.032521,0.55944,60.274,657.2,-0.048514,0.016171,-0.88765,-0.064685,-4.1681e-07,-0.44383,0,0,0.11111,-1.028e-18,-6.4284e-17,0.66667
0.8557,0.026302,7.7013,-0.71055,-20.506,22.834,14.592,-4.8641,-0.20476,19.457,-5.273e-09,-0.10238,0,0,0.11111,-1.0527e-15,0,0.66667
0.14491,0.82087,1.3042,0.48131,50.725,519.17,-1.6739,0.55798,-1.1753,-2.2319,-2.1805e-09,-0.58763,0,0,0.11111,-0,-0,0.66667
0.51235,0.27029,4.6112,-0.34457,-27.286,200.03,4.237,-1.4123,-1.5775,5.6493,1.1431e-12,-0.78873,0,0,0.11111,5.2633e-16,0,0.66667
0.56218,0.13851,5.0596,-0.54223,-39.902,165.37,7.316,-2.4387,-0.95793,9.7547,3.4235e-12,-0.47897,0,0,0.11111,-1.0527e-15,1.5377e-16,0.66667
0.0071911,0.63552,0.06472,0.20328,21.844,653.67,-0.035084,0.011695,-1.8505,-0.046779,-2.4291e-07,-0.92526,0,0,0.11111,-1.6448e-17,0,0.66667
0.42885,0.29313,3.8597,-0.31031,-27.2,264.16,3.1938,-1.0646,-1.655,4.2585,7.1276e-14,-0.82752,0,0,0.11111,-0,-0,0.66667
0.53374,0.97323,4.8037,0.70985,54.78,185.49,-9.093,3.031,-0.20957,-12.124,-1.4149e-12,-0.10478,0,0,0.11111,-0,-0,0.66667
0.69071,0.66443,6.2164,0.24665,13.801,87.509,-4.0887,1.3629,-1.7836,-5.4516,-2.7942e-12,-0.8918,0,0,0.11111,-0,-0,0.66667
0.90317,0.71305,8.1286,0.31957,6.2075,10.422,-6.9271,2.309,-1.6372,-9.2361,3.352e-08,-0.81862,0,0,0.11111,-0,-0,0.66667
0.068561,0.3189,0.61705,-0.27165,-29.062,593.36,0.44699,-0.149,-1.7358,0.59598,5.1039e-08,-0.86789,0,0,0.11111,-0,-0,0.66667
0.2831,0.42108,2.5479,-0.11838,-11.693,389.34,0.80433,-0.26811,-1.9513,1.0724,-2.4185e-12,-0.97563,0,0,0.11111,-0,-0,0.66667
0.52793,0.72903,4.7514,0.34355,26.604,188.79,-4.3529,1.451,-1.58,-5.8039,-1.8532e-12,-0.78998,0,0,0.11111,-0,-0,0.66667
0.29023,0.95158,2.6121,0.67737,66.92,383.39,-4.7183,1.5728,-0.36601,-6.2911,-6.4748e-13,-0.18301,0,0,0.11111,-5.2633e-16,0,0.66667
0.42013,0.45016,3.7812,-0.074766,-6.6063,271.06,0.75387,-0.25129,-1.9814,1.0052,-1.2007e-12,-0.9907,0,0,0.11111,-0,-0,0.66667
0.98205,0.077172,8.8385,-0.63424,-2.3312,2.1203,14.949,-4.9829,-0.5702,19.932,1.6024e-06,-0.2851,0,0,0.11111,-2.1053e-15,0,0.66667
0.056933,0.4301,0.5124,-0.10486,-11.228,604.75,0.14328,-0.047759,-1.9592,0.19103,-1.0784e-07,-0.97958,0,0,0.11111,-0,-0,0.66667
0.92891,0.067207,8.3602,-0.64919,-9.5189,7.2677,14.473,-4.8243,-0.49965,19.297,1.1149e-07,-0.24983,0,0,0.11111,-2.1053e-15,0,0.66667
0.66798,0.90439,6.0118,0.60659,36.158,100.51,-9.7245,3.2415,-0.69195,-12.966,-3.7836e-13,-0.34598,0,0,0.11111,1.3158e-16,0,0.66667
0.49858,0.99958,4.4872,0.74937,60.813,211.05,-8.9669,2.989,-0.0066444,-11.956,-2.9754e-13,-0.0033222,0,0,0.11111,3.2895e-16,-7.0217e-18,0.66667
0.4647,0.30432,4.1823,-0.29352,-24.71,235.81,3.2735,-1.0912,-1.6928,4.3647,1.6538e-12,-0.84641,0,0,0.11111,-0,-0,0.66667
0.55893,0.45056,5.0304,-0.074165,-5.4647,166.93,0.99488,-0.33163,-1.9797,1.3265,2.5194e-12,-0.98983,0,0,0.11111,-1.0527e-15,0,0.66667
0.29159,0.22546,2.6243,-0.41181,-40.526,381.84,2.8819,-0.96063,-1.3955,3.8425,-1.5952e-12,-0.69775,0,0,0.11111,-0,-0,0.66667
0.1718,0.26951,1.5462,-0.34574,-36.079,493.29,1.4256,-0.47519,-1.5788,1.9007,7.5596e-10,-0.78939,0,0,0.11111,-0,-0,0.66667
0.61974,0.038283,5.5777,-0.69258,-46.01,128.77,10.301,-3.4337,-0.29299,13.735,2.081e-12,-0.1465,0,0,0.11111,-0,-0,0.66667
0.98848,0.44304,8.8963,-0.085442,-0.16224,0.30428,2.027,-0.67566,-1.9735,2.7026,-2.1182e-07,-0.98674,0,0,0.11111,2.1053e-15,0,0.66667
0.51622,0.018567,4.646,-0.72215,-57.178,198.05,8.9469,-2.9823,-0.1487,11.929,1.5721e-12,-0.07435,0,0,0.11111,-0,-0,0.66667
0.67101,0.84887,6.0391,0.5233,30.913,98.597,-8.4274,2.8091,-1.0295,-11.236,1.3447e-12,-0.51477,0,0,0.11111,-2.1053e-15,-1.641e-16,0.66667
0.51953,0.52528,4.6758,0.03792,2.9679,194.58,-0.47281,0.1576,-1.9944,-0.63041,-2.5422e-12,-0.99721,0,0,0.11111,-0,-0,0.66667
0.20003,0.51937,1.8003,0.029061,2.996,466.36,-0.13951,0.046504,-1.9967,-0.18602,4.8418e-12,-0.99837,0,0,0.11111,-0,-0,0.66667
0.5787,0.99398,5.2083,0.74097,53.215,154.94,-10.291,3.4304,-0.051391,-13.722,-2.9816e-12,-0.025696,0,0,0.11111,-0,-0,0.66667
0.95788,0.89281,8.6209,0.58922,5.1162,3.5674,-13.546,4.5152,-0.76388,-18.061,3.8998e-06,-0.38194,0,0,0.11111,1.0527e-15,0,0.66667
0.69242,0.21137,6.2318,-0.43295,-24.171,86.967,7.1948,-2.3983,-1.3321,9.593,2.8475e-12,-0.66607,0,0,0.11111,5.2633e-16,0,0.66667
0.027337,0.20901,0.24603,-0.43649,-46.937,633.86,0.28637,-0.095458,-1.3217,0.38183,-1.3656e-06,-0.66086,0,0,0.11111,3.2895e-17,0,0.66667
0.36312,0.53918,3.2681,0.058775,5.4767,318.69,-0.51222,0.17074,-1.9872,-0.68296,1.1025e-12,-0.99358,0,0,0.11111,-0,-0,0.66667
0.63389,0.62693,5.705,0.19039,12.196,119.15,-2.8965,0.9655,-1.8698,-3.862,-3.3142e-12,-0.93489,0,0,0.11111,2.1053e-15,0,0.66667
0.56707,0.87729,5.1037,0.56594,41.324,162.13,-7.7023,2.5674,-0.8608,-10.27,2.3093e-13,-0.4304,0,0,0.11111,-0,-0,0.66667
0.12133,0.2166,1.092,-0.4251,-45.067,541.93,1.2379,-0.41263,-1.3578,1.6505,7.3011e-09,-0.67891,0,0,0.11111,-3.2895e-17,0,0.66667
0.93647,0.038718,8.4283,-0.69192,-9.1327,6.4429,15.551,-5.1837,-0.30043,20.735,3.2611e-06,-0.15021,0,0,0.11111,-2.1053e-15,-9.5722e-17,0.66667
0.39384,0.036604,3.5446,-0.69509,-63.369,293.47,6.5701,-2.19,-0.28237,8.7602,-6.6969e-13,-0.14118,0,0,0.11111,1.0527e-15,0,0.66667
0.72926,0.50845,6.5634,0.01267,0.63322,68.269,-0.22175,0.073915,-1.9978,-0.29566,-1.6762e-12,-0.99891,0,0,0.11111,-0,-0,0.66667
0.78569,0.071463,7.0712,-0.64281,-26.468,45.486,12.121,-4.0404,-0.52962,16.161,-1.713e-10,-0.26481,0,0,0.11111,-0,-0,0.66667
0.21299,0.19504,1.9169,-0.45744,-46.995,454.31,2.3384,-0.77945,-1.2541,3.1178,7.2109e-11,-0.62707,0,0,0.11111,-0,-0,0.66667
0.66262,0.018374,5.9636,-0.72244,-43.735,103.88,11.489,-3.8296,-0.1418,15.319,3.5758e-12,-0.070899,0,0,0.11111,-2.1053e-15,0,0.66667
0.52337,0.35384,4.7103,-0.21923,-17.075,191.91,2.7537,-0.91792,-1.8266,3.6717,1.1191e-12,-0.91328,0,0,0.11111,-0,-0,0.66667
0.1783,0.75623,1.6047,0.38435,40.025,487.11,-1.6447,0.54823,-1.4728,-2.1929,-4.1668e-10,-0.73641,0,0,0.11111,-5.2633e-16,0,0.66667
0.71844,0.8444,6.466,0.5166,26.837,74.181,-8.9076,2.9692,-1.056,-11.877,-1.3416e-11,-0.52799,0,0,0.11111,-0,1.3691e-16,0.66667
0.54058,0.53153,4.8652,0.047298,3.588,179.6,-0.61364,0.20455,-1.9912,-0.81818,4.737e-12,-0.99559,0,0,0.11111,-2.1053e-15,0,0.66667
0.21409,0.65289,1.9268,0.22933,23.511,453.15,-1.1784,0.39279,-1.8124,-1.5712,-1.2482e-11,-0.90618,0,0,0.11111,3.2895e-16,0,0.66667
0.41806,0.52392,3.7626,0.035881,3.177,272.74,-0.36001,0.12,-1.9949,-0.48002,8.9334e-13,-0.99743,0,0,0.11111,-0,-0,0.66667
0.68076,0.60811,6.1269,0.16216,9.307,92.66,-2.6495,0.88315,-1.9039,-3.5326,-1.3858e-12,-0.95193,0,0,0.11111,-1.0527e-15,0,0.66667
0.99376,0.70561,8.9439,0.30842,0.2648,0.49543,-7.3558,2.4519,-1.6593,-9.8077,5.3962e-07,-0.82967,0,0,0.11111,1.0527e-15,0,0.66667
0.54844,0.24087,4.9359,-0.38869,-29.186,174.45,5.1161,-1.7054,-1.4646,6.8215,1.7217e-12,-0.73229,0,0,0.11111,-5.2633e-16,0,0.66667
0.79392,0.92846,7.1453,0.64269,25.561,42.383,-12.246,4.0819,-0.53147,-16.328,-3.9694e-11,-0.26574,0,0,0.11111,-0,-1.1924e-16,0.66667
0.33058,0.39259,2.9752,-0.16111,-15.409,346.95,1.2783,-0.42608,-1.9081,1.7043,-5.8964e-13,-0.95403,0,0,0.11111,-0,-0,0.66667
0.51156,0.74819,4.604,0.37228,29.521,200.65,-4.5707,1.5236,-1.5073,-6.0943,-2.2102e-12,-0.75365,0,0,0.11111,1.3158e-16,0,0.66667
0.83503,0.060414,7.5152,-0.65938,-21.471,28.555,13.214,-4.4048,-0.45272,17.619,1.4575e-08,-0.22636,0,0,0.11111,-1.0686e-15,0,0.66667
0.97046,0.96762,8.7341,0.70143,4.3585,3.1264,-16.337,5.4456,-0.25341,-21.783,-3.6632e-05,-0.12671,0,0,0.11111,-2.6316e-15,0,0.66667
0.17847,0.99939,1.6062,0.74909,78.323,487.24,-3.2086,1.0695,-0.0038335,-4.2781,2.7755e-10,-0.0019167,0,0,0.11111,4.9343e-17,0,0.66667
0.85131,0.80829,7.6618,0.46244,13.581,23.049,-9.4483,3.1494,-1.2378,-12.598,3.0398e-09,-0.61889,0,0,0.11111,-1.0749e-15,0,0.66667
0.9884,0.29136,8.8956,-0.31297,-0.62904,0.66547,7.424,-2.4747,-1.6507,9.8987,-1.886e-07,-0.82537,0,0,0.11111,-0,-0,0.66667
0.45046,0.0052165,4.0542,-0.74218,-63.881,247.77,8.0237,-2.6746,-0.04237,10.698,4.0856e-14,-0.021185,0,0,0.11111,-2.1053e-15,0,0.66667
0.30796,0.75736,2.7716,0.38604,37.573,367.13,-2.8532,0.95108,-1.469,-3.8043,-1.6374e-12,-0.7345,0,0,0.11111,-0,-0,0.66667
0.91246,0.27683,8.2121,-0.33475,-5.8963,8.7565,7.3307,-2.4436,-1.6,9.7743,-3.9773e-08,-0.79998,0,0,0.11111,1.0527e-15,0,0.66667
0.21986,0.012547,1.9787,-0.73118,-75.129,448.16,3.8581,-1.286,-0.10127,5.1442,7.5307e-11,-0.050635,0,0,0.11111,-0,-0,0.66667
0.98826,0.78533,8.8944,0.42799,0.91022,1.007,-10.151,3.3837,-1.3485,-13.535,3.1251e-07,-0.67427,0,0,0.11111,-0,-0,0.66667
0.40154,0.51792,3.6139,0.026887,2.42,286.31,-0.25911,0.086371,-1.9957,-0.34549,-4.2268e-12,-0.99787,0,0,0.11111,-0,-0,0.66667
0.092234,0.92904,0.8301,0.64356,68.814,570.33,-1.4246,0.47486,-0.52927,-1.8995,-3.1173e-07,-0.26464,0,0,0.11111,6.5791e-17,-1.0392e-16,0.66667
0.13677,0.28011,1.231,-0.32983,-34.8,526.95,1.0827,-0.3609,-1.6136,1.4436,5.8291e-09,-0.8068,0,0,0.11111,-1.1513e-16,0,0.66667
0.47707,0.18478,4.2937,-0.47283,-39.277,226.56,5.4138,-1.8046,-1.2035,7.2184,-2.8253e-12,-0.60175,0,0,0.11111,2.6316e-16,0,0.66667
0.060948,0.26878,0.54853,-0.34683,-37.159,600.83,0.50732,-0.16911,-1.5738,0.67642,5.9958e-08,-0.78692,0,0,0.11111,-0,-0,0.66667
0.25189,0.04275,2.267,-0.68588,-69.309,418.36,4.1463,-1.3821,-0.32852,5.5284,7.8271e-12,-0.16426,0,0,0.11111,-5.2633e-16,0,0.66667
0.795,0.45099,7.155,-0.073516,-2.8791,40.687,1.4027,-0.46756,-1.9819,1.8702,-3.6313e-11,-0.99093,0,0,0.11111,-0,-0,0.66667
0.78533,0.226,7.068,-0.411,-16.844,44.854,7.7465,-2.5822,-1.3986,10.329,5.9631e-11,-0.69931,0,0,0.11111,-2.1053e-15,0,0.66667
0.81082,0.44991,7.2974,-0.075141,-2.7366,35.024,1.4622,-0.48741,-1.9813,1.9496,-6.0098e-11,-0.99065,0,0,0.11111,2.1053e-15,0,0.66667
0.046263,0.14681,0.41637,-0.52978,-56.939,615.28,0.58821,-0.19607,-1.0052,0.78429,8.729e-07,-0.50259,0,0,0.11111,6.5791e-17,1.7505e-16,0.66667
0.76645,0.18365,6.898,-0.47452,-20.977,52.559,8.7287,-2.9096,-1.2029,11.638,6.0162e-11,-0.60144,0,0,0.11111,-0,-0,0.66667
0.80685,0.25212,7.2616,-0.37181,-13.851,36.838,7.1999,-2.4,-1.5075,9.5999,-1.0983e-10,-0.75374,0,0,0.11111,2.1053e-15,0,0.66667
0.01605,0.0094212,0.14445,-0.73587,-79.437,644.98,0.28336,-0.094468,-0.078138,0.3778,-2.3354e-05,-0.039069,0,0,0.11111,-6.5791e-17,0,0.66667
0.39133,0.044415,3.522,-0.68338,-62.435,295.54,6.4182,-2.1394,-0.34227,8.5576,5.7465e-13,-0.17113,0,0,0.11111,-0,-0,0.66667
0.86558,0.98975,7.7902,0.73463,19.879,20.359,-15.261,5.087,-0.078843,-20.348,1.8561e-08,-0.039422,0,0,0.11111,-0,-0,0.66667
0.95847,0.019304,8.6263,-0.72104,-6.3012,4.1755,16.586,-5.5288,-0.14945,22.115,-1.3839e-05,-0.074723,0,0,0.11111,-0,-0,0.66667
0.91959,0.75894,8.2763,0.38841,6.3089,7.6961,-8.5722,2.8574,-1.4645,-11.43,6.2826e-08,-0.73223,0,0,0.11111,-0,-0,0.66667
0.54699,0.71422,4.9229,0.32134,24.168,175.35,-4.2184,1.4061,-1.6374,-5.6245,1.5188e-13,-0.81868,0,0,0.11111,-2.6316e-16,0,0.66667
0.30992,0.40668,2.7893,-0.13998,-13.587,365.22,1.0412,-0.34706,-1.9321,1.3883,-1.5312e-12,-0.96607,0,0,0.11111,-0,-0,0.66667
0.58926,0.18277,5.3034,-0.47585,-33.381,147.3,6.7297,-2.2432,-1.1942,8.9729,8.0957e-13,-0.59708,0,0,0.11111,2.6316e-16,0,0.66667
0.59599,0.35697,5.3639,-0.21455,-14.826,142.55,3.0689,-1.023,-1.837,4.0918,-4.0834e-13,-0.91848,0,0,0.11111,-0,-0,0.66667
0.66455,0.17444,5.981,-0.48834,-29.285,102.06,7.7886,-2.5962,-1.1494,10.385,2.4007e-12,-0.5747,0,0,0.11111,-7.8699e-16,0,0.66667
0.59082,0.61068,5.3173,0.16602,11.579,145.83,-2.3541,0.7847,-1.9018,-3.1388,1.624e-12,-0.95091,0,0,0.11111,-0,-0,0.66667
0.86806,0.053434,7.8125,-0.66985,-17.752,19.418,13.955,-4.6517,-0.40225,18.607,3.3091e-08,-0.20112,0,0,0.11111,-1.0527e-15,0,0.66667
0.37398,0.44872,3.3658,-0.076926,-7.1016,309.43,0.69044,-0.23015,-1.9813,0.92059,-1.1969e-12,-0.99065,0,0,0.11111,-0,-0,0.66667
0.24402,0.73298,2.1961,0.34947,35.336,425.28,-2.0466,0.68221,-1.5634,-2.7289,2.3716e-11,-0.78168,0,0,0.11111,-0,-0,0.66667
0.020487,0.25432,0.18438,-0.36852,-39.621,640.59,0.18119,-0.060399,-1.5162,0.24159,-7.1331e-07,-0.7581,0,0,0.11111,-6.5791e-17,0,0.66667
0.23269,0.16672,2.0942,-0.49991,-50.905,435.92,2.7918,-0.93059,-1.1129,3.7224,1.2077e-11,-0.55644,0,0,0.11111,-5.2633e-16,0,0.66667
0.1616,0.25634,1.4544,-0.36549,-38.28,503.07,1.4175,-0.47252,-1.5235,1.8901,1.3468e-09,-0.76176,0,0,0.11111,-5.2633e-16,0,0.66667
0.23816,0.78434,2.1434,0.42651,43.282,430.77,-2.4379,0.81262,-1.3533,-3.2505,2.7603e-11,-0.67665,0,0,0.11111,-0,-0,0.66667
0.88096,0.085815,7.9287,-0.62128,-14.91,16.104,13.136,-4.3786,-0.62562,17.514,-3.0066e-08,-0.31281,0,0,0.11111,-0,-0,0.66667
0.7316,0.53757,6.5844,0.05635,2.7957,67.188,-0.98941,0.3298,-1.9893,-1.3192,-2.8003e-12,-0.99464,0,0,0.11111,-0,-0,0.66667
0.24339,0.12656,2.1905,-0.56017,-56.77,426.05,3.2721,-1.0907,-0.88309,4.3628,1.0263e-10,-0.44154,0,0,0.11111,-0,-0,0.66667
0.79305,0.58087,7.1375,0.12131,4.7925,41.441,-2.3089,0.76963,-1.9467,-3.0785,1.7051e-11,-0.97334,0,0,0.11111,1.0527e-15,0,0.66667
0.54412,0.8354,4.8971,0.5031,38.086,177.67,-6.5699,2.19,-1.1004,-8.7599,-1.3656e-12,-0.55021,0,0,0.11111,-0,-0,0.66667
0.40649,0.91017,3.6584,0.61526,55.351,282.84,-6.0022,2.0007,-0.65847,-8.003,-9.015e-14,-0.32924,0,0,0.11111,-0,-0,0.66667
0.2058,0.52327,1.8522,0.034898,3.589,460.91,-0.17237,0.057457,-1.9962,-0.22983,9.7756e-12,-0.99808,0,0,0.11111,-0,-0,0.66667
0.31073,0.31513,2.7966,-0.27731,-26.918,364.57,2.0681,-0.68935,-1.7289,2.7574,-4.2e-12,-0.86447,0,0,0.11111,-0,-0,0.66667
0.079247,0.64631,0.71322,0.21946,23.436,582.89,-0.4174,0.13913,-1.831,-0.55653,-3.4972e-08,-0.91552,0,0,0.11111,-6.5791e-17,0,0.66667
0.23362,0.88911,2.1026,0.58366,59.461,435.14,-3.2726,1.0909,-0.7914,-4.3634,1.9546e-11,-0.3957,0,0,0.11111,-0,-0,0.66667
0.66575,0.39219,5.9918,-0.16172,-9.6343,100.83,2.5839,-0.8613,-1.9046,3.4452,2.5779e-13,-0.95229,0,0,0.11111,2.6425e-16,0,0.66667
0.35102,0.56818,3.1592,0.10227,9.6253,329.11,-0.86154,0.28718,-1.9608,-1.1487,6.0318e-13,-0.98039,0,0,0.11111,-1.0527e-15,0,0.66667
0.81972,0.0065887,7.3775,-0.74012,-26.211,33.787,14.561,-4.8535,-0.050205,19.414,5.7769e-10,-0.025102,0,0,0.11111,-0,-0,0.66667
0.66115,0.79381,5.9504,0.44072,26.623,103.83,-6.9932,2.3311,-1.3076,-9.3242,-5.0848e-13,-0.65381,0,0,0.11111,1.0527e-15,0,0.66667
0.62435,0.5208,5.6192,0.031199,2.0378,124.78,-0.46749,0.15583,-1.9995,-0.62333,9.3334e-13,-0.99975,0,0,0.11111,-0,-0,0.66667
0.42028,0.53119,3.7825,0.046788,4.1334,270.94,-0.47194,0.15731,-1.9953,-0.62925,-1.5864e-12,-0.99766,0,0,0.11111,-3.7007e-17,0,0.66667
0.645,0.33561,5.805,-0.24658,-15.424,112.68,3.8171,-1.2724,-1.7827,5.0895,7.2164e-14,-0.89135,0,0,0.11111,5.2633e-16,0,0.66667
0.87483,0.76858,7.8735,0.40287,10.043,16.757,-8.4587,2.8196,-1.4265,-11.278,8.7707e-09,-0.71326,0,0,0.11111,-1.0527e-15,0,0.66667
0.31127,0.97505,2.8015,0.71258,69.461,364.63,-5.3233,1.7744,-0.19713,-7.0978,-6.3949e-13,-0.098567,0,0,0.11111,-0,-0,0.66667
0.34275,0.71128,3.0848,0.31692,30.055,336.41,-2.607,0.86901,-1.6456,-3.476,1.6018e-12,-0.8228,0,0,0.11111,-0,-0,0.66667
0.84868,0.79629,7.6381,0.44443,13.259,23.734,-9.0523,3.0174,-1.2958,-12.07,2.2812e-09,-0.64792,0,0,0.11111,-0,-0,0.66667
0.52989,0.1128,4.769,-0.5808,-44.978,187.86,7.3863,-2.4621,-0.80241,9.8485,2.8337e-12,-0.40121,0,0,0.11111,-0,-0,0.66667
0.92369,0.83095,8.3132,0.49643,7.7079,7.3999,-11.005,3.6684,-1.1249,-14.674,1.0958e-07,-0.56247,0,0,0.11111,-1.0527e-15,0,0.66667
0.18755,0.012216,1.688,-0.73168,-76.221,478.6,3.2935,-1.0978,-0.10035,4.3913,2.2929e-11,-0.050177,0,0,0.11111,-0,-0,0.66667
0.21487,0.29796,1.9339,-0.30305,-31.071,452.45,1.5628,-0.52095,-1.6724,2.0838,-1.2966e-11,-0.83618,0,0,0.11111,-0,-0,0.66667
0.86246,0.77279,7.7621,0.40918,11.153,19.876,-8.4696,2.8232,-1.4047,-11.293,5.463e-09,-0.70235,0,0,0.11111,-0,-0,0.66667
0.09949,0.38882,0.89541,-0.16676,-17.74,563.11,0.39819,-0.13273,-1.8988,0.53092,1.7285e-08,-0.94942,0,0,0.11111,-0,-0,0.66667
0.47166,0.6585,4.245,0.23775,19.84,230.38,-2.6913,0.89709,-1.8001,-3.5883,1.1302e-13,-0.90005,0,0,0.11111,-0,-0,0.66667
0.8394,0.98559,7.5546,0.72838,23.214,27.556,-14.674,4.8912,-0.11219,-19.565,-1.313e-10,-0.056094,0,0,0.11111,1.0527e-15,0,0.66667
0.69374,0.010883,6.2436,-0.73368,-41.084,87.262,12.215,-4.0718,-0.083772,16.287,1.3678e-13,-0.041886,0,0,0.11111,-0,-0,0.66667
0.46224,0.52394,4.1602,0.035911,3.0288,237.56,-0.39839,0.1328,-1.9933,-0.53119,-2.3067e-12,-0.99666,0,0,0.11111,-0,-0,0.66667
0.1652,0.88897,1.4868,0.58345,61.158,499.76,-2.3132,0.77108,-0.78704,-3.0843,-3.1286e-09,-0.39352,0,0,0.11111,-0,-0,0.66667
0.55082,0.30946,4.9573,-0.28581,-21.36,172.66,3.7783,-1.2594,-1.7095,5.0378,2.4438e-12,-0.85475,0,0,0.11111,-3.9475e-16,0,0.66667
0.98798,0.64704,8.8918,0.22056,0.45172,0.48535,-5.2297,1.7432,-1.8265,-6.973,1.3864e-07,-0.91324,0,0,0.11111,-0,-0,0.66667
0.80516,0.56896,7.2464,0.10344,3.87,37.023,-1.9988,0.66627,-1.9598,-2.6651,1.595e-10,-0.9799,0,0,0.11111,-0,-0,0.66667
0.054929,0.72349,0.49436,0.33524,35.94,606.74,-0.44194,0.14731,-1.5985,-0.58926,-1.2982e-08,-0.79924,0,0,0.11111,-0,-0,0.66667
0.71093,0.90805,6.3984,0.61207,32.574,78.147,-10.443,3.4811,-0.66654,-13.924,4.535e-12,-0.33327,0,0,0.11111,-2.1053e-15,0,0.66667
0.97662,0.88206,8.7895,0.57309,2.7216,2.1085,-13.432,4.4775,-0.83,-17.91,-6.7813e-06,-0.415,0,0,0.11111,-0,-0,0.66667
0.19337,0.9309,1.7404,0.64634,67.098,472.99,-2.9997,0.99989,-0.51284,-3.9996,6.5001e-10,-0.25642,0,0,0.11111,3.9475e-16,0,0.66667
0.95641,0.80361,8.6077,0.45541,4.0269,3.1694,-10.453,3.4845,-1.2624,-13.938,3.8305e-07,-0.63118,0,0,0.11111,1.0527e-15,0,0.66667
0.23335,0.53065,2.1001,0.045981,4.6688,435.08,-0.25751,0.085836,-1.9963,-0.34334,2.9607e-11,-0.99813,0,0,0.11111,3.306e-16,0,0.66667
0.8194,0.5339,7.3746,0.050845,1.7748,32.106,-0.9999,0.3333,-1.9893,-1.3332,4.3305e-10,-0.99466,0,0,0.11111,-0,-0,0.66667
0.14942,0.38342,1.3448,-0.17487,-18.368,514.71,0.62709,-0.20903,-1.889,0.83612,2.2554e-09,-0.94449,0,0,0.11111,-0,-0,0.66667
0.5141,0.23897,4.6269,-0.39154,-30.944,198.83,4.831,-1.6103,-1.4566,6.4414,2.49e-12,-0.72829,0,0,0.11111,-5.2633e-16,0,0.66667
0.36401,0.67803,3.2761,0.26705,24.884,318.02,-2.333,0.77768,-1.745,-3.1107,1.0589e-12,-0.87251,0,0,0.11111,-0,-0,0.66667
0.67069,0.36763,6.0362,-0.19855,-11.69,98.144,3.196,-1.0653,-1.8623,4.2614,1.2546e-12,-0.93114,0,0,0.11111,-5.2633e-16,0,0.66667
0.17912,0.55688,1.6121,0.085316,8.8694,486.23,-0.36676,0.12225,-1.9721,-0.48901,-8.1802e-11,-0.98604,0,0,0.11111,3.9475e-16,0,0.66667
0.57975,0.60444,5.2177,0.15665,11.145,153.03,-2.1797,0.72656,-1.9143,-2.9062,2.7884e-12,-0.95714,0,0,0.11111,-0,-0,0.66667
0.0024237,0.43417,0.021813,-0.098743,-10.608,658.36,0.0057437,-0.0019161,-1.9668,0.0076574,-2.3883e-06,-0.98338,0,0,0.11111,-4.1119e-18,0,0.66667
0.42565,0.52367,3.8309,0.03551,3.1195,266.58,-0.36276,0.12092,-1.995,-0.48367,3.6771e-13,-0.99748,0,0,0.11111,-0,-0,0.66667
0.51579,0.38209,4.6421,-0.17687,-13.923,197.35,2.1895,-0.72983,-1.8928,2.9193,1.8778e-12,-0.94641,0,0,0.11111,-0,-0,0.66667
0.8378,0.85272,7.5402,0.52908,16.878,27.197,-10.638,3.5461,-1.0026,-14.184,6.3583e-10,-0.50131,0,0,0.11111,-0,-0,0.66667
0.75764,0.89539,6.8187,0.59309,27.156,56.638,-10.784,3.5948,-0.74673,-14.379,-6.3747e-11,-0.37336,0,0,0.11111,-0,-0,0.66667
0.091892,0.55444,0.82702,0.081655,8.6972,570.51,-0.18008,0.060028,-1.9778,-0.24011,-7.6518e-10,-0.98888,0,0,0.11111,-6.5791e-17,0,0.66667
0.62503,0.90707,5.6253,0.61061,40.063,125.29,-9.1596,3.0532,-0.67964,-12.213,-4.7962e-13,-0.33982,0,0,0.11111,-0,-0,0.66667
0.66,0.063188,5.94,-0.65522,-39.848,105.1,10.379,-3.4596,-0.47414,13.838,6.235e-13,-0.23707,0,0,0.11111,-0,-0,0.66667
0.73403,0.095351,6.6063,-0.60697,-30.111,67.137,10.693,-3.5643,-0.6947,14.257,-2.0776e-11,-0.34735,0,0,0.11111,2.1053e-15,2.5581e-17,0.66667
0.55486,0.55218,4.9937,0.078266,5.8053,169.71,-1.0422,0.34741,-1.9757,-1.3897,7.8448e-13,-0.98783,0,0,0.11111,-0,-0,0.66667
0.10736,0.98554,0.9662,0.72831,77.727,555.66,-1.8765,0.62551,-0.11486,-2.502,-2.2703e-07,-0.057432,0,0,0.11111,2.6316e-16,0,0.66667
0.64035,0.87877,5.7631,0.56816,36.059,116.07,-8.7317,2.9106,-0.85659,-11.642,-5.7288e-13,-0.4283,0,0,0.11111,-0,-0,0.66667
0.67053,0.61891,6.0348,0.17837,10.504,98.209,-2.8704,0.9568,-1.8893,-3.8272,-1.712e-12,-0.94464,0,0,0.11111,-0,-0,0.66667
0.25011,0.43582,2.251,-0.096267,-9.6912,419.54,0.57785,-0.19262,-1.9721,0.77046,-1.2274e-11,-0.98603,0,0,0.11111,6.9081e-16,0,0.66667
0.94828,0.49218,8.5345,-0.011734,-0.12086,3.2157,0.26705,-0.089015,-1.9981,0.35606,1.8204e-07,-0.99906,0,0,0.11111,-0,-0,0.66667
0.45265,0.40322,4.0738,-0.14518,-12.385,245.09,1.5771,-0.52571,-1.9292,2.1028,-3.4575e-12,-0.96461,0,0,0.11111,6.5791e-16,0,0.66667
0.86672,0.87647,7.8004,0.5647,15.031,19.305,-11.746,3.9155,-0.86485,-15.662,-3.0897e-09,-0.43243,0,0,0.11111,-2.1053e-15,0,0.66667
0.65308,0.72567,5.8777,0.3385,20.808,108.18,-5.3056,1.7685,-1.5927,-7.0742,-1.5454e-13,-0.79634,0,0,0.11111,-0,-0,0.66667
0.61654,0.038218,5.5488,-0.69267,-46.313,130.73,10.249,-3.4165,-0.29186,13.666,3.781e-12,-0.14593,0,0,0.11111,-2.1053e-15,0,0.66667
0.5494,0.91583,4.9446,0.62375,46.919,174.31,-8.2245,2.7415,-0.61717,-10.966,-1.3705e-12,-0.30859,0,0,0.11111,-0,-0,0.66667
0.64757,0.21319,5.8281,-0.43022,-26.811,111.52,6.6863,-2.2288,-1.3399,8.915,-8.3844e-13,-0.66997,0,0,0.11111,1.0527e-15,0,0.66667
0.84434,0.22515,7.599,-0.41228,-12.615,24.89,8.3544,-2.7848,-1.3991,11.139,-1.6264e-09,-0.69956,0,0,0.11111,-0,-0,0.66667
0.77688,0.73211,6.9919,0.34816,14.748,48.012,-6.4915,2.1638,-1.5676,-8.6553,-2.6983e-11,-0.78378,0,0,0.11111,-0,-0,0.66667
0.67263,0.83184,6.0536,0.49777,29.274,97.645,-8.0355,2.6785,-1.1217,-10.714,4.1567e-13,-0.56087,0,0,0.11111,-1.0527e-15,0,0.66667
0.031845,0.21756,0.28661,-0.42366,-45.54,629.42,0.3238,-0.10793,-1.3662,0.43173,-6.2206e-07,-0.68308,0,0,0.11111,-8.6351e-17,0,0.66667
0.0086948,0.86808,0.078253,0.55212,59.477,652.2,-0.11521,0.038401,-0.91397,-0.15362,-4.6455e-06,-0.45698,0,0,0.11111,-0,-0,0.66667
0.35854,0.070706,3.2268,-0.64394,-60.507,323.21,5.541,-1.847,-0.52853,7.3881,2.9696e-12,-0.26426,0,0,0.11111,-0,-0,0.66667
0.030634,0.46881,0.2757,-0.046782,-5.0205,630.59,0.034395,-0.011464,-1.9967,0.04586,1.129e-06,-0.99837,0,0,0.11111,-0,-0,0.66667
0.51785,0.3809,4.6606,-0.17865,-14.022,195.86,2.2203,-0.74011,-1.8878,2.9604,3.1535e-12,-0.9439,0,0,0.11111,-1.0527e-15,0,0.66667
0.0035539,0.40624,0.031985,-0.14064,-15.11,657.25,0.011996,-0.0039981,-1.9306,0.015995,7.2293e-07,-0.96529,0,0,0.11111,9.9507e-18,0,0.66667
0.48073,0.65258,4.3266,0.22887,18.885,223.45,-2.6406,0.88022,-1.8139,-3.5209,-8.1424e-13,-0.90693,0,0,0.11111,-2.6316e-16,0,0.66667
0.37761,0.94904,3.3985,0.67356,62.296,307.03,-6.1042,2.0347,-0.3872,-8.1389,-2.4198e-12,-0.1936,0,0,0.11111,-0,-0,0.66667
0.95746,0.5817,8.6172,0.12255,1.0325,2.3335,-2.8162,0.93872,-1.9452,-3.7549,-3.1545e-08,-0.97261,0,0,0.11111,1.0527e-15,0,0.66667
0.055854,0.24063,0.50268,-0.38906,-41.721,605.84,0.52152,-0.17384,-1.4595,0.69537,4.7065e-08,-0.72973,0,0,0.11111,6.5791e-17,0,0.66667
0.065191,0.52445,0.58672,0.03667,3.9222,596.64,-0.057373,0.019124,-1.9958,-0.076497,-2.2028e-08,-0.99791,0,0,0.11111,-0,-0,0.66667
0.84927,0.61228,7.6434,0.16841,4.9767,22.993,-3.4327,1.1442,-1.897,-4.5769,2.236e-09,-0.94851,0,0,0.11111,1.0527e-15,0,0.66667
0.79526,0.36054,7.1573,-0.2092,-8.1919,40.714,3.9928,-1.3309,-1.8458,5.3237,-4.5612e-11,-0.92289,0,0,0.11111,1.0527e-15,0,0.66667
0.93585,0.3409,8.4226,-0.23865,-3.0758,4.9461,5.3601,-1.7867,-1.8,7.1468,-2.2832e-08,-0.89999,0,0,0.11111,-1.3158e-15,0,0.66667
0.078237,0.9913,0.70413,0.73695,79.089,584.03,-1.3838,0.46126,-0.072941,-1.845,-2.1586e-07,-0.03647,0,0,0.11111,-1.3158e-16,0,0.66667
0.6201,0.32638,5.5809,-0.26043,-17.177,127.53,3.8758,-1.2919,-1.757,5.1677,2.3452e-12,-0.87851,0,0,0.11111,-1.0527e-15,0,0.66667
0.5144,0.72858,4.6296,0.34286,27.073,198.53,-4.2329,1.411,-1.5842,-5.6439,-5.3957e-13,-0.79209,0,0,0.11111,-0,-0,0.66667
0.32157,0.92545,2.8942,0.63817,61.693,355.38,-4.9253,1.6418,-0.54944,-6.567,-5.7598e-13,-0.27472,0,0,0.11111,-5.2633e-16,0,0.66667
0.61081,0.55516,5.4973,0.082735,5.554,133.11,-1.2129,0.40428,-1.9778,-1.6171,-3.0898e-13,-0.98888,0,0,0.11111,-5.2633e-16,0,0.66667
0.91808,0.6612,8.2627,0.2418,3.9771,7.6044,-5.3278,1.7759,-1.7919,-7.1038,3.868e-08,-0.89594,0,0,0.11111,-0,-0,0.66667
0.062566,0.96324,0.56309,0.69486,74.694,599.34,-1.0434,0.3478,-0.28769,-1.3912,5.2677e-06,-0.14384,0,0,0.11111,-3.2895e-17,0,0.66667
0.65973,0.050748,5.9375,-0.67388,-41.027,105.32,10.67,-3.5566,-0.38475,14.226,1.9034e-12,-0.19238,0,0,0.11111,-1.0527e-15,0,0.66667
0.28517,0.9244,2.5665,0.63661,63.058,387.9,-4.357,1.4523,-0.55796,-5.8093,-4.8095e-13,-0.27898,0,0,0.11111,5.2633e-16,0,0.66667
0.40545,0.76995,3.649,0.40493,36.376,283.35,-3.9402,1.3134,-1.4197,-5.2536,4.341e-13,-0.70984,0,0,0.11111,-0,-0,0.66667
0.84969,0.68059,7.6473,0.27088,7.9962,23.025,-5.524,1.8413,-1.7372,-7.3654,2.7147e-09,-0.86862,0,0,0.11111,-5.2633e-16,0,0.66667
0.12173,0.018045,1.0956,-0.72293,-76.89,541.72,2.1121,-0.70402,-0.14125,2.8161,-1.1304e-07,-0.070627,0,0,0.11111,-0,1.2843e-16,0.66667
0.84297,0.3251,7.5867,-0.26235,-8.0656,24.947,5.3078,-1.7693,-1.7579,7.077,-1.9487e-09,-0.87896,0,0,0.11111,2.1053e-15,0,0.66667
0.40424,0.59201,3.6382,0.13801,12.392,284.11,-1.339,0.44632,-1.9345,-1.7853,-4.3832e-13,-0.96725,0,0,0.11111,5.2633e-16,0,0.66667
0.98389,0.60256,8.855,0.15384,0.44512,0.54957,-3.6326,1.2109,-1.9192,-4.8435,-5.0824e-08,-0.9596,0,0,0.11111,-2.1053e-15,0,0.66667
0.91802,0.68206,8.2621,0.27309,4.4996,7.6739,-6.0168,2.0056,-1.7345,-8.0224,4.3583e-08,-0.86724,0,0,0.11111,-1.579e-15,0,0.66667
0.40767,0.91421,3.6691,0.62132,55.836,281.87,-6.0791,2.0264,-0.62947,-8.1055,-1.7408e-13,-0.31474,0,0,0.11111,-0,-0,0.66667
0.29792,0.17841,2.6813,-0.48238,-47.308,376.22,3.4491,-1.1497,-1.1751,4.5988,-2.6112e-13,-0.58756,0,0,0.11111,-0,-0,0.66667
0.22095,0.13257,1.9885,-0.55114,-56.469,446.94,2.9225,-0.97418,-0.92107,3.8967,2.6827e-11,-0.46054,0,0,0.11111,-0,-0,0.66667
0.21774,0.65951,1.9596,0.23926,24.49,449.73,-1.2503,0.41677,-1.7997,-1.6671,3.415e-12,-0.89987,0,0,0.11111,-0,-0,0.66667
0.76874,0.63348,6.9186,0.20022,8.7366,51.049,-3.694,1.2313,-1.8574,-4.9254,-1.2097e-11,-0.92872,0,0,0.11111,-0,-0,0.66667
0.75544,0.15447,6.799,-0.51829,-23.873,57.324,9.3969,-3.1323,-1.0441,12.529,6.4998e-11,-0.52204,0,0,0.11111,-1.3158e-15,0,0.66667
0.97825,0.53983,8.8043,0.059749,0.24297,0.74761,-1.4028,0.4676,-1.9852,-1.8704,4.8219e-07,-0.9926,0,0,0.11111,-2.1053e-15,0,0.66667
0.08331,0.51249,0.74979,0.01873,1.9978,578.9,-0.037448,0.012483,-1.9968,-0.049931,2.5846e-08,-0.9984,0,0,0.11111,2.6316e-16,0,0.66667
0.22018,0.77882,1.9817,0.41823,42.811,447.54,-2.2101,0.7367,-1.3809,-2.9468,4.6258e-11,-0.69046,0,0,0.11111,-3.2895e-16,0,0.66667
0.98371,0.51229,8.8534,0.018433,0.053578,0.46554,-0.43519,0.14507,-2.0016,-0.58025,3.9722e-06,-1.0008,0,0,0.11111,-0,-0,0.66667
0.54637,0.6823,4.9174,0.27346,20.579,175.72,-3.5858,1.1953,-1.7379,-4.7811,-1.2212e-14,-0.86894,0,0,0.11111,-2.0281e-16,0,0.66667
0.55367,0.87998,4.983,0.56998,42.546,171.23,-7.5739,2.5246,-0.84304,-10.099,-1.8727e-12,-0.42152,0,0,0.11111,2.1053e-15,0,0.66667
0.34877,0.58031,3.1389,0.12047,11.36,331.06,-1.0084,0.33613,-1.9465,-1.3445,1.221e-12,-0.97325,0,0,0.11111,5.2633e-16,0,0.66667
0.70379,0.51064,6.3341,0.015955,0.86033,80.642,-0.26949,0.089831,-2.002,-0.35932,-1.9837e-13,-1.001,0,0,0.11111,-0,-0,0.66667
0.49976,0.33378,4.4979,-0.24933,-20.073,209.17,2.9906,-0.99686,-1.7826,3.9874,-1.1657e-13,-0.89131,0,0,0.11111,5.2633e-16,0,0.66667
0.46949,0.67239,4.2254,0.25858,21.638,232.07,-2.9137,0.97123,-1.7649,-3.8849,-3.4239e-13,-0.88244,0,0,0.11111,-0,-0,0.66667
0.54977,0.23752,4.948,-0.39371,-29.503,173.54,5.1949,-1.7316,-1.4488,6.9265,2.5282e-12,-0.72438,0,0,0.11111,-5.2633e-16,0,0.66667
0.02518,0.33842,0.22662,-0.24237,-26.033,635.96,0.14647,-0.048825,-1.7894,0.1953,-2.8427e-07,-0.89471,0,0,0.11111,-4.9343e-17,0,0.66667
0.53126,0.33415,4.7813,-0.24877,-19.155,186.3,3.1719,-1.0573,-1.784,4.2293,1.0913e-12,-0.89201,0,0,0.11111,-0,-0,0.66667
0.13296,0.9488,1.1967,0.67321,71.344,530.82,-2.1483,0.7161,-0.38597,-2.8644,3.1459e-08,-0.19298,0,0,0.11111,-0,-0,0.66667
0.45893,0.75295,4.1304,0.37943,32.183,240.4,-4.1791,1.393,-1.4869,-5.5722,4.8317e-13,-0.74346,0,0,0.11111,1.0527e-15,0,0.66667
0.082271,0.356,0.74044,-0.21601,-23.055,579.93,0.42651,-0.14217,-1.8329,0.56868,3.2192e-08,-0.91643,0,0,0.11111,1.3158e-16,0,0.66667
0.88896,0.7388,8.0007,0.35819,7.9527,13.413,-7.6421,2.5474,-1.5453,-10.189,1.9477e-08,-0.77263,0,0,0.11111,-1.0527e-15,0,0.66667
0.37843,0.63,3.4058,0.19501,17.939,305.71,-1.7711,0.59036,-1.8649,-2.3615,2.251e-12,-0.93245,0,0,0.11111,-0,-0,0.66667
0.43035,0.13911,3.8732,-0.54134,-47.485,263.29,5.5912,-1.8637,-0.95535,7.455,1.2705e-12,-0.47768,0,0,0.11111,-0,-0,0.66667
0.74206,0.6167,6.6786,0.17505,8.3985,62.489,-3.1175,1.0392,-1.8887,-4.1567,-1.2824e-11,-0.94433,0,0,0.11111,-0,-0,0.66667
0.15577,0.78972,1.402,0.43458,45.627,508.69,-1.6247,0.54157,-1.3319,-2.1663,-1.5703e-09,-0.66596,0,0,0.11111,-0,-0,0.66667
0.57502,0.93349,5.1752,0.65024,46.911,157.07,-8.9737,2.9912,-0.49725,-11.965,-1.0196e-12,-0.24863,0,0,0.11111,-2.6316e-16,0,0.66667
0.51105,0.038345,4.5994,-0.69248,-55.196,201.72,8.4934,-2.8311,-0.29387,11.325,-5.3468e-13,-0.14693,0,0,0.11111,1.0527e-15,0,0.66667
0.3683,0.76622,3.3147,0.39933,37.11,314.48,-3.5298,1.1766,-1.4304,-4.7064,2.2344e-12,-0.71519,0,0,0.11111,-4.3616e-16,0,0.66667
0.68334,0.18924,6.15,-0.46614,-26.669,91.812,7.6448,-2.5483,-1.2274,10.193,1.1071e-12,-0.61372,0,0,0.11111,-0,-0,0.66667
0.79449,0.57925,7.1504,0.11887,4.6671,40.906,-2.2667,0.75555,-1.9502,-3.0222,2.1509e-11,-0.97509,0,0,0.11111,1.0527e-15,0,0.66667
0.46768,0.60175,4.2092,0.15263,12.793,233.39,-1.7132,0.57106,-1.9197,-2.2843,-6.8012e-13,-0.95986,0,0,0.11111,-0,-0,0.66667
0.62735,0.076552,5.6462,-0.63517,-41.496,123.98,9.5634,-3.1878,-0.566,12.751,5.4179e-13,-0.283,0,0,0.11111,1.0527e-15,0,0.66667
0.91254,0.74859,8.2129,0.37289,6.5726,8.8411,-8.1666,2.7222,-1.5045,-10.889,3.9291e-08,-0.75226,0,0,0.11111,3.9475e-16,0,0.66667
0.45697,0.46272,4.1127,-0.05592,-4.7458,241.67,0.61329,-0.20443,-1.9885,0.81772,9.1671e-13,-0.99423,0,0,0.11111,-7.8949e-16,0,0.66667
0.13502,0.97472,1.2152,0.71208,75.462,528.86,-2.3075,0.76916,-0.19552,-3.0767,-4.9062e-08,-0.097759,0,0,0.11111,-2.6316e-16,0,0.66667
0.54323,0.79162,4.8891,0.43743,33.133,178.16,-5.703,1.901,-1.319,-7.604,-1.525e-12,-0.65949,0,0,0.11111,-0,-0,0.66667
0.43003,0.1151,3.8703,-0.57736,-50.686,263.62,5.9587,-1.9862,-0.81227,7.9449,3.6868e-12,-0.40613,0,0,0.11111,-0,-0,0.66667
0.76831,0.21489,6.9148,-0.42767,-18.755,51.662,7.886,-2.6287,-1.3507,10.515,7.3914e-12,-0.67536,0,0,0.11111,-0,-0,0.66667
0.79767,0.15509,7.1791,-0.51737,-20.165,40.539,9.9046,-3.3015,-1.0523,13.206,-2.3967e-10,-0.52615,0,0,0.11111,-1.3158e-16,0,0.66667
0.17185,0.48559,1.5466,-0.021612,-2.2526,493.17,0.089136,-0.029712,-2.0021,0.11885,2.7681e-10,-1.0011,0,0,0.11111,2.6316e-16,0,0.66667
0.43794,0.82676,3.9415,0.49014,42.619,257.12,-5.1517,1.7172,-1.1489,-6.8689,-1.2284e-12,-0.57446,0,0,0.11111,-0,-0,0.66667
0.26682,0.55991,2.4014,0.089865,8.9628,404.16,-0.57547,0.19182,-1.9744,-0.76729,7.0726e-12,-0.98722,0,0,0.11111,-0,-0,0.66667
0.95469,0.45745,8.5922,-0.063826,-0.57355,2.5586,1.4624,-0.48747,-1.9871,1.9499,3.0976e-07,-0.99355,0,0,0.11111,-0,-0,0.66667
0.93687,0.26601,8.4318,-0.35098,-4.4749,5.0586,7.8918,-2.6306,-1.5648,10.522,-7.5538e-08,-0.78241,0,0,0.11111,-0,-0,0.66667
0.43435,0.096443,3.9091,-0.60534,-52.919,260.21,6.3102,-2.1034,-0.69788,8.4137,2.9674e-12,-0.34894,0,0,0.11111,-1.0527e-15,1.0988e-16,0.66667
0.43101,0.131,3.8791,-0.5535,-48.526,262.78,5.7255,-1.9085,-0.90879,7.634,1.9869e-12,-0.45439,0,0,0.11111,-0,-0,0.66667
0.74648,0.33578,6.7183,-0.24633,-11.651,60.608,4.4131,-1.471,-1.7839,5.8842,1.8953e-11,-0.89194,0,0,0.11111,-0,-0,0.66667
0.59598,0.24476,5.3638,-0.38286,-26.497,142.8,5.4761,-1.8254,-1.4802,7.3015,-3.455e-13,-0.7401,0,0,0.11111,7.8949e-16,0,0.66667
0.25907,0.45586,2.3316,-0.06621,-6.6324,411.27,0.41167,-0.13722,-1.9819,0.5489,-4.4197e-12,-0.99093,0,0,0.11111,-3.068e-16,0,0.66667
0.48317,0.59661,4.3485,0.14491,11.916,221.54,-1.6804,0.56015,-1.9284,-2.2406,2.0173e-13,-0.96421,0,0,0.11111,-0,-0,0.66667
0.89011,0.55187,8.011,0.077807,1.7005,12.731,-1.6622,0.55405,-1.9816,-2.2162,9.6929e-09,-0.99082,0,0,0.11111,-0,-0,0.66667
0.68155,0.04317,6.134,-0.68525,-39.563,93.446,11.209,-3.7363,-0.32816,14.945,2.5757e-13,-0.16408,0,0,0.11111,-0,-0,0.66667
0.56313,0.22848,5.0681,-0.40727,-29.87,164.44,5.5043,-1.8348,-1.4133,7.3391,1.5725e-12,-0.70664,0,0,0.11111,-0,-0,0.66667
0.87675,0.15357,7.8908,-0.51965,-12.823,16.676,10.934,-3.6448,-1.0423,14.579,5.9388e-09,-0.52113,0,0,0.11111,-2.6316e-16,0,0.66667
0.27628,0.88114,2.4865,0.57171,56.892,395.88,-3.7908,1.2636,-0.8366,-5.0544,-1.4353e-11,-0.4183,0,0,0.11111,-0,-0,0.66667
0.99685,0.59528,8.9716,0.14292,0.016816,0.13135,-3.4193,1.1398,-1.9283,-4.5591,7.5517e-07,-0.96417,0,0,0.11111,-0,-0,0.66667
0.19984,0.7393,1.7986,0.35895,37.057,466.65,-1.7216,0.57385,-1.5415,-2.2954,-3.9122e-11,-0.77075,0,0,0.11111,-0,-0,0.66667
0.83979,0.75664,7.5581,0.38496,12.089,26.156,-7.7589,2.5863,-1.4725,-10.345,1.4776e-09,-0.73625,0,0,0.11111,-0,-0,0.66667
0.74234,0.41112,6.6811,-0.13332,-6.3885,62.324,2.3752,-0.79173,-1.9349,3.1669,1.3257e-11,-0.96743,0,0,0.11111,-0,-0,0.66667
0.86405,0.17985,7.7765,-0.48022,-12.978,19.68,9.9586,-3.3195,-1.1788,13.278,-5.1915e-09,-0.58939,0,0,0.11111,5.2633e-16,0,0.66667
0.58492,0.37206,5.2643,-0.19191,-13.531,149.68,2.6941,-0.89803,-1.8675,3.5921,5.8886e-13,-0.93376,0,0,0.11111,-1.4474e-15,0,0.66667
0.23238,0.27996,2.0914,-0.33006,-33.566,436.08,1.8408,-0.6136,-1.615,2.4544,-2.8376e-11,-0.80749,0,0,0.11111,-6.5791e-17,0,0.66667
0.48352,0.030188,4.3517,-0.70472,-58.268,222.19,8.1779,-2.726,-0.23816,10.904,-3.2836e-12,-0.11908,0,0,0.11111,5.379e-16,1.7278e-17,0.66667
0.86238,0.081894,7.7614,-0.62716,-17.251,20.677,12.98,-4.3268,-0.60133,17.307,1.8288e-08,-0.30067,0,0,0.11111,-1.0527e-15,0,0.66667
0.7978,0.10732,7.1802,-0.58902,-22.993,40.745,11.278,-3.7594,-0.7688,15.037,-5.111e-10,-0.3844,0,0,0.11111,-0,-0,0.66667
0.17351,0.08388,1.5616,-0.62418,-65.27,491.85,2.5992,-0.86641,-0.61634,3.4657,1.391e-09,-0.30817,0,0,0.11111,-1.3158e-16,0,0.66667
0.99221,0.37599,8.9299,-0.18602,-0.20994,0.29548,4.4296,-1.4765,-1.8757,5.9061,-2.0427e-07,-0.93785,0,0,0.11111,-0,-0,0.66667
0.030412,0.98132,0.27371,0.72197,77.87,630.87,-0.52697,0.17567,-0.14923,-0.70262,1.3906e-05,-0.074613,0,0,0.11111,-0,-0,0.66667
0.39265,0.79194,3.5338,0.43791,39.835,294,-4.1267,1.3756,-1.3192,-5.5023,-1.3829e-12,-0.65959,0,0,0.11111,-0,-0,0.66667
0.7544,0.023561,6.7896,-0.71466,-33.218,58.502,12.939,-4.3131,-0.18298,17.252,-4.4576e-11,-0.091489,0,0,0.11111,-0,-0,0.66667
0.97374,0.77146,8.7637,0.40719,2.1118,1.645,-9.5159,3.172,-1.4088,-12.688,-1.1403e-06,-0.7044,0,0,0.11111,-1.0527e-15,0,0.66667
0.14213,0.77632,1.2791,0.41448,43.692,521.82,-1.4138,0.47127,-1.3915,-1.8851,-3.8127e-09,-0.69575,0,0,0.11111,-2.6316e-16,0,0.66667
0.92404,0.439,8.3164,-0.091506,-1.3918,6.4656,2.0293,-0.67644,-1.9723,2.7058,-6.4764e-08,-0.98615,0,0,0.11111,-0,-0,0.66667
0.21902,0.22511,1.9712,-0.41234,-42.229,448.62,2.1675,-0.7225,-1.3994,2.89,-4.4324e-11,-0.69972,0,0,0.11111,-0,-0,0.66667
0.55264,0.50474,4.9737,0.0071117,0.52934,171.22,-0.094325,0.031442,-1.9983,-0.12577,-6.0075e-13,-0.99917,0,0,0.11111,-0,-0,0.66667
0.43281,0.30191,3.8953,-0.29714,-25.933,260.96,3.0865,-1.0288,-1.6845,4.1153,3.7415e-13,-0.84227,0,0,0.11111,5.2633e-16,0,0.66667
0.80806,0.51426,7.2725,0.021389,0.78922,35.969,-0.4148,0.13827,-1.9968,-0.55307,4.3159e-11,-0.99842,0,0,0.11111,2.1053e-15,0,0.66667
0.13857,0.33453,1.2471,-0.24821,-26.163,525.19,0.82547,-0.27516,-1.782,1.1006,4.8902e-09,-0.89102,0,0,0.11111,-0,-0,0.66667
0.19087,0.099821,1.7178,-0.60027,-62.341,475.32,2.7498,-0.91659,-0.71886,3.6663,-2.638e-11,-0.35943,0,0,0.11111,-5.2633e-16,0,0.66667
0.56751,0.683,5.1076,0.2745,19.959,161.28,-3.7388,1.2463,-1.731,-4.985,2.1207e-12,-0.86552,0,0,0.11111,-0,-0,0.66667
0.20995,0.5164,1.8896,0.024601,2.5254,457,-0.12396,0.04132,-1.9952,-0.16528,7.7319e-12,-0.9976,0,0,0.11111,5.2633e-16,0,0.66667
0.87999,0.035636,7.9199,-0.69655,-16.916,16.676,14.711,-4.9036,-0.27391,19.615,1.5989e-07,-0.13695,0,0,0.11111,-0,-0,0.66667
0.57835,0.11715,5.2052,-0.57427,-41.137,154.66,7.9711,-2.657,-0.8313,10.628,4.5253e-13,-0.41565,0,0,0.11111,5.2633e-16,0,0.66667
0.91176,0.10797,8.2058,-0.58805,-10.582,9.7327,12.868,-4.2893,-0.7683,17.157,1.3853e-09,-0.38415,0,0,0.11111,-0,-0,0.66667
0.76434,0.49026,6.8791,-0.014611,-0.64756,52.745,0.26802,-0.08934,-2.0013,0.35736,-3.9811e-12,-1.0007,0,0,0.11111,-0,-0,0.66667
0.47494,0.59457,4.2745,0.14186,11.785,227.8,-1.617,0.53901,-1.9275,-2.156,4.7715e-12,-0.96375,0,0,0.11111,-2.1053e-15,0,0.66667
0.69241,0.60405,6.2317,0.15608,8.6879,86.524,-2.5937,0.86456,-1.9117,-3.4582,-1.938e-12,-0.95586,0,0,0.11111,-0,-0,0.66667
0.059802,0.57533,0.53822,0.11299,12.095,601.93,-0.16217,0.054058,-1.9547,-0.21623,5.8709e-08,-0.97736,0,0,0.11111,-0,-0,0.66667
0.63126,0.33956,5.6813,-0.24066,-15.508,120.77,3.646,-1.2153,-1.7925,4.8613,-4.734e-13,-0.89624,0,0,0.11111,-0,-0,0.66667
0.98405,0.019628,8.8564,-0.72056,-2.4307,2.4931,17.018,-5.6725,-0.15734,22.69,-1.1787e-05,-0.078672,0,0,0.11111,-0,1.2294e-16,0.66667
0.11938,0.074443,1.0745,-0.63834,-67.855,543.93,1.829,-0.60966,-0.54906,2.4386,1.2231e-07,-0.27453,0,0,0.11111,-0,-0,0.66667
0.45157,0.058123,4.0641,-0.66282,-56.903,246.7,7.1833,-2.3944,-0.4403,9.5778,3.3795e-13,-0.22015,0,0,0.11111,5.2633e-16,-6.3397e-17,0.66667
0.018534,0.92438,0.16681,0.63657,68.622,642.53,-0.28315,0.094387,-0.55906,-0.37753,3.8869e-06,-0.27953,0,0,0.11111,-3.2895e-17,0,0.66667
0.68813,0.68056,6.1932,0.27084,15.263,88.891,-4.4729,1.491,-1.7425,-5.9639,-3.7836e-12,-0.87126,0,0,0.11111,1.0527e-15,0,0.66667
0.019423,0.87546,0.1748,0.56319,60.659,641.65,-0.26253,0.087511,-0.87279,-0.35004,3.4068e-06,-0.4364,0,0,0.11111,-6.5791e-17,0,0.66667
0.45527,0.64893,4.0974,0.2234,19.007,243.09,-2.441,0.81366,-1.8237,-3.2546,-4.8184e-13,-0.91187,0,0,0.11111,-0,-0,0.66667
0.21915,0.61545,1.9724,0.17318,17.709,448.38,-0.91085,0.30362,-1.8968,-1.2145,1.7499e-11,-0.9484,0,0,0.11111,2.6316e-16,0,0.66667
0.80722,0.053099,7.2649,-0.67035,-25.145,37.713,12.987,-4.3289,-0.40043,17.316,4.7881e-10,-0.20021,0,0,0.11111,-0,-0,0.66667
0.64564,0.84299,5.8107,0.51448,32.244,112.84,-7.9721,2.6574,-1.0585,-10.629,1.4091e-12,-0.52925,0,0,0.11111,-6.5791e-17,0,0.66667
0.66627,0.77702,5.9964,0.41553,24.787,100.93,-6.6445,2.2148,-1.3848,-8.8593,1.052e-12,-0.69238,0,0,0.11111,-9.2131e-16,0,0.66667
0.54989,0.81526,4.949,0.47289,35.463,173.61,-6.2409,2.0803,-1.2058,-8.3212,-1.3545e-13,-0.60288,0,0,0.11111,-0,-0,0.66667
0.25045,0.29479,2.254,-0.30782,-31.01,419.31,1.8502,-0.61673,-1.6662,2.4669,-2.0555e-11,-0.83312,0,0,0.11111,-0,-0,0.66667
0.81569,0.9147,7.3412,0.62205,22.369,34.602,-12.178,4.0592,-0.62409,-16.237,-1.9231e-09,-0.31204,0,0,0.11111,-0,-0,0.66667
0.88012,0.77327,7.9211,0.40991,9.8104,15.531,-8.6585,2.8862,-1.401,-11.545,8.8003e-09,-0.7005,0,0,0.11111,1.0527e-15,0,0.66667
0.43832,0.8791,3.9449,0.56865,49.474,256.97,-5.982,1.994,-0.85371,-7.976,1.3363e-12,-0.42686,0,0,0.11111,-0,-0,0.66667
0.58633,0.74113,5.277,0.3617,25.472,148.98,-5.0898,1.6966,-1.5324,-6.7864,1.5263e-12,-0.7662,0,0,0.11111,-5.2633e-16,0,0.66667
0.6243,0.18345,5.6187,-0.47483,-31.129,125.37,7.1145,-2.3715,-1.202,9.486,2.1911e-12,-0.60099,0,0,0.11111,-1.3158e-15,-2.2147e-18,0.66667
0.72761,0.10077,6.5485,-0.59884,-30.309,70.089,10.457,-3.4858,-0.72281,13.943,1.0853e-11,-0.3614,0,0,0.11111,-0,-0,0.66667
0.5909,0.60245,5.3181,0.15368,10.716,145.76,-2.1794,0.72646,-1.9163,-2.9058,2.4771e-12,-0.95813,0,0,0.11111,-0,-0,0.66667
0.8066,0.035633,7.2594,-0.69655,-26.229,38.045,13.484,-4.4947,-0.27341,17.979,3.9858e-10,-0.13671,0,0,0.11111,-0,-0,0.66667
0.82409,0.10417,7.4168,-0.59375,-20.447,31.72,11.743,-3.9144,-0.7455,15.658,6.0258e-10,-0.37275,0,0,0.11111,-0,-0,0.66667
0.55655,0.97893,5.009,0.71839,53.52,169.69,-9.5957,3.1986,-0.16283,-12.794,1.4033e-12,-0.081414,0,0,0.11111,-0,-0,0.66667
0.88295,0.62833,7.9466,0.1925,4.477,14.42,-4.0792,1.3597,-1.8665,-5.4389,9.7947e-09,-0.93327,0,0,0.11111,-2.1053e-15,0,0.66667
0.20294,0.6236,1.8264,0.18541,19.098,463.64,-0.90303,0.30101,-1.8827,-1.204,-8.9195e-11,-0.94135,0,0,0.11111,-3.6185e-16,0,0.66667
0.41362,0.76532,3.7225,0.39798,35.461,276.63,-3.9506,1.3169,-1.4341,-5.2675,2.6246e-13,-0.71706,0,0,0.11111,-0,-0,0.66667
0.63011,0.75902,5.671,0.38853,25.135,121.69,-5.8756,1.9585,-1.4616,-7.8341,3.7836e-13,-0.7308,0,0,0.11111,-0,-0,0.66667
0.10257,0.91683,0.92315,0.62525,66.705,560.25,-1.5392,0.51307,-0.60754,-2.0523,8.7561e-08,-0.30377,0,0,0.11111,-2.6316e-16,0,0.66667
0.71864,0.8183,6.4678,0.47745,24.768,73.971,-8.2348,2.7449,-1.1938,-10.98,-4.4214e-12,-0.5969,0,0,0.11111,-0,4.5326e-18,0.66667
0.47968,0.89464,4.3172,0.59196,49.091,224.81,-6.8149,2.2716,-0.75247,-9.0865,9.1571e-13,-0.37624,0,0,0.11111,5.2633e-16,0,0.66667
0.37899,0.21618,3.4109,-0.42573,-39.207,305.45,3.8724,-1.2908,-1.3556,5.1632,2.7456e-12,-0.67778,0,0,0.11111,-5.2633e-16,0,0.66667
0.45185,0.012101,4.0666,-0.73185,-62.882,246.65,7.9364,-2.6455,-0.097568,10.582,-1.2697e-12,-0.048784,0,0,0.11111,-0,1.2489e-16,0.66667
0.36759,0.15763,3.3083,-0.51356,-47.811,315.25,4.5306,-1.5102,-1.0609,6.0408,2.3679e-12,-0.53046,0,0,0.11111,-0,-0,0.66667
0.23954,0.15483,2.1558,-0.51776,-52.552,429.57,2.9766,-0.99219,-1.0462,3.9687,-3.6596e-11,-0.52312,0,0,0.11111,6.6047e-16,0,0.66667
0.91587,0.59212,8.2429,0.13818,2.3275,7.8289,-3.0374,1.0125,-1.9311,-4.0499,2.7556e-08,-0.96553,0,0,0.11111,1.3158e-15,0,0.66667
0.79936,0.081268,7.1943,-0.6281,-24.38,40.331,12.05,-4.0166,-0.59767,16.066,-5.7202e-10,-0.29884,0,0,0.11111,-0,-0,0.66667
0.33394,0.58875,3.0055,0.13313,12.699,343.99,-1.067,0.35566,-1.9354,-1.4226,-2.7756e-13,-0.96772,0,0,0.11111,7.8949e-16,0,0.66667
0.16905,0.84906,1.5215,0.52359,54.775,496.03,-2.1243,0.7081,-1.0259,-2.8324,-1.4084e-09,-0.51297,0,0,0.11111,-0,-0,0.66667
0.11663,0.21968,1.0496,-0.42048,-44.626,546.5,1.1769,-0.39231,-1.3701,1.5693,1.0393e-08,-0.68507,0,0,0.11111,-0,-0,0.66667
0.79533,0.52872,7.158,0.043074,1.6843,40.553,-0.8222,0.27407,-1.9961,-1.0963,-3.1126e-11,-0.99804,0,0,0.11111,-1.0527e-15,0,0.66667
0.70203,0.63458,6.3183,0.20186,10.947,81.643,-3.4011,1.1337,-1.8575,-4.5348,-5.7134e-12,-0.92874,0,0,0.11111,2.1053e-15,0,0.66667
0.075233,0.23456,0.67709,-0.39815,-42.59,586.85,0.7189,-0.23963,-1.4362,0.95853,1.0168e-07,-0.7181,0,0,0.11111,-1.3158e-16,0,0.66667
0.11659,0.94458,1.0493,0.66687,70.962,546.65,-1.8661,0.62203,-0.41657,-2.4881,-7.9758e-08,-0.20828,0,0,0.11111,2.6316e-16,0,0.66667
0.9138,0.083089,8.2242,-0.62537,-11.03,9.5427,13.715,-4.5717,-0.60689,18.287,-1.2238e-07,-0.30345,0,0,0.11111,-1.0527e-15,0,0.66667
0.86977,0.14118,7.8279,-0.53824,-14.002,18.437,11.235,-3.7451,-0.96792,14.981,-3.2901e-09,-0.48396,0,0,0.11111,-1.0527e-15,0,0.66667
0.29195,0.079273,2.6276,-0.63109,-62.241,381.78,4.422,-1.474,-0.58206,5.8959,7.5207e-12,-0.29103,0,0,0.11111,-5.2633e-16,0,0.66667
0.102,0.12575,0.918,-0.56138,-59.854,560.78,1.3742,-0.45808,-0.87829,1.8323,-1.4126e-08,-0.43915,0,0,0.11111,-0,-0,0.66667
0.80889,0.6429,7.28,0.21435,7.8878,35.824,-4.1612,1.3871,-1.8358,-5.5482,1.9434e-10,-0.91791,0,0,0.11111,-1.0527e-15,0,0.66667
0.026174,0.61649,0.23556,0.17474,18.763,634.98,-0.10977,0.036589,-1.8898,-0.14636,1.5756e-07,-0.94491,0,0,0.11111,-0,-0,0.66667
0.63635,0.81808,5.7271,0.47713,30.498,118.17,-7.2868,2.4289,-1.1899,-9.7158,-7.9581e-13,-0.59494,0,0,0.11111,-0,-0,0.66667
0.16009,0.3699,1.4408,-0.19515,-20.43,504.46,0.74978,-0.24993,-1.8643,0.99971,1.495e-09,-0.93215,0,0,0.11111,-0,-0,0.66667
0.69162,0.84504,6.2246,0.51757,29.001,87.604,-8.5911,2.8637,-1.0477,-11.455,-6.3975e-12,-0.52385,0,0,0.11111,2.1053e-15,0,0.66667
0.16802,0.53761,1.5122,0.056421,5.8887,496.83,-0.22752,0.075838,-1.9882,-0.30335,2.856e-10,-0.9941,0,0,0.11111,-0,-0,0.66667
0.34905,0.76668,3.1414,0.40002,37.771,331.03,-3.351,1.117,-1.429,-4.468,-5.9797e-13,-0.71449,0,0,0.11111,5.2633e-16,0,0.66667
0.12209,0.43894,1.0988,-0.091597,-9.6924,541.12,0.26839,-0.089463,-1.9714,0.35785,-1.8852e-09,-0.9857,0,0,0.11111,5.2633e-16,0,0.66667
0.28709,0.0035861,2.5838,-0.74462,-73.785,386.34,5.1305,-1.7102,-0.027255,6.8407,-5.5782e-12,-0.013627,0,0,0.11111,-0,-0,0.66667
0.1291,0.82795,1.1619,0.49192,52.078,534.44,-1.5241,0.50804,-1.1383,-2.0322,-6.9183e-09,-0.56917,0,0,0.11111,-2.6316e-16,0,0.66667
0.46339,0.60416,4.1705,0.15624,13.164,236.71,-1.7376,0.57921,-1.9113,-2.3169,-1.9279e-12,-0.95564,0,0,0.11111,1.0527e-15,0,0.66667
0.64941,0.9215,5.8447,0.63225,39.379,111.02,-9.8542,3.2847,-0.57603,-13.139,-6.2794e-13,-0.28801,0,0,0.11111,-0,-0,0.66667
0.39451,0.77,3.5506,0.40499,36.764,292.41,-3.8346,1.2782,-1.4159,-5.1128,2.7689e-13,-0.70793,0,0,0.11111,-0,-0,0.66667
0.95296,0.16314,8.5766,-0.50529,-4.8525,3.6902,11.556,-3.8521,-1.0963,15.409,-4.9487e-07,-0.54815,0,0,0.11111,-0,-0,0.66667
0.75487,0.80105,6.7938,0.45157,20.812,57.377,-8.1809,2.727,-1.2733,-10.908,-7.3559e-12,-0.63663,0,0,0.11111,-1.0527e-15,0,0.66667
0.54438,0.34144,4.8994,-0.23784,-17.95,177.07,3.1074,-1.0358,-1.8004,4.1432,2.1056e-12,-0.90019,0,0,0.11111,1.3158e-16,0,0.66667
0.56352,0.57896,5.0717,0.11844,8.6621,163.83,-1.6019,0.53395,-1.9523,-2.1358,1.0292e-13,-0.97617,0,0,0.11111,1.0527e-15,0,0.66667
0.3206,0.8383,2.8854,0.50745,49.011,356.04,-3.9046,1.3015,-1.0824,-5.2061,-2.4794e-12,-0.54119,0,0,0.11111,-7.3328e-17,0,0.66667
0.51252,0.96563,4.6127,0.69845,55.564,200.67,-8.5913,2.8638,-0.26619,-11.455,-2.9301e-12,-0.1331,0,0,0.11111,7.8949e-16,-4.7236e-17,0.66667
0.75781,0.73982,6.8203,0.35973,16.378,55.89,-6.5426,2.1809,-1.5373,-8.7234,-2.2578e-11,-0.76867,0,0,0.11111,1.0527e-15,0,0.66667
0.0018096,0.16617,0.016287,-0.50075,-53.919,658.97,0.021747,-0.0072481,-1.1098,0.028996,1.1813e-06,-0.5549,0,0,0.11111,-0,2.2806e-16,0.66667
0.48059,0.64674,4.3253,0.22011,18.164,223.54,-2.5388,0.84626,-1.827,-3.385,-1.0338e-12,-0.91349,0,0,0.11111,-0,-0,0.66667
0.90416,0.62556,8.1374,0.18833,3.6092,9.9938,-4.0868,1.3623,-1.8762,-5.4491,2.2271e-08,-0.93812,0,0,0.11111,-2.1053e-15,0,0.66667
0.8495,0.90819,7.6455,0.61228,18.287,24.104,-12.483,4.1611,-0.66606,-16.644,-1.2845e-08,-0.33303,0,0,0.11111,-0,-0,0.66667
0.221,0.75037,1.989,0.37556,38.415,446.75,-1.9919,0.66397,-1.5007,-2.6559,2.2892e-11,-0.75036,0,0,0.11111,-0,-0,0.66667
0.73624,0.14126,6.6261,-0.53811,-26.462,65.893,9.5082,-3.1694,-0.97151,12.678,1.6906e-11,-0.48576,0,0,0.11111,-0,-0,0.66667
0.58487,0.63432,5.2639,0.20148,14.207,149.71,-2.8282,0.94274,-1.8533,-3.771,2.0826e-12,-0.92665,0,0,0.11111,-0,-0,0.66667
0.52554,0.11453,4.7298,-0.57821,-45.063,190.96,7.2929,-2.431,-0.80918,9.7238,1.2284e-12,-0.40459,0,0,0.11111,-0,-0,0.66667
0.66144,0.4526,5.953,-0.071098,-4.278,103.17,1.1287,-0.37622,-1.98,1.5049,-4.8184e-14,-0.99,0,0,0.11111,-0,-0,0.66667
0.63207,0.60237,5.6886,0.15356,9.8731,120.2,-2.3295,0.77649,-1.9138,-3.106,6.0063e-13,-0.9569,0,0,0.11111,-0,-0,0.66667
0.071417,0.045138,0.64276,-0.68229,-73.243,590.67,1.1695,-0.38982,-0.34219,1.5593,2.6996e-06,-0.17109,0,0,0.11111,-1.3158e-16,0,0.66667
0.41684,0.78662,3.7516,0.42994,38.197,274.04,-4.3012,1.4337,-1.3416,-5.7349,1.2053e-12,-0.67079,0,0,0.11111,-0,-0,0.66667
0.1993,0.095559,1.7937,-0.60666,-62.795,467.35,2.9017,-0.96725,-0.6917,3.869,2.1182e-09,-0.34585,0,0,0.11111,5.2633e-16,0,0.66667
0.70058,0.52862,6.3053,0.042923,2.3355,82.266,-0.72171,0.24057,-1.9949,-0.96229,1.1856e-12,-0.99743,0,0,0.11111,-5.2633e-16,0,0.66667
0.27331,0.28183,2.4598,-0.32726,-32.549,398.34,2.1466,-0.71554,-1.618,2.8622,-5.0271e-12,-0.80901,0,0,0.11111,-0,-0,0.66667
0.43642,0.72147,3.9278,0.33221,28.889,258.11,-3.4796,1.1599,-1.6109,-4.6395,2.0133e-12,-0.80544,0,0,0.11111,-1.0527e-15,0,0.66667
0.82163,0.66364,7.3946,0.24545,8.4858,31.56,-4.8401,1.6134,-1.7837,-6.4535,5.2924e-10,-0.89184,0,0,0.11111,-0,-0,0.66667
0.78306,0.18049,7.0476,-0.47927,-19.856,45.921,9.0072,-3.0024,-1.1849,12.01,-3.7494e-11,-0.59246,0,0,0.11111,-1.0527e-15,0,0.66667
0.85416,0.57525,7.6874,0.11288,3.2322,21.572,-2.314,0.77135,-1.9527,-3.0854,1.6292e-09,-0.97636,0,0,0.11111,-0,-0,0.66667
0.47905,0.26242,4.3115,-0.35636,-29.494,224.87,4.0972,-1.3657,-1.5464,5.463,-2.1143e-12,-0.77322,0,0,0.11111,1.0527e-15,0,0.66667
0.92649,0.15387,8.3385,-0.5192,-7.7827,7.0592,11.545,-3.8483,-1.0411,15.393,-1.6039e-07,-0.52055,0,0,0.11111,-0,-0,0.66667
0.031555,0.93274,0.28399,0.64911,69.939,629.74,-0.49158,0.16387,-0.50607,-0.65544,6.3404e-06,-0.25303,0,0,0.11111,1.6448e-17,0,0.66667
0.93828,0.7027,8.4445,0.30404,3.7799,4.7599,-6.8467,2.2822,-1.6739,-9.129,3.9856e-08,-0.83694,0,0,0.11111,-0,-0,0.66667
0.34863,0.066985,3.1377,-0.64952,-61.528,331.75,5.4346,-1.8115,-0.49902,7.2461,3.7161e-12,-0.24951,0,0,0.11111,-0,-0,0.66667
0.81282,0.82677,7.3154,0.49016,17.799,35.097,-9.5618,3.1873,-1.1491,-12.749,1.5547e-10,-0.57454,0,0,0.11111,1.0527e-15,0,0.66667
0.94832,0.039593,8.5349,-0.69061,-7.4485,5.0193,15.718,-5.2394,-0.30278,20.957,3.7941e-06,-0.15139,0,0,0.11111,-2.1053e-15,-7.0705e-17,0.66667
0.89181,0.40842,8.0263,-0.13737,-2.959,12.413,2.9402,-0.98008,-1.9361,3.9203,-6.766e-09,-0.96807,0,0,0.11111,2.1053e-15,0,0.66667
0.69802,0.9162,6.2822,0.62431,34.462,84.655,-10.459,3.4862,-0.61244,-13.945,-1.9362e-13,-0.30622,0,0,0.11111,-2.1053e-15,0,0.66667
0.67018,0.22221,6.0316,-0.41668,-24.621,98.78,6.702,-2.234,-1.385,8.936,1.9482e-12,-0.6925,0,0,0.11111,-2.1053e-15,0,0.66667
0.97358,0.6843,8.7622,0.27645,1.4176,1.307,-6.4596,2.1532,-1.7275,-8.6128,-3.9796e-07,-0.86377,0,0,0.11111,2.8824e-16,0,0.66667
0.46511,0.43215,4.186,-0.10177,-8.5552,235.35,1.136,-0.37867,-1.963,1.5147,-1.3012e-13,-0.98151,0,0,0.11111,5.2633e-16,0,0.66667
0.10402,0.46534,0.93615,-0.051992,-5.5242,558.68,0.12979,-0.043265,-1.9893,0.17306,-1.8093e-08,-0.99466,0,0,0.11111,3.2895e-17,0,0.66667
0.024147,0.41298,0.21733,-0.13053,-14.016,636.98,0.075649,-0.025216,-1.9373,0.10087,-9.4822e-08,-0.96863,0,0,0.11111,-0,-0,0.66667
0.8813,0.92694,7.9317,0.64042,15.344,16.112,-13.546,4.5152,-0.5394,-18.061,1.3055e-07,-0.2697,0,0,0.11111,-0,-0,0.66667
0.026191,0.433,0.23572,-0.1005,-10.788,634.96,0.06317,-0.021057,-1.963,0.084226,-4.6472e-07,-0.9815,0,0,0.11111,3.2895e-17,0,0.66667
0.95083,0.058909,8.5575,-0.66164,-6.7689,4.6036,15.098,-5.0328,-0.44504,20.131,-1.4561e-06,-0.22252,0,0,0.11111,-2.6316e-16,0,0.66667
0.56992,0.88755,5.1293,0.58133,42.256,160.27,-7.9514,2.6505,-0.79573,-10.602,-8.9706e-13,-0.39787,0,0,0.11111,-0,-0,0.66667
0.65757,0.77338,5.9181,0.41007,24.97,105.77,-6.4716,2.1572,-1.4043,-8.6287,4.0279e-13,-0.70216,0,0,0.11111,-5.2633e-16,0,0.66667
0.90917,0.27292,8.1825,-0.34062,-6.2215,9.3561,7.4324,-2.4775,-1.5877,9.9098,-3.6317e-08,-0.79383,0,0,0.11111,-1.0527e-15,0,0.66667
0.90195,0.84431,8.1176,0.51647,10.243,11.251,-11.18,3.7267,-1.0517,-14.907,4.0002e-08,-0.52587,0,0,0.11111,-2.1053e-15,0,0.66667
0.39086,0.59887,3.5177,0.1483,13.487,295.24,-1.3912,0.46372,-1.926,-1.8549,1.2454e-12,-0.96301,0,0,0.11111,-0,-0,0.66667
0.61254,0.039673,5.5129,-0.69049,-46.531,133.18,10.151,-3.3836,-0.30472,13.534,2.2755e-12,-0.15236,0,0,0.11111,-2.1053e-15,0,0.66667
0.52184,0.63292,4.6965,0.19938,15.561,193,-2.4971,0.83236,-1.8566,-3.3295,1.4038e-12,-0.92829,0,0,0.11111,-1.0527e-15,0,0.66667
0.81704,0.11365,7.3534,-0.57953,-20.671,33.983,11.364,-3.788,-0.80436,15.152,6.2759e-10,-0.40218,0,0,0.11111,-1.0527e-15,0,0.66667
0.056183,0.87675,0.50565,0.56513,60.699,605.55,-0.76201,0.25401,-0.86327,-1.016,8.526e-08,-0.43164,0,0,0.11111,-1.3158e-16,0,0.66667
0.62698,0.98826,5.6428,0.73239,47.985,124.53,-11.021,3.6735,-0.093813,-14.694,4.7873e-13,-0.046907,0,0,0.11111,-0,-0,0.66667
0.42974,0.92015,3.8676,0.63022,55.386,263.96,-6.5,2.1667,-0.58505,-8.6666,-1.4824e-12,-0.29252,0,0,0.11111,-0,-0,0.66667
0.86093,0.77428,7.7484,0.41142,11.331,20.283,-8.5008,2.8336,-1.4002,-11.334,4.9394e-09,-0.70008,0,0,0.11111,-0,-0,0.66667
0.68787,0.75936,6.1908,0.38905,21.97,89.242,-6.4227,2.1409,-1.4653,-8.5636,-1.7573e-12,-0.73267,0,0,0.11111,-0,-0,0.66667
0.26102,0.80646,2.3492,0.45969,46.096,409.69,-2.8798,0.95992,-1.2477,-3.8397,2.6054e-11,-0.62383,0,0,0.11111,-3.9475e-16,0,0.66667
0.13424,0.024918,1.2081,-0.71262,-75.536,529.61,2.2959,-0.76529,-0.19244,3.0612,4.5528e-08,-0.096219,0,0,0.11111,-0,-0,0.66667
0.54134,0.32024,4.8721,-0.26964,-20.45,179.22,3.5033,-1.1678,-1.7397,4.671,1.8388e-12,-0.86986,0,0,0.11111,-0,-0,0.66667
0.9819,0.96711,8.8371,0.70066,2.6626,2.4755,-16.511,5.5038,-0.25612,-22.015,-6.1492e-06,-0.12806,0,0,0.11111,2.7693e-16,0,0.66667
0.34991,0.32517,3.1492,-0.26224,-24.72,330.16,2.2022,-0.73407,-1.7531,2.9363,-7.8226e-13,-0.87654,0,0,0.11111,5.2633e-16,0,0.66667
0.99541,0.68646,8.9587,0.27969,0.13608,0.39046,-6.6819,2.2273,-1.7217,-8.9091,5.193e-07,-0.86085,0,0,0.11111,-3.9475e-16,0,0.66667
0.51808,0.83483,4.6627,0.50225,39.522,196.15,-6.2448,2.0816,-1.1038,-8.3264,-1.859e-12,-0.55188,0,0,0.11111,-0,-0,0.66667
0.19034,0.60302,1.713,0.15453,15.998,475.57,-0.70589,0.2353,-1.9153,-0.94119,-1.6329e-10,-0.95764,0,0,0.11111,5.2633e-16,0,0.66667
0.030616,0.62382,0.27554,0.18574,19.939,630.61,-0.13647,0.045492,-1.8816,-0.18197,1.9179e-07,-0.9408,0,0,0.11111,-2.8784e-17,0,0.66667
0.30302,0.21196,2.7272,-0.43206,-42.209,371.59,3.1422,-1.0474,-1.3343,4.1896,-1.4353e-12,-0.66717,0,0,0.11111,2.6316e-16,0,0.66667
0.035078,0.79402,0.3157,0.44102,47.404,626.25,-0.37129,0.12376,-1.3074,-0.49505,1.864e-07,-0.65372,0,0,0.11111,-0,-0,0.66667
0.59005,0.69449,5.3105,0.29174,20.393,146.46,-4.1313,1.3771,-1.697,-5.5084,1.4304e-12,-0.84849,0,0,0.11111,-0,-0,0.66667
0.70162,0.70425,6.3146,0.30638,16.651,81.998,-5.1591,1.7197,-1.6678,-6.8788,-5.286e-12,-0.83389,0,0,0.11111,1.0527e-15,0,0.66667
0.66999,0.56748,6.0299,0.10121,5.9664,98.449,-1.6275,0.5425,-1.9654,-2.17,-6.2461e-13,-0.9827,0,0,0.11111,-0,-0,0.66667
0.35621,0.52222,3.2059,0.033323,3.1228,324.62,-0.28488,0.09496,-1.9959,-0.37984,-6.7607e-13,-0.99796,0,0,0.11111,5.2633e-16,0,0.66667
0.11164,0.33141,1.0048,-0.25288,-26.84,551.29,0.67758,-0.22586,-1.7733,0.90344,1.7116e-08,-0.88663,0,0,0.11111,-0,-0,0.66667
0.64132,0.80213,5.7719,0.4532,28.647,115.2,-6.9755,2.3252,-1.2726,-9.3007,-5.3291e-13,-0.63631,0,0,0.11111,-0,-0,0.66667
0.063197,0.15304,0.56878,-0.52045,-55.826,598.67,0.78938,-0.26313,-1.0407,1.0525,1.3e-07,-0.52035,0,0,0.11111,3.2895e-17,0,0.66667
0.64436,0.39764,5.7993,-0.15354,-9.6115,112.96,2.3745,-0.79149,-1.9155,3.166,-1.0993e-12,-0.95777,0,0,0.11111,5.2633e-16,0,0.66667
0.83529,0.12214,7.5176,-0.56679,-18.362,28.096,11.362,-3.7875,-0.8562,15.15,1.1193e-09,-0.4281,0,0,0.11111,-2.6316e-16,0,0.66667
0.057159,0.43351,0.51443,-0.099729,-10.678,604.53,0.13681,-0.045604,-1.9635,0.18241,-1.2727e-07,-0.98174,0,0,0.11111,-6.4842e-17,0,0.66667
0.35587,0.93599,3.2028,0.65399,61.594,325.52,-5.5856,1.8619,-0.47992,-7.4475,3.6504e-13,-0.23996,0,0,0.11111,1.9737e-16,1.1919e-16,0.66667
0.61872,0.37724,5.5685,-0.18414,-12.173,128.29,2.7344,-0.91147,-1.8782,3.6459,-1.561e-13,-0.93909,0,0,0.11111,-0,-0,0.66667
0.6386,0.96193,5.7474,0.6929,44.256,117.49,-10.62,3.5399,-0.29434,-14.16,-3.4195e-13,-0.14717,0,0,0.11111,-1.0527e-15,0,0.66667
0.19794,0.37041,1.7814,-0.19438,-20.065,468.37,0.9234,-0.3078,-1.8645,1.2312,1.4995e-10,-0.93225,0,0,0.11111,-2.7754e-16,0,0.66667
0.62336,0.9519,5.6103,0.67785,44.688,126.52,-10.141,3.3804,-0.36765,-13.522,-2.78e-13,-0.18382,0,0,0.11111,-0,-0,0.66667
0.55754,0.80246,5.0179,0.45369,33.6,168.32,-6.0708,2.0236,-1.2665,-8.0945,7.9936e-14,-0.63323,0,0,0.11111,5.2633e-16,0,0.66667
0.88572,0.99214,7.9715,0.73821,17.168,15.599,-15.692,5.2307,-0.060975,-20.923,9.4452e-09,-0.030487,0,0,0.11111,-3.158e-15,0,0.66667
0.69703,0.2449,6.2732,-0.38265,-21.083,84.484,6.4012,-2.1337,-1.4777,8.535,4.456e-12,-0.73886,0,0,0.11111,-0,-0,0.66667
0.36426,0.31484,3.2784,-0.27775,-25.877,317.81,2.4281,-0.80938,-1.7251,3.2375,2.6423e-13,-0.86255,0,0,0.11111,1.0527e-15,0,0.66667
0.22535,0.15108,2.0281,-0.52338,-53.497,442.79,2.8306,-0.94353,-1.0242,3.7741,5.8176e-14,-0.51211,0,0,0.11111,1.3343e-16,0,0.66667
0.61091,0.73881,5.4982,0.35821,24.087,133.34,-5.252,1.7507,-1.5454,-7.0026,2.0028e-13,-0.7727,0,0,0.11111,-5.2633e-16,0,0.66667
0.25557,0.89698,2.3001,0.59547,59.982,414.85,-3.6524,1.2175,-0.73732,-4.8698,-3.2472e-12,-0.36866,0,0,0.11111,2.6316e-16,0,0.66667
0.075813,0.71899,0.68232,0.32849,35.118,586.27,-0.59769,0.19923,-1.6185,-0.79692,-7.3861e-08,-0.80925,0,0,0.11111,-0,-0,0.66667
0.8227,0.6044,7.4043,0.1566,5.3782,31.09,-3.0921,1.0307,-1.9108,-4.1228,4.9799e-10,-0.95541,0,0,0.11111,-0,-0,0.66667
0.22795,0.71192,2.0516,0.31788,32.395,440.2,-1.7391,0.5797,-1.6387,-2.3188,2.4968e-11,-0.81935,0,0,0.11111,3.9475e-16,0,0.66667
0.37955,0.3177,3.416,-0.27345,-25.139,304.81,2.4909,-0.83029,-1.7333,3.3212,-8.6953e-13,-0.86664,0,0,0.11111,-0,-0,0.66667
0.84649,0.95893,7.6184,0.68839,21.011,25.296,-13.985,4.6617,-0.31534,-18.647,4.4534e-09,-0.15767,0,0,0.11111,1.0527e-15,0,0.66667
0.10315,0.53457,0.92836,0.051858,5.511,559.53,-0.12838,0.042794,-1.989,-0.17117,1.7323e-08,-0.9945,0,0,0.11111,-0,-0,0.66667
0.96939,0.034086,8.7245,-0.69887,-4.4964,3.1856,16.259,-5.4198,-0.26736,21.679,2.6802e-05,-0.13368,0,0,0.11111,-0,-0,0.66667
0.52282,0.72581,4.7054,0.33872,26.425,192.44,-4.2502,1.4167,-1.5899,-5.6669,-2.4825e-12,-0.79493,0,0,0.11111,-0,-0,0.66667
0.67334,0.94224,6.06,0.66336,39.077,97.777,-10.72,3.5733,-0.43781,-14.293,-1.5508e-12,-0.2189,0,0,0.11111,2.1053e-15,0,0.66667
0.73153,0.051846,6.5838,-0.67223,-33.672,68.534,11.802,-3.9341,-0.39334,15.736,1.6041e-12,-0.19667,0,0,0.11111,-0,-0,0.66667
0.98098,0.20338,8.8288,-0.44493,-1.6424,1.3688,10.475,-3.4917,-1.2955,13.967,1.2033e-06,-0.64773,0,0,0.11111,-1.1617e-15,0,0.66667
0.55276,0.046745,4.9748,-0.67988,-50.922,172.16,9.0194,-3.0065,-0.35411,12.026,5.1372e-12,-0.17706,0,0,0.11111,-1.0527e-15,0,0.66667
0.69972,0.90663,6.2975,0.60995,33.501,83.738,-10.243,3.4144,-0.67816,-13.657,-2.4354e-12,-0.33908,0,0,0.11111,2.1053e-15,0,0.66667
0.68269,0.78343,6.1442,0.42514,24.348,92.056,-6.9657,2.3219,-1.3568,-9.2876,-7.3808e-13,-0.67841,0,0,0.11111,-0,-0,0.66667
0.63023,0.75449,5.6721,0.38173,24.687,121.6,-5.7739,1.9246,-1.4807,-7.6985,-1.9607e-12,-0.74036,0,0,0.11111,2.1053e-15,0,0.66667
0.79934,0.48237,7.1941,-0.026446,-1.0158,39.078,0.50734,-0.16911,-1.9979,0.67645,-2.1281e-11,-0.99893,0,0,0.11111,-0,-0,0.66667
0.34565,0.64796,3.1109,0.22194,20.987,333.81,-1.8411,0.61371,-1.8262,-2.4548,-1.7986e-14,-0.91312,0,0,0.11111,2.6316e-16,0,0.66667
0.48189,0.93812,4.337,0.65718,54.404,223.3,-7.6005,2.5335,-0.46629,-10.134,-5.0271e-13,-0.23314,0,0,0.11111,-0,1.0225e-17,0.66667
0.078123,0.46139,0.7031,-0.057908,-6.1823,583.97,0.10857,-0.036191,-1.9924,0.14477,-4.1042e-08,-0.99619,0,0,0.11111,-0,-0,0.66667
0.91011,0.19459,8.191,-0.45811,-8.3279,9.5294,10.006,-3.3355,-1.2532,13.342,-2.5318e-08,-0.62662,0,0,0.11111,2.1053e-15,0,0.66667
0.55923,0.050662,5.033,-0.67401,-49.952,167.73,9.0461,-3.0154,-0.38432,12.062,5.0857e-12,-0.19216,0,0,0.11111,-6.6226e-16,-1.2385e-16,0.66667
0.52499,0.16856,4.7249,-0.49716,-38.732,191.17,6.264,-2.088,-1.1188,8.352,-3.7437e-13,-0.55938,0,0,0.11111,1.0527e-15,0,0.66667
0.26695,0.35196,2.4026,-0.22206,-22.156,404.09,1.4227,-0.47424,-1.8268,1.897,-1.2049e-11,-0.91341,0,0,0.11111,-0,-0,0.66667
0.89999,0.16742,8.0999,-0.49887,-10.075,11.568,10.776,-3.5919,-1.1127,14.367,-4.2813e-08,-0.55637,0,0,0.11111,-0,-0,0.66667
0.013914,0.98328,0.12522,0.72492,78.249,647.08,-0.24205,0.080665,-0.13289,-0.32275,-2.976e-05,-0.066445,0,0,0.11111,-0,1.3094e-16,0.66667
0.097001,0.59699,0.87301,0.14549,15.483,565.53,-0.3387,0.1129,-1.9253,-0.4516,-1.7426e-08,-0.96265,0,0,0.11111,2.6316e-16,0,0.66667
0.060075,0.82778,0.54067,0.49167,52.745,601.72,-0.70888,0.23629,-1.1409,-0.94518,-5.4812e-08,-0.57043,0,0,0.11111,-0,-0,0.66667
0.24092,0.83077,2.1683,0.49615,50.311,428.27,-2.8688,0.95627,-1.1222,-3.8251,4.0815e-11,-0.5611,0,0,0.11111,-2.6316e-16,0,0.66667
0.49685,0.89628,4.4716,0.59442,48.221,211.92,-7.0881,2.3627,-0.74348,-9.4509,-1.3758e-12,-0.37174,0,0,0.11111,-5.2633e-16,0,0.66667
0.46352,0.045407,4.1717,-0.68189,-57.752,237.42,7.5857,-2.5286,-0.34474,10.114,3.4626e-12,-0.17237,0,0,0.11111,-0,-0,0.66667
0.27055,0.65899,2.4349,0.23849,23.746,400.81,-1.5485,0.51617,-1.7971,-2.0647,1.4125e-11,-0.89854,0,0,0.11111,-0,-0,0.66667
0.55511,0.72119,4.996,0.33179,24.636,169.77,-4.4203,1.4734,-1.6071,-5.8938,1.025e-12,-0.80353,0,0,0.11111,-0,-0,0.66667
0.22734,0.9578,2.046,0.6867,70.266,441.12,-3.7467,1.2489,-0.3208,-4.9956,1.3743e-10,-0.1604,0,0,0.11111,2.6316e-16,0,0.66667
0.3657,0.53423,3.2913,0.051345,4.7738,316.48,-0.45064,0.15021,-1.9892,-0.60085,5.392e-12,-0.99461,0,0,0.11111,-1.0527e-15,0,0.66667
0.16996,0.63352,1.5297,0.20028,20.897,495,-0.81696,0.27232,-1.8587,-1.0893,-9.3823e-10,-0.92936,0,0,0.11111,-0,-0,0.66667
0.66427,0.8092,5.9785,0.46379,27.82,102.15,-7.394,2.4647,-1.2335,-9.8587,1.4895e-12,-0.61674,0,0,0.11111,-1.3158e-15,0,0.66667
0.081667,0.11209,0.735,-0.58187,-62.288,580.61,1.1405,-0.38016,-0.79543,1.5206,-1.9184e-09,-0.39772,0,0,0.11111,-1.3158e-16,0,0.66667
0.34329,0.38553,3.0896,-0.1717,-16.264,335.84,1.4147,-0.47155,-1.8984,1.8862,1.2101e-13,-0.94921,0,0,0.11111,-0,-0,0.66667
0.53103,0.68641,4.7792,0.27962,21.543,186.51,-3.5636,1.1879,-1.7269,-4.7515,1.2079e-12,-0.86347,0,0,0.11111,-1.1842e-15,0,0.66667
0.54953,0.13679,4.9458,-0.54482,-40.922,174.02,7.1855,-2.3952,-0.94482,9.5806,3.1606e-12,-0.47241,0,0,0.11111,1.0527e-15,0,0.66667
0.36765,0.89809,3.3089,0.59714,55.646,315.33,-5.269,1.7563,-0.72982,-7.0253,-8.9706e-14,-0.36491,0,0,0.11111,2.6316e-16,0,0.66667
0.64375,0.6384,5.7938,0.2076,13.017,113.36,-3.2074,1.0691,-1.8464,-4.2766,1.6294e-12,-0.9232,0,0,0.11111,-0,-0,0.66667
0.16445,0.23775,1.48,-0.39338,-41.17,500.35,1.5526,-0.51753,-1.4471,2.0701,1.1082e-09,-0.72355,0,0,0.11111,6.8418e-17,0,0.66667
0.7243,0.38051,6.5187,-0.17923,-9.1038,70.702,3.1157,-1.0386,-1.8843,4.1542,9.1642e-12,-0.94214,0,0,0.11111,-0,-0,0.66667
0.92525,0.66774,8.3272,0.25161,3.7804,6.4831,-5.5873,1.8624,-1.7744,-7.4497,4.678e-08,-0.88719,0,0,0.11111,-0,-0,0.66667
0.98983,0.045843,8.9084,-0.68124,-1.4199,2.0674,16.183,-5.3945,-0.34777,21.578,-5.3637e-05,-0.17388,0,0,0.11111,-2.1053e-15,0,0.66667
0.87848,0.077268,7.9063,-0.6341,-15.527,16.734,13.369,-4.4564,-0.56964,17.825,-9.3709e-08,-0.28482,0,0,0.11111,-0,-0,0.66667
0.26092,0.73009,2.3483,0.34514,34.579,409.69,-2.1613,0.72043,-1.5749,-2.8817,1.9795e-11,-0.78743,0,0,0.11111,-0,-0,0.66667
0.038093,0.33015,0.34284,-0.25478,-27.345,623.26,0.23293,-0.077643,-1.7666,0.31057,-1.6759e-07,-0.88328,0,0,0.11111,6.5791e-17,0,0.66667
0.97403,0.18866,8.7662,-0.46701,-2.4193,1.8309,10.917,-3.639,-1.2239,14.556,1.8523e-06,-0.61197,0,0,0.11111,-4.2106e-15,0,0.66667
0.55712,0.2772,5.0141,-0.3342,-24.734,168.4,4.4685,-1.4895,-1.6017,5.958,-9.9032e-14,-0.80085,0,0,0.11111,1.3158e-15,0,0.66667
0.53971,0.13165,4.8574,-0.55252,-42.143,180.87,7.1568,-2.3856,-0.9124,9.5424,4.0612e-12,-0.4562,0,0,0.11111,-0,-0,0.66667
0.14646,0.18103,1.3182,-0.47846,-50.399,517.67,1.6818,-0.5606,-1.1843,2.2424,2.1982e-09,-0.59215,0,0,0.11111,-1.3158e-16,0,0.66667
0.91249,0.54032,8.2124,0.060483,1.0582,8.3551,-1.3246,0.44152,-1.9848,-1.7661,4.4013e-08,-0.9924,0,0,0.11111,-0,-0,0.66667
0.95761,0.19209,8.6185,-0.46187,-3.9721,3.0795,10.615,-3.5383,-1.2408,14.153,-4.2722e-07,-0.6204,0,0,0.11111,-0,-0,0.66667
0.85963,0.29768,7.7367,-0.30348,-8.4076,20.362,6.2611,-2.087,-1.6759,8.3481,-4.9006e-09,-0.83797,0,0,0.11111,-1.0527e-15,0,0.66667
0.69276,0.072768,6.2348,-0.64085,-35.895,87.411,10.655,-3.5516,-0.53792,14.207,1.5445e-12,-0.26896,0,0,0.11111,-0,-0,0.66667
0.3859,0.10849,3.4731,-0.58727,-53.847,299.89,5.4391,-1.813,-0.77202,7.2521,4.9094e-12,-0.38601,0,0,0.11111,-5.2633e-16,0,0.66667
0.92673,0.36692,8.3406,-0.19962,-2.9353,6.1729,4.4397,-1.4799,-1.8569,5.9196,-4.0089e-08,-0.92845,0,0,0.11111,-0,-0,0.66667
0.85447,0.47745,7.6902,-0.033828,-0.96633,21.448,0.69372,-0.23124,-1.9944,0.92496,-5.9691e-10,-0.99721,0,0,0.11111,-0,-0,0.66667
0.83789,0.0019632,7.541,-0.74706,-24.035,28.102,15.023,-5.0076,-0.014625,20.03,-1.7642e-10,-0.0073124,0,0,0.11111,-0,-0,0.66667
0.58406,0.01764,5.2565,-0.72354,-51.457,151.37,10.142,-3.3807,-0.13628,13.523,1.1902e-13,-0.068139,0,0,0.11111,2.1053e-15,0,0.66667
0.069977,0.02375,0.6298,-0.71437,-76.736,592.09,1.1998,-0.39992,-0.1832,1.5997,2.6182e-06,-0.091598,0,0,0.11111,-1.3158e-16,0,0.66667
0.025655,0.76683,0.23089,0.40025,43.031,635.51,-0.24644,0.082147,-1.4282,-0.32858,1.0998e-06,-0.71409,0,0,0.11111,-3.2895e-17,0,0.66667
0.2256,0.52562,2.0304,0.038427,3.9165,442.31,-0.20806,0.069354,-1.9928,-0.27741,1.7674e-11,-0.99639,0,0,0.11111,2.6316e-16,0,0.66667
0.092302,0.687,0.83072,0.28049,29.894,570.14,-0.62136,0.20712,-1.7235,-0.82848,-3.3748e-08,-0.86174,0,0,0.11111,-3.7007e-17,0,0.66667
0.74511,0.67919,6.7059,0.26878,12.776,61.252,-4.8065,1.6022,-1.7417,-6.4087,-1.9879e-11,-0.87083,0,0,0.11111,-0,-0,0.66667
0.85106,0.74144,7.6595,0.36216,10.622,22.838,-7.3971,2.4657,-1.5313,-9.8628,2.9423e-09,-0.76564,0,0,0.11111,-0,-0,0.66667
0.54047,0.17388,4.8642,-0.48918,-37.235,180.19,6.3452,-2.1151,-1.1467,8.4603,3.1086e-12,-0.57333,0,0,0.11111,-1.0527e-15,0,0.66667
0.61127,0.96831,5.5014,0.70246,47.468,134.01,-10.305,3.4352,-0.24814,-13.741,-1.2115e-12,-0.12407,0,0,0.11111,1.3487e-15,0,0.66667
0.47314,0.62937,4.2582,0.19405,16.16,229.22,-2.2035,0.7345,-1.8655,-2.938,-4.0696e-12,-0.93275,0,0,0.11111,1.0527e-15,0,0.66667
0.93519,0.83149,8.4167,0.49723,6.5727,5.7459,-11.16,3.72,-1.1215,-14.88,1.6108e-07,-0.56076,0,0,0.11111,-2.1601e-15,0,0.66667
0.61281,0.19283,5.5153,-0.46075,-30.906,132.37,6.7765,-2.2588,-1.2452,9.0353,1.1999e-12,-0.62262,0,0,0.11111,-2.1053e-15,0,0.66667
0.62036,0.7915,5.5833,0.43725,28.881,127.68,-6.5101,2.17,-1.3187,-8.6801,-8.1002e-13,-0.65937,0,0,0.11111,-0,-0,0.66667
0.85801,0.91771,7.7221,0.62657,17.743,21.828,-12.902,4.3008,-0.60596,-17.203,-1.7161e-09,-0.30298,0,0,0.11111,-0,1.2225e-16,0.66667
0.38374,0.13184,3.4536,-0.55224,-50.712,301.64,5.086,-1.6953,-0.91352,6.7813,3.523e-12,-0.45676,0,0,0.11111,-0,-0,0.66667
0.06411,0.67409,0.57699,0.26114,27.954,597.72,-0.4018,0.13393,-1.759,-0.53573,-3.0926e-08,-0.87948,0,0,0.11111,6.5791e-17,0,0.66667
0.74015,0.34466,6.6613,-0.23301,-11.256,63.422,4.139,-1.3797,-1.8062,5.5187,1.7086e-11,-0.90308,0,0,0.11111,-0,-0,0.66667
0.84419,0.26199,7.5977,-0.35702,-10.918,24.789,7.2334,-2.4111,-1.55,9.6445,-2.0574e-09,-0.775,0,0,0.11111,-0,-0,0.66667
0.52023,0.13977,4.6821,-0.54035,-42.412,194.68,6.7465,-2.2488,-0.96022,8.9954,-1.0925e-13,-0.48011,0,0,0.11111,1.0527e-15,0,0.66667
0.46764,0.72691,4.2088,0.34036,28.563,233.59,-3.82,1.2733,-1.5906,-5.0934,4.9671e-13,-0.79529,0,0,0.11111,1.0527e-15,0,0.66667
0.098624,0.57044,0.88762,0.10566,11.24,563.94,-0.2501,0.083366,-1.9589,-0.33347,-1.73e-08,-0.97944,0,0,0.11111,-2.6316e-16,0,0.66667
0.31326,0.64746,2.8193,0.22118,21.426,362.29,-1.6629,0.5543,-1.829,-2.2172,3.717e-12,-0.91449,0,0,0.11111,-0,-0,0.66667
0.18739,0.077767,1.6865,-0.63335,-65.894,478.65,2.8483,-0.94945,-0.57739,3.7978,-1.1554e-10,-0.2887,0,0,0.11111,-0,-0,0.66667
0.74742,0.024789,6.7268,-0.71282,-33.937,61.527,12.787,-4.2622,-0.19418,17.049,-1.0478e-11,-0.097089,0,0,0.11111,-0,-8.6324e-17,0.66667
0.16037,0.77034,1.4433,0.40551,42.501,504.27,-1.5607,0.52024,-1.4142,-2.081,-1.4308e-09,-0.7071,0,0,0.11111,-0,-0,0.66667
0.68463,0.69572,6.1617,0.29358,16.7,90.767,-4.8239,1.608,-1.6938,-6.4319,-2.518e-12,-0.8469,0,0,0.11111,-0,-0,0.66667
0.44067,0.24092,3.966,-0.38862,-33.654,254.79,4.1101,-1.37,-1.4629,5.4801,1.5619e-12,-0.73144,0,0,0.11111,-5.2633e-16,0,0.66667
0.0042513,0.93655,0.038262,0.65482,70.628,656.57,-0.066811,0.022273,-0.47556,-0.089081,3.1304e-06,-0.23778,0,0,0.11111,1.0794e-17,3.1156e-17,0.66667
0.70234,0.12995,6.321,-0.55508,-30.231,82.237,9.3565,-3.1188,-0.90784,12.475,4.0288e-12,-0.45392,0,0,0.11111,2.1053e-15,-7.341e-17,0.66667
0.79289,0.32764,7.136,-0.25855,-10.236,41.667,4.92,-1.64,-1.7611,6.56,-3.1698e-11,-0.88057,0,0,0.11111,-0,-0,0.66667
0.33849,0.31614,3.0464,-0.27579,-26.233,340.09,2.2404,-0.74681,-1.7285,2.9873,2.7907e-12,-0.86425,0,0,0.11111,-1.0527e-15,0,0.66667
0.47734,0.20532,4.296,-0.44202,-36.693,226.3,5.0638,-1.6879,-1.3026,6.7517,1.3034e-12,-0.65132,0,0,0.11111,-1.0916e-15,0,0.66667
0.048717,0.11058,0.43845,-0.58413,-62.802,612.88,0.68296,-0.22765,-0.78791,0.91062,8.2286e-07,-0.39395,0,0,0.11111,-0,-0,0.66667
0.22657,0.15863,2.0391,-0.51205,-52.303,441.64,2.7844,-0.92813,-1.0662,3.7125,5.5006e-11,-0.5331,0,0,0.11111,5.2633e-16,0,0.66667
0.69626,0.28613,6.2663,-0.3208,-17.698,84.756,5.3606,-1.7869,-1.6322,7.1475,4.226e-12,-0.81611,0,0,0.11111,-0,-0,0.66667
0.14114,0.030166,1.2702,-0.70475,-74.549,522.96,2.3872,-0.79573,-0.23852,3.1829,2.7709e-08,-0.11926,0,0,0.11111,1.3158e-16,0,0.66667
0.23059,0.78913,2.0753,0.43369,44.18,437.82,-2.4001,0.80004,-1.3307,-3.2002,2.1939e-11,-0.66533,0,0,0.11111,5.2633e-16,0,0.66667
0.69479,0.574,6.2531,0.11099,6.1373,85.26,-1.8508,0.61693,-1.9536,-2.4677,-2.6238e-12,-0.97679,0,0,0.11111,1.0527e-15,0,0.66667
0.068365,0.09101,0.61529,-0.61349,-65.828,593.63,1.0066,-0.33553,-0.66062,1.3421,2.5219e-07,-0.33031,0,0,0.11111,-1.6448e-17,0,0.66667
0.72933,0.67694,6.564,0.2654,13.281,68.441,-4.6456,1.5485,-1.7478,-6.1942,-1.1624e-11,-0.87389,0,0,0.11111,-0,-0,0.66667
0.62746,0.66786,5.6471,0.25179,16.357,123.06,-3.7917,1.2639,-1.775,-5.0556,1.1384e-12,-0.88751,0,0,0.11111,-1.0527e-15,0,0.66667
0.65207,0.26076,5.8686,-0.35886,-22.116,108.79,5.616,-1.872,-1.5409,7.488,1.8119e-13,-0.77047,0,0,0.11111,-0,-0,0.66667
0.32147,0.049843,2.8932,-0.67524,-65.315,355.54,5.2096,-1.7365,-0.37631,6.9461,2.8151e-12,-0.18815,0,0,0.11111,-0,-0,0.66667
0.53844,0.55079,4.846,0.076179,5.7981,181.11,-0.98443,0.32814,-1.9767,-1.3126,1.9162e-12,-0.98837,0,0,0.11111,-0,-0,0.66667
0.078783,0.4845,0.70904,-0.023243,-2.4811,583.33,0.043947,-0.014649,-2.0008,0.058596,4.8046e-08,-1.0004,0,0,0.11111,1.3158e-16,0,0.66667
0.28452,0.3005,2.5606,-0.29925,-29.556,388.14,2.0434,-0.68112,-1.6812,2.7245,-7.0788e-12,-0.84058,0,0,0.11111,-2.6316e-16,0,0.66667
0.20287,0.72393,1.8258,0.33589,34.626,463.77,-1.6354,0.54512,-1.603,-2.1805,-4.3477e-11,-0.80151,0,0,0.11111,-0,-0,0.66667
0.51135,0.74782,4.6021,0.37173,29.486,200.8,-4.562,1.5207,-1.5085,-6.0827,-7.998e-13,-0.75427,0,0,0.11111,-7.8949e-16,0,0.66667
0.65221,0.47814,5.8699,-0.032787,-2.0156,108.38,0.51321,-0.17107,-1.9952,0.68428,-4.1928e-13,-0.99761,0,0,0.11111,-0,-0,0.66667
0.61509,0.40338,5.5358,-0.14493,-9.6493,130.49,2.1395,-0.71316,-1.9242,2.8527,2.9332e-13,-0.96208,0,0,0.11111,1.3158e-15,0,0.66667
0.13364,0.5529,1.2027,0.079344,8.3703,529.93,-0.25448,0.084826,-1.9752,-0.3393,-3.361e-09,-0.98759,0,0,0.11111,1.3158e-16,0,0.66667
0.18016,0.45509,1.6214,-0.067359,-6.9997,485.24,0.29124,-0.097081,-1.9812,0.38832,2.4937e-10,-0.99058,0,0,0.11111,-0,-0,0.66667
0.49726,0.89243,4.4753,0.58865,47.722,211.6,-7.025,2.3417,-0.76802,-9.3667,-1.4411e-12,-0.38401,0,0,0.11111,5.2633e-16,0,0.66667
0.020049,0.61707,0.18044,0.1756,18.861,641.01,-0.084497,0.028166,-1.8892,-0.11266,8.276e-08,-0.94462,0,0,0.11111,-3.2895e-17,0,0.66667
0.73614,0.27412,6.6252,-0.33883,-16.606,65.424,5.9861,-1.9954,-1.5935,7.9815,1.5125e-11,-0.79675,0,0,0.11111,5.2633e-16,0,0.66667
0.59242,0.081343,5.3318,-0.62799,-43.909,145.66,8.9288,-2.9763,-0.59966,11.905,2.8777e-13,-0.29983,0,0,0.11111,-1.0527e-15,0,0.66667
0.15883,0.34742,1.4295,-0.22888,-23.974,505.67,0.87247,-0.29082,-1.8149,1.1633,1.7301e-09,-0.90747,0,0,0.11111,5.2633e-16,0,0.66667
0.91731,0.97515,8.2558,0.71273,12.163,9.3809,-15.691,5.2303,-0.19281,-20.921,-1.3794e-07,-0.096407,0,0,0.11111,-0,-1.6893e-16,0.66667
0.54373,0.84745,4.8935,0.52117,39.489,177.99,-6.801,2.267,-1.0348,-9.068,-1.5157e-12,-0.51741,0,0,0.11111,-0,-0,0.66667
0.99776,0.065581,8.9799,-0.65163,-0.22135,1.7281,15.604,-5.2013,-0.49197,20.805,2.5415e-05,-0.24598,0,0,0.11111,-0,1.4034e-16,0.66667
0.042324,0.2771,0.38092,-0.33435,-35.888,619.11,0.33962,-0.11321,-1.6018,0.45283,-7.1691e-08,-0.80092,0,0,0.11111,6.5791e-17,0,0.66667
0.81295,0.48425,7.3165,-0.023619,-0.85127,34.275,0.46082,-0.15361,-2.0011,0.61443,8.2589e-12,-1.0006,0,0,0.11111,1.0527e-15,0,0.66667
0.077381,0.34908,0.69643,-0.22638,-24.183,584.71,0.42042,-0.14014,-1.8212,0.56057,3.7367e-08,-0.91058,0,0,0.11111,-0,-0,0.66667
0.94025,0.052189,8.4622,-0.67172,-8.333,5.8601,15.158,-5.0526,-0.39592,20.211,4.4417e-06,-0.19796,0,0,0.11111,-1.0527e-15,0,0.66667
0.36144,0.74681,3.2529,0.37022,34.597,320.32,-3.2115,1.0705,-1.5146,-4.282,-4.2677e-13,-0.75728,0,0,0.11111,1.3158e-16,0,0.66667
0.66661,0.32439,5.9995,-0.26341,-15.672,100.46,4.2142,-1.4047,-1.7513,5.619,2.3537e-13,-0.87566,0,0,0.11111,1.0527e-15,0,0.66667
0.71461,0.3643,6.4315,-0.20355,-10.647,75.394,3.491,-1.1637,-1.8515,4.6547,6.6198e-12,-0.92577,0,0,0.11111,-0,-0,0.66667
0.7131,0.18449,6.4179,-0.47327,-24.955,76.653,8.0997,-2.6999,-1.2025,10.8,6.2315e-12,-0.60123,0,0,0.11111,1.579e-15,0,0.66667
0.69395,0.019381,6.2456,-0.72093,-40.333,87.1,12.007,-4.0023,-0.14958,16.009,8.5443e-13,-0.074789,0,0,0.11111,-2.1053e-15,0,0.66667
0.01165,0.79441,0.10485,0.44162,47.52,649.29,-0.12347,0.041158,-1.3054,-0.16463,-4.2524e-07,-0.65271,0,0,0.11111,-0,-0,0.66667
0.22048,0.35625,1.9843,-0.21562,-22.04,447.15,1.141,-0.38032,-1.836,1.5213,-8.5498e-12,-0.918,0,0,0.11111,-5.2633e-16,0,0.66667
0.79727,0.76274,7.1754,0.39411,15.342,40.328,-7.5412,2.5137,-1.451,-10.055,3.0981e-11,-0.72548,0,0,0.11111,-0,-0,0.66667
0.78697,0.43065,7.0827,-0.10403,-4.2174,43.729,1.9648,-0.65493,-1.9598,2.6197,3.3805e-11,-0.97988,0,0,0.11111,-0,-0,0.66667
0.80166,0.25381,7.215,-0.36928,-14.088,38.675,7.105,-2.3683,-1.5143,9.4733,-3.941e-11,-0.75716,0,0,0.11111,-2.1053e-15,0,0.66667
0.0078286,0.73778,0.070457,0.35666,38.356,653.04,-0.067012,0.022337,-1.545,-0.08935,-5.6688e-07,-0.77251,0,0,0.11111,8.2239e-18,0,0.66667
0.041346,0.66354,0.37212,0.2453,26.32,620.07,-0.24342,0.081139,-1.7843,-0.32456,1.355e-07,-0.89217,0,0,0.11111,-1.3158e-16,0,0.66667
0.073826,0.71318,0.66443,0.31977,34.194,588.21,-0.56657,0.18886,-1.6357,-0.75542,-7.5274e-08,-0.81786,0,0,0.11111,-3.2895e-17,0,0.66667
0.87375,0.85433,7.8637,0.53149,13.425,17.438,-11.145,3.7151,-0.99766,-14.861,1.8339e-09,-0.49883,0,0,0.11111,2.1053e-15,-1.5082e-17,0.66667
0.47744,0.18345,4.297,-0.47483,-39.426,226.28,5.4408,-1.8136,-1.1966,7.2544,-2.4918e-12,-0.59831,0,0,0.11111,2.6316e-16,0,0.66667
0.73172,0.38486,6.5855,-0.17272,-8.5706,67.209,3.0331,-1.011,-1.8943,4.0442,1.0428e-11,-0.94714,0,0,0.11111,-0,-0,0.66667
0.21832,0.011827,1.9649,-0.73226,-75.295,449.6,3.8367,-1.2789,-0.096711,5.1157,9.2254e-11,-0.048355,0,0,0.11111,-0,-0,0.66667
0.66983,0.74717,6.0285,0.37076,21.913,98.876,-5.9602,1.9867,-1.5132,-7.947,-2.7143e-12,-0.75661,0,0,0.11111,1.579e-15,0,0.66667
0.44403,0.31563,3.9962,-0.27655,-23.84,251.99,2.9471,-0.98238,-1.7266,3.9295,3.1464e-13,-0.86328,0,0,0.11111,-0,-0,0.66667
0.98864,0.26339,8.8978,-0.35492,-0.70524,0.76788,8.4213,-2.8071,-1.5507,11.228,-2.2396e-07,-0.77537,0,0,0.11111,-0,-0,0.66667
0.28625,0.46239,2.5762,-0.05642,-5.5613,386.47,0.3876,-0.1292,-1.9874,0.5168,-1.7448e-12,-0.99369,0,0,0.11111,-2.6316e-16,0,0.66667
0.10849,0.67679,0.97644,0.26519,28.168,554.36,-0.69051,0.23017,-1.7525,-0.92068,-2.0293e-08,-0.87627,0,0,0.11111,-1.3158e-16,0,0.66667
0.5469,0.11601,4.9221,-0.57598,-43.462,175.91,7.5601,-2.52,-0.82452,10.08,3.3666e-12,-0.41226,0,0,0.11111,5.2633e-16,0,0.66667
0.68117,0.99277,6.1305,0.73916,42.776,93.858,-12.084,4.028,-0.055366,-16.112,-1.6822e-12,-0.027683,0,0,0.11111,-1.579e-15,0,0.66667
0.13472,0.42222,1.2125,-0.11667,-12.305,528.88,0.37722,-0.12574,-1.9492,0.50297,4.4667e-09,-0.97461,0,0,0.11111,-1.5954e-16,0,0.66667
0.53924,0.84777,4.8532,0.52165,39.799,181.12,-6.7512,2.2504,-1.0306,-9.0016,-5.107e-13,-0.51532,0,0,0.11111,-0,-0,0.66667
0.74439,0.19068,6.6995,-0.46399,-22.176,61.996,8.2893,-2.7631,-1.2334,11.052,2.3116e-11,-0.6167,0,0,0.11111,-0,-0,0.66667
0.11184,0.55352,1.0066,0.080277,8.5151,551.07,-0.21548,0.071827,-1.9777,-0.28731,-8.5814e-09,-0.98886,0,0,0.11111,-0,-0,0.66667
0.78567,0.93562,7.071,0.65343,26.917,45.535,-12.321,4.107,-0.48168,-16.428,5.4689e-10,-0.24084,0,0,0.11111,-1.1842e-15,0,0.66667
0.54416,0.41552,4.8974,-0.12671,-9.561,177.13,1.6549,-0.55162,-1.9432,2.2065,-1.342e-12,-0.97162,0,0,0.11111,1.0527e-15,0,0.66667
0.010525,0.60215,0.094721,0.15322,16.46,650.39,-0.038702,0.012901,-1.9149,-0.051603,-2.0851e-08,-0.95746,0,0,0.11111,-0,-0,0.66667
0.5891,0.8754,5.3019,0.5631,39.566,147.62,-7.9612,2.6537,-0.87255,-10.615,2.0726e-12,-0.43628,0,0,0.11111,-2.1053e-15,0,0.66667
0.80467,0.79198,7.242,0.43798,16.506,37.779,-8.4582,2.8194,-1.3154,-11.278,3.2363e-11,-0.65768,0,0,0.11111,-0,-0,0.66667
0.99094,0.46195,8.9185,-0.05707,-0.078035,0.20785,1.3573,-0.45243,-1.9864,1.8097,1.1746e-06,-0.99318,0,0,0.11111,1.6394e-15,0,0.66667
0.99131,0.64842,8.9218,0.22264,0.29767,0.38052,-5.2968,1.7656,-1.8215,-7.0624,2.451e-07,-0.91075,0,0,0.11111,-0,-0,0.66667
0.41395,0.13027,3.7256,-0.55459,-49.486,276.6,5.5098,-1.8366,-0.90438,7.3464,1.652e-13,-0.45219,0,0,0.11111,-0,-0,0.66667
0.037335,0.10977,0.33602,-0.58534,-62.995,624.05,0.52449,-0.17483,-0.77935,0.69932,2.6056e-06,-0.38967,0,0,0.11111,-1.1e-16,0,0.66667
0.97041,0.53089,8.7337,0.04634,0.26484,1.2281,-1.0792,0.35975,-1.9953,-1.439,1.2981e-06,-0.99766,0,0,0.11111,5.9212e-16,0,0.66667
0.22054,0.39546,1.9849,-0.15682,-16.025,447.07,0.83002,-0.27667,-1.9139,1.1067,-4.4306e-12,-0.95694,0,0,0.11111,2.6316e-16,0,0.66667
0.95501,0.65072,8.5951,0.22608,2.0276,2.7066,-5.1819,1.7273,-1.82,-6.9091,-1.0567e-07,-0.91,0,0,0.11111,-1.0527e-15,0,0.66667
0.96537,0.38426,8.6884,-0.17361,-1.1801,1.7099,4.0222,-1.3407,-1.8925,5.363,1.4215e-07,-0.94624,0,0,0.11111,-0,-0,0.66667
0.32834,0.055942,2.955,-0.66609,-64.1,349.47,5.2488,-1.7496,-0.42655,6.9984,-1.255e-12,-0.21327,0,0,0.11111,2.6316e-16,0,0.66667
0.76276,0.99924,6.8648,0.74887,33.822,55.118,-13.709,4.5696,-0.007466,-18.278,9.9316e-12,-0.003733,0,0,0.11111,-2.0395e-15,-1.2428e-17,0.66667
0.63192,0.10669,5.6873,-0.58996,-38.141,121.1,8.9475,-2.9825,-0.75984,11.93,7.3364e-13,-0.37992,0,0,0.11111,-0,-0,0.66667
0.84643,0.89218,7.6179,0.58827,17.883,24.879,-11.95,3.9834,-0.76966,-15.934,-5.6432e-09,-0.38483,0,0,0.11111,-1.0527e-15,0,0.66667
0.9544,0.37234,8.5896,-0.19148,-1.7387,2.7118,4.3861,-1.462,-1.8727,5.8481,7.2914e-08,-0.93633,0,0,0.11111,1.3158e-15,0,0.66667
0.2058,0.9087,1.8522,0.61306,63.287,461.22,-3.0281,1.0094,-0.66498,-4.0374,-3.4743e-10,-0.33249,0,0,0.11111,-0,-0,0.66667
0.40934,0.34792,3.6841,-0.22812,-20.388,279.96,2.2411,-0.74705,-1.8155,2.9882,8.411e-13,-0.90776,0,0,0.11111,-0,-0,0.66667
0.72856,0.051773,6.557,-0.67234,-33.993,69.916,11.756,-3.9187,-0.39057,15.675,1.9993e-12,-0.19529,0,0,0.11111,-0,-0,0.66667
0.58992,0.70393,5.3093,0.30589,21.391,146.56,-4.3308,1.4436,-1.6663,-5.7744,1.7812e-12,-0.83313,0,0,0.11111,-1.0527e-15,0,0.66667
0.9412,0.40722,8.4708,-0.13917,-1.6373,4.1178,3.1436,-1.0479,-1.9317,4.1915,-2.928e-08,-0.96585,0,0,0.11111,-0,-0,0.66667
0.44689,0.077457,4.022,-0.63381,-54.676,250.31,6.7978,-2.2659,-0.56917,9.0638,2.2813e-12,-0.28458,0,0,0.11111,-0,-0,0.66667
0.61758,0.92022,5.5583,0.63033,42.003,129.88,-9.3428,3.1143,-0.58459,-12.457,-1.5747e-12,-0.29229,0,0,0.11111,-0,-0,0.66667
0.082488,0.1309,0.74239,-0.55365,-59.241,579.8,1.0961,-0.36536,-0.90929,1.4614,4.022e-08,-0.45465,0,0,0.11111,-0,-0,0.66667
0.23041,0.76424,2.0737,0.39636,40.367,437.96,-2.1918,0.7306,-1.4403,-2.9224,2.3083e-11,-0.72014,0,0,0.11111,-0,-0,0.66667
0.12199,0.112,1.0979,-0.582,-61.785,541.38,1.7039,-0.56797,-0.79542,2.2719,1.7279e-09,-0.39771,0,0,0.11111,-0,-2.2768e-17,0.66667
0.76669,0.71463,6.9002,0.32194,14.178,52.087,-5.9239,1.9746,-1.6346,-7.8985,-2.6184e-11,-0.81728,0,0,0.11111,-2.6316e-16,0,0.66667
0.019268,0.29361,0.17342,-0.30959,-33.273,641.78,0.14317,-0.047723,-1.6584,0.19089,-3.558e-07,-0.8292,0,0,0.11111,3.2895e-17,0,0.66667
0.941,0.45598,8.469,-0.066025,-0.7784,4.0858,1.4911,-0.49703,-1.9838,1.9881,-1.1939e-07,-0.9919,0,0,0.11111,-0,-0,0.66667
0.83589,0.039249,7.523,-0.69113,-22.428,28.436,13.865,-4.6216,-0.29931,18.487,2.0824e-09,-0.14965,0,0,0.11111,-0,-0,0.66667
0.67901,0.97084,6.1111,0.70627,41.062,94.882,-11.509,3.8365,-0.22501,-15.346,3.908e-13,-0.11251,0,0,0.11111,-2.1053e-15,0,0.66667
0.02865,0.93276,0.25785,0.64913,69.954,632.59,-0.44635,0.14879,-0.50279,-0.59513,1.4933e-05,-0.25139,0,0,0.11111,-3.2895e-17,0,0.66667
0.2579,0.43741,2.3211,-0.093888,-9.4115,412.35,0.58112,-0.19371,-1.9676,0.77483,-7.0705e-13,-0.98379,0,0,0.11111,7.0725e-16,0,0.66667
0.13628,0.84959,1.2265,0.52439,55.426,527.52,-1.7152,0.57172,-1.0215,-2.2869,-8.7289e-09,-0.51074,0,0,0.11111,-0,-0,0.66667
0.7107,0.32717,6.3963,-0.25925,-13.724,77.386,4.4219,-1.474,-1.7583,5.8959,6.9043e-12,-0.87914,0,0,0.11111,-0,-0,0.66667
0.069466,0.086263,0.62519,-0.62061,-66.588,592.56,1.0347,-0.34489,-0.62835,1.3796,2.1195e-07,-0.31417,0,0,0.11111,6.5791e-17,0,0.66667
0.88989,0.4529,8.009,-0.070649,-1.547,12.774,1.5089,-0.50295,-1.9849,2.0118,-5.9544e-09,-0.99245,0,0,0.11111,-0,-0,0.66667
0.55437,0.26041,4.9893,-0.35939,-26.724,170.32,4.7816,-1.5939,-1.5382,6.3755,1.1671e-12,-0.7691,0,0,0.11111,-0,-0,0.66667
0.10339,0.14302,0.9305,-0.53547,-57.06,559.41,1.3287,-0.4429,-0.97814,1.7716,1.927e-08,-0.48907,0,0,0.11111,-0,-0,0.66667
0.46053,0.62673,4.1447,0.1901,16.073,238.96,-2.1011,0.70036,-1.8701,-2.8014,1.3545e-13,-0.93506,0,0,0.11111,1.0527e-15,0,0.66667
0.14199,0.44494,1.2779,-0.082593,-8.6926,521.86,0.28145,-0.093815,-1.9779,0.37526,2.7478e-09,-0.98897,0,0,0.11111,2.6316e-16,0,0.66667
0.42314,0.39424,3.8083,-0.15863,-13.977,268.65,1.611,-0.537,-1.9125,2.148,1.501e-12,-0.95624,0,0,0.11111,-5.2633e-16,0,0.66667
0.71387,0.435,6.4249,-0.097497,-5.1077,75.662,1.6704,-0.5568,-1.9656,2.2272,4.0481e-12,-0.98279,0,0,0.11111,-1.3158e-15,0,0.66667
0.69629,0.95678,6.2666,0.68517,38.056,85.758,-11.45,3.8166,-0.32824,-15.267,-3.8725e-13,-0.16412,0,0,0.11111,-0,-0,0.66667
0.34815,0.67045,3.1333,0.25567,24.134,331.67,-2.1363,0.71209,-1.7661,-2.8483,-5.9219e-13,-0.88305,0,0,0.11111,-0,-0,0.66667
0.34876,0.60419,3.1388,0.15629,14.739,331.09,-1.3082,0.43605,-1.9114,-1.7442,2.8311e-13,-0.95571,0,0,0.11111,-0,-0,0.66667
0.076125,0.95097,0.68512,0.67645,72.559,586.07,-1.2359,0.41195,-0.37396,-1.6478,-1.5897e-06,-0.18698,0,0,0.11111,-0,-0,0.66667
0.087513,0.65898,0.78761,0.23848,25.433,574.81,-0.50087,0.16696,-1.7965,-0.66783,-3.567e-08,-0.89823,0,0,0.11111,-0,-0,0.66667
0.049881,0.17337,0.44893,-0.48995,-52.619,611.72,0.58654,-0.19551,-1.1462,0.78206,2.1226e-07,-0.57311,0,0,0.11111,6.5791e-17,0,0.66667
0.074476,0.088519,0.67029,-0.61722,-66.174,587.66,1.1032,-0.36775,-0.64533,1.471,3.0931e-07,-0.32266,0,0,0.11111,-1.3158e-16,3.6875e-18,0.66667
0.38509,0.84141,3.4658,0.51212,46.948,300.44,-4.7331,1.5777,-1.0665,-6.3108,2.597e-12,-0.53326,0,0,0.11111,-0,-0,0.66667
0.81637,0.95834,7.3473,0.68751,24.701,34.654,-13.47,4.4901,-0.31852,-17.96,2.3483e-09,-0.15926,0,0,0.11111,-1.0527e-15,0,0.66667
0.34118,0.49237,3.0706,-0.01145,-1.086,337.64,0.093759,-0.031253,-2.0002,0.12501,-1.0831e-12,-1.0001,0,0,0.11111,-0,-0,0.66667
0.50612,0.15198,4.5551,-0.52203,-41.78,204.91,6.341,-2.1137,-1.0295,8.4546,2.3554e-12,-0.51476,0,0,0.11111,-4.8981e-16,0,0.66667
0.62349,0.73148,5.6114,0.34721,22.763,125.6,-5.1956,1.7319,-1.5729,-6.9275,5.2713e-13,-0.78646,0,0,0.11111,-1.0527e-15,0,0.66667
0.58529,0.71946,5.2676,0.3292,23.219,149.6,-4.6242,1.5414,-1.6135,-6.1656,2.4438e-12,-0.80676,0,0,0.11111,-0,-0,0.66667
0.13388,0.96206,1.2049,0.69309,73.453,529.95,-2.2269,0.7423,-0.2899,-2.9692,-2.6397e-08,-0.14495,0,0,0.11111,-0,-0,0.66667
0.61941,0.69096,5.5747,0.28644,18.923,127.98,-4.2582,1.4194,-1.7071,-5.6775,1.3811e-12,-0.85354,0,0,0.11111,-0,-0,0.66667
0.52236,0.29755,4.7012,-0.30367,-23.7,192.73,3.807,-1.269,-1.6695,5.076,3.0187e-12,-0.83474,0,0,0.11111,-6.1859e-16,0,0.66667
0.75148,0.084566,6.7633,-0.62315,-29.182,59.396,11.239,-3.7463,-0.62118,14.985,9.0552e-11,-0.31059,0,0,0.11111,-0,-0,0.66667
0.67568,0.23686,6.0811,-0.39471,-23.001,95.743,6.4008,-2.1336,-1.4451,8.5344,1.9429e-12,-0.72253,0,0,0.11111,-1.0527e-15,0,0.66667
0.47896,0.36711,4.3106,-0.19933,-16.481,224.77,2.2913,-0.76377,-1.857,3.0551,3.2863e-13,-0.9285,0,0,0.11111,5.2633e-16,0,0.66667
0.95613,0.64978,8.6052,0.22466,1.9627,2.5952,-5.1554,1.7185,-1.8209,-6.8738,-1.1116e-07,-0.91043,0,0,0.11111,-1.579e-15,0,0.66667
0.26092,0.3591,2.3482,-0.21135,-21.159,409.61,1.3235,-0.44117,-1.8394,1.7647,-1.2909e-11,-0.91972,0,0,0.11111,5.2633e-16,0,0.66667
0.71065,0.80208,6.3958,0.45312,24.055,77.804,-7.7283,2.5761,-1.2674,-10.304,-7.3195e-12,-0.6337,0,0,0.11111,-0,-0,0.66667
0.20164,0.60542,1.8148,0.15812,16.295,464.86,-0.76522,0.25507,-1.9128,-1.0203,-1.9999e-11,-0.95639,0,0,0.11111,-0,-0,0.66667
0.66362,0.81815,5.9726,0.47722,28.677,102.55,-7.6007,2.5336,-1.1882,-10.134,2.3537e-13,-0.5941,0,0,0.11111,-0,-0,0.66667
0.24952,0.23314,2.2456,-0.4003,-40.373,420.23,2.3971,-0.79904,-1.4333,3.1962,-2.5858e-11,-0.71666,0,0,0.11111,-0,-0,0.66667
0.20625,0.31008,1.8562,-0.28489,-29.317,460.56,1.4102,-0.47006,-1.7123,1.8802,3.2995e-11,-0.85613,0,0,0.11111,3.2895e-16,0,0.66667
0.37017,0.025093,3.3315,-0.71236,-66.352,313.41,6.3287,-2.1096,-0.19453,8.4383,3.6993e-13,-0.097263,0,0,0.11111,5.2633e-16,0,0.66667
0.50886,0.39287,4.5797,-0.16069,-12.771,202.4,1.9624,-0.65415,-1.9056,2.6166,-8.8485e-14,-0.95279,0,0,0.11111,-5.2633e-16,0,0.66667
0.68093,0.94056,6.1283,0.66084,38.193,93.69,-10.8,3.5999,-0.44574,-14.4,-1.3509e-12,-0.22287,0,0,0.11111,2.1053e-15,0,0.66667
0.3096,0.69843,2.7864,0.29764,28.918,365.6,-2.2116,0.73719,-1.685,-2.9487,2.5393e-12,-0.8425,0,0,0.11111,-0,-0,0.66667
0.38234,0.014758,3.441,-0.72786,-67.093,303.16,6.6789,-2.2263,-0.11358,8.9052,2.7773e-12,-0.056791,0,0,0.11111,-1.0527e-15,0,0.66667
0.76093,0.98273,6.8484,0.7241,32.894,55.772,-13.224,4.4079,-0.13407,-17.632,-1.684e-12,-0.067035,0,0,0.11111,1.0527e-15,0,0.66667
0.33003,0.69773,2.9703,0.29659,28.397,347.51,-2.3492,0.78308,-1.6884,-3.1323,1.1369e-12,-0.84422,0,0,0.11111,-0,-0,0.66667
0.063799,0.90406,0.57419,0.60609,65.068,598.1,-0.92803,0.30934,-0.69698,-1.2374,1.5794e-07,-0.34849,0,0,0.11111,4.9343e-17,0,0.66667
0.046104,0.46968,0.41494,-0.045476,-4.8746,615.38,0.05032,-0.016774,-1.9967,0.067093,-4.9503e-07,-0.99837,0,0,0.11111,-0,-0,0.66667
0.13493,0.090602,1.2143,-0.6141,-64.997,528.88,1.9886,-0.66286,-0.65795,2.6514,1.5357e-08,-0.32897,0,0,0.11111,-2.9606e-16,0,0.66667
0.46952,0.8339,4.2256,0.50085,42.005,232.4,-5.6437,1.8812,-1.1109,-7.525,1.5135e-12,-0.55547,0,0,0.11111,-5.2633e-16,0,0.66667
0.3841,0.41569,3.4569,-0.12647,-11.572,300.89,1.1658,-0.38862,-1.9408,1.5545,2.4991e-13,-0.97041,0,0,0.11111,-0,-0,0.66667
0.6752,0.17222,6.0768,-0.49167,-28.729,96.234,7.9675,-2.6558,-1.1399,10.623,1.3651e-12,-0.56994,0,0,0.11111,-1.0527e-15,0,0.66667
0.095395,0.35155,0.85855,-0.22268,-23.712,567.11,0.50981,-0.16994,-1.8255,0.67975,2.7732e-08,-0.91273,0,0,0.11111,-0,-0,0.66667
0.1618,0.388,1.4562,-0.168,-17.575,502.8,0.65238,-0.21746,-1.8975,0.86984,1.1141e-09,-0.94874,0,0,0.11111,-0,-0,0.66667
0.96914,0.34178,8.7223,-0.23733,-1.4328,1.5277,5.5201,-1.84,-1.8042,7.3601,2.3822e-07,-0.90211,0,0,0.11111,2.3685e-15,0,0.66667
0.42449,0.22941,3.8204,-0.40589,-35.77,267.8,4.1351,-1.3784,-1.4146,5.5134,1.1666e-12,-0.70728,0,0,0.11111,-0,-0,0.66667
0.91605,0.32726,8.2445,-0.25911,-4.3681,7.9744,5.6967,-1.8989,-1.7589,7.5956,-3.9386e-08,-0.87947,0,0,0.11111,-0,-0,0.66667
0.23435,0.3619,2.1091,-0.20714,-21.031,434.19,1.165,-0.38835,-1.8513,1.5534,-1.813e-11,-0.92563,0,0,0.11111,-0,-0,0.66667
0.98255,0.069165,8.8429,-0.64625,-2.3178,2.1583,15.239,-5.0798,-0.51668,20.319,-7.1671e-07,-0.25834,0,0,0.11111,-0,-0,0.66667
0.12649,0.55562,1.1384,0.083424,8.8176,536.85,-0.25325,0.084418,-1.9773,-0.33767,-2.0627e-09,-0.98867,0,0,0.11111,-0,-0,0.66667
0.77992,0.33681,7.0193,-0.24479,-10.228,46.617,4.582,-1.5273,-1.7892,6.1094,1.0937e-11,-0.89462,0,0,0.11111,-5.2633e-16,0,0.66667
0.98063,0.98689,8.8257,0.73033,3.0037,2.7015,-17.188,5.7295,-0.10258,-22.918,-1.7656e-05,-0.051288,0,0,0.11111,-1.0527e-15,0,0.66667
0.48703,0.91383,4.3832,0.62075,51.025,219.33,-7.2557,2.4186,-0.63051,-9.6742,-2.3532e-12,-0.31526,0,0,0.11111,-0,-0,0.66667
0.48989,0.0087591,4.409,-0.73686,-60.468,217.49,8.6635,-2.8878,-0.067595,11.551,-7.5318e-13,-0.033797,0,0,0.11111,2.1053e-15,0,0.66667
0.17515,0.1629,1.5763,-0.50564,-52.773,490.19,2.1255,-0.70849,-1.091,2.834,2.2496e-10,-0.54548,0,0,0.11111,-0,-0,0.66667
0.60894,0.28507,5.4805,-0.32239,-21.754,134.51,4.7117,-1.5706,-1.6345,6.2822,-1.9051e-12,-0.81726,0,0,0.11111,2.1053e-15,0,0.66667
0.24288,0.012775,2.1859,-0.73084,-74.253,426.73,4.2602,-1.4201,-0.09824,5.6802,2.2622e-11,-0.04912,0,0,0.11111,-0,-0,0.66667
0.7168,0.099254,6.4512,-0.60112,-31.439,75.246,10.341,-3.447,-0.71688,13.788,6.7901e-12,-0.35844,0,0,0.11111,-2.1053e-15,8.046e-17,0.66667
0.47407,0.30264,4.2666,-0.29604,-24.641,228.6,3.3682,-1.1227,-1.6865,4.4909,1.0703e-13,-0.84327,0,0,0.11111,5.2633e-16,0,0.66667
0.23239,0.26393,2.0915,-0.35411,-36.018,436.09,1.975,-0.65832,-1.5551,2.6333,-3.4668e-11,-0.77754,0,0,0.11111,-0,-0,0.66667
0.46068,0.37624,4.1461,-0.18563,-15.692,238.84,2.0524,-0.68414,-1.8762,2.7366,1.9575e-12,-0.93808,0,0,0.11111,-0,-0,0.66667
0.024607,0.50149,0.22147,0.002233,0.23971,636.52,-0.0013187,0.0004427,-1.9988,-0.0017568,4.6756e-06,-0.99938,0,0,0.11111,-0,-0,0.66667
0.097131,0.43378,0.87418,-0.099325,-10.569,565.4,0.23154,-0.077181,-1.9653,0.30872,1.2481e-08,-0.98263,0,0,0.11111,3.2895e-17,0,0.66667
0.10145,0.42528,0.91309,-0.11208,-11.916,561.19,0.2729,-0.090966,-1.9527,0.36386,1.8873e-08,-0.97633,0,0,0.11111,-0,-0,0.66667
0.38922,0.12442,3.503,-0.56338,-51.484,297.06,5.2627,-1.7542,-0.87475,7.0169,3.5012e-12,-0.43737,0,0,0.11111,6.2501e-16,0,0.66667
0.71597,0.010907,6.4437,-0.73364,-38.599,76.155,12.606,-4.2021,-0.086424,16.808,1.5845e-12,-0.043212,0,0,0.11111,-0,1.1959e-16,0.66667
0.052882,0.3437,0.47594,-0.23445,-25.126,608.73,0.29755,-0.099185,-1.8038,0.39674,-3.5889e-08,-0.90192,0,0,0.11111,-7.5557e-17,0,0.66667
0.012488,0.55875,0.11239,0.088124,9.4652,648.45,-0.026412,0.0088036,-1.973,-0.035216,-4.7697e-07,-0.98648,0,0,0.11111,-2.4672e-17,0,0.66667
0.14747,0.85479,1.3272,0.53219,56.072,516.73,-1.8836,0.62786,-0.99046,-2.5114,-1.1054e-09,-0.49523,0,0,0.11111,-2.6316e-16,0,0.66667
0.93668,0.72859,8.4301,0.34288,4.3833,5.0633,-7.7081,2.5694,-1.5847,-10.277,7.1132e-08,-0.79236,0,0,0.11111,-0,-0,0.66667
0.86574,0.22478,7.7916,-0.41283,-11.001,19.04,8.5775,-2.8592,-1.3922,11.437,-6.5655e-09,-0.69608,0,0,0.11111,2.1053e-15,0,0.66667
0.40252,0.88777,3.6227,0.58166,52.506,286.04,-5.6191,1.873,-0.79615,-7.4921,-9.1482e-13,-0.39808,0,0,0.11111,-0,-0,0.66667
0.16129,0.76328,1.4516,0.39492,41.376,503.38,-1.5288,0.50959,-1.4436,-2.0384,-1.3657e-09,-0.72178,0,0,0.11111,-0,-0,0.66667
0.35482,0.79219,3.1934,0.43828,41.206,326.08,-3.7323,1.2441,-1.3156,-4.9764,1.1102e-12,-0.65778,0,0,0.11111,-0,-0,0.66667
0.93483,0.33782,8.4135,-0.24327,-3.1857,5.0904,5.4579,-1.8193,-1.7903,7.2773,-2.7837e-08,-0.89517,0,0,0.11111,5.2633e-16,0,0.66667
0.64355,0.88129,5.7919,0.57194,36.048,114.21,-8.8337,2.9446,-0.83734,-11.778,-5.2935e-13,-0.41867,0,0,0.11111,-0,-0,0.66667
0.47107,0.8897,4.2396,0.58454,48.988,231.38,-6.6086,2.2029,-0.7856,-8.8115,-1.5721e-13,-0.3928,0,0,0.11111,-0,-0,0.66667
0.40237,0.24072,3.6213,-0.38892,-35.037,285.87,3.7557,-1.2519,-1.4614,5.0076,9.5079e-13,-0.73069,0,0,0.11111,5.2633e-16,0,0.66667
0.89655,0.85186,8.069,0.52779,11.028,12.361,-11.357,3.7855,-1.0076,-15.142,3.1397e-08,-0.50379,0,0,0.11111,-0,-0,0.66667
0.97347,0.04841,8.7613,-0.67739,-3.757,2.8028,15.826,-5.2753,-0.36682,21.101,3.3169e-05,-0.18341,0,0,0.11111,-0,-0,0.66667
0.77868,0.38502,7.0081,-0.17247,-7.2375,47.015,3.2232,-1.0744,-1.8947,4.2976,1.3343e-11,-0.94733,0,0,0.11111,-0,-0,0.66667
0.83334,0.52676,7.5001,0.040142,1.3013,27.627,-0.80285,0.26762,-1.9931,-1.0705,-3.4009e-10,-0.99655,0,0,0.11111,-1.0527e-15,0,0.66667
0.30709,0.11486,2.7638,-0.57771,-56.372,368.14,4.2578,-1.4193,-0.81138,5.6771,3.5074e-12,-0.40569,0,0,0.11111,2.6316e-16,0,0.66667
0.93952,0.32229,8.4557,-0.26656,-3.2413,4.5221,6.0106,-2.0035,-1.7485,8.0141,-1.6648e-08,-0.87423,0,0,0.11111,-0,-0,0.66667
0.4527,0.30996,4.0743,-0.28506,-24.335,245.16,3.0971,-1.0324,-1.7154,4.1295,1.8419e-12,-0.8577,0,0,0.11111,-5.2388e-16,0,0.66667
0.17931,0.46583,1.6138,-0.05126,-5.3283,486.05,0.22059,-0.07353,-1.989,0.29412,3.9343e-10,-0.99452,0,0,0.11111,3.9475e-16,0,0.66667
0.5963,0.74654,5.3667,0.36981,25.575,142.57,-5.2925,1.7642,-1.515,-7.0567,3.042e-13,-0.7575,0,0,0.11111,5.2633e-16,0,0.66667
0.6841,0.58017,6.1569,0.12026,6.8411,90.85,-1.9744,0.65814,-1.9479,-2.6326,-6.1984e-13,-0.97397,0,0,0.11111,-1.0527e-15,0,0.66667
0.43734,0.13403,3.9361,-0.54895,-47.798,257.71,5.7619,-1.9206,-0.93242,7.6825,1.8834e-12,-0.46621,0,0,0.11111,-0,1.1917e-16,0.66667
0.37334,0.74478,3.3601,0.36716,33.964,310.16,-3.2899,1.0966,-1.5228,-4.3865,-9.075e-13,-0.76138,0,0,0.11111,2.6316e-16,0,0.66667
0.70431,0.47125,6.3388,-0.04312,-2.3218,80.381,0.72888,-0.24296,-1.9966,0.97185,1.2417e-12,-0.99828,0,0,0.11111,-0,-0,0.66667
0.25974,0.13312,2.3377,-0.55031,-55.276,410.96,3.4305,-1.1435,-0.92124,4.5741,-4.3934e-11,-0.46062,0,0,0.11111,-0,-0,0.66667
0.68635,0.86072,6.1771,0.54109,30.758,90.429,-8.913,2.971,-0.96106,-11.884,-7.3097e-13,-0.48053,0,0,0.11111,-1.0527e-15,-3.8824e-17,0.66667
0.57492,0.71539,5.1743,0.32308,23.206,156.41,-4.4579,1.486,-1.6294,-5.9439,3.4541e-12,-0.81472,0,0,0.11111,-5.2633e-16,0,0.66667
0.33501,0.38039,3.0151,-0.17942,-17.104,343.08,1.4425,-0.48085,-1.8836,1.9234,1.3731e-12,-0.9418,0,0,0.11111,-0,-0,0.66667
0.67669,0.88759,6.0902,0.58139,33.902,95.69,-9.442,3.1473,-0.79645,-12.589,-1.7186e-12,-0.39823,0,0,0.11111,1.0527e-15,0,0.66667
0.042896,0.13669,0.38606,-0.54496,-58.598,618.58,0.56104,-0.18701,-0.94298,0.74805,1.6003e-06,-0.47149,0,0,0.11111,-0,-0,0.66667
0.54883,0.72644,4.9394,0.33966,25.477,174.11,-4.474,1.4913,-1.5912,-5.9653,-4.0101e-13,-0.79559,0,0,0.11111,1.0527e-15,0,0.66667
0.5956,0.042348,5.3604,-0.68648,-47.774,143.81,9.8128,-3.2709,-0.32566,13.084,3.8636e-13,-0.16283,0,0,0.11111,-0,-0,0.66667
0.28722,0.63992,2.585,0.20988,20.684,385.64,-1.4467,0.48224,-1.841,-1.929,6.5693e-12,-0.92049,0,0,0.11111,-5.2633e-16,0,0.66667
0.35628,0.8629,3.2065,0.54435,51.177,324.98,-4.6546,1.5515,-0.94614,-6.2062,2.7049e-12,-0.47307,0,0,0.11111,-0,-0,0.66667
0.86302,0.97445,7.7672,0.71167,19.573,20.901,-14.74,4.9135,-0.19899,-19.654,5.0349e-08,-0.099495,0,0,0.11111,-0,-0,0.66667
0.61937,0.28437,5.5743,-0.32345,-21.378,128.07,4.8081,-1.6027,-1.6269,6.4107,2.8462e-12,-0.81343,0,0,0.11111,-2.1053e-15,0,0.66667
0.63994,0.61974,5.7595,0.17961,11.355,115.56,-2.7586,0.91954,-1.8888,-3.6782,-2.0761e-13,-0.94438,0,0,0.11111,5.2633e-16,0,0.66667
0.10461,0.96779,0.9415,0.70168,74.901,558.31,-1.7617,0.58723,-0.24916,-2.3489,-6.6195e-07,-0.12458,0,0,0.11111,1.8093e-16,0,0.66667
0.23792,0.6579,2.1413,0.23685,24.008,430.88,-1.3524,0.45081,-1.8011,-1.8032,2.2156e-11,-0.90055,0,0,0.11111,-0,-0,0.66667
0.71928,0.009716,6.4735,-0.73543,-38.317,74.565,12.695,-4.2318,-0.080177,16.927,-2.8049e-12,-0.040089,0,0,0.11111,-0,-0,0.66667
0.69947,0.16882,6.2952,-0.49677,-27.239,83.517,8.3394,-2.7798,-1.1217,11.119,3.4612e-12,-0.56086,0,0,0.11111,-0,-0,0.66667
0.44662,0.39028,4.0196,-0.16458,-14.137,249.85,1.7641,-0.58803,-1.9011,2.3521,-2.597e-12,-0.95056,0,0,0.11111,-0,-0,0.66667
0.039252,0.45917,0.35327,-0.06124,-6.5682,622.12,0.057691,-0.019231,-1.9842,0.076922,-4.1128e-07,-0.99208,0,0,0.11111,-3.2895e-17,0,0.66667
0.050396,0.52244,0.45357,0.033667,3.6072,611.16,-0.04072,0.013574,-1.9955,-0.054294,3.7149e-08,-0.99776,0,0,0.11111,-0,-0,0.66667
0.088504,0.63435,0.79653,0.20153,21.485,573.83,-0.42806,0.14269,-1.8538,-0.57074,-2.4099e-08,-0.92691,0,0,0.11111,-0,-0,0.66667
0.86433,0.31429,7.7789,-0.27857,-7.4697,19.081,5.7786,-1.9262,-1.7235,7.7048,-6.2445e-09,-0.86177,0,0,0.11111,2.1053e-15,0,0.66667
0.13609,0.1409,1.2249,-0.53865,-56.945,527.7,1.7594,-0.58647,-0.96676,2.3459,3.3676e-09,-0.48338,0,0,0.11111,-2.6316e-16,0,0.66667
0.65826,0.20135,5.9244,-0.44797,-27.249,105.47,7.0772,-2.3591,-1.2874,9.4363,1.7777e-12,-0.64368,0,0,0.11111,-1.0527e-15,0,0.66667
0.57697,0.18307,5.1927,-0.47539,-34.085,155.33,6.5828,-2.1943,-1.1993,8.7771,1.3149e-12,-0.59967,0,0,0.11111,-1.0527e-15,0,0.66667
0.7266,0.93175,6.5394,0.64763,32.922,70.74,-11.294,3.7645,-0.50663,-15.058,-6.8523e-12,-0.25332,0,0,0.11111,-1.0527e-15,0,0.66667
0.58257,0.65481,5.2431,0.23222,16.446,151.25,-3.2468,1.0823,-1.8081,-4.3291,5.5127e-12,-0.90407,0,0,0.11111,-1.4474e-15,0,0.66667
0.17942,0.46234,1.6148,-0.056495,-5.8723,485.94,0.24327,-0.08109,-1.9865,0.32436,3.5491e-10,-0.99324,0,0,0.11111,2.6316e-16,0,0.66667
0.73408,0.64469,6.6068,0.21704,10.693,66.168,-3.8238,1.2746,-1.836,-5.0985,-1.2843e-11,-0.91798,0,0,0.11111,-0,-0,0.66667
0.59544,0.12312,5.359,-0.56531,-39.265,143.55,8.0787,-2.6929,-0.86631,10.772,-1.5703e-12,-0.43316,0,0,0.11111,1.1842e-15,0,0.66667
0.54618,0.031394,4.9157,-0.70291,-53.218,176.77,9.214,-3.0713,-0.24766,12.285,6.7066e-12,-0.12383,0,0,0.11111,-2.1053e-15,-2.4189e-18,0.66667
0.72712,0.81886,6.5441,0.47829,24.179,69.938,-8.3466,2.7822,-1.1845,-11.129,-6.8976e-12,-0.59225,0,0,0.11111,-0,-0,0.66667
0.31395,0.7762,2.8255,0.4143,40.166,361.83,-3.1216,1.0405,-1.3921,-4.1622,2.2886e-12,-0.69605,0,0,0.11111,-0,-0,0.66667
0.070608,0.36837,0.63547,-0.19745,-21.111,591.34,0.3346,-0.11153,-1.8592,0.44613,3.6673e-08,-0.92959,0,0,0.11111,-6.5791e-17,0,0.66667
0.088214,0.24035,0.79393,-0.38947,-41.57,574.16,0.82456,-0.27485,-1.4587,1.0994,3.4273e-08,-0.72935,0,0,0.11111,6.5791e-17,0,0.66667
0.32773,0.16596,2.9495,-0.50106,-48.14,349.75,3.9411,-1.3137,-1.1108,5.2548,1.5921e-12,-0.55538,0,0,0.11111,-0,-6.2514e-17,0.66667
0.23168,0.27243,2.0851,-0.34135,-34.729,436.74,1.8981,-0.63269,-1.5861,2.5307,-2.9409e-11,-0.79304,0,0,0.11111,-0,-0,0.66667
0.74822,0.79584,6.734,0.44375,20.927,60.247,-7.9686,2.6562,-1.301,-10.625,-2.0167e-11,-0.65051,0,0,0.11111,-0,-0,0.66667
0.60764,0.93684,5.4687,0.65527,44.549,136.11,-9.5559,3.1853,-0.47613,-12.741,5.3291e-14,-0.23807,0,0,0.11111,4.9343e-16,-1.0826e-17,0.66667
0.095431,0.94941,0.85888,0.67411,72.066,567.23,-1.544,0.51465,-0.38564,-2.0586,9.3889e-09,-0.19282,0,0,0.11111,-0,-0,0.66667
0.71985,0.45678,6.4787,-0.064827,-3.3358,72.745,1.12,-0.37333,-1.9872,1.4933,2.6622e-12,-0.99362,0,0,0.11111,-0,-0,0.66667
0.9161,0.98994,8.2449,0.73492,12.743,9.7,-16.158,5.386,-0.077531,-21.544,-7.2643e-08,-0.038766,0,0,0.11111,-2.1053e-15,0,0.66667
0.82438,0.18212,7.4194,-0.47682,-16.334,31.213,9.434,-3.1447,-1.1914,12.579,-3.1469e-10,-0.59568,0,0,0.11111,1.0527e-15,0,0.66667
0.67331,0.43523,6.0598,-0.097159,-5.6804,96.632,1.57,-0.52334,-1.9693,2.0934,-2.4658e-13,-0.98466,0,0,0.11111,3.9475e-16,0,0.66667
0.77664,0.41129,6.9898,-0.13306,-5.6275,47.785,2.4802,-0.82673,-1.9362,3.3069,1.1217e-11,-0.96809,0,0,0.11111,-0,-0,0.66667
0.15012,0.97693,1.3511,0.71539,75.483,514.32,-2.5775,0.85918,-0.17826,-3.4367,1.0999e-08,-0.089132,0,0,0.11111,-0,-0,0.66667
0.065513,0.43656,0.58961,-0.095165,-10.179,596.33,0.14963,-0.049876,-1.969,0.1995,-6.493e-09,-0.98452,0,0,0.11111,1.8915e-16,0,0.66667
0.74798,0.59705,6.7318,0.14558,6.8445,59.826,-2.6134,0.87113,-1.9266,-3.4845,-1.2053e-11,-0.96328,0,0,0.11111,-0,-0,0.66667
0.98478,0.3791,8.863,-0.18135,-0.49196,0.54751,4.2861,-1.4287,-1.8872,5.7147,-5.5008e-08,-0.94358,0,0,0.11111,-2.1053e-15,0,0.66667
0.24024,0.34967,2.1622,-0.22549,-22.828,428.71,1.3002,-0.43338,-1.8175,1.7335,-2.168e-11,-0.90876,0,0,0.11111,-0,-0,0.66667
0.56194,0.65792,5.0574,0.23687,17.38,165,-3.1946,1.0649,-1.8048,-4.2595,3.8871e-12,-0.90239,0,0,0.11111,-2.1053e-15,0,0.66667
0.080826,0.021624,0.72743,-0.71756,-76.955,581.49,1.3919,-0.46398,-0.16955,1.8559,6.1616e-07,-0.084777,0,0,0.11111,-0,-0,0.66667
0.56119,0.93798,5.0507,0.65697,48.518,166.35,-8.8484,2.9495,-0.46878,-11.798,7.5229e-13,-0.23439,0,0,0.11111,-0,-7.9686e-18,0.66667
0.45044,0.053266,4.0539,-0.6701,-57.608,247.6,7.2441,-2.4147,-0.40378,9.6588,8.9262e-14,-0.20189,0,0,0.11111,5.2633e-16,-1.0957e-16,0.66667
0.24055,0.17723,2.165,-0.48416,-49.099,428.6,2.7952,-0.93173,-1.1643,3.7269,-2.3592e-11,-0.58213,0,0,0.11111,-2.6316e-16,0,0.66667
0.56538,0.38539,5.0884,-0.17191,-12.537,162.61,2.3327,-0.77757,-1.895,3.1103,1.4246e-12,-0.94749,0,0,0.11111,-0,-0,0.66667
0.65399,0.91808,5.8859,0.62713,38.651,108.39,-9.8433,3.2811,-0.60231,-13.124,-2.629e-13,-0.30116,0,0,0.11111,-0,-0,0.66667
0.91167,0.98864,8.205,0.73297,13.347,10.445,-16.037,5.3458,-0.087792,-21.383,-3.5277e-07,-0.043896,0,0,0.11111,-0,-0,0.66667
0.78264,0.47761,7.0438,-0.03358,-1.3857,45.368,0.63075,-0.21025,-1.998,0.841,-1.912e-11,-0.999,0,0,0.11111,-0,-0,0.66667
0.97683,0.18807,8.7915,-0.46789,-2.148,1.6687,10.969,-3.6564,-1.2204,14.625,1.9326e-06,-0.61022,0,0,0.11111,-0,-0,0.66667
0.44272,0.24631,3.9845,-0.38053,-32.877,253.15,4.0432,-1.3477,-1.4841,5.3909,2.1712e-12,-0.74205,0,0,0.11111,-2.6316e-16,0,0.66667
0.14102,0.98614,1.2692,0.72921,77.165,523.09,-2.468,0.82267,-0.11253,-3.2907,-1.5844e-08,-0.056267,0,0,0.11111,2.6316e-16,0,0.66667
0.40997,0.3371,3.6897,-0.24435,-21.827,279.46,2.4042,-0.80141,-1.7873,3.2057,1.6123e-12,-0.89366,0,0,0.11111,-2.6316e-16,0,0.66667
0.7923,0.71937,7.1307,0.32906,13.075,42.021,-6.2571,2.0857,-1.6149,-8.3428,1.1847e-11,-0.80747,0,0,0.11111,2.1053e-15,0,0.66667
0.21104,0.72377,1.8993,0.33566,34.48,456.07,-1.7001,0.56669,-1.5974,-2.2668,1.0433e-11,-0.79871,0,0,0.11111,-5.2633e-16,0,0.66667
0.17738,0.11632,1.5964,-0.57552,-60.063,488.12,2.4501,-0.81669,-0.82046,3.2668,-1.6247e-10,-0.41023,0,0,0.11111,-1.3158e-16,0,0.66667
0.6451,0.96021,5.8059,0.69032,43.467,113.7,-10.688,3.5626,-0.30441,-14.25,2.2471e-13,-0.1522,0,0,0.11111,-1.0527e-15,0,0.66667
0.94704,0.0022828,8.5233,-0.74658,-8.3107,5.4651,16.969,-5.6563,-0.017011,22.625,8.0039e-07,-0.0085053,0,0,0.11111,-0,-0,0.66667
0.40926,0.65573,3.6834,0.2336,20.88,280.03,-2.2945,0.76483,-1.8073,-3.0593,1.6935e-12,-0.90365,0,0,0.11111,-6.4146e-16,0,0.66667
0.69687,0.18304,6.2718,-0.47544,-26.246,84.784,7.9517,-2.6506,-1.1947,10.602,1.5827e-12,-0.59733,0,0,0.11111,1.579e-15,0,0.66667
0.40397,0.80808,3.6358,0.46212,41.597,284.64,-4.4804,1.4935,-1.2421,-5.9739,-2.9692e-12,-0.62106,0,0,0.11111,7.8949e-16,0,0.66667
0.34982,0.86577,3.1483,0.54866,51.855,330.56,-4.6063,1.5354,-0.92754,-6.1417,2.2999e-12,-0.46377,0,0,0.11111,-2.6316e-16,0,0.66667
0.13297,0.8846,1.1967,0.57689,61.065,530.75,-1.841,0.61367,-0.81418,-2.4547,-5.897e-09,-0.40709,0,0,0.11111,-0,-0,0.66667
0.019913,0.9709,0.17921,0.70634,76.208,641.18,-0.33756,0.11254,-0.22586,-0.45007,2.3048e-05,-0.11293,0,0,0.11111,-0,-0,0.66667
0.11967,0.35455,1.077,-0.21818,-23.109,543.48,0.62663,-0.20888,-1.8288,0.8355,1.0873e-08,-0.91441,0,0,0.11111,-0,-0,0.66667
0.44424,0.55486,3.9982,0.082295,7.0864,251.7,-0.87741,0.29247,-1.9737,-1.1699,2.7417e-12,-0.98686,0,0,0.11111,-0,-0,0.66667
0.72978,0.088672,6.5681,-0.61699,-31.03,69.136,10.807,-3.6022,-0.6456,14.409,5.8602e-12,-0.3228,0,0,0.11111,-0,-0,0.66667
0.05369,0.22257,0.48321,-0.41615,-44.647,607.97,0.53624,-0.17875,-1.3826,0.71498,5.1418e-08,-0.69128,0,0,0.11111,-1.3158e-16,0,0.66667
0.22167,0.46032,1.995,-0.059516,-6.0774,445.99,0.31663,-0.10554,-1.9876,0.42217,-3.5262e-12,-0.99379,0,0,0.11111,2.6316e-16,0,0.66667
0.031064,0.82726,0.27958,0.49088,52.801,630.2,-0.36598,0.12199,-1.1467,-0.48797,1.155e-06,-0.57337,0,0,0.11111,-0,2.9339e-17,0.66667
0.83332,0.0098636,7.4999,-0.7352,-24.246,29.429,14.704,-4.9013,-0.076333,19.605,-2.2449e-09,-0.038167,0,0,0.11111,-0,-0,0.66667
0.38188,0.25125,3.4369,-0.37313,-34.258,302.95,3.4197,-1.1399,-1.5037,4.5597,-3.0687e-13,-0.75187,0,0,0.11111,-0,-0,0.66667
0.28458,0.86424,2.5612,0.54636,54.079,388.32,-3.7316,1.2439,-0.93819,-4.9755,3.7892e-12,-0.46909,0,0,0.11111,-0,-0,0.66667
0.78367,0.70085,7.053,0.30128,12.408,45.25,-5.6665,1.8888,-1.6777,-7.5554,-1.8618e-11,-0.83883,0,0,0.11111,2.1053e-15,0,0.66667
0.2789,0.33684,2.5101,-0.24474,-24.249,393.2,1.6382,-0.54608,-1.788,2.1843,-9.5429e-12,-0.89401,0,0,0.11111,-2.6316e-16,0,0.66667
0.28082,0.65141,2.5274,0.22712,22.474,391.45,-1.5307,0.51023,-1.8205,-2.0409,7.46e-12,-0.91026,0,0,0.11111,-2.6316e-16,0,0.66667
0.935,0.29637,8.415,-0.30545,-4.0004,5.1953,6.8543,-2.2848,-1.6686,9.1391,-5.6932e-08,-0.83428,0,0,0.11111,-0,-0,0.66667
0.16421,0.064978,1.4779,-0.65253,-68.481,500.75,2.5717,-0.85724,-0.48449,3.429,-1.2859e-08,-0.24225,0,0,0.11111,-0,-0,0.66667
0.03791,0.5235,0.34119,0.035257,3.7817,623.44,-0.032078,0.010693,-1.9934,-0.042771,-2.883e-08,-0.9967,0,0,0.11111,-6.5791e-17,0,0.66667
0.95604,0.13779,8.6044,-0.54331,-4.8946,3.5399,12.466,-4.1554,-0.95032,16.622,-1.4652e-06,-0.47516,0,0,0.11111,-0,-0,0.66667
0.30613,0.047756,2.7552,-0.67837,-66.325,369.14,4.9841,-1.6614,-0.36127,6.6455,-2.3461e-12,-0.18063,0,0,0.11111,5.2633e-16,0,0.66667
0.41408,0.38982,3.7267,-0.16527,-14.697,276.04,1.6425,-0.54749,-1.9001,2.19,2.3863e-12,-0.95006,0,0,0.11111,-5.2633e-16,0,0.66667
0.79679,0.41034,7.1711,-0.13448,-5.2272,40.067,2.5717,-0.85724,-1.9403,3.429,6.634e-12,-0.97016,0,0,0.11111,-0,-0,0.66667
0.35618,0.37755,3.2057,-0.18367,-17.219,324.69,1.5701,-0.52336,-1.8808,2.0934,1.8031e-12,-0.9404,0,0,0.11111,-0,-0,0.66667
0.10486,0.91812,0.94372,0.62719,66.881,558.03,-1.5784,0.52612,-0.59988,-2.1045,1.0902e-07,-0.29994,0,0,0.11111,-0,-0,0.66667
0.7889,0.46697,7.1001,-0.049539,-1.9916,42.966,0.93795,-0.31265,-1.9899,1.2506,-5.5984e-11,-0.99493,0,0,0.11111,1.0527e-15,0,0.66667
0.12962,0.49695,1.1665,-0.0045743,-0.48305,533.82,0.01423,-0.0047432,-1.9994,0.018973,1.599e-09,-0.99968,0,0,0.11111,-3.6185e-16,0,0.66667
0.19804,0.53091,1.7824,0.046363,4.7839,468.25,-0.22036,0.073454,-1.992,-0.29382,1.3992e-10,-0.99601,0,0,0.11111,-5.1133e-17,0,0.66667
0.13971,0.60177,1.2574,0.15265,16.079,524.07,-0.51184,0.17061,-1.9199,-0.68245,-2.716e-09,-0.95996,0,0,0.11111,-0,-0,0.66667
0.22166,0.88614,1.9949,0.57921,59.344,446.3,-3.0813,1.0271,-0.80715,-4.1084,-2.1088e-11,-0.40357,0,0,0.11111,-0,-0,0.66667
0.23535,0.57571,2.1181,0.11356,11.521,433.23,-0.64145,0.21382,-1.9565,-0.85526,1.487e-11,-0.97824,0,0,0.11111,-0,-0,0.66667
0.7264,0.42413,6.5376,-0.11381,-5.7409,69.649,1.9841,-0.66138,-1.9512,2.6455,7.0001e-12,-0.97561,0,0,0.11111,-1.0527e-15,0,0.66667
0.095244,0.43219,0.8572,-0.10171,-10.827,567.24,0.2325,-0.077499,-1.9655,0.31,6.4559e-09,-0.98275,0,0,0.11111,1.3158e-16,0,0.66667
0.66824,0.85493,6.0142,0.53239,31.668,100.14,-8.5384,2.8461,-0.99147,-11.385,-6.4926e-13,-0.49573,0,0,0.11111,-0,-0,0.66667
0.91093,0.42093,8.1984,-0.11861,-2.1128,8.6688,2.5931,-0.86437,-1.9483,3.4575,-9.1815e-09,-0.97414,0,0,0.11111,-0,-0,0.66667
0.63,0.97624,5.67,0.71437,46.492,122.66,-10.801,3.6004,-0.18409,-14.402,-2.0872e-13,-0.092044,0,0,0.11111,-0,-0,0.66667
0.33688,0.39549,3.032,-0.15677,-14.922,341.42,1.2675,-0.42251,-1.9101,1.6901,1.2846e-12,-0.95505,0,0,0.11111,-5.2633e-16,0,0.66667
0.83945,0.86837,7.5551,0.55256,17.476,26.786,-11.132,3.7108,-0.91354,-14.843,-3.6228e-10,-0.45677,0,0,0.11111,1.0527e-15,0,0.66667
0.89856,0.29002,8.0871,-0.31498,-6.3999,11.313,6.7926,-2.2642,-1.6448,9.0568,-2.9224e-08,-0.82241,0,0,0.11111,-2.1053e-15,0,0.66667
0.49346,0.18092,4.4411,-0.47861,-38.938,214.2,5.6682,-1.8894,-1.1835,7.5576,9.5168e-13,-0.59175,0,0,0.11111,-2.6316e-16,0,0.66667
0.56348,0.58696,5.0713,0.13044,9.5406,163.87,-1.764,0.588,-1.9423,-2.352,1.0102e-12,-0.97116,0,0,0.11111,5.2633e-16,0,0.66667
0.58066,0.28307,5.226,-0.32539,-23.139,152.62,4.5346,-1.5115,-1.6251,6.0462,3.0571e-12,-0.81255,0,0,0.11111,-2.1053e-15,0,0.66667
0.13276,0.87756,1.1948,0.56633,59.944,530.95,-1.8044,0.60148,-0.85805,-2.4059,1.4082e-09,-0.42902,0,0,0.11111,-0,-0,0.66667
0.37306,0.47912,3.3575,-0.031325,-2.894,310.2,0.28047,-0.093489,-1.9977,0.37396,-3.0174e-12,-0.99883,0,0,0.11111,-0,-0,0.66667
0.81161,0.54168,7.3045,0.06252,2.2682,34.744,-1.2178,0.40594,-1.9887,-1.6237,1.2767e-10,-0.99435,0,0,0.11111,-0,-0,0.66667
0.5196,0.27096,4.6764,-0.34356,-26.928,194.77,4.2844,-1.4281,-1.5793,5.7125,4.9161e-13,-0.78967,0,0,0.11111,-0,-0,0.66667
0.93958,0.2099,8.4563,-0.43515,-5.3387,4.9583,9.8127,-3.2709,-1.3278,13.084,-9.3369e-08,-0.66391,0,0,0.11111,-1.0527e-15,0,0.66667
0.61582,0.15283,5.5424,-0.52076,-34.756,130.66,7.6966,-2.5655,-1.0343,10.262,1.5308e-12,-0.51713,0,0,0.11111,-1.3967e-15,0,0.66667
0.77945,0.17475,7.0151,-0.48788,-20.514,47.357,9.1267,-3.0422,-1.1549,12.169,5.8913e-12,-0.57744,0,0,0.11111,-1.0527e-15,0,0.66667
0.24803,0.048347,2.2323,-0.67748,-68.594,421.9,4.0328,-1.3443,-0.36901,5.3771,2.8181e-11,-0.1845,0,0,0.11111,-0,1.3041e-16,0.66667
0.55931,0.99284,5.0338,0.73926,54.852,167.88,-9.9234,3.3078,-0.056888,-13.231,2.478e-13,-0.028444,0,0,0.11111,5.2633e-16,9.2936e-17,0.66667
0.81064,0.55802,7.2958,0.087028,3.1725,35.092,-1.6932,0.56439,-1.975,-2.2575,3.6107e-11,-0.9875,0,0,0.11111,1.0063e-15,0,0.66667
0.15271,0.51122,1.3744,0.016834,1.7659,511.52,-0.061699,0.020566,-1.9983,-0.082265,1.4832e-09,-0.99917,0,0,0.11111,-0,-0,0.66667
0.54016,0.65967,4.8614,0.23951,18.194,180.02,-3.1049,1.035,-1.7944,-4.1399,1.2137e-12,-0.89722,0,0,0.11111,-0,-0,0.66667
0.6103,0.37096,5.4927,-0.19356,-13.013,133.5,2.8351,-0.94503,-1.8701,3.7801,5.9597e-13,-0.93504,0,0,0.11111,-2.6316e-16,0,0.66667
0.18706,0.859,1.6835,0.5385,55.971,478.88,-2.4175,0.80584,-0.97205,-3.2234,-1.9326e-10,-0.48603,0,0,0.11111,2.6316e-16,0,0.66667
0.63689,0.4807,5.732,-0.028956,-1.8419,117.28,0.4426,-0.14753,-1.9961,0.59014,-1.9112e-13,-0.99807,0,0,0.11111,-0,-0,0.66667
0.067575,0.33906,0.60817,-0.24141,-25.827,594.32,0.39151,-0.1305,-1.7917,0.52202,3.3794e-08,-0.89584,0,0,0.11111,9.8686e-17,0,0.66667
0.77954,0.66646,7.0159,0.24969,10.45,46.775,-4.6715,1.5572,-1.7798,-6.2286,-1.3288e-11,-0.88989,0,0,0.11111,-0,-0,0.66667
0.32597,0.81993,2.9338,0.47989,46.156,351.27,-3.7544,1.2515,-1.1823,-5.0058,5.5844e-13,-0.59117,0,0,0.11111,-0,-0,0.66667
0.48278,0.54781,4.3451,0.07171,5.8981,221.8,-0.83089,0.27696,-1.9831,-1.1078,-2.9707e-12,-0.99157,0,0,0.11111,-0,-0,0.66667
0.38231,0.48385,3.4408,-0.024218,-2.2192,302.38,0.22221,-0.074071,-1.9952,0.29629,-4.3616e-12,-0.99759,0,0,0.11111,5.2633e-16,0,0.66667
0.32698,0.33176,2.9428,-0.25236,-24.21,350.17,1.9804,-0.66012,-1.7757,2.6405,1.1076e-12,-0.88785,0,0,0.11111,-0,-0,0.66667
0.98768,0.060623,8.8891,-0.65907,-1.6555,2.02,15.623,-5.2076,-0.45632,20.83,-3.0109e-05,-0.22816,0,0,0.11111,-7.8949e-16,0,0.66667
0.879,0.40083,7.911,-0.14876,-3.5694,15.278,3.1382,-1.0461,-1.9209,4.1842,-1.1213e-08,-0.96043,0,0,0.11111,1.0527e-15,0,0.66667
0.30229,0.1537,2.7206,-0.51946,-50.817,372.34,3.7687,-1.2562,-1.0396,5.0249,2.7056e-12,-0.51982,0,0,0.11111,-6.5791e-16,0,0.66667
0.16065,0.60063,1.4458,0.15094,15.796,503.91,-0.58196,0.19399,-1.918,-0.77594,-1.0475e-09,-0.95901,0,0,0.11111,-0,-0,0.66667
0.52931,0.88366,4.7638,0.57549,44.601,188.26,-7.3107,2.4369,-0.82375,-9.7477,-6.7679e-13,-0.41187,0,0,0.11111,-0,-0,0.66667
0.13806,0.40359,1.2425,-0.14461,-15.239,525.66,0.47915,-0.15972,-1.927,0.63887,1.9488e-09,-0.96352,0,0,0.11111,-2.9606e-16,0,0.66667
0.64979,0.46835,5.8481,-0.047474,-2.9347,109.77,0.74035,-0.24678,-1.991,0.98713,-7.0932e-13,-0.99552,0,0,0.11111,-4.6939e-16,0,0.66667
0.23295,0.057651,2.0966,-0.66352,-67.687,435.85,3.7097,-1.2366,-0.43708,4.9462,-1.2163e-10,-0.21854,0,0,0.11111,2.6316e-16,0,0.66667
0.096557,0.62341,0.86901,0.18512,19.705,565.97,-0.42899,0.143,-1.8795,-0.57199,-2.208e-08,-0.93973,0,0,0.11111,-1.9737e-16,0,0.66667
0.021993,0.20103,0.19793,-0.44846,-48.242,639.11,0.23671,-0.078903,-1.2824,0.31561,-1.6004e-06,-0.64121,0,0,0.11111,-0,-0,0.66667
0.85906,0.79039,7.7316,0.43559,12.158,20.849,-8.9808,2.9936,-1.329,-11.974,3.9467e-09,-0.66449,0,0,0.11111,-0,-0,0.66667
0.14271,0.339,1.2844,-0.2415,-25.425,521.19,0.82715,-0.27572,-1.7942,1.1029,4.0727e-09,-0.89712,0,0,0.11111,-3.2895e-16,0,0.66667
0.40293,0.079167,3.6264,-0.63125,-56.999,285.8,6.1044,-2.0348,-0.58262,8.1392,3.1126e-12,-0.29131,0,0,0.11111,-1.0035e-15,0,0.66667
0.093564,0.2088,0.84208,-0.43681,-46.594,568.95,0.98087,-0.32696,-1.3253,1.3078,3.0024e-08,-0.66267,0,0,0.11111,-0,-0,0.66667
0.11789,0.31406,1.061,-0.27891,-29.563,545.22,0.78915,-0.26305,-1.7221,1.0522,1.3122e-08,-0.86105,0,0,0.11111,-0,-0,0.66667
0.37482,0.21334,3.3734,-0.42999,-39.746,308.99,3.868,-1.2893,-1.3469,5.1573,3.3602e-12,-0.67344,0,0,0.11111,-0,-0,0.66667
0.16539,0.71545,1.4885,0.32318,33.795,499.42,-1.2828,0.4276,-1.6271,-1.7104,-1.198e-09,-0.81356,0,0,0.11111,3.2895e-16,0,0.66667
0.71895,0.96239,6.4706,0.69359,36.13,74.55,-11.968,3.9892,-0.29365,-15.957,-2.6645e-14,-0.14682,0,0,0.11111,1.0527e-15,0,0.66667
0.12585,0.32394,1.1327,-0.26409,-27.936,537.5,0.79768,-0.26589,-1.7546,1.0636,9.5798e-09,-0.8773,0,0,0.11111,-0,-0,0.66667
0.73883,0.90311,6.6495,0.60467,29.533,64.937,-10.722,3.574,-0.69954,-14.296,3.9226e-11,-0.34977,0,0,0.11111,-1.3158e-15,0,0.66667
0.84138,0.72815,7.5725,0.34223,10.637,25.578,-6.9107,2.3036,-1.5843,-9.2142,1.7406e-09,-0.79214,0,0,0.11111,-0,-0,0.66667
0.082681,0.18035,0.74413,-0.47948,-51.264,579.59,0.95145,-0.31715,-1.1815,1.2686,3.498e-08,-0.59073,0,0,0.11111,-0,-0,0.66667
0.040078,0.45357,0.3607,-0.069646,-7.4694,621.3,0.066991,-0.02233,-1.9801,0.089321,-2.8624e-07,-0.99005,0,0,0.11111,-1.1325e-16,0,0.66667
0.49353,0.80391,4.4418,0.45587,37.074,214.1,-5.3997,1.7999,-1.2589,-7.1996,9.8632e-13,-0.62943,0,0,0.11111,5.2633e-16,0,0.66667
0.60076,0.72083,5.4068,0.33125,22.708,139.67,-4.776,1.592,-1.6085,-6.368,-1.3514e-12,-0.80423,0,0,0.11111,2.1053e-15,0,0.66667
0.684,0.14666,6.156,-0.53002,-30.306,91.634,8.7007,-2.9002,-1.0007,11.601,5.4623e-13,-0.50034,0,0,0.11111,5.2633e-16,0,0.66667
0.47827,0.095442,4.3045,-0.60684,-50.424,225.92,6.9656,-2.3219,-0.68957,9.2875,-2.1951e-12,-0.34478,0,0,0.11111,-0,-0,0.66667
0.54316,0.93769,4.8884,0.65654,49.898,178.73,-8.5585,2.8528,-0.46813,-11.411,-5.2749e-12,-0.23407,0,0,0.11111,-0,-0,0.66667
0.54961,0.036507,4.9465,-0.69524,-52.348,174.37,9.1707,-3.0569,-0.28216,12.228,5.695e-12,-0.14108,0,0,0.11111,-0,-0,0.66667
0.71378,0.61642,6.424,0.17463,9.155,75.766,-2.9916,0.9972,-1.89,-3.9888,-5.6808e-12,-0.94501,0,0,0.11111,-0,-0,0.66667
0.15616,0.46235,1.4054,-0.056475,-5.9178,508.21,0.21166,-0.070554,-1.9929,0.28222,1.3873e-09,-0.99647,0,0,0.11111,-1.3158e-16,0,0.66667
0.021742,0.16427,0.19568,-0.50359,-54.201,639.36,0.26278,-0.087596,-1.0962,0.35038,-2.7595e-06,-0.54812,0,0,0.11111,6.5791e-17,0,0.66667
0.50805,0.38281,4.5725,-0.17579,-13.988,203,2.1435,-0.71448,-1.8878,2.8579,-1.9218e-12,-0.9439,0,0,0.11111,-0,-0,0.66667
0.95369,0.26879,8.5832,-0.34681,-3.2299,3.1019,7.9381,-2.646,-1.5753,10.584,3.284e-08,-0.78766,0,0,0.11111,-0,-0,0.66667
0.025153,0.49148,0.22638,-0.012773,-1.3712,635.98,0.0077109,-0.0025726,-1.9973,0.01028,-3.4347e-06,-0.99866,0,0,0.11111,1.6448e-17,0,0.66667
0.6128,0.036919,5.5152,-0.69462,-46.79,133.04,10.216,-3.4053,-0.28445,13.621,1.0774e-12,-0.14223,0,0,0.11111,-0,-0,0.66667
0.49388,0.50072,4.4449,0.0010843,0.087908,213.43,-0.012853,0.0042842,-1.9991,-0.017137,-3.0851e-12,-0.99955,0,0,0.11111,-0,-0,0.66667
0.9002,0.24539,8.1018,-0.38191,-7.6572,11.158,8.2511,-2.7504,-1.4798,11.001,-3.3109e-08,-0.73991,0,0,0.11111,1.579e-15,0,0.66667
0.023607,0.37281,0.21246,-0.19078,-20.489,637.51,0.10809,-0.03603,-1.8691,0.14412,-2.0382e-07,-0.93454,0,0,0.11111,-3.7007e-17,0,0.66667
0.65951,0.43161,5.9356,-0.10258,-6.2016,104.27,1.6237,-0.54124,-1.9627,2.165,1.1213e-12,-0.98136,0,0,0.11111,-0,-0,0.66667
0.65622,0.57281,5.906,0.10921,6.6534,106.13,-1.72,0.57334,-1.9616,-2.2934,4.7529e-13,-0.98078,0,0,0.11111,-0,-0,0.66667
0.88375,0.049455,7.9538,-0.67582,-15.909,15.723,14.334,-4.778,-0.37345,19.112,-1.2929e-08,-0.18672,0,0,0.11111,-0,-0,0.66667
0.53642,0.59916,4.8278,0.14874,11.358,182.57,-1.9149,0.63831,-1.9201,-2.5532,1.4219e-12,-0.96003,0,0,0.11111,-1.0527e-15,0,0.66667
0.69065,0.99089,6.2158,0.73634,41.577,88.87,-12.205,4.0684,-0.072059,-16.274,-4.7606e-13,-0.03603,0,0,0.11111,1.579e-15,0,0.66667
0.41267,0.89755,3.714,0.59633,53.308,277.73,-5.906,1.9687,-0.7334,-7.8747,-5.7243e-13,-0.3667,0,0,0.11111,5.2633e-16,0,0.66667
0.82659,0.28181,7.4393,-0.32729,-11.042,30.104,6.4928,-2.1643,-1.6222,8.657,-7.0524e-10,-0.81111,0,0,0.11111,-0,-0,0.66667
0.68501,0.61965,6.1651,0.17948,10.189,90.418,-2.9507,0.98355,-1.8865,-3.9342,-1.6687e-12,-0.94325,0,0,0.11111,-1.579e-15,0,0.66667
0.10801,0.71761,0.97212,0.32642,34.688,554.84,-0.84618,0.28206,-1.6244,-1.1282,-2.2932e-08,-0.81218,0,0,0.11111,1.8093e-16,0,0.66667
0.13989,0.30359,1.2591,-0.29461,-31.05,523.92,0.98916,-0.32972,-1.6944,1.3189,5.0678e-09,-0.84718,0,0,0.11111,-0,-0,0.66667
0.15807,0.40868,1.4226,-0.13698,-14.347,506.38,0.51967,-0.17322,-1.9356,0.6929,1.5442e-09,-0.96781,0,0,0.11111,-5.2633e-16,0,0.66667
0.12054,0.52979,1.0849,0.044682,4.7295,542.62,-0.12926,0.043087,-1.9928,-0.17235,-1.3349e-08,-0.99638,0,0,0.11111,-2.6037e-16,0,0.66667
0.23028,0.076924,2.0725,-0.63461,-64.799,438.31,3.5073,-1.1691,-0.56679,4.6764,9.2092e-11,-0.28339,0,0,0.11111,-0,3.8146e-17,0.66667
0.42336,0.25686,3.8103,-0.36471,-32.167,268.65,3.7057,-1.2352,-1.5291,4.941,3.8052e-12,-0.76457,0,0,0.11111,-1.0527e-15,0,0.66667
0.67076,0.025758,6.0369,-0.71136,-42.219,99.355,11.452,-3.8172,-0.20356,15.269,3.2063e-13,-0.10178,0,0,0.11111,1.0527e-15,0,0.66667
0.33662,0.78189,3.0296,0.42284,40.324,341.86,-3.4161,1.1387,-1.3631,-4.5548,5.1206e-12,-0.68157,0,0,0.11111,-1.0527e-15,0,0.66667
0.51975,0.023978,4.6778,-0.71403,-56.244,195.47,8.9069,-2.969,-0.18641,11.876,1.1147e-12,-0.093207,0,0,0.11111,-0,-0,0.66667
0.82112,0.77866,7.3901,0.41799,14.538,32.102,-8.2372,2.7457,-1.3773,-10.983,2.3629e-10,-0.68865,0,0,0.11111,-0,-0,0.66667
0.88459,0.13826,7.9613,-0.54262,-12.595,14.961,11.52,-3.8399,-0.95075,15.36,-9.2104e-09,-0.47537,0,0,0.11111,-0,-0,0.66667
0.70449,0.98877,6.3404,0.73316,39.864,81.8,-12.396,4.1321,-0.09066,-16.528,-4.2037e-12,-0.04533,0,0,0.11111,2.1053e-15,0,0.66667
0.83449,0.34166,7.5104,-0.2375,-7.6635,27.456,4.7567,-1.5856,-1.7982,6.3422,-1.0244e-09,-0.89909,0,0,0.11111,-1.6105e-17,0,0.66667
0.30908,0.21261,2.7817,-0.43108,-41.941,366.18,3.1977,-1.0659,-1.3392,4.2636,-9.337e-13,-0.6696,0,0,0.11111,-2.6316e-16,0,0.66667
0.79062,0.10312,7.1156,-0.59532,-23.977,43.43,11.296,-3.7653,-0.73767,15.061,3.7517e-10,-0.36883,0,0,0.11111,-0,-0,0.66667
0.91666,0.41763,8.25,-0.12355,-2.0612,7.6816,2.7181,-0.90602,-1.9438,3.6241,-1.3814e-08,-0.97191,0,0,0.11111,-0,-0,0.66667
0.038406,0.24269,0.34565,-0.38596,-41.457,622.97,0.35575,-0.11858,-1.4681,0.47434,-6.4914e-08,-0.73406,0,0,0.11111,3.2895e-17,0,0.66667
0.44563,0.91675,4.0107,0.62513,53.995,251.29,-6.6858,2.2286,-0.60797,-8.9144,-3.0136e-12,-0.30398,0,0,0.11111,1.0527e-15,0,0.66667
0.23993,0.027215,2.1594,-0.70918,-72.138,429.44,4.0837,-1.3612,-0.21052,5.4449,8.5456e-12,-0.10526,0,0,0.11111,-0,-0,0.66667
0.49402,0.38969,4.4461,-0.16547,-13.418,213.39,1.9619,-0.65396,-1.9002,2.6158,-2.1205e-14,-0.95012,0,0,0.11111,-0,-0,0.66667
0.61748,0.3126,5.5573,-0.28111,-18.643,129.16,4.1658,-1.3886,-1.718,5.5544,1.3021e-12,-0.85898,0,0,0.11111,-0,-0,0.66667
0.20905,0.67929,1.8814,0.26893,27.639,457.91,-1.3493,0.44976,-1.7408,-1.799,-1.3375e-11,-0.87042,0,0,0.11111,1.3158e-16,0,0.66667
0.87443,0.52237,7.8698,0.033554,0.83343,16.29,-0.70417,0.23472,-1.9992,-0.93889,3.4413e-09,-0.9996,0,0,0.11111,-0,-0,0.66667
0.25589,0.18965,2.303,-0.46552,-46.817,414.41,2.8589,-0.95298,-1.2284,3.8119,-1.9882e-11,-0.61419,0,0,0.11111,-0,-0,0.66667
0.71361,0.64632,6.4225,0.21949,11.516,75.901,-3.7591,1.253,-1.8269,-5.0121,-6.8161e-12,-0.91347,0,0,0.11111,1.0527e-15,0,0.66667
0.85223,0.21904,7.6701,-0.42144,-12.29,22.669,8.6199,-2.8733,-1.3674,11.493,-2.2136e-09,-0.68371,0,0,0.11111,-0,-0,0.66667
0.93241,0.53865,8.3917,0.057971,0.7841,5.2146,-1.2973,0.43242,-1.9866,-1.7297,-3.7833e-08,-0.99328,0,0,0.11111,-0,-0,0.66667
0.95573,0.86508,8.6016,0.54762,4.9715,3.5877,-12.561,4.187,-0.93413,-16.748,1.4739e-06,-0.46707,0,0,0.11111,-0,-0,0.66667
0.6802,0.24168,6.1218,-0.38748,-22.32,93.297,6.3256,-2.1085,-1.4638,8.4341,2.1454e-12,-0.7319,0,0,0.11111,-1.0527e-15,0,0.66667
0.62852,0.37471,5.6567,-0.18793,-12.176,122.35,2.8348,-0.94494,-1.8753,3.7798,-1.4655e-14,-0.93765,0,0,0.11111,6.5791e-17,0,0.66667
0.59597,0.96345,5.3637,0.69518,48.356,143.61,-9.9433,3.3144,-0.28306,-13.258,-1.0232e-12,-0.14153,0,0,0.11111,-0,-0,0.66667
0.48512,0.090965,4.3661,-0.61355,-50.551,220.75,7.1435,-2.3812,-0.66531,9.5247,-3.9906e-12,-0.33265,0,0,0.11111,6.5791e-16,0,0.66667
0.36043,0.40206,3.2439,-0.14692,-13.723,321.02,1.2709,-0.42363,-1.9263,1.6945,-1.1907e-12,-0.96317,0,0,0.11111,1.3158e-16,0,0.66667
0.020765,0.37739,0.18689,-0.18391,-19.753,640.31,0.091657,-0.030552,-1.879,0.12221,-1.2724e-07,-0.93948,0,0,0.11111,6.5791e-17,0,0.66667
0.74867,0.45036,6.7381,-0.074457,-3.4911,59.474,1.3379,-0.44595,-1.9821,1.7838,9.4424e-12,-0.99106,0,0,0.11111,-1.0527e-15,0,0.66667
0.39368,0.29979,3.5431,-0.30031,-27.26,292.99,2.8374,-0.94581,-1.6791,3.7832,8.3422e-13,-0.83954,0,0,0.11111,5.2633e-16,0,0.66667
0.27934,0.72659,2.514,0.33988,33.685,392.86,-2.2786,0.75954,-1.5907,-3.0381,7.4811e-12,-0.79534,0,0,0.11111,-0,-0,0.66667
0.77753,0.64453,6.9978,0.2168,9.1432,47.522,-4.0456,1.3485,-1.832,-5.3942,-1.256e-11,-0.91602,0,0,0.11111,-0,-0,0.66667
0.66027,0.65236,5.9424,0.22854,13.801,103.95,-3.6216,1.2072,-1.814,-4.8288,1.1857e-13,-0.90702,0,0,0.11111,-1.3158e-15,0,0.66667
0.9098,0.65141,8.1882,0.22712,4.1053,9.0087,-4.9592,1.6531,-1.8166,-6.6122,3.1786e-08,-0.9083,0,0,0.11111,1.0527e-15,0,0.66667
0.12761,0.97485,1.1485,0.71228,75.633,536.01,-2.1815,0.72718,-0.1969,-2.9087,3.6395e-08,-0.098451,0,0,0.11111,-0,-0,0.66667
0.38236,0.40878,3.4412,-0.13683,-12.54,302.36,1.2556,-0.41854,-1.9319,1.6742,3.3573e-13,-0.96594,0,0,0.11111,1.0527e-15,0,0.66667
0.57738,0.72787,5.1965,0.34181,24.451,154.8,-4.7365,1.5788,-1.5875,-6.3154,1.0738e-12,-0.79376,0,0,0.11111,1.0527e-15,0,0.66667
0.3545,0.83951,3.1905,0.50927,47.929,326.46,-4.3328,1.4443,-1.0769,-5.7771,5.0124e-12,-0.53847,0,0,0.11111,-2.6316e-16,0,0.66667
0.34805,0.89432,3.1324,0.59148,56.011,332.16,-4.9408,1.6469,-0.75474,-6.5877,1.0267e-12,-0.37737,0,0,0.11111,-0,-0,0.66667
0.48409,0.52926,4.3568,0.04389,3.6038,220.8,-0.50993,0.16998,-1.9978,-0.6799,-3.8155e-12,-0.9989,0,0,0.11111,5.2633e-16,0,0.66667
0.071438,0.10391,0.64295,-0.59414,-63.71,590.62,1.0187,-0.33955,-0.74246,1.3582,3.0281e-07,-0.37123,0,0,0.11111,-0,-0,0.66667
0.038686,0.98067,0.34817,0.72101,77.72,622.75,-0.66943,0.22313,-0.14901,-0.89257,-1.208e-05,-0.074503,0,0,0.11111,-6.5791e-17,0,0.66667
0.84061,0.71233,7.5655,0.31849,9.9389,25.755,-6.4254,2.1418,-1.6395,-8.5672,1.7278e-09,-0.81976,0,0,0.11111,5.2633e-16,0,0.66667
0.0073689,0.070195,0.06632,-0.64471,-69.526,653.51,0.11401,-0.037993,-0.51985,0.15202,1.7941e-05,-0.25993,0,0,0.11111,-0,-0,0.66667
0.70376,0.67832,6.3338,0.26748,14.444,80.857,-4.5178,1.5059,-1.7487,-6.0238,-4.5111e-12,-0.87435,0,0,0.11111,-0,-0,0.66667
0.44556,0.72811,4.0101,0.34217,29.459,250.85,-3.659,1.2197,-1.5812,-4.8786,4.3432e-13,-0.79062,0,0,0.11111,-1.0527e-15,0,0.66667
0.96951,0.49011,8.7256,-0.014832,-0.087542,1.284,0.34512,-0.11504,-2.0021,0.46017,2.363e-06,-1.001,0,0,0.11111,2.1053e-15,0,0.66667
0.80992,0.38482,7.2893,-0.17278,-6.324,35.413,3.3584,-1.1195,-1.8943,4.4779,-1.6559e-10,-0.94714,0,0,0.11111,-0,-0,0.66667
0.39961,0.44953,3.5965,-0.075708,-6.8271,287.92,0.72609,-0.24203,-1.9771,0.96813,3.5455e-12,-0.98855,0,0,0.11111,-0,-0,0.66667
0.39383,0.58422,3.5445,0.12632,11.455,292.74,-1.194,0.398,-1.943,-1.592,5.0926e-13,-0.97152,0,0,0.11111,-0,-0,0.66667
0.12859,0.28239,1.1573,-0.32642,-34.516,534.86,1.0074,-0.3358,-1.6218,1.3432,8.8026e-09,-0.81089,0,0,0.11111,-0,-0,0.66667
0.36459,0.98041,3.2813,0.72061,67.449,318.18,-6.3055,2.1018,-0.15173,-8.4073,1.9167e-12,-0.075865,0,0,0.11111,-0,-0,0.66667
0.20418,0.83573,1.8376,0.5036,51.96,462.65,-2.4678,0.8226,-1.1008,-3.2904,-3.7735e-11,-0.55042,0,0,0.11111,1.3158e-16,0,0.66667
0.31607,0.38714,2.8446,-0.16929,-16.363,359.76,1.2842,-0.42807,-1.8974,1.7123,-6.2705e-13,-0.94868,0,0,0.11111,-0,-0,0.66667
0.56232,0.38288,5.0608,-0.17569,-12.878,164.69,2.371,-0.79033,-1.8942,3.1613,9.2926e-13,-0.9471,0,0,0.11111,1.0527e-15,0,0.66667
0.86191,0.49465,7.7572,-0.008032,-0.21834,19.442,0.16615,-0.055383,-2.0007,0.22153,-7.1066e-09,-1.0004,0,0,0.11111,-5.2633e-16,0,0.66667
0.098202,0.83654,0.88382,0.50481,53.833,564.45,-1.1898,0.39659,-1.0929,-1.5863,-4.0406e-08,-0.54644,0,0,0.11111,-0,-0,0.66667
0.83006,0.91389,7.4705,0.62084,20.739,29.928,-12.368,4.1227,-0.63095,-16.491,3.4267e-09,-0.31547,0,0,0.11111,-0,-0,0.66667
0.92067,0.33557,8.286,-0.24664,-3.9305,7.1913,5.4498,-1.8166,-1.786,7.2664,-4.1182e-08,-0.89302,0,0,0.11111,-1.0527e-15,0,0.66667
0.22363,0.2116,2.0127,-0.4326,-44.216,444.32,2.3218,-0.77393,-1.3333,3.0957,-2.5914e-11,-0.66664,0,0,0.11111,-0,-0,0.66667
0.20085,0.73423,1.8076,0.35135,36.255,465.69,-1.6936,0.56455,-1.5616,-2.2582,-4.272e-11,-0.78081,0,0,0.11111,-2.6316e-16,0,0.66667
0.76844,0.32781,6.9159,-0.25828,-11.29,51.255,4.7633,-1.5878,-1.7628,6.3511,2.6322e-11,-0.88138,0,0,0.11111,1.0527e-15,0,0.66667
0.020528,0.78497,0.18475,0.42745,45.977,640.55,-0.21059,0.070199,-1.3495,-0.28079,1.2179e-06,-0.67475,0,0,0.11111,6.5791e-17,0,0.66667
0.48994,0.48942,4.4095,-0.015867,-1.293,216.38,0.18657,-0.062191,-1.9971,0.24876,1.5167e-13,-0.99853,0,0,0.11111,-1.0527e-15,0,0.66667
0.022375,0.65851,0.20138,0.23776,25.54,638.72,-0.12768,0.04256,-1.7976,-0.17024,2.3281e-07,-0.89881,0,0,0.11111,-0,-0,0.66667
0.8073,0.44005,7.2657,-0.089925,-3.3306,36.259,1.7423,-0.58077,-1.9704,2.3231,-1.2838e-10,-0.98521,0,0,0.11111,-0,-0,0.66667
0.024361,0.43118,0.21925,-0.10322,-11.082,636.77,0.060352,-0.020117,-1.96,0.080469,-3.9413e-07,-0.98002,0,0,0.11111,-0,-0,0.66667
0.16055,0.69774,1.445,0.29661,31.062,504.04,-1.1429,0.38097,-1.686,-1.5239,-1.6232e-09,-0.84298,0,0,0.11111,-0,-0,0.66667
0.24613,0.6043,2.2152,0.15645,15.785,423.23,-0.92415,0.30805,-1.9121,-1.2322,1.6842e-11,-0.95603,0,0,0.11111,-0,-0,0.66667
0.99712,0.39689,8.9741,-0.15467,-0.0097531,0.14028,3.7013,-1.2338,-1.9151,4.9351,-6.0736e-07,-0.95754,0,0,0.11111,-0,-0,0.66667
0.42075,0.3075,3.7867,-0.28875,-25.521,270.69,2.9158,-0.97194,-1.7064,3.8878,9.2659e-13,-0.8532,0,0,0.11111,-7.8949e-16,0,0.66667
0.072263,0.15535,0.65037,-0.51697,-55.383,589.79,0.89659,-0.29886,-1.0489,1.1955,1.8232e-07,-0.52445,0,0,0.11111,-4.9343e-17,0,0.66667
0.25027,0.67356,2.2524,0.26034,26.222,419.44,-1.5637,0.52125,-1.7624,-2.085,2.2427e-11,-0.88121,0,0,0.11111,-5.2633e-16,0,0.66667
0.41157,0.55579,3.7041,0.083679,7.4583,278.06,-0.82655,0.27552,-1.9736,-1.1021,-2.0988e-12,-0.98678,0,0,0.11111,2.6316e-16,0,0.66667
0.42026,0.083525,3.7823,-0.62471,-55.441,271.6,6.301,-2.1003,-0.61397,8.4013,-8.9706e-13,-0.30699,0,0,0.11111,5.2633e-16,1.1587e-16,0.66667
0.12217,0.044824,1.0995,-0.68276,-72.57,541.26,2.0019,-0.66732,-0.34246,2.6693,-1.9668e-08,-0.17123,0,0,0.11111,-0,-0,0.66667
0.0095038,0.0064081,0.085534,-0.74039,-79.944,651.41,0.169,-0.056302,-0.049375,0.22535,4.7036e-05,-0.024688,0,0,0.11111,-0,-0,0.66667
0.81546,0.18651,7.3391,-0.47024,-16.848,34.141,9.203,-3.0677,-1.2151,12.271,-6.2421e-10,-0.60753,0,0,0.11111,-1.3158e-16,0,0.66667
0.24196,0.10642,2.1776,-0.59036,-59.896,427.41,3.4282,-1.1427,-0.75808,4.5709,-4.8526e-11,-0.37904,0,0,0.11111,-0,-0,0.66667
0.083424,0.34088,0.75082,-0.23868,-25.473,578.8,0.47789,-0.1593,-1.7965,0.63718,3.7645e-08,-0.89825,0,0,0.11111,-1.3158e-16,0,0.66667
0.39022,0.95234,3.512,0.67852,62.049,296.45,-6.3546,2.1182,-0.36624,-8.4727,-4.0137e-12,-0.18312,0,0,0.11111,5.2633e-16,0,0.66667
0.43254,0.22345,3.8929,-0.41482,-36.251,261.32,4.3062,-1.4354,-1.3871,5.7416,1.0858e-12,-0.69356,0,0,0.11111,-0,-0,0.66667
0.5241,0.48992,4.7169,-0.01512,-1.1756,191.29,0.19018,-0.063393,-1.9967,0.25357,3.4732e-12,-0.99834,0,0,0.11111,-0,-0,0.66667
0.76031,0.65454,6.8428,0.23181,10.441,54.599,-4.2299,1.41,-1.8082,-5.6399,-2.3042e-11,-0.9041,0,0,0.11111,1.3158e-15,0,0.66667
0.78814,0.72111,7.0932,0.33166,13.414,43.595,-6.2734,2.0911,-1.6075,-8.3646,-8.3409e-12,-0.80373,0,0,0.11111,-0,-0,0.66667
0.46938,0.10204,4.2244,-0.59694,-50.138,232.7,6.7246,-2.2415,-0.73621,8.9661,-5.0271e-13,-0.36811,0,0,0.11111,-0,-0,0.66667
0.88477,0.076088,7.9629,-0.63587,-14.811,15.311,13.502,-4.5008,-0.56006,18.003,-6.843e-08,-0.28003,0,0,0.11111,-2.1053e-15,0,0.66667
0.079143,0.48168,0.71229,-0.027476,-2.9328,582.97,0.052188,-0.017396,-1.9996,0.069584,2.1616e-08,-0.99979,0,0,0.11111,-0,-0,0.66667
0.35568,0.0088445,3.2011,-0.73673,-69.486,325.84,6.289,-2.0963,-0.069517,8.3853,-8.9795e-13,-0.034759,0,0,0.11111,-0,-0,0.66667
0.35988,0.66214,3.2389,0.24321,22.738,321.55,-2.1006,0.70021,-1.7933,-2.8009,1.0774e-12,-0.89667,0,0,0.11111,1.0527e-15,0,0.66667
0.71091,0.88156,6.3982,0.57234,30.434,78.023,-9.7651,3.255,-0.83311,-13.02,-9.5026e-12,-0.41655,0,0,0.11111,2.1053e-15,0,0.66667
0.84544,0.59199,7.609,0.13799,4.1728,24.057,-2.7999,0.93329,-1.9349,-3.7331,2.3425e-09,-0.96746,0,0,0.11111,-3.9475e-16,0,0.66667
0.72322,0.15864,6.509,-0.51204,-26.216,71.878,8.8877,-2.9626,-1.0674,11.85,1.9076e-11,-0.53372,0,0,0.11111,2.1053e-15,0,0.66667
0.11084,0.96872,0.99757,0.70308,74.95,552.26,-1.8703,0.62344,-0.24571,-2.4938,-2.3699e-07,-0.12286,0,0,0.11111,2.3644e-17,0,0.66667
0.59935,0.75124,5.3942,0.37687,25.916,140.64,-5.421,1.807,-1.4942,-7.228,1.6533e-12,-0.74711,0,0,0.11111,-2.1053e-15,0,0.66667
0.50962,0.23845,4.5866,-0.39233,-31.201,202.1,4.7985,-1.5995,-1.4504,6.3981,2.8249e-12,-0.72521,0,0,0.11111,-5.2633e-16,0,0.66667
0.60538,0.94861,5.4485,0.67292,45.964,137.58,-9.777,3.259,-0.38891,-13.036,-8.3489e-14,-0.19446,0,0,0.11111,-0,-0,0.66667
0.012168,0.64615,0.10952,0.21922,23.556,648.77,-0.064023,0.021341,-1.8286,-0.085364,-1.3383e-07,-0.91431,0,0,0.11111,-1.6448e-17,0,0.66667
0.2884,0.44757,2.5956,-0.078639,-7.7412,384.53,0.54431,-0.18144,-1.9755,0.72574,-4.8294e-12,-0.98775,0,0,0.11111,-0,-0,0.66667
0.051856,0.0098828,0.46671,-0.73518,-79.169,609.84,0.91496,-0.30499,-0.076602,1.2199,-1.5406e-06,-0.038301,0,0,0.11111,-0,-0,0.66667
0.38587,0.56979,3.4728,0.10468,9.5623,299.4,-0.96945,0.32315,-1.9598,-1.2926,-1.8443e-12,-0.97988,0,0,0.11111,-0,-0,0.66667
0.75909,0.45802,6.8318,-0.062976,-2.8459,54.968,1.1473,-0.38243,-1.9835,1.5297,4.306e-12,-0.99174,0,0,0.11111,-0,-0,0.66667
0.276,0.27136,2.484,-0.34296,-34.06,395.9,2.2718,-0.75726,-1.58,3.0291,-3.9879e-12,-0.78998,0,0,0.11111,-2.6316e-16,0,0.66667
0.61411,0.69529,5.527,0.29294,19.561,131.25,-4.3175,1.4392,-1.6936,-5.7567,3.4639e-13,-0.84679,0,0,0.11111,-0,-0,0.66667
0.62743,0.92974,5.6469,0.64461,42.113,123.96,-9.7068,3.2356,-0.52337,-12.942,-1.4673e-12,-0.26168,0,0,0.11111,-0,-0,0.66667
0.25163,0.18691,2.2647,-0.46963,-47.342,418.34,2.8362,-0.94539,-1.2188,3.7816,-7.6614e-12,-0.60938,0,0,0.11111,6.5791e-17,0,0.66667
0.47504,0.35557,4.2754,-0.21665,-18.002,227.77,2.47,-0.82335,-1.8307,3.2934,-1.7142e-13,-0.91535,0,0,0.11111,-0,-0,0.66667
0.1435,0.19964,1.2915,-0.45054,-47.488,520.52,1.5516,-0.5172,-1.2782,2.0688,3.242e-09,-0.63912,0,0,0.11111,-0,-0,0.66667
0.070018,0.21387,0.63016,-0.4292,-45.958,591.96,0.72125,-0.24042,-1.3431,0.96166,1.3814e-07,-0.67153,0,0,0.11111,3.2895e-17,0,0.66667
0.79297,0.32549,7.1367,-0.26177,-10.36,41.645,4.9817,-1.6606,-1.7553,6.6423,-3.1759e-11,-0.87765,0,0,0.11111,-0,-0,0.66667
0.17947,0.57966,1.6153,0.11949,12.422,485.9,-0.5147,0.17157,-1.9465,-0.68627,-2.5617e-10,-0.97324,0,0,0.11111,-2.6316e-16,0,0.66667
0.12621,0.82112,1.1359,0.48168,51.027,537.24,-1.459,0.48633,-1.1774,-1.9453,-6.0574e-09,-0.58868,0,0,0.11111,-0,-0,0.66667
0.96712,0.017,8.704,-0.7245,-5.0333,3.4895,16.816,-5.6054,-0.13507,22.422,1.1387e-06,-0.067536,0,0,0.11111,-0,1.3056e-16,0.66667
0.055643,0.21923,0.50079,-0.42116,-45.176,606.05,0.56243,-0.18748,-1.3683,0.7499,5.5125e-08,-0.68414,0,0,0.11111,-0,-0,0.66667
0.68195,0.49211,6.1375,-0.011829,-0.67652,91.956,0.1936,-0.064535,-1.9977,0.25814,-3.9442e-13,-0.99885,0,0,0.11111,-0,-0,0.66667
0.37495,0.33703,3.3745,-0.24446,-22.562,308.69,2.1998,-0.73327,-1.7918,2.9331,-6.95e-13,-0.89591,0,0,0.11111,2.6316e-16,0,0.66667
0.17349,0.642,1.5614,0.213,22.197,491.63,-0.88686,0.29562,-1.8401,-1.1825,-6.6025e-10,-0.92004,0,0,0.11111,-0,-0,0.66667
0.27286,0.16373,2.4558,-0.50441,-50.259,398.91,3.3032,-1.1011,-1.0931,4.4043,-1.2786e-11,-0.54655,0,0,0.11111,-0,-0,0.66667
0.7317,0.81412,6.5853,0.47118,23.477,67.784,-8.2743,2.7581,-1.2121,-11.032,-1.2402e-11,-0.60604,0,0,0.11111,-0,-0,0.66667
0.85547,0.51122,7.6993,0.016829,0.47758,21.168,-0.34552,0.11517,-1.998,-0.46069,1.8412e-10,-0.99901,0,0,0.11111,4.2106e-15,0,0.66667
0.26883,0.76578,2.4195,0.39867,39.778,402.48,-2.5722,0.85739,-1.4344,-3.4296,1.1559e-11,-0.71721,0,0,0.11111,-0,-0,0.66667
0.34714,0.13476,3.1243,-0.54785,-51.889,332.87,4.5644,-1.5215,-0.93241,6.0859,6.7906e-12,-0.4662,0,0,0.11111,-0,-0,0.66667
0.40955,0.22527,3.686,-0.4121,-36.874,279.98,4.0506,-1.3502,-1.3962,5.4009,2.0601e-12,-0.69809,0,0,0.11111,-0,-0,0.66667
0.82745,0.94514,7.447,0.66772,22.659,30.952,-13.26,4.42,-0.41794,-17.68,-6.3116e-09,-0.20897,0,0,0.11111,-0,-0,0.66667
0.74992,0.86114,6.7493,0.54171,25.452,59.79,-9.7497,3.2499,-0.96034,-13,4.8832e-12,-0.48017,0,0,0.11111,-0,-0,0.66667
0.20942,0.13551,1.8848,-0.54674,-56.309,457.75,2.748,-0.91599,-0.93483,3.6639,2.0433e-10,-0.46742,0,0,0.11111,-0,-0,0.66667
0.54285,0.51185,4.8857,0.01777,1.3432,178.01,-0.23152,0.077172,-1.9978,-0.30869,5.7898e-12,-0.99888,0,0,0.11111,-0,-0,0.66667
0.76674,0.02665,6.9007,-0.71003,-31.559,53.295,13.066,-4.3552,-0.21045,17.421,9.679e-11,-0.10522,0,0,0.11111,-0,-0,0.66667
0.47874,0.99297,4.3087,0.73945,61.545,225.91,-8.4961,2.832,-0.054144,-11.328,2.6503e-12,-0.027072,0,0,0.11111,1.0527e-15,0,0.66667
0.5555,0.99862,4.9995,0.74793,55.848,170.5,-9.9714,3.3238,-0.0097323,-13.295,-1.9718e-12,-0.0048662,0,0,0.11111,-2.6316e-16,0,0.66667
0.21251,0.41918,1.9126,-0.12123,-12.433,454.6,0.61834,-0.20611,-1.9453,0.82445,9.4241e-12,-0.97265,0,0,0.11111,5.2633e-16,0,0.66667
0.65934,0.47552,5.934,-0.036724,-2.2206,104.34,0.58113,-0.19371,-1.9954,0.77484,-4.0218e-13,-0.9977,0,0,0.11111,-0,-0,0.66667
0.072077,0.75977,0.64869,0.38966,41.698,589.94,-0.67404,0.22468,-1.458,-0.89872,-1.113e-07,-0.72898,0,0,0.11111,1.3158e-16,0,0.66667
0.36173,0.15698,3.2556,-0.51453,-48.139,320.25,4.467,-1.489,-1.0607,5.956,9.1371e-12,-0.53034,0,0,0.11111,-1.0527e-15,0,0.66667
0.4004,0.13142,3.6036,-0.55287,-49.989,287.74,5.3129,-1.771,-0.91145,7.0838,3.1131e-13,-0.45572,0,0,0.11111,1.0527e-15,0,0.66667
0.60878,0.37436,5.479,-0.18846,-12.707,134.44,2.7535,-0.91782,-1.8782,3.6713,7.9714e-14,-0.93908,0,0,0.11111,5.2633e-16,0,0.66667
0.94867,0.29757,8.538,-0.30364,-3.1321,3.5216,6.9133,-2.3044,-1.6706,9.2178,3.2651e-08,-0.83532,0,0,0.11111,-2.1053e-15,0,0.66667
0.21912,0.78268,1.9721,0.42401,43.426,448.54,-2.2299,0.74329,-1.3654,-2.9732,5.3966e-11,-0.68269,0,0,0.11111,5.2633e-16,0,0.66667
0.54416,0.02294,4.8974,-0.71559,-54.362,178.21,9.3454,-3.1151,-0.17972,12.461,3.9186e-12,-0.089859,0,0,0.11111,-0,1.0274e-16,0.66667
0.80224,0.70969,7.2202,0.31453,11.956,38.347,-6.056,2.0187,-1.6464,-8.0746,1.0405e-10,-0.82321,0,0,0.11111,-0,-0,0.66667
0.60296,0.95558,5.4266,0.68337,46.905,139.14,-9.8891,3.2964,-0.33704,-13.185,-2.2569e-12,-0.16852,0,0,0.11111,1.0527e-15,0,0.66667
0.73883,0.79025,6.6495,0.43538,21.185,64.419,-7.7201,2.5734,-1.3248,-10.293,-1.2228e-11,-0.66239,0,0,0.11111,-0,-0,0.66667
0.11645,0.041796,1.0481,-0.68731,-73.158,546.8,1.9209,-0.64032,-0.31786,2.5613,-5.7837e-08,-0.15893,0,0,0.11111,2.6316e-16,0,0.66667
0.83579,0.53313,7.5221,0.04969,1.5889,26.878,-0.99672,0.33224,-1.9898,-1.329,-3.6423e-10,-0.99489,0,0,0.11111,2.1053e-15,0,0.66667
0.3113,0.32044,2.8017,-0.26934,-26.133,364.06,2.0123,-0.67076,-1.7444,2.683,-5.1266e-12,-0.87222,0,0,0.11111,-0,-0,0.66667
0.43711,0.48176,3.934,-0.027365,-2.3748,257.37,0.28707,-0.095691,-2.0006,0.38277,-3.2346e-12,-1.0003,0,0,0.11111,-0,-0,0.66667
0.08488,0.3365,0.76392,-0.24524,-26.168,577.38,0.49959,-0.16653,-1.784,0.66612,3.7511e-08,-0.892,0,0,0.11111,-0,-0,0.66667
0.68718,0.45155,6.1846,-0.072676,-4.1006,89.202,1.1986,-0.39953,-1.9845,1.5981,8.6786e-13,-0.99227,0,0,0.11111,-0,-0,0.66667
0.84731,0.29003,7.6258,-0.31496,-9.4435,23.792,6.4049,-2.135,-1.6468,8.5398,-2.37e-09,-0.8234,0,0,0.11111,-0,-0,0.66667
0.48369,0.21661,4.3532,-0.42508,-35,221.45,4.9346,-1.6449,-1.3615,6.5794,2.5357e-13,-0.68076,0,0,0.11111,1.3158e-16,0,0.66667
0.10135,0.10131,0.91217,-0.59804,-63.798,561.43,1.4547,-0.4849,-0.72605,1.9396,4.5394e-08,-0.36302,0,0,0.11111,-0,-0,0.66667
0.10296,0.97275,0.92662,0.70912,75.729,559.92,-1.7522,0.58408,-0.21046,-2.3363,-5.3621e-07,-0.10523,0,0,0.11111,-0,-0,0.66667
0.11563,0.75551,1.0406,0.38327,40.674,547.45,-1.0636,0.35453,-1.4759,-1.4181,-1.4144e-08,-0.73796,0,0,0.11111,2.6316e-16,0,0.66667
0.49491,0.68882,4.4542,0.28323,22.955,212.82,-3.3642,1.1214,-1.7142,-4.4856,1.5654e-13,-0.85712,0,0,0.11111,-0,-0,0.66667
0.62202,0.1323,5.5982,-0.55155,-36.372,126.95,8.2339,-2.7446,-0.9186,10.979,4.7429e-13,-0.4593,0,0,0.11111,-0,-0,0.66667
0.033262,0.19542,0.29936,-0.45687,-49.12,628.03,0.36471,-0.12157,-1.2591,0.48628,-4.4401e-07,-0.62956,0,0,0.11111,-0,-0,0.66667
0.062583,0.89206,0.56325,0.58809,63.132,599.29,-0.88331,0.29444,-0.77403,-1.1777,1.0188e-07,-0.38702,0,0,0.11111,1.3158e-16,0,0.66667
0.98655,0.59929,8.8789,0.14894,0.34634,0.43404,-3.5264,1.1755,-1.9225,-4.7018,-8.5614e-08,-0.96125,0,0,0.11111,-0,-0,0.66667
0.2911,0.77304,2.6199,0.40955,40.316,382.27,-2.8613,0.95378,-1.4017,-3.8151,5.3149e-12,-0.70084,0,0,0.11111,-0,-0,0.66667
0.47673,0.10996,4.2906,-0.58506,-48.692,227.05,6.694,-2.2313,-0.78018,8.9254,6.0929e-13,-0.39009,0,0,0.11111,-1.6172e-15,0,0.66667
0.63063,0.97467,5.6757,0.712,46.273,122.27,-10.776,3.5921,-0.19594,-14.368,1.5259e-12,-0.097972,0,0,0.11111,-2.1053e-15,0,0.66667
0.7149,0.012412,6.4341,-0.73138,-38.598,76.663,12.549,-4.1829,-0.097062,16.732,9.2903e-13,-0.048531,0,0,0.11111,2.1053e-15,-1.2602e-16,0.66667
0.10945,0.82384,0.98502,0.48575,51.668,553.5,-1.2759,0.42531,-1.1649,-1.7012,-1.9735e-08,-0.58244,0,0,0.11111,-0,-0,0.66667
0.10965,0.56197,0.98689,0.092961,9.8657,553.2,-0.24465,0.081549,-1.9742,-0.3262,-1.7064e-08,-0.98712,0,0,0.11111,3.2895e-17,0,0.66667
0.91206,0.57352,8.2086,0.11028,1.9397,8.4616,-2.4141,0.80469,-1.9546,-3.2188,-1.3112e-09,-0.97728,0,0,0.11111,-0,-0,0.66667
0.32409,0.27996,2.9168,-0.33006,-31.748,352.77,2.5673,-0.85577,-1.6129,3.4231,-2.8637e-12,-0.80643,0,0,0.11111,3.2895e-17,0,0.66667
0.72386,0.56461,6.5147,0.09692,4.9271,70.843,-1.6838,0.56125,-1.9659,-2.245,-6.4617e-12,-0.98295,0,0,0.11111,-0,-0,0.66667
0.70962,0.68164,6.3866,0.27246,14.47,77.939,-4.6402,1.5467,-1.7341,-6.187,-5.2642e-12,-0.86707,0,0,0.11111,-0,-0,0.66667
0.46881,0.42504,4.2193,-0.11244,-9.4103,232.5,1.2651,-0.4217,-1.9588,1.6868,6.9378e-13,-0.97942,0,0,0.11111,-0,-0,0.66667
0.091311,0.92629,0.8218,0.63944,68.381,571.23,-1.4013,0.4671,-0.5467,-1.8684,-2.829e-07,-0.27335,0,0,0.11111,-0,-0,0.66667
0.88983,0.77926,8.0085,0.41888,9.2506,13.393,-8.9457,2.9819,-1.38,-11.928,2.0879e-08,-0.68999,0,0,0.11111,1.3158e-15,0,0.66667
0.83452,0.93591,7.5107,0.65387,21.346,28.686,-13.096,4.3653,-0.47869,-17.461,-1.5433e-08,-0.23934,0,0,0.11111,1.5709e-15,0,0.66667
0.43167,0.451,3.8851,-0.073498,-6.4162,261.73,0.76145,-0.25382,-1.9785,1.0153,-9.957e-13,-0.98924,0,0,0.11111,-0,-0,0.66667
0.4559,0.93917,4.1031,0.65875,56.27,243.3,-7.2077,2.4026,-0.45841,-9.6103,3.0025e-12,-0.2292,0,0,0.11111,-1.0527e-15,0,0.66667
0.5459,0.23233,4.9131,-0.40151,-30.273,176.23,5.2605,-1.7535,-1.4291,7.0139,2.971e-12,-0.71456,0,0,0.11111,-1.0527e-15,0,0.66667
0.3785,0.91044,3.4065,0.61566,56.849,306.17,-5.5926,1.8642,-0.65248,-7.4568,-1.6493e-12,-0.32624,0,0,0.11111,-0,-0,0.66667
0.50468,0.78521,4.5421,0.42782,34.268,205.78,-5.1819,1.7273,-1.3485,-6.9092,-1.0831e-12,-0.67424,0,0,0.11111,-0,-0,0.66667
0.47267,0.58678,4.2541,0.13018,10.844,229.53,-1.4767,0.49224,-1.9391,-1.969,-5.2813e-13,-0.96957,0,0,0.11111,-5.2633e-16,0,0.66667
0.28587,0.35413,2.5728,-0.2188,-21.583,386.86,1.5012,-0.50039,-1.8283,2.0016,-3.0554e-12,-0.91415,0,0,0.11111,-5.2633e-16,0,0.66667
0.87249,0.90205,7.8524,0.60307,15.427,18.028,-12.628,4.2094,-0.70803,-16.838,4.5205e-09,-0.35401,0,0,0.11111,5.2633e-16,0,0.66667
0.04716,0.14232,0.42444,-0.53652,-57.663,614.4,0.60726,-0.20242,-0.97988,0.80968,7.2832e-07,-0.48994,0,0,0.11111,-0,-0,0.66667
0.36431,0.56984,3.2788,0.10476,9.7524,317.68,-0.91595,0.30532,-1.9596,-1.2213,3.2812e-12,-0.97979,0,0,0.11111,-0,-0,0.66667
0.77404,0.05246,6.9663,-0.67131,-28.986,50.168,12.471,-4.1569,-0.39515,16.628,1.1798e-10,-0.19758,0,0,0.11111,1.0527e-15,0,0.66667
0.48551,0.055455,4.3696,-0.66682,-54.959,220.58,7.77,-2.59,-0.42159,10.36,2.1316e-14,-0.2108,0,0,0.11111,-7.8949e-16,0,0.66667
0.78628,0.75986,7.0765,0.38979,15.905,44.437,-7.3556,2.4519,-1.4581,-9.8075,-2.0711e-11,-0.72904,0,0,0.11111,-0,-0,0.66667
0.48261,0.7558,4.3435,0.3837,31.623,222.21,-4.4442,1.4814,-1.4784,-5.9256,9.0861e-13,-0.73919,0,0,0.11111,-0,-0,0.66667
0.98946,0.88287,8.9052,0.5743,1.1615,1.5472,-13.638,4.546,-0.82577,-18.184,7.9531e-06,-0.41288,0,0,0.11111,-2.1053e-15,0,0.66667
0.88404,0.16372,7.9564,-0.50441,-11.74,14.943,10.702,-3.5674,-1.0932,14.27,1.2779e-09,-0.5466,0,0,0.11111,-0,-0,0.66667
0.007732,0.43667,0.069588,-0.094999,-10.205,653.14,0.017629,-0.0058762,-1.9667,0.023505,8.8066e-08,-0.98334,0,0,0.11111,-1.9018e-17,0,0.66667
0.47505,0.46144,4.2755,-0.057837,-4.8032,227.68,0.65941,-0.2198,-1.9861,0.87921,-1.615e-12,-0.99304,0,0,0.11111,-0,-0,0.66667
0.85741,0.51545,7.7167,0.02318,0.6495,20.642,-0.47699,0.159,-1.999,-0.63599,8.2343e-10,-0.99951,0,0,0.11111,-0,-0,0.66667
0.34353,0.96147,3.0917,0.69221,65.876,336.26,-5.707,1.9023,-0.30029,-7.6093,-1.7328e-12,-0.15014,0,0,0.11111,5.2633e-16,-9.4028e-17,0.66667
0.72899,0.10651,6.5609,-0.59024,-29.738,69.411,10.327,-3.4422,-0.75923,13.769,6.6551e-12,-0.37962,0,0,0.11111,-0,-0,0.66667
0.41832,0.21242,3.7648,-0.43138,-38.268,272.84,4.3308,-1.4436,-1.3382,5.7744,3.1033e-12,-0.66908,0,0,0.11111,-0,-0,0.66667
0.095764,0.39623,0.86187,-0.15565,-16.569,566.74,0.35774,-0.11925,-1.9149,0.47699,2.0081e-08,-0.95747,0,0,0.11111,-1.3158e-16,0,0.66667
0.31526,0.041313,2.8373,-0.68803,-66.859,361.05,5.2057,-1.7352,-0.31706,6.941,1.2337e-12,-0.15853,0,0,0.11111,-0,-0,0.66667
0.31302,0.27078,2.8171,-0.34382,-33.336,362.59,2.5829,-0.86098,-1.5828,3.4439,-1.2346e-12,-0.79142,0,0,0.11111,-0,-0,0.66667
0.65455,0.73351,5.891,0.35026,21.461,107.36,-5.5023,1.8341,-1.5651,-7.3364,-2.6468e-13,-0.78253,0,0,0.11111,-0,-0,0.66667
0.92687,0.083069,8.3418,-0.6254,-9.4062,7.4537,13.912,-4.6373,-0.60761,18.549,-2.3278e-07,-0.3038,0,0,0.11111,1.0527e-15,0,0.66667
0.70369,0.96115,6.3332,0.69172,37.653,82.036,-11.682,3.8941,-0.30211,-15.576,-3.1886e-13,-0.15105,0,0,0.11111,5.2633e-16,0,0.66667
0.32303,0.79047,2.9073,0.43571,41.978,353.81,-3.378,1.126,-1.3233,-4.504,1.9384e-12,-0.66166,0,0,0.11111,-0,-0,0.66667
0.68312,0.04274,6.1481,-0.68589,-39.443,92.618,11.245,-3.7484,-0.32593,14.993,1.9984e-13,-0.16296,0,0,0.11111,-1.0527e-15,0,0.66667
0.084102,0.61924,0.75692,0.17887,19.082,578.13,-0.36103,0.12034,-1.8845,-0.48138,-2.5322e-08,-0.94226,0,0,0.11111,-0,-0,0.66667
0.3755,0.39127,3.3795,-0.16309,-15.04,308.17,1.4698,-0.48993,-1.9084,1.9597,-1.1352e-12,-0.95422,0,0,0.11111,5.2633e-16,0,0.66667
0.19006,0.68785,1.7105,0.28177,29.191,475.87,-1.2853,0.42842,-1.7196,-1.7137,-2.0161e-10,-0.85978,0,0,0.11111,-5.2633e-16,0,0.66667
0.69305,0.01768,6.2374,-0.72348,-40.576,87.575,12.034,-4.0113,-0.13676,16.045,-2.1672e-12,-0.068379,0,0,0.11111,2.1053e-15,0,0.66667
0.66211,0.71928,5.959,0.32893,19.796,103.07,-5.2268,1.7423,-1.6146,-6.9691,1.0676e-12,-0.80728,0,0,0.11111,-2.1053e-15,0,0.66667
0.35307,0.8519,3.1777,0.52785,49.746,327.72,-4.4729,1.491,-1.0072,-5.9638,1.8492e-12,-0.5036,0,0,0.11111,-0,-0,0.66667
0.1806,0.83313,1.6254,0.49969,52.045,484.99,-2.1659,0.72197,-1.1097,-2.8879,1.8477e-10,-0.55485,0,0,0.11111,-0,-0,0.66667
0.15666,0.13687,1.4099,-0.5447,-57.234,507.91,2.048,-0.68266,-0.94833,2.7307,8.0308e-10,-0.47416,0,0,0.11111,-2.6316e-16,0,0.66667
0.23699,0.95886,2.1329,0.68829,70.097,432.14,-3.9148,1.3049,-0.31597,-5.2197,1.3756e-11,-0.15798,0,0,0.11111,2.6316e-16,0,0.66667
0.32846,0.11359,2.9561,-0.57961,-55.709,349.22,4.5691,-1.523,-0.8089,6.0922,2.6557e-13,-0.40445,0,0,0.11111,-0,-0,0.66667
0.8696,0.45428,7.8264,-0.068585,-1.7662,17.49,1.4314,-0.47713,-1.9811,1.9085,-1.7285e-09,-0.99057,0,0,0.11111,-1.0298e-15,0,0.66667
0.12191,0.96751,1.0972,0.70126,74.559,541.52,-2.0518,0.68395,-0.2526,-2.7358,1.9349e-07,-0.1263,0,0,0.11111,-3.2895e-17,0,0.66667
0.16814,0.20521,1.5133,-0.44219,-46.238,496.84,1.7844,-0.59481,-1.3038,2.3792,4.6538e-10,-0.65192,0,0,0.11111,-0,-0,0.66667
0.37046,0.67156,3.3341,0.25733,23.846,312.51,-2.2879,0.76265,-1.7629,-3.0506,2.2429e-12,-0.88147,0,0,0.11111,-0,-0,0.66667
0.60435,0.0019786,5.4391,-0.74703,-51.209,138.48,10.835,-3.6117,-0.015171,14.447,-2.685e-12,-0.0075856,0,0,0.11111,-0,-0,0.66667
0.055815,0.26573,0.50233,-0.35141,-37.674,605.87,0.47074,-0.15691,-1.5583,0.62765,2.9206e-08,-0.77915,0,0,0.11111,-0,-0,0.66667
0.24523,0.82851,2.207,0.49276,49.855,424.28,-2.9001,0.96671,-1.1349,-3.8668,3.3785e-11,-0.56744,0,0,0.11111,-0,-0,0.66667
0.83397,0.85241,7.5057,0.52862,17.229,28.36,-10.58,3.5268,-1.0044,-14.107,9.7193e-10,-0.50221,0,0,0.11111,-0,-0,0.66667
0.66288,0.18898,5.966,-0.46653,-28.078,102.93,7.4222,-2.4741,-1.2249,9.8962,-3.1619e-13,-0.61246,0,0,0.11111,2.1053e-15,0,0.66667
0.35143,0.16828,3.1629,-0.49759,-46.94,329.09,4.1968,-1.3989,-1.117,5.5957,6.5334e-12,-0.5585,0,0,0.11111,-0,-0,0.66667
0.11421,0.84243,1.0279,0.51364,54.591,548.88,-1.4079,0.46931,-1.0616,-1.8773,-1.7512e-09,-0.53078,0,0,0.11111,3.3355e-17,0,0.66667
0.3249,0.45829,2.9241,-0.062558,-6.0068,351.92,0.4878,-0.1626,-1.9858,0.65041,-6.9592e-13,-0.99289,0,0,0.11111,-0,-0,0.66667
0.24452,0.87613,2.2006,0.5642,57.148,425.01,-3.3109,1.1036,-0.86748,-4.4146,-1.0569e-10,-0.43374,0,0,0.11111,1.0527e-15,0,0.66667
0.71057,0.57143,6.3951,0.10715,5.668,77.294,-1.8273,0.60909,-1.9567,-2.4364,-2.0963e-12,-0.97837,0,0,0.11111,-2.1053e-15,0,0.66667
0.30055,0.45703,2.7049,-0.064461,-6.2956,373.59,0.46497,-0.15499,-1.9844,0.61995,1.4752e-13,-0.99221,0,0,0.11111,5.2633e-16,0,0.66667
0.67724,0.78096,6.0951,0.42143,24.471,94.962,-6.8499,2.2833,-1.368,-9.1331,-1.3767e-14,-0.68402,0,0,0.11111,-1.0856e-15,0,0.66667
0.41266,0.20486,3.7139,-0.44271,-39.503,277.48,4.3845,-1.4615,-1.3006,5.846,3.733e-12,-0.6503,0,0,0.11111,-5.2633e-16,0,0.66667
0.34994,0.56267,3.1494,0.094,8.8548,330.04,-0.78946,0.26315,-1.9678,-1.0526,2.4285e-12,-0.98389,0,0,0.11111,-1.0527e-15,0,0.66667
0.78582,0.50929,7.0724,0.013937,0.56756,44.136,-0.26284,0.087613,-1.998,-0.35045,-4.7268e-11,-0.99898,0,0,0.11111,-0,-0,0.66667
0.1854,0.90732,1.6686,0.61098,63.598,480.52,-2.7187,0.90622,-0.67497,-3.6249,4.1173e-09,-0.33748,0,0,0.11111,-0,1.7403e-17,0.66667
0.45682,0.96662,4.1114,0.69992,59.764,242.68,-7.6738,2.5579,-0.25849,-10.232,2.1982e-13,-0.12925,0,0,0.11111,-6.5791e-16,0,0.66667
0.58351,0.71058,5.2516,0.31587,22.347,150.74,-4.4235,1.4745,-1.6435,-5.898,2.1707e-12,-0.82175,0,0,0.11111,-0,-0,0.66667
0.3212,0.21449,2.8908,-0.42826,-41.312,355.42,3.3014,-1.1005,-1.3461,4.4018,-1.2386e-12,-0.67306,0,0,0.11111,4.5335e-16,0,0.66667
0.70625,0.4274,6.3562,-0.1089,-5.8327,79.44,1.8458,-0.61528,-1.9577,2.4611,2.0238e-12,-0.97883,0,0,0.11111,-0,-0,0.66667
0.91783,0.77585,8.2604,0.41377,6.8747,8.0602,-9.1145,3.0382,-1.3908,-12.153,5.1338e-08,-0.69538,0,0,0.11111,-1.0355e-15,0,0.66667
0.073071,0.43242,0.65764,-0.10138,-10.832,588.92,0.17778,-0.059261,-1.9623,0.23704,6.4993e-08,-0.98115,0,0,0.11111,1.3158e-16,0,0.66667
0.18143,0.4371,1.6328,-0.094346,-9.7998,484.03,0.41081,-0.13694,-1.9675,0.54774,-1.1532e-10,-0.98377,0,0,0.11111,7.4015e-17,0,0.66667
0.50911,0.76859,4.582,0.40288,32.066,202.49,-4.9227,1.6409,-1.4204,-6.5636,-1.509e-12,-0.71018,0,0,0.11111,-0,-0,0.66667
0.79988,0.60458,7.1989,0.15687,6.0149,38.96,-3.0115,1.0038,-1.9124,-4.0153,2.1214e-11,-0.9562,0,0,0.11111,-0,-0,0.66667
0.63096,0.5947,5.6786,0.14205,9.1537,120.85,-2.151,0.717,-1.9274,-2.868,4.3032e-13,-0.96369,0,0,0.11111,-0,-0,0.66667
0.019691,0.4018,0.17722,-0.14731,-15.82,641.36,0.069613,-0.023204,-1.9225,0.092818,-3.1493e-08,-0.96124,0,0,0.11111,4.1119e-17,0,0.66667
0.32998,0.85195,2.9698,0.52792,50.652,347.81,-4.1809,1.3936,-1.0105,-5.5745,-2.6494e-12,-0.50526,0,0,0.11111,-0,-0,0.66667
0.65383,0.39671,5.8845,-0.15493,-9.4932,107.52,2.4312,-0.8104,-1.9153,3.2416,-4.7451e-13,-0.95764,0,0,0.11111,-0,-0,0.66667
0.68714,0.81893,6.1842,0.47839,27.106,89.838,-7.8893,2.6298,-1.1901,-10.519,-7.8293e-13,-0.59505,0,0,0.11111,-0,-0,0.66667
0.48225,0.39361,4.3402,-0.15958,-13.138,222.24,1.847,-0.61566,-1.9102,2.4626,-3.2918e-13,-0.95512,0,0,0.11111,5.2633e-16,0,0.66667
0.053735,0.41856,0.48361,-0.12216,-13.086,607.89,0.15755,-0.052515,-1.9443,0.21006,-5.2752e-08,-0.97217,0,0,0.11111,-0,-0,0.66667
0.62779,0.3525,5.6501,-0.22126,-14.36,122.82,3.3336,-1.1112,-1.8262,4.4448,2.7711e-13,-0.91312,0,0,0.11111,-0,-0,0.66667
0.50403,0.181,4.5363,-0.47851,-38.384,206.35,5.7884,-1.9295,-1.1852,7.7178,-3.2241e-13,-0.59262,0,0,0.11111,2.6316e-16,0,0.66667
0.72541,0.45976,6.5287,-0.060359,-3.0534,70.09,1.0508,-0.35028,-1.9847,1.4011,2.2963e-12,-0.99237,0,0,0.11111,5.2633e-16,0,0.66667
0.39049,0.88182,3.5144,0.57273,52.284,296.02,-5.3676,1.7892,-0.83784,-7.1568,-3.928e-12,-0.41892,0,0,0.11111,-0,8.9829e-17,0.66667
0.83573,0.64832,7.5215,0.22248,7.1275,27.054,-4.4624,1.4875,-1.8217,-5.9498,1.1823e-09,-0.91083,0,0,0.11111,-5.2633e-16,0,0.66667
0.3075,0.47001,2.7675,-0.044984,-4.3727,367.36,0.33198,-0.11066,-1.9923,0.44265,2.8612e-12,-0.99617,0,0,0.11111,-0,-0,0.66667
0.86379,0.74578,7.7741,0.36867,9.9451,19.422,-7.6428,2.5476,-1.5161,-10.19,5.468e-09,-0.75807,0,0,0.11111,1.0527e-15,0,0.66667
0.014481,0.16046,0.13033,-0.50931,-54.834,646.51,0.177,-0.059,-1.0807,0.236,4.1396e-07,-0.54033,0,0,0.11111,-3.2895e-17,0,0.66667
0.76274,0.80242,6.8647,0.45363,20.322,54.04,-8.3041,2.768,-1.2684,-11.072,-2.3833e-11,-0.63421,0,0,0.11111,-0,-0,0.66667
0.82737,0.53621,7.4463,0.054319,1.8191,29.511,-1.0786,0.35954,-1.9929,-1.4381,-3.5202e-11,-0.99646,0,0,0.11111,-0,-0,0.66667
0.6809,0.065784,6.1281,-0.65132,-37.637,93.672,10.644,-3.5479,-0.49011,14.192,-6.608e-13,-0.24505,0,0,0.11111,-0,-0,0.66667
0.90273,0.99868,8.1246,0.74802,14.949,12.158,-16.206,5.4021,-0.011184,-21.609,1.7832e-08,-0.0055919,0,0,0.11111,-1.7106e-15,-2.125e-17,0.66667
0.20173,0.82308,1.8156,0.48462,50.044,464.94,-2.3464,0.78212,-1.1668,-3.1285,6.3464e-11,-0.58341,0,0,0.11111,-0,-0,0.66667
0.35195,0.74005,3.1675,0.36007,33.909,328.48,-3.0415,1.0138,-1.5365,-4.0553,2.5426e-12,-0.76824,0,0,0.11111,-5.2633e-16,0,0.66667
0.22914,0.20064,2.0623,-0.44904,-45.782,439.19,2.4695,-0.82315,-1.281,3.2926,-5.4068e-11,-0.64052,0,0,0.11111,-0,-0,0.66667
0.84492,0.2232,7.6043,-0.4152,-12.662,24.728,8.4194,-2.8065,-1.3899,11.226,-1.5805e-09,-0.69497,0,0,0.11111,-0,-0,0.66667
0.74641,0.26853,6.7177,-0.3472,-16.448,60.817,6.2197,-2.0732,-1.5706,8.2929,2.0316e-11,-0.7853,0,0,0.11111,1.0527e-15,0,0.66667
0.86905,0.19166,7.8215,-0.46252,-12.058,18.353,9.6468,-3.2156,-1.2379,12.862,-4.9534e-09,-0.61896,0,0,0.11111,-2.1053e-15,0,0.66667
0.34762,0.9859,3.1286,0.72885,69.18,332.78,-6.0808,2.0269,-0.11012,-8.1077,-1.5223e-12,-0.05506,0,0,0.11111,-0,-0,0.66667
0.15395,0.34567,1.3856,-0.23149,-24.286,510.36,0.85532,-0.28511,-1.8113,1.1404,2.3812e-09,-0.90565,0,0,0.11111,-0,-0,0.66667
0.96828,0.26998,8.7145,-0.34503,-2.1676,1.833,8.018,-2.6727,-1.5799,10.691,4.3957e-07,-0.78996,0,0,0.11111,-0,-0,0.66667
0.44892,0.38104,4.0403,-0.17843,-15.289,248.04,1.9225,-0.64082,-1.8861,2.5633,-1.0449e-12,-0.94304,0,0,0.11111,-0,-0,0.66667
0.7299,0.33153,6.5691,-0.2527,-12.621,68.156,4.4267,-1.4756,-1.7715,5.9023,1.1826e-11,-0.88574,0,0,0.11111,-0,-0,0.66667
0.65417,0.049432,5.8875,-0.67585,-41.682,108.45,10.611,-3.537,-0.37673,14.148,2.6361e-12,-0.18837,0,0,0.11111,-1.0527e-15,0,0.66667
0.14285,0.52089,1.2856,0.031338,3.2972,521.03,-0.10744,0.035813,-1.9973,-0.14325,-3.1929e-10,-0.99866,0,0,0.11111,-0,-0,0.66667
0.84418,0.86043,7.5976,0.54065,16.628,25.349,-10.954,3.6512,-0.96383,-14.605,6.3237e-10,-0.48192,0,0,0.11111,-1.0527e-15,0,0.66667
0.97846,0.028444,8.8062,-0.70733,-3.2094,2.6804,16.61,-5.5368,-0.21983,22.147,3.4291e-05,-0.10991,0,0,0.11111,2.1053e-15,0,0.66667
0.96625,0.22659,8.6962,-0.41012,-2.7717,2.1753,9.5106,-3.1702,-1.4027,12.681,3.6351e-07,-0.70134,0,0,0.11111,2.1053e-15,0,0.66667
0.3364,0.46031,3.0276,-0.059537,-5.6678,341.82,0.48068,-0.16023,-1.985,0.64091,2.5339e-12,-0.99251,0,0,0.11111,-0,-0,0.66667
0.92595,0.6871,8.3335,0.28065,4.182,6.4343,-6.2369,2.079,-1.7203,-8.3158,6.0526e-08,-0.86016,0,0,0.11111,-3.2895e-16,0,0.66667
0.13324,0.94588,1.1992,0.66881,70.87,530.54,-2.1388,0.71293,-0.40718,-2.8517,4.7007e-08,-0.20359,0,0,0.11111,-0,-0,0.66667
0.93972,0.9198,8.4575,0.6297,7.8432,5.7196,-14.202,4.734,-0.59077,-18.936,-1.2505e-06,-0.29539,0,0,0.11111,-2.1053e-15,0,0.66667
0.0441,0.52136,0.3969,0.03204,3.4349,617.35,-0.033911,0.011304,-1.9966,-0.045215,-1.8321e-07,-0.99828,0,0,0.11111,-0,-0,0.66667
0.40908,0.77445,3.6817,0.41167,36.853,280.37,-4.0417,1.3472,-1.3979,-5.389,-2.7534e-14,-0.69894,0,0,0.11111,2.6316e-16,0,0.66667
0.84301,0.25814,7.5871,-0.36279,-11.175,25.149,7.34,-2.4467,-1.5351,9.7866,-1.9143e-09,-0.76753,0,0,0.11111,-0,-0,0.66667
0.72623,0.86015,6.5361,0.54022,27.421,70.541,-9.4158,3.1386,-0.95961,-12.554,8.2334e-13,-0.4798,0,0,0.11111,-8.6003e-16,0,0.66667
0.72093,0.58245,6.4883,0.12367,6.3445,72.261,-2.1398,0.71327,-1.9464,-2.8531,-4.5299e-12,-0.97321,0,0,0.11111,-0,-0,0.66667
0.27735,0.50647,2.4961,0.0097109,0.96244,394.55,-0.064639,0.021546,-1.9991,-0.086185,2.5549e-12,-0.99957,0,0,0.11111,-0,-0,0.66667
0.42121,0.15878,3.7909,-0.51183,-45.311,270.61,5.1742,-1.7247,-1.0725,6.8989,8.6597e-14,-0.53625,0,0,0.11111,-1.0527e-15,0,0.66667
0.58955,0.098303,5.3059,-0.60255,-42.332,147.44,8.5255,-2.8418,-0.70862,11.367,1.6875e-13,-0.35431,0,0,0.11111,-0,-0,0.66667
0.38914,0.70633,3.5022,0.30949,28.214,296.79,-2.8904,0.96348,-1.6611,-3.8539,8.864e-13,-0.83053,0,0,0.11111,-5.2633e-16,0,0.66667
0.50598,0.72314,4.5538,0.33472,26.738,204.69,-4.0646,1.3549,-1.6001,-5.4195,5.4934e-13,-0.80007,0,0,0.11111,-0,-0,0.66667
0.54035,0.21788,4.8631,-0.42318,-32.191,180.15,5.488,-1.8293,-1.3622,7.3173,1.438e-12,-0.6811,0,0,0.11111,-1.9737e-16,0,0.66667
0.82427,0.37278,7.4184,-0.19082,-6.5027,30.619,3.775,-1.2583,-1.8707,5.0333,-5.2943e-10,-0.93536,0,0,0.11111,1.579e-15,0,0.66667
0.72498,0.44651,6.5248,-0.080231,-4.0644,70.305,1.396,-0.46532,-1.9749,1.8613,4.9181e-12,-0.98746,0,0,0.11111,-0,-0,0.66667
0.66049,0.41929,5.9444,-0.12107,-7.3025,103.73,1.9191,-0.63971,-1.9465,2.5588,-7.3763e-13,-0.97327,0,0,0.11111,1.0527e-15,0,0.66667
0.035884,0.8363,0.32296,0.50445,54.249,625.46,-0.43444,0.14481,-1.094,-0.57925,-2.9676e-07,-0.54701,0,0,0.11111,-0,-0,0.66667
0.15539,0.93296,1.3985,0.64944,68.351,509.21,-2.4219,0.80731,-0.50367,-3.2292,-2.5099e-08,-0.25184,0,0,0.11111,-0,-6.536e-17,0.66667
0.88653,0.021107,7.9787,-0.71834,-16.573,15.319,15.284,-5.0946,-0.16423,20.378,-2.3775e-08,-0.082113,0,0,0.11111,-2.1053e-15,0,0.66667
0.76576,0.83426,6.8918,0.50138,22.236,52.926,-9.2145,3.0715,-1.1101,-12.286,2.5491e-13,-0.55503,0,0,0.11111,1.0527e-15,0,0.66667
0.18038,0.79132,1.6235,0.43699,45.49,485.16,-1.8918,0.6306,-1.3185,-2.5224,-3.4608e-10,-0.65927,0,0,0.11111,-0,-0,0.66667
0.065156,0.19595,0.5864,-0.45607,-48.879,596.73,0.71318,-0.23773,-1.2609,0.95091,1.4731e-07,-0.63045,0,0,0.11111,-0,-0,0.66667
0.16273,0.59753,1.4646,0.1463,15.3,501.91,-0.57138,0.19046,-1.9223,-0.76184,-7.0943e-10,-0.96115,0,0,0.11111,-0,-0,0.66667
0.83741,0.24947,7.5367,-0.3758,-11.961,26.85,7.5527,-2.5176,-1.4969,10.07,-1.2059e-09,-0.74846,0,0,0.11111,-1.25e-15,0,0.66667
0.97311,0.56584,8.758,0.098756,0.50934,1.0775,-2.3064,0.7688,-1.9649,-3.0752,-4.888e-07,-0.98245,0,0,0.11111,-0,-0,0.66667
0.7551,0.55649,6.7959,0.084735,3.8846,56.68,-1.5356,0.51187,-1.9731,-2.0475,-1.7667e-11,-0.98657,0,0,0.11111,1.579e-15,0,0.66667
0.7846,0.48547,7.0614,-0.021795,-0.89211,44.606,0.41041,-0.1368,-1.9977,0.54722,1.8589e-11,-0.99885,0,0,0.11111,-0,-0,0.66667
0.029384,0.80094,0.26446,0.45141,48.542,631.85,-0.31834,0.10612,-1.2767,-0.42446,1.2296e-06,-0.63833,0,0,0.11111,-3.2895e-17,0,0.66667
0.87464,0.12655,7.8717,-0.56018,-14.073,17.333,11.759,-3.9196,-0.88889,15.678,-1.1288e-08,-0.44445,0,0,0.11111,-2.1053e-15,2.5123e-17,0.66667
0.68115,0.84575,6.1303,0.51863,29.866,93.114,-8.4783,2.8261,-1.0424,-11.304,-2.3412e-12,-0.5212,0,0,0.11111,2.1053e-15,0,0.66667
0.34905,0.69207,3.1414,0.2881,27.181,330.92,-2.4135,0.8045,-1.7036,-3.218,-1.3227e-12,-0.85182,0,0,0.11111,-0,-0,0.66667
0.49958,0.18161,4.4962,-0.47759,-38.541,209.64,5.7263,-1.9088,-1.1928,7.635,-9.0639e-13,-0.5964,0,0,0.11111,5.2633e-16,-4.6794e-18,0.66667
0.95006,0.90026,8.5505,0.60039,6.1892,4.3907,-13.69,4.5632,-0.71866,-18.253,4.6143e-07,-0.35933,0,0,0.11111,-1.579e-15,8.5955e-17,0.66667
0.054088,0.81076,0.48679,0.46613,50.028,607.58,-0.60509,0.2017,-1.2261,-0.80679,-9.279e-08,-0.61304,0,0,0.11111,-9.0463e-17,0,0.66667
0.1917,0.65963,1.7253,0.23944,24.784,474.3,-1.1016,0.36721,-1.7958,-1.4688,-1.6692e-10,-0.89792,0,0,0.11111,-0,-0,0.66667
0.15015,0.93317,1.3514,0.64975,68.496,514.24,-2.3414,0.78048,-0.49739,-3.1219,-3.5715e-08,-0.24869,0,0,0.11111,3.2895e-16,0,0.66667
0.53825,0.75052,4.8442,0.37578,28.662,181.54,-4.8542,1.6181,-1.4968,-6.4723,3.3991e-12,-0.74842,0,0,0.11111,-2.1053e-15,0,0.66667
0.23563,0.25034,2.1206,-0.37449,-38.035,433.09,2.1177,-0.70592,-1.5049,2.8237,-2.8251e-11,-0.75244,0,0,0.11111,-1.0527e-15,0,0.66667
0.076734,0.46742,0.69061,-0.048864,-5.2179,585.33,0.089989,-0.029996,-1.9946,0.11999,-1.0363e-07,-0.99731,0,0,0.11111,1.6448e-17,0,0.66667
0.515,0.90438,4.635,0.60657,48.012,198.62,-7.4971,2.499,-0.69597,-9.9962,2.2977e-12,-0.34798,0,0,0.11111,-1.3158e-15,0,0.66667
0.83625,0.84836,7.5263,0.52254,16.812,27.64,-10.487,3.4958,-1.0273,-13.983,1.3996e-09,-0.51363,0,0,0.11111,-0,-0,0.66667
0.68195,0.55467,6.1375,0.082006,4.6906,91.975,-1.3422,0.44739,-1.9743,-1.7896,-1.9703e-12,-0.98715,0,0,0.11111,-5.2633e-16,0,0.66667
0.036724,0.025988,0.33051,-0.71102,-76.644,624.68,0.62667,-0.20888,-0.20109,0.83556,1.2465e-05,-0.10054,0,0,0.11111,3.2895e-17,0,0.66667
0.04527,0.03859,0.40743,-0.69211,-74.535,616.29,0.75197,-0.25064,-0.29867,1.0026,1.6946e-05,-0.14933,0,0,0.11111,-0,-9.4587e-17,0.66667
0.53809,0.072325,4.8428,-0.64151,-49.123,182.23,8.2845,-2.7615,-0.53432,11.046,3.2738e-12,-0.26716,0,0,0.11111,-0,-0,0.66667
0.14142,0.23022,1.2728,-0.40467,-42.663,522.5,1.3734,-0.45782,-1.4204,1.8313,4.0465e-09,-0.71022,0,0,0.11111,-0,-0,0.66667
0.70723,0.11713,6.3651,-0.5743,-30.863,79.848,9.748,-3.2493,-0.82643,12.997,9.2637e-12,-0.41322,0,0,0.11111,-0,-0,0.66667
0.24745,0.18911,2.227,-0.46633,-47.113,422.2,2.7694,-0.92313,-1.2284,3.6925,8.5947e-12,-0.6142,0,0,0.11111,-1.0527e-15,0,0.66667
0.43996,0.88505,3.9596,0.57758,50.167,255.68,-6.0986,2.0329,-0.81443,-8.1315,1.2963e-12,-0.40722,0,0,0.11111,-0,-0,0.66667
0.62029,0.35326,5.5826,-0.22011,-14.508,127.37,3.2768,-1.0923,-1.8263,4.369,-9.5479e-15,-0.91314,0,0,0.11111,-0,-0,0.66667
0.97274,0.2423,8.7546,-0.38655,-2.0796,1.6448,9.0243,-3.0081,-1.468,12.032,9.2246e-07,-0.73399,0,0,0.11111,-1.0527e-15,0,0.66667
0.19701,0.49506,1.7731,-0.0074058,-0.76446,469.23,0.035016,-0.011672,-1.9981,0.046688,1.806e-10,-0.99907,0,0,0.11111,-0,-0,0.66667
0.91184,0.9253,8.2066,0.63795,11.51,9.9411,-13.961,4.6537,-0.55081,-18.615,2.928e-07,-0.27541,0,0,0.11111,1.0527e-15,0,0.66667
0.35078,0.97482,3.157,0.71223,67.415,330.02,-5.996,1.9987,-0.19431,-7.9946,-1.8159e-12,-0.097153,0,0,0.11111,-0,-0,0.66667
0.16192,0.63754,1.4573,0.2063,21.585,502.7,-0.80173,0.26724,-1.8465,-1.069,-1.4091e-09,-0.92323,0,0,0.11111,-0,-0,0.66667
0.42086,0.34494,3.7878,-0.23258,-20.547,270.55,2.3493,-0.78309,-1.8113,3.1324,-9.0128e-13,-0.90567,0,0,0.11111,1.0527e-15,0,0.66667
0.84148,0.0782,7.5733,-0.6327,-19.84,26.503,12.778,-4.2592,-0.57723,17.037,-1.0297e-09,-0.28861,0,0,0.11111,-0,-0,0.66667
0.043786,0.93575,0.39408,0.65362,70.364,617.73,-0.68687,0.22895,-0.48199,-0.91582,-7.1389e-06,-0.241,0,0,0.11111,7.4015e-17,-2.829e-17,0.66667
0.13697,0.14018,1.2327,-0.53974,-57.046,526.86,1.7743,-0.59143,-0.96332,2.3657,2.9807e-09,-0.48166,0,0,0.11111,-2.6316e-16,0,0.66667
0.58994,0.33376,5.3095,-0.24936,-17.429,146.48,3.5305,-1.1768,-1.7781,4.7074,9.1638e-13,-0.88905,0,0,0.11111,-0,-0,0.66667
0.40858,0.96915,3.6772,0.70372,63.265,281.31,-6.9006,2.3002,-0.24132,-9.2008,2.2302e-12,-0.12066,0,0,0.11111,-0,-0,0.66667
0.47828,0.54932,4.3045,0.073976,6.1191,225.22,-0.84915,0.28305,-1.9781,-1.1322,-3.4948e-12,-0.98907,0,0,0.11111,5.2633e-16,0,0.66667
0.82205,0.36567,7.3985,-0.20149,-6.9466,31.355,3.9753,-1.3251,-1.8535,5.3005,-4.167e-10,-0.92674,0,0,0.11111,1.0527e-15,0,0.66667
0.16727,0.79239,1.5054,0.43858,45.873,497.67,-1.7607,0.5869,-1.3146,-2.3476,-5.8692e-10,-0.65728,0,0,0.11111,-2.6316e-16,0,0.66667
0.32202,0.70099,2.8982,0.30148,29.036,354.57,-2.33,0.77667,-1.6744,-3.1067,-5.0515e-13,-0.83721,0,0,0.11111,-5.2633e-16,0,0.66667
0.20551,0.45933,1.8496,-0.061004,-6.2748,461.19,0.30089,-0.1003,-1.9875,0.40118,1.0714e-11,-0.99373,0,0,0.11111,-2.6316e-16,0,0.66667
0.099323,0.71998,0.89391,0.32997,35.13,563.3,-0.78656,0.26219,-1.6121,-1.0488,-3.19e-08,-0.80605,0,0,0.11111,2.6316e-16,0,0.66667
0.52436,0.27671,4.7192,-0.33493,-26.071,191.34,4.215,-1.405,-1.5993,5.62,2.1521e-12,-0.79966,0,0,0.11111,-5.2633e-16,0,0.66667
0.21257,0.6649,1.9132,0.24735,25.378,454.58,-1.2619,0.42064,-1.7803,-1.6826,-1.0221e-11,-0.89016,0,0,0.11111,-5.2633e-16,0,0.66667
0.90438,0.51361,8.1394,0.020417,0.38964,9.8252,-0.44315,0.14772,-1.9996,-0.59087,-9.6188e-09,-0.99979,0,0,0.11111,-0,-0,0.66667
0.046031,0.22699,0.41428,-0.40952,-43.967,615.48,0.45241,-0.1508,-1.4066,0.60322,1.0823e-07,-0.70328,0,0,0.11111,-0,-0,0.66667
0.89727,0.77021,8.0755,0.40531,8.364,11.805,-8.7282,2.9094,-1.4134,-11.638,3.2836e-08,-0.70671,0,0,0.11111,-0,-0,0.66667
0.58773,0.0021656,5.2896,-0.74675,-52.787,149.07,10.533,-3.5111,-0.016137,14.045,3.574e-12,-0.0080687,0,0,0.11111,-0,-0,0.66667
0.8616,0.33154,7.7544,-0.25268,-6.9006,19.745,5.2251,-1.7417,-1.7737,6.9668,-5.0006e-09,-0.88684,0,0,0.11111,-0,-0,0.66667
0.02917,0.4359,0.26253,-0.096156,-10.321,632.03,0.067318,-0.02244,-1.9693,0.089757,-4.7063e-07,-0.98464,0,0,0.11111,1.6654e-17,0,0.66667
0.33301,0.64438,2.9971,0.21657,20.68,344.85,-1.7309,0.57696,-1.8315,-2.3079,4.0041e-12,-0.91575,0,0,0.11111,-5.2633e-16,0,0.66667
0.50111,0.48759,4.51,-0.018616,-1.4948,208.05,0.22389,-0.074628,-2.0009,0.29851,-2.7262e-13,-1.0005,0,0,0.11111,-5.2633e-16,0,0.66667
0.21711,0.23808,1.954,-0.39288,-40.265,450.4,2.0472,-0.68239,-1.4526,2.7296,-2.6458e-11,-0.72632,0,0,0.11111,2.6316e-16,0,0.66667
0.4226,0.50424,3.8034,0.0063536,0.55993,269.05,-0.06444,0.02148,-2.0034,-0.08592,-1.6554e-12,-1.0017,0,0,0.11111,-2.1053e-15,0,0.66667
0.029533,0.25831,0.26579,-0.36254,-38.958,631.69,0.25696,-0.085654,-1.5343,0.34261,-6.5016e-07,-0.76715,0,0,0.11111,-0,-0,0.66667
0.58718,0.57368,5.2847,0.11053,7.7581,148.14,-1.5576,0.51919,-1.9541,-2.0768,1.998e-12,-0.97705,0,0,0.11111,1.0527e-15,0,0.66667
0.92973,0.69916,8.3676,0.29873,4.2281,5.9145,-6.6658,2.2219,-1.68,-8.8878,6.7222e-08,-0.84002,0,0,0.11111,-0,-0,0.66667
0.075808,0.19848,0.68228,-0.45228,-48.397,586.3,0.82288,-0.27429,-1.2733,1.0972,1.0337e-07,-0.63667,0,0,0.11111,-0,-0,0.66667
0.84182,0.40509,7.5764,-0.14237,-4.3994,25.122,2.8764,-0.95879,-1.9304,3.8352,-1.548e-09,-0.96519,0,0,0.11111,2.6316e-16,0,0.66667
0.74778,0.026843,6.73,-0.70973,-33.747,61.358,12.737,-4.2458,-0.21047,16.983,-1.245e-11,-0.10524,0,0,0.11111,-5.2633e-16,0,0.66667
0.22999,0.47214,2.0699,-0.041792,-4.2505,438.21,0.23068,-0.076892,-1.9933,0.30757,-2.2982e-11,-0.99667,0,0,0.11111,-0,-0,0.66667
0.51812,0.92372,4.6631,0.63557,50.111,196.43,-7.9033,2.6344,-0.56403,-10.538,1.0152e-12,-0.28202,0,0,0.11111,-0,-0,0.66667
0.31376,0.18887,2.8238,-0.4667,-45.274,362.06,3.5143,-1.1714,-1.2289,4.6858,-3.8503e-12,-0.61444,0,0,0.11111,1.0527e-15,0,0.66667
0.61579,0.20308,5.5421,-0.44539,-29.694,130.5,6.5823,-2.1941,-1.2921,8.7764,-5.8664e-13,-0.64607,0,0,0.11111,-0,-0,0.66667
0.21317,0.967,1.9186,0.7005,72.164,454.38,-3.5839,1.1946,-0.25441,-4.7785,-3.1742e-10,-0.12721,0,0,0.11111,6.5791e-17,0,0.66667
0.43589,0.61309,3.923,0.16964,14.746,258.39,-1.7746,0.59154,-1.8992,-2.3662,5.4923e-13,-0.94958,0,0,0.11111,-0,-0,0.66667
0.78908,0.60201,7.1017,0.15301,6.1503,42.966,-2.8977,0.96589,-1.9144,-3.8636,3.8944e-11,-0.95719,0,0,0.11111,-0,-0,0.66667
0.46647,0.89657,4.1982,0.59486,50.137,234.94,-6.6596,2.2199,-0.74263,-8.8794,-5.9375e-13,-0.37132,0,0,0.11111,-0,-0,0.66667
0.67355,0.026473,6.062,-0.71029,-41.866,97.832,11.482,-3.8274,-0.2083,15.309,9.6279e-13,-0.10415,0,0,0.11111,-0,-0,0.66667
0.88484,0.41989,7.9635,-0.12016,-2.7486,13.916,2.5517,-0.85056,-1.9464,3.4022,-7.0699e-09,-0.97318,0,0,0.11111,-0,-0,0.66667
0.93814,0.55829,8.4432,0.08743,1.0818,4.4604,-1.9685,0.65617,-1.9765,-2.6247,-6.7785e-08,-0.98826,0,0,0.11111,1.579e-15,0,0.66667
0.98474,0.47971,8.8626,-0.03044,-0.081859,0.42349,0.71941,-0.2398,-2.0001,0.95921,-1.7232e-06,-1,0,0,0.11111,-0,-0,0.66667
0.88356,0.40096,7.952,-0.14857,-3.4359,14.23,3.1504,-1.0501,-1.9196,4.2005,-1.2169e-08,-0.95978,0,0,0.11111,5.2633e-16,0,0.66667
0.24358,0.51227,2.1922,0.018398,1.8583,425.57,-0.10755,0.03585,-1.9963,-0.1434,6.9114e-12,-0.99816,0,0,0.11111,-0,-0,0.66667
0.4083,0.74213,3.6747,0.36319,32.523,280.94,-3.559,1.1863,-1.5322,-4.7453,-1.3747e-12,-0.76612,0,0,0.11111,-5.2633e-16,0,0.66667
0.37481,0.2551,3.3733,-0.36736,-33.938,308.92,3.3045,-1.1015,-1.5245,4.406,1.9109e-12,-0.76223,0,0,0.11111,-0,-0,0.66667
0.15223,0.80743,1.3701,0.46115,48.482,512.11,-1.6848,0.5616,-1.2435,-2.2464,-2.6666e-09,-0.62173,0,0,0.11111,1.3158e-16,0,0.66667
0.070456,0.32084,0.6341,-0.26874,-28.744,591.5,0.45443,-0.15148,-1.7408,0.60591,5.3159e-08,-0.87041,0,0,0.11111,-0,-0,0.66667
0.29574,0.65293,2.6617,0.2294,22.487,377.96,-1.6282,0.54274,-1.816,-2.171,2.5764e-12,-0.908,0,0,0.11111,6.5791e-16,0,0.66667
0.85996,0.73063,7.7397,0.34595,9.5727,20.369,-7.14,2.38,-1.5774,-9.52,4.7884e-09,-0.78872,0,0,0.11111,-0,-0,0.66667
0.038983,0.89515,0.35085,0.59272,63.787,622.43,-0.55455,0.18485,-0.74826,-0.7394,-3.805e-06,-0.37413,0,0,0.11111,3.2895e-17,0,0.66667
0.21547,0.85315,1.9392,0.52972,54.399,452.05,-2.7393,0.9131,-1.002,-3.6524,1.4698e-11,-0.50101,0,0,0.11111,-0,-0,0.66667
0.34655,0.42606,3.1189,-0.11091,-10.477,332.99,0.9225,-0.3075,-1.9563,1.23,2.917e-12,-0.97817,0,0,0.11111,-5.2633e-16,0,0.66667
0.64816,0.53466,5.8334,0.051989,3.2258,110.71,-0.80874,0.26958,-1.9887,-1.0783,3.4978e-13,-0.99434,0,0,0.11111,-0,-0,0.66667
0.56317,0.93398,5.0685,0.65097,47.914,165,-8.7986,2.9329,-0.49705,-11.731,1.2177e-12,-0.24852,0,0,0.11111,-1.0527e-15,0,0.66667
0.79618,0.04826,7.1656,-0.67761,-26.719,41.696,12.948,-4.316,-0.37017,17.264,6.1423e-10,-0.18508,0,0,0.11111,-9.4287e-16,0,0.66667
0.68696,0.38658,6.1827,-0.17013,-9.6091,89.38,2.805,-0.93501,-1.9001,3.74,1.5814e-12,-0.95007,0,0,0.11111,-0,-0,0.66667
0.8895,0.80695,8.0055,0.46043,10.215,13.594,-9.8292,3.2764,-1.249,-13.106,1.7692e-08,-0.62451,0,0,0.11111,1.579e-15,0,0.66667
0.4869,0.91927,4.3821,0.6289,51.71,219.44,-7.3491,2.4497,-0.594,-9.7989,-2.3515e-12,-0.297,0,0,0.11111,1.0527e-15,0,0.66667
0.53592,0.51386,4.8233,0.020796,1.5888,182.87,-0.26748,0.089159,-1.9968,-0.35664,4.63e-12,-0.99839,0,0,0.11111,-0,-0,0.66667
0.83765,0.31094,7.5388,-0.28359,-8.9959,26.574,5.7011,-1.9004,-1.713,7.6015,-1.4829e-09,-0.85649,0,0,0.11111,5.2633e-16,0,0.66667
0.0056932,0.87851,0.051239,0.56777,61.175,655.15,-0.077575,0.025856,-0.85259,-0.10343,-3.7966e-06,-0.42629,0,0,0.11111,-1.6448e-17,0,0.66667
0.24257,0.67887,2.1831,0.2683,27.135,426.57,-1.562,0.52065,-1.7416,-2.0826,2.6145e-11,-0.87082,0,0,0.11111,-0,-0,0.66667
0.22151,0.22852,1.9936,-0.40722,-41.655,446.29,2.1649,-0.72162,-1.4106,2.8865,-2.2693e-11,-0.7053,0,0,0.11111,-0,-0,0.66667
0.56155,0.60838,5.0539,0.16258,11.931,165.2,-2.1911,0.73036,-1.9083,-2.9214,9.4258e-13,-0.95417,0,0,0.11111,-0,-0,0.66667
0.71761,0.1372,6.4585,-0.54421,-28.357,74.665,9.3727,-3.1242,-0.94911,12.497,3.8138e-12,-0.47456,0,0,0.11111,-1.0527e-15,0,0.66667
0.2525,0.85647,2.2725,0.5347,53.913,417.61,-3.2402,1.0801,-0.9838,-4.3203,1.7966e-11,-0.4919,0,0,0.11111,-0,-0,0.66667
0.50602,0.12309,4.5542,-0.56537,-45.282,205.07,6.8661,-2.2887,-0.8624,9.1548,3.7081e-13,-0.4312,0,0,0.11111,2.6316e-16,0,0.66667
0.73927,0.39609,6.6534,-0.15586,-7.5463,63.73,2.7653,-0.92177,-1.912,3.6871,1.3658e-11,-0.956,0,0,0.11111,-0,-0,0.66667
0.7223,0.39672,6.5007,-0.15492,-7.9158,71.628,2.6856,-0.89519,-1.9141,3.5808,4.8512e-12,-0.95706,0,0,0.11111,1.0527e-15,0,0.66667
0.46831,0.78613,4.2148,0.4292,36.019,233.2,-4.824,1.608,-1.3489,-6.432,-1.374e-12,-0.67447,0,0,0.11111,-0,-0,0.66667
0.70619,0.12307,6.3557,-0.56539,-30.467,80.337,9.5826,-3.1942,-0.86439,12.777,1.1342e-11,-0.43219,0,0,0.11111,1.4474e-15,0,0.66667
0.55907,0.17539,5.0316,-0.48691,-35.986,167.35,6.5332,-2.1777,-1.1564,8.7109,3.4452e-12,-0.57821,0,0,0.11111,-0,-0,0.66667
0.078411,0.80388,0.7057,0.45581,48.758,583.76,-0.85778,0.28593,-1.265,-1.1437,-7.5876e-08,-0.63248,0,0,0.11111,-0,-0,0.66667
0.9528,0.75248,8.5752,0.37871,3.605,3.2794,-8.6601,2.8867,-1.4946,-11.547,5.9991e-09,-0.74728,0,0,0.11111,2.1053e-15,0,0.66667
0.97565,0.51169,8.7809,0.017535,0.080864,0.88303,-0.4106,0.13687,-1.9963,-0.54747,-2.539e-06,-0.99817,0,0,0.11111,-0,-0,0.66667
0.16201,0.17765,1.4581,-0.48352,-50.685,502.74,1.8801,-0.6267,-1.1667,2.5068,9.2488e-10,-0.58333,0,0,0.11111,-0,-0,0.66667
0.41783,0.48323,3.7604,-0.025161,-2.2283,272.93,0.25231,-0.084103,-1.9965,0.33641,-3.5709e-12,-0.99826,0,0,0.11111,-0,-0,0.66667
0.61959,0.84469,5.5763,0.51704,34.245,128.34,-7.6885,2.5628,-1.0489,-10.251,-4.4631e-13,-0.52443,0,0,0.11111,-0,-0,0.66667
0.56812,0.55051,5.1131,0.075765,5.4979,160.72,-1.0331,0.34435,-1.9774,-1.3774,1.3605e-12,-0.98872,0,0,0.11111,-5.2633e-16,0,0.66667
0.37473,0.2973,3.3726,-0.30405,-28.078,308.92,2.7345,-0.9115,-1.6747,3.646,1.4859e-12,-0.83734,0,0,0.11111,-4.4377e-16,0,0.66667
0.90355,0.70891,8.132,0.31336,6.0623,10.335,-6.7953,2.2651,-1.6512,-9.0604,3.3463e-08,-0.82558,0,0,0.11111,1.0527e-15,0,0.66667
0.67718,0.81142,6.0946,0.46713,27.148,95.102,-7.5919,2.5306,-1.2235,-10.123,-2.6157e-13,-0.61177,0,0,0.11111,-1.25e-15,0,0.66667
0.11263,0.37792,1.0137,-0.18312,-19.425,550.32,0.49498,-0.16499,-1.8814,0.65997,1.3373e-08,-0.94069,0,0,0.11111,2.6316e-16,0,0.66667
0.66956,0.74831,6.0261,0.37246,22.028,99.026,-5.9852,1.9951,-1.5086,-7.9803,-1.1915e-12,-0.75431,0,0,0.11111,2.6316e-16,0,0.66667
0.21799,0.38985,1.9619,-0.16522,-16.904,449.46,0.86441,-0.28814,-1.9055,1.1526,-4.0002e-12,-0.95277,0,0,0.11111,-0,-0,0.66667
0.086095,0.94362,0.77485,0.66542,71.25,576.33,-1.3749,0.45832,-0.42351,-1.8333,-1.7218e-08,-0.21175,0,0,0.11111,-0,-0,0.66667
0.35993,0.23136,3.2394,-0.40295,-37.714,321.65,3.4809,-1.1603,-1.4257,4.6411,2.6832e-12,-0.71283,0,0,0.11111,-5.2633e-16,0,0.66667
0.049607,0.068751,0.44647,-0.64687,-69.594,612.02,0.77015,-0.25672,-0.51282,1.0269,1.1887e-06,-0.25641,0,0,0.11111,-0,-0,0.66667
0.14662,0.22325,1.3195,-0.41512,-43.701,517.49,1.4607,-0.4869,-1.3858,1.9476,2.5724e-09,-0.69288,0,0,0.11111,-0,-0,0.66667
0.45307,0.36716,4.0776,-0.19926,-16.994,244.8,2.1666,-0.72221,-1.863,2.8888,-2.4269e-13,-0.93149,0,0,0.11111,-0,-0,0.66667
0.9832,0.067792,8.8488,-0.64831,-2.2369,2.1399,15.298,-5.0994,-0.50828,20.398,-4.0865e-06,-0.25414,0,0,0.11111,-0,-7.4037e-17,0.66667
0.84187,0.3386,7.5768,-0.2421,-7.4888,25.238,4.8915,-1.6305,-1.7934,6.522,-1.8317e-09,-0.8967,0,0,0.11111,-0,-0,0.66667
0.013205,0.20892,0.11884,-0.43663,-46.979,647.76,0.13838,-0.046125,-1.3228,0.1845,9.152e-08,-0.66138,0,0,0.11111,1.6448e-17,0,0.66667
0.86889,0.16389,7.8201,-0.50417,-13.18,18.532,10.514,-3.5046,-1.0942,14.018,-8.9797e-09,-0.54711,0,0,0.11111,-2.1053e-15,0,0.66667
0.28341,0.57191,2.5507,0.10787,10.652,389.05,-0.7337,0.24457,-1.9596,-0.97827,8.4655e-13,-0.97979,0,0,0.11111,-0,-0,0.66667
0.19764,0.32075,1.7787,-0.26888,-27.768,468.68,1.2754,-0.42513,-1.7411,1.7005,9.9206e-11,-0.87057,0,0,0.11111,-0,-0,0.66667
0.30963,0.38352,2.7867,-0.17472,-16.964,365.49,1.2984,-0.43279,-1.8917,1.7312,1.843e-14,-0.94584,0,0,0.11111,-0,-0,0.66667
0.52923,0.1359,4.7631,-0.54615,-42.314,188.25,6.937,-2.3123,-0.94046,9.2494,1.5281e-12,-0.47023,0,0,0.11111,-0,-0,0.66667
0.48269,0.68024,4.3442,0.27037,22.259,222,-3.1321,1.044,-1.7419,-4.1761,-1.4984e-12,-0.87093,0,0,0.11111,-0,-0,0.66667
0.62987,0.90466,5.6688,0.60699,39.425,122.38,-9.1758,3.0586,-0.68954,-12.234,-1.8057e-12,-0.34477,0,0,0.11111,-2.6316e-16,0,0.66667
0.16677,0.89205,1.5009,0.58808,61.614,498.26,-2.3538,0.7846,-0.76838,-3.1384,-4.3087e-09,-0.38419,0,0,0.11111,2.6316e-16,0,0.66667
0.3743,0.98364,3.3687,0.72546,67.346,309.94,-6.5169,2.1723,-0.13143,-8.6892,1.6067e-12,-0.065717,0,0,0.11111,-5.2633e-16,-1.3129e-16,0.66667
0.58249,0.14137,5.2424,-0.53794,-38.233,151.85,7.5203,-2.5068,-0.96961,10.027,1.6676e-12,-0.48481,0,0,0.11111,-0,-0,0.66667
0.81078,0.18814,7.297,-0.4678,-17.144,35.728,9.1028,-3.0343,-1.2247,12.137,-2.4099e-10,-0.61237,0,0,0.11111,-0,-0,0.66667
0.36845,0.57641,3.316,0.11461,10.633,314.15,-1.0135,0.33783,-1.9507,-1.3513,2.7092e-12,-0.97536,0,0,0.11111,-0,-0,0.66667
0.83938,0.49715,7.5544,-0.0042777,-0.13399,25.781,0.086174,-0.028725,-1.9996,0.1149,-1.5502e-10,-0.9998,0,0,0.11111,-2.6316e-16,0,0.66667
0.41681,0.062978,3.7513,-0.65553,-58.408,274.47,6.5576,-2.1859,-0.47175,8.7434,1.6209e-13,-0.23587,0,0,0.11111,1.0527e-15,0,0.66667
0.94249,0.79262,8.4824,0.43893,5.1275,4.6129,-9.9286,3.3095,-1.3132,-13.238,7.0749e-08,-0.6566,0,0,0.11111,-0,-0,0.66667
0.29636,0.61458,2.6673,0.17187,16.837,377.38,-1.2225,0.40749,-1.8981,-1.6299,4.4387e-12,-0.94907,0,0,0.11111,2.6316e-16,0,0.66667
0.3686,0.15679,3.3174,-0.51481,-47.887,314.39,4.5543,-1.5181,-1.0567,6.0724,1.8185e-12,-0.52835,0,0,0.11111,1.0527e-15,0,0.66667
0.65273,0.37856,5.8746,-0.18216,-11.191,108.16,2.8537,-0.95122,-1.8823,3.8049,-2.5711e-12,-0.94113,0,0,0.11111,2.1053e-15,0,0.66667
0.58342,0.50998,5.2507,0.014963,1.0572,150.57,-0.20951,0.069838,-1.9973,-0.27935,1.3832e-12,-0.99867,0,0,0.11111,-0,-0,0.66667
0.35417,0.54389,3.1875,0.065832,6.1799,326.38,-0.55958,0.18653,-1.9826,-0.74611,-6.3877e-13,-0.99131,0,0,0.11111,5.2633e-16,0,0.66667
0.48431,0.090671,4.3587,-0.61399,-50.64,221.37,7.1366,-2.3789,-0.66441,9.5155,-1.6742e-12,-0.33221,0,0,0.11111,-0,-0,0.66667
0.66432,0.93303,5.9789,0.64955,39.097,102.67,-10.356,3.4521,-0.49798,-13.808,-1.2381e-12,-0.24899,0,0,0.11111,-2.6316e-16,0,0.66667
0.05634,0.4518,0.50706,-0.072304,-7.7423,605.33,0.097766,-0.032589,-1.979,0.13036,6.4022e-08,-0.98948,0,0,0.11111,-0,-0,0.66667
0.6064,0.11304,5.4576,-0.58043,-39.5,136.66,8.4474,-2.8158,-0.80198,11.263,-1.5961e-12,-0.40099,0,0,0.11111,1.0527e-15,0,0.66667
0.74678,0.32404,6.721,-0.26394,-12.474,60.5,4.7306,-1.5769,-1.7519,6.3075,1.9625e-11,-0.87597,0,0,0.11111,-0,-0,0.66667
0.79397,0.52707,7.1457,0.040601,1.5971,41.058,-0.77366,0.25789,-1.9949,-1.0315,-6.4752e-12,-0.99745,0,0,0.11111,-1.1241e-16,0,0.66667
0.21378,0.15008,1.9241,-0.52488,-53.94,453.63,2.693,-0.89768,-1.0192,3.5907,-7.7995e-11,-0.5096,0,0,0.11111,-3.9475e-16,0,0.66667
0.64111,0.51463,5.7699,0.02194,1.3828,114.8,-0.33758,0.11253,-2.0013,-0.4501,1.9327e-12,-1.0007,0,0,0.11111,-0,-0,0.66667
0.73113,0.92557,6.5802,0.63836,31.986,68.587,-11.201,3.7338,-0.5507,-14.935,-1.7497e-13,-0.27535,0,0,0.11111,-1.0527e-15,0,0.66667
0.095062,0.31706,0.85556,-0.27441,-29.23,567.44,0.62607,-0.20869,-1.7349,0.83476,3.2026e-08,-0.86745,0,0,0.11111,-0,-0,0.66667
0.070073,0.1833,0.63066,-0.47505,-50.888,591.92,0.79892,-0.26631,-1.1958,1.0652,1.5013e-07,-0.59788,0,0,0.11111,-6.5791e-17,0,0.66667
0.88595,0.6207,7.9736,0.18105,4.1062,13.732,-3.8497,1.2832,-1.8826,-5.1329,1.2075e-08,-0.94132,0,0,0.11111,5.2633e-16,0,0.66667
0.36132,0.91635,3.2519,0.62453,58.532,320.78,-5.4158,1.8053,-0.61436,-7.221,2.2715e-12,-0.30718,0,0,0.11111,-0,-0,0.66667
0.70343,0.4219,6.3309,-0.11715,-6.3251,80.858,1.9778,-0.65926,-1.9545,2.6371,1.9614e-12,-0.97726,0,0,0.11111,1.0527e-15,0,0.66667
0.56015,0.76839,5.0413,0.40258,29.669,166.45,-5.4121,1.804,-1.4242,-7.2162,2.5571e-12,-0.71212,0,0,0.11111,-1.0527e-15,0,0.66667
0.33775,0.58366,3.0397,0.12549,11.936,340.66,-1.0172,0.33908,-1.9418,-1.3563,1.6733e-12,-0.9709,0,0,0.11111,-2.6316e-16,0,0.66667
0.34565,0.51714,3.1109,0.025704,2.4294,333.75,-0.21323,0.071077,-1.9987,-0.28431,3.3624e-12,-0.99934,0,0,0.11111,-0,-0,0.66667
0.90546,0.4408,8.1492,-0.088801,-1.6765,9.6472,1.9297,-0.64325,-1.9756,2.573,1.1048e-09,-0.98779,0,0,0.11111,2.1053e-15,0,0.66667
0.45348,0.48383,4.0813,-0.024261,-2.0672,244.4,0.26404,-0.088014,-2.0011,0.35206,-2.2929e-12,-1.0006,0,0,0.11111,-0,-0,0.66667
0.48253,0.11957,4.3428,-0.57064,-47.14,222.61,6.6084,-2.2028,-0.844,8.8113,-8.0735e-13,-0.422,0,0,0.11111,-5.2633e-16,-1.6538e-16,0.66667
0.97915,0.53962,8.8123,0.059437,0.23047,0.6995,-1.3967,0.46558,-1.9858,-1.8623,2.7749e-07,-0.99288,0,0,0.11111,-0,-0,0.66667
0.41169,0.62297,3.7052,0.18445,16.443,278,-1.8224,0.60748,-1.8782,-2.4299,-1.2357e-12,-0.93909,0,0,0.11111,-6.5791e-17,0,0.66667
0.36945,0.28011,3.325,-0.32984,-30.605,313.44,2.9246,-0.97487,-1.6124,3.8995,1.4162e-12,-0.80621,0,0,0.11111,-7.237e-16,0,0.66667
0.079963,0.4915,0.71967,-0.012749,-1.3606,582.17,0.024466,-0.0081554,-2.0009,0.032622,6.3611e-08,-1.0004,0,0,0.11111,-1.9737e-16,0,0.66667
0.38778,0.74477,3.49,0.36715,33.527,297.98,-3.417,1.139,-1.5214,-4.556,5.5955e-14,-0.76068,0,0,0.11111,-0,-0,0.66667
0.17793,0.79104,1.6014,0.43657,45.488,487.49,-1.8643,0.62143,-1.3202,-2.4857,-4.0011e-10,-0.66008,0,0,0.11111,-0,-0,0.66667
0.13134,0.73756,1.1821,0.35634,37.66,532.21,-1.1232,0.37442,-1.5461,-1.4977,-7.2769e-09,-0.77303,0,0,0.11111,-1.3158e-16,0,0.66667
0.36767,0.8591,3.3091,0.53865,50.157,315.21,-4.7531,1.5844,-0.96565,-6.3375,-3.8769e-13,-0.48283,0,0,0.11111,-0,-0,0.66667
0.15881,0.21267,1.4293,-0.431,-45.206,505.78,1.6427,-0.54758,-1.3404,2.1903,1.3226e-09,-0.67018,0,0,0.11111,-0,-0,0.66667
0.30756,0.79601,2.7681,0.44401,43.249,367.55,-3.2775,1.0925,-1.2972,-4.37,1.5918e-12,-0.64858,0,0,0.11111,-0,-0,0.66667
0.68798,0.24931,6.1918,-0.37603,-21.225,89.156,6.2089,-2.0696,-1.5018,8.2785,3.6806e-12,-0.75092,0,0,0.11111,-1.5132e-15,0,0.66667
0.83844,0.54326,7.546,0.064885,2.0438,26.078,-1.3057,0.43522,-1.983,-1.7409,3.3056e-10,-0.99152,0,0,0.11111,-0,-0,0.66667
0.30482,0.83603,2.7434,0.50405,49.218,370.06,-3.6875,1.2292,-1.0943,-4.9166,1.3931e-12,-0.54717,0,0,0.11111,-0,-0,0.66667
0.3531,0.206,3.1779,-0.441,-41.522,327.58,3.7372,-1.2457,-1.3061,4.9829,3.8702e-12,-0.65303,0,0,0.11111,-9.4448e-16,0,0.66667
0.73064,0.65868,6.5758,0.23802,11.859,67.79,-4.1738,1.3913,-1.7988,-5.5651,-1.0019e-11,-0.8994,0,0,0.11111,-2.1053e-15,0,0.66667
0.77783,0.81568,7.0005,0.47352,20.033,47.954,-8.8397,2.9466,-1.2032,-11.786,-2.0663e-11,-0.60158,0,0,0.11111,2.1053e-15,0,0.66667
0.17703,0.72441,1.5933,0.33662,35.058,488.3,-1.4302,0.47673,-1.5958,-1.9069,-5.17e-10,-0.7979,0,0,0.11111,-0,-0,0.66667
0.40176,0.086231,3.6158,-0.62065,-56.097,286.75,5.9844,-1.9948,-0.62925,7.9792,1.9944e-12,-0.31462,0,0,0.11111,-5.2633e-16,0,0.66667
0.0029414,0.092431,0.026473,-0.61135,-65.906,657.86,0.043152,-0.014388,-0.67235,0.057534,-5.783e-06,-0.33618,0,0,0.11111,-6.1679e-18,0,0.66667
0.4006,0.34493,3.6054,-0.2326,-20.967,287.18,2.2363,-0.74543,-1.8068,2.9817,5.0249e-13,-0.90342,0,0,0.11111,-0,-0,0.66667
0.8932,0.77894,8.0388,0.4184,8.9683,12.679,-8.9693,2.9898,-1.379,-11.959,2.8493e-08,-0.68949,0,0,0.11111,-1.3158e-15,0,0.66667
0.057463,0.40294,0.51717,-0.14558,-15.589,604.23,0.20078,-0.066925,-1.9238,0.2677,2.4089e-08,-0.96189,0,0,0.11111,-8.2239e-17,0,0.66667
0.38963,0.068362,3.5067,-0.64746,-59.214,296.88,6.0544,-2.0181,-0.51243,8.0726,8.8818e-16,-0.25621,0,0,0.11111,-0,-0,0.66667
0.26534,0.7912,2.3881,0.4368,43.685,405.71,-2.7817,0.92723,-1.3252,-3.7089,1.1933e-11,-0.6626,0,0,0.11111,-0,-0,0.66667
0.036777,0.4591,0.33099,-0.061354,-6.5817,624.55,0.054153,-0.018051,-1.9847,0.072204,-2.5333e-07,-0.99233,0,0,0.11111,-0,-0,0.66667
0.4005,0.90449,3.6045,0.60674,54.895,287.76,-5.832,1.944,-0.69013,-7.776,-1.565e-12,-0.34506,0,0,0.11111,-5.9212e-16,0,0.66667
0.23781,0.74657,2.1403,0.36985,37.522,431.06,-2.1109,0.70364,-1.514,-2.8145,2.8644e-11,-0.75699,0,0,0.11111,3.9475e-16,0,0.66667
0.83097,0.80227,7.4787,0.45341,14.987,29.045,-9.0424,3.0141,-1.2692,-12.057,1.5076e-10,-0.63458,0,0,0.11111,-0,-0,0.66667
0.64363,0.54294,5.7926,0.064415,4.0376,113.34,-0.99501,0.33167,-1.9851,-1.3267,2.559e-12,-0.99254,0,0,0.11111,-1.0527e-15,0,0.66667
0.47657,0.7714,4.2891,0.40711,33.814,226.83,-4.6563,1.5521,-1.4082,-6.2085,1.7573e-12,-0.70409,0,0,0.11111,-0,-0,0.66667
0.70881,0.93015,6.3793,0.64523,34.577,79.312,-10.976,3.6587,-0.51796,-14.635,2.5091e-12,-0.25898,0,0,0.11111,5.2633e-16,0,0.66667
0.099384,0.78849,0.89445,0.43273,46.105,563.27,-1.0322,0.34405,-1.3324,-1.3762,-3.4623e-08,-0.66622,0,0,0.11111,-0,-0,0.66667
0.75698,0.54939,6.8128,0.074088,3.3737,55.871,-1.346,0.44866,-1.9778,-1.7947,-9.752e-12,-0.98892,0,0,0.11111,-0,-0,0.66667
0.29859,0.16286,2.6873,-0.50571,-49.587,375.64,3.6241,-1.208,-1.0925,4.8321,8.9284e-13,-0.54625,0,0,0.11111,-0,-0,0.66667
0.50277,0.54955,4.525,0.074328,5.9553,206.83,-0.89688,0.29896,-1.9804,-1.1958,-6.5253e-13,-0.99019,0,0,0.11111,-0,-0,0.66667
0.094178,0.89047,0.8476,0.58571,62.563,568.41,-1.3239,0.44129,-0.78336,-1.7652,-5.4865e-08,-0.39168,0,0,0.11111,1.3158e-16,0,0.66667
0.81456,0.35541,7.331,-0.21688,-7.766,33.878,4.2399,-1.4133,-1.8337,5.6533,-2.8194e-10,-0.91684,0,0,0.11111,-0,-0,0.66667
0.51047,0.15369,4.5942,-0.51947,-41.326,201.72,6.3641,-2.1214,-1.0397,8.4855,1.8199e-12,-0.51986,0,0,0.11111,1.0527e-15,0,0.66667
0.44197,0.071251,3.9777,-0.64312,-55.79,254.22,6.8218,-2.2739,-0.52817,9.0957,4.7384e-13,-0.26408,0,0,0.11111,-0,-0,0.66667
0.13489,0.0659,1.214,-0.65115,-68.951,528.94,2.108,-0.70268,-0.4912,2.8107,-8.8346e-08,-0.2456,0,0,0.11111,-0,-0,0.66667
0.63488,0.46804,5.7139,-0.047942,-3.0629,118.47,0.73049,-0.2435,-1.9911,0.97399,-2.9643e-14,-0.99554,0,0,0.11111,-2.6316e-16,0,0.66667
0.35231,0.22836,3.1708,-0.40745,-38.376,328.21,3.4452,-1.1484,-1.4073,4.5936,1.0569e-12,-0.70363,0,0,0.11111,-0,-0,0.66667
0.68271,0.11074,6.1444,-0.5839,-33.535,92.482,9.5672,-3.1891,-0.78602,12.756,8.2423e-13,-0.39301,0,0,0.11111,-8.0849e-16,0,0.66667
0.76246,0.28724,6.8621,-0.31915,-14.278,53.843,5.84,-1.9467,-1.6381,7.7867,2.7729e-11,-0.81903,0,0,0.11111,-0,-0,0.66667
0.0067478,0.4084,0.06073,-0.1374,-14.761,654.11,0.022252,-0.0074172,-1.9315,0.029669,2.3833e-07,-0.96575,0,0,0.11111,-0,-0,0.66667
0.25906,0.70363,2.3315,0.30544,30.625,411.37,-1.8991,0.63302,-1.6657,-2.5321,1.6531e-11,-0.83284,0,0,0.11111,-0,-0,0.66667
0.67791,0.25964,6.1012,-0.36053,-20.881,94.468,5.8659,-1.9553,-1.5357,7.8212,-4.3077e-14,-0.76783,0,0,0.11111,2.1053e-15,0,0.66667
0.3361,0.91638,3.0249,0.62456,59.721,342.6,-5.038,1.6793,-0.6105,-6.7173,-2.4021e-12,-0.30525,0,0,0.11111,-0,-0,0.66667
0.75013,0.95869,6.7511,0.68803,32.432,60.24,-12.387,4.1289,-0.32067,-16.516,1.6946e-11,-0.16034,0,0,0.11111,-1.0527e-15,0,0.66667
0.55698,0.90543,5.0128,0.60815,45.183,169.07,-8.1294,2.7098,-0.68433,-10.839,1.6263e-12,-0.34216,0,0,0.11111,-1.579e-15,0,0.66667
0.85824,0.25463,7.7242,-0.36806,-10.308,20.883,7.5812,-2.5271,-1.5212,10.108,-4.174e-09,-0.76062,0,0,0.11111,-0,-0,0.66667
0.57058,0.99432,5.1352,0.74148,53.999,160.31,-10.154,3.3846,-0.04311,-13.538,-1.5534e-12,-0.021555,0,0,0.11111,-0,-0,0.66667
0.8894,0.98808,8.0046,0.73211,16.503,14.769,-15.627,5.2091,-0.096266,-20.837,9.8193e-08,-0.048133,0,0,0.11111,-1.0527e-15,0,0.66667
0.22748,0.53957,2.0473,0.05935,6.0437,440.56,-0.32402,0.10801,-1.9852,-0.43202,2.2535e-11,-0.99259,0,0,0.11111,-0,-0,0.66667
0.79398,0.89735,7.1458,0.59602,23.663,42.178,-11.358,3.7858,-0.73708,-15.143,7.1325e-11,-0.36854,0,0,0.11111,1.0527e-15,-6.7293e-17,0.66667
0.033947,0.88993,0.30552,0.58489,62.962,627.38,-0.47653,0.15884,-0.78371,-0.63537,-4.4173e-08,-0.39186,0,0,0.11111,-0,-0,0.66667
0.077267,0.75948,0.69541,0.38922,41.619,584.86,-0.72178,0.24059,-1.4641,-0.96237,-8.4535e-08,-0.73204,0,0,0.11111,-0,-0,0.66667
0.3959,0.79709,3.5631,0.44563,40.416,291.3,-4.2342,1.4114,-1.2918,-5.6456,-5.7465e-13,-0.64592,0,0,0.11111,-0,-0,0.66667
0.18577,0.71553,1.6719,0.3233,33.558,479.97,-1.4414,0.48047,-1.6307,-1.9219,-2.497e-10,-0.81533,0,0,0.11111,3.8395e-16,0,0.66667
0.94419,0.54458,8.4977,0.066873,0.7449,3.6992,-1.5154,0.50513,-1.9815,-2.0205,1.1301e-07,-0.99075,0,0,0.11111,-0,-0,0.66667
0.77968,0.66242,7.0172,0.24363,10.19,46.709,-4.5589,1.5196,-1.791,-6.0785,-1.0855e-11,-0.89552,0,0,0.11111,-0,-0,0.66667
0.74367,0.74282,6.693,0.36423,17.42,62.073,-6.5007,2.1669,-1.5263,-8.6677,-2.0721e-11,-0.76314,0,0,0.11111,-0,-0,0.66667
0.492,0.27352,4.428,-0.33972,-27.651,215.07,4.0113,-1.3371,-1.5873,5.3485,7.5628e-13,-0.79367,0,0,0.11111,-0,-0,0.66667
0.49005,0.14433,4.4104,-0.53351,-43.628,216.86,6.2747,-2.0916,-0.9858,8.3662,-3.0531e-12,-0.4929,0,0,0.11111,-0,-0,0.66667
0.58111,0.91334,5.23,0.62002,44.235,152.97,-8.6471,2.8824,-0.63343,-11.53,1.1422e-12,-0.31672,0,0,0.11111,-0,-0,0.66667
0.59663,0.99058,5.3696,0.73588,51.169,143.32,-10.537,3.5123,-0.074754,-14.049,1.7764e-15,-0.037377,0,0,0.11111,5.2633e-16,0,0.66667
0.89803,0.58576,8.0822,0.12864,2.6161,11.123,-2.7724,0.92414,-1.9388,-3.6966,1.2546e-08,-0.96941,0,0,0.11111,-0,-0,0.66667
0.12083,0.91703,1.0875,0.62555,66.461,542.52,-1.8141,0.6047,-0.60752,-2.4188,-5.113e-08,-0.30376,0,0,0.11111,-0,-0,0.66667
0.50961,0.017617,4.5865,-0.72357,-57.822,202.86,8.8498,-2.9499,-0.13607,11.8,3.8058e-12,-0.068034,0,0,0.11111,-2.1053e-15,0,0.66667
0.99552,0.23744,8.9597,-0.39384,-0.21368,0.69427,9.4098,-3.1366,-1.447,12.546,-1.1216e-06,-0.7235,0,0,0.11111,-0,2.1254e-17,0.66667
0.48143,0.36443,4.3329,-0.20336,-16.762,222.89,2.3496,-0.78321,-1.8529,3.1328,5.5134e-13,-0.92647,0,0,0.11111,-0,-0,0.66667
0.83781,0.050104,7.5403,-0.67484,-21.649,27.78,13.569,-4.5231,-0.37844,18.093,4.0004e-09,-0.18922,0,0,0.11111,1.0527e-15,0,0.66667
0.60366,0.62256,5.4329,0.18384,12.519,137.65,-2.6634,0.8878,-1.8788,-3.5512,3.9346e-13,-0.93938,0,0,0.11111,2.6316e-16,0,0.66667
0.66437,0.83198,5.9794,0.49796,29.879,102.18,-7.94,2.6467,-1.1157,-10.587,-4.583e-13,-0.55784,0,0,0.11111,-0,-0,0.66667
0.27246,0.90328,2.4522,0.60492,60.358,399.4,-3.9556,1.3185,-0.69739,-5.2741,1.3729e-11,-0.34869,0,0,0.11111,6.5791e-17,0,0.66667
0.83093,0.65853,7.4784,0.23779,7.8248,28.561,-4.7421,1.5807,-1.8001,-6.3228,8.1328e-10,-0.90007,0,0,0.11111,-2.1053e-15,0,0.66667
0.24447,0.96022,2.2002,0.69033,70.039,425.21,-4.0503,1.3501,-0.30372,-5.4004,-4.7657e-11,-0.15186,0,0,0.11111,-2.6316e-16,0,0.66667
0.67336,0.97752,6.0603,0.71628,42.246,97.96,-11.576,3.8585,-0.17768,-15.434,-9.4502e-13,-0.088842,0,0,0.11111,-0,-0,0.66667
0.08813,0.96777,0.79317,0.70165,75.138,574.36,-1.4841,0.49469,-0.24881,-1.9788,1.8709e-06,-0.12441,0,0,0.11111,-3.2895e-17,0,0.66667
0.018852,0.0022623,0.16967,-0.74661,-80.601,642.23,0.33768,-0.11259,-0.018811,0.45022,-4.1848e-05,-0.0094056,0,0,0.11111,-0,-0,0.66667
0.47235,0.33858,4.2511,-0.24213,-20.189,229.86,2.7449,-0.91497,-1.7915,3.6599,-1.791e-12,-0.89573,0,0,0.11111,7.8949e-16,0,0.66667
0.939,0.26801,8.451,-0.34798,-4.2862,4.7764,7.842,-2.614,-1.571,10.456,-6.0894e-08,-0.78552,0,0,0.11111,-1.0527e-15,0,0.66667
0.32557,0.055699,2.9302,-0.66645,-64.265,351.9,5.2075,-1.7358,-0.42154,6.9433,3.3973e-12,-0.21077,0,0,0.11111,-2.6316e-16,0,0.66667
0.32215,0.1398,2.8994,-0.5403,-52.145,354.72,4.1774,-1.3925,-0.95966,5.5699,-1.5015e-12,-0.47983,0,0,0.11111,-0,-0,0.66667
0.052031,0.84613,0.46828,0.5192,55.764,609.61,-0.64834,0.21611,-1.0408,-0.86445,-1.1496e-07,-0.52038,0,0,0.11111,1.3158e-16,0,0.66667
0.67529,0.72947,6.0776,0.34421,20.064,95.854,-5.5785,1.8595,-1.5782,-7.438,-8.9573e-13,-0.78912,0,0,0.11111,-0,-0,0.66667
0.72174,0.55175,6.4957,0.077621,3.9715,71.845,-1.3445,0.44818,-1.9785,-1.7927,-2.7611e-12,-0.98924,0,0,0.11111,-1.0527e-15,0,0.66667
0.90372,0.87191,8.1335,0.55787,10.898,11.074,-12.1,4.0333,-0.89479,-16.133,3.8113e-08,-0.44739,0,0,0.11111,1.3158e-15,0,0.66667
0.43715,0.36262,3.9343,-0.20608,-17.892,257.41,2.1621,-0.72069,-1.8523,2.8828,-1.2634e-13,-0.92616,0,0,0.11111,-5.2633e-16,0,0.66667
0.10952,0.29585,0.98565,-0.30623,-32.527,553.37,0.80489,-0.2683,-1.6702,1.0732,2.0709e-08,-0.83508,0,0,0.11111,-0,-0,0.66667
0.037607,0.80895,0.33846,0.46343,49.812,623.77,-0.41828,0.13943,-1.2349,-0.5577,-1.875e-07,-0.61743,0,0,0.11111,8.2239e-17,0,0.66667
0.88077,0.71417,7.9269,0.32125,7.6273,15.153,-6.7908,2.2636,-1.6316,-9.0544,1.2604e-08,-0.81579,0,0,0.11111,-4.808e-18,0,0.66667
0.65226,0.3708,5.8703,-0.1938,-11.921,108.45,3.0338,-1.0113,-1.8662,4.0451,-7.6383e-13,-0.93309,0,0,0.11111,-2.6316e-16,0,0.66667
0.9155,0.93726,8.2395,0.65589,11.376,9.3981,-14.411,4.8037,-0.46954,-19.215,3.8511e-07,-0.23477,0,0,0.11111,-8.5528e-16,0,0.66667
0.8806,0.63529,7.9254,0.20293,4.8116,14.974,-4.2888,1.4296,-1.8515,-5.7184,9.4956e-09,-0.92577,0,0,0.11111,2.1053e-15,0,0.66667
0.47024,0.13954,4.2322,-0.54068,-45.33,231.92,6.102,-2.034,-0.96213,8.1361,1.0081e-13,-0.48106,0,0,0.11111,-0,-0,0.66667
0.67034,0.30475,6.0331,-0.29287,-17.272,98.458,4.7117,-1.5706,-1.697,6.2823,1.4775e-12,-0.84848,0,0,0.11111,-5.2633e-16,0,0.66667
0.74507,0.65826,6.7056,0.23739,11.281,61.222,-4.2449,1.415,-1.7991,-5.6599,-1.8801e-11,-0.89953,0,0,0.11111,-0,-0,0.66667
0.42221,0.73487,3.7999,0.35231,31.107,269.57,-3.57,1.19,-1.5619,-4.76,-6.7168e-13,-0.78097,0,0,0.11111,-0,-0,0.66667
0.15392,0.28192,1.3853,-0.32712,-34.338,510.43,1.2084,-0.4028,-1.6216,1.6112,2.2511e-09,-0.81078,0,0,0.11111,-0,-0,0.66667
0.28408,0.90538,2.5567,0.60806,60.25,388.85,-4.1458,1.3819,-0.6868,-5.5277,3.924e-12,-0.3434,0,0,0.11111,6.5791e-17,0,0.66667
0.54848,0.071755,4.9363,-0.64237,-48.406,175,8.4558,-2.8186,-0.53453,11.274,3.3626e-12,-0.26726,0,0,0.11111,-0,-0,0.66667
0.25574,0.98992,2.3016,0.73488,74.159,414.89,-4.5104,1.5035,-0.077766,-6.0139,1.1785e-11,-0.038883,0,0,0.11111,-0,-0,0.66667
0.89173,0.19672,8.0256,-0.45493,-9.8949,13.101,9.7362,-3.2454,-1.2665,12.982,-2.2425e-08,-0.63326,0,0,0.11111,-0,-0,0.66667
0.58075,0.82853,5.2268,0.4928,35.109,152.88,-6.8686,2.2895,-1.1367,-9.1582,3.0731e-13,-0.56834,0,0,0.11111,-0,-0,0.66667
0.71867,0.91353,6.4681,0.62029,32.277,74.407,-10.699,3.5663,-0.63615,-14.265,-9.4369e-12,-0.31807,0,0,0.11111,-0,-0,0.66667
0.86203,0.93594,7.7583,0.6539,18.051,20.885,-13.528,4.5095,-0.48117,-18.038,-9.0637e-08,-0.24059,0,0,0.11111,-1.4474e-15,0,0.66667
0.89656,0.84404,8.0691,0.51605,10.775,12.315,-11.104,3.7014,-1.0524,-14.806,5.0415e-08,-0.52619,0,0,0.11111,-0,-0,0.66667
0.95761,0.90462,8.6185,0.60693,5.3172,3.6734,-13.949,4.6496,-0.69008,-18.598,5.1844e-06,-0.34504,0,0,0.11111,-1.0527e-15,0,0.66667
0.62751,0.83674,5.6476,0.50511,32.91,123.51,-7.607,2.5357,-1.0937,-10.143,-5.3513e-13,-0.54683,0,0,0.11111,-5.2633e-16,0,0.66667
0.99898,0.18864,8.9908,-0.46704,0.064025,0.88565,11.198,-3.7325,-1.2281,14.93,-1.607e-06,-0.61406,0,0,0.11111,-4.2106e-15,0,0.66667
0.79051,0.61114,7.1146,0.16672,6.6613,42.438,-3.163,1.0543,-1.8987,-4.2173,2.4804e-11,-0.94933,0,0,0.11111,-0,-0,0.66667
0.27082,0.39733,2.4374,-0.15401,-15.327,400.52,1.001,-0.33367,-1.914,1.3347,-4.7322e-12,-0.95698,0,0,0.11111,2.6316e-16,0,0.66667
0.99055,0.66225,8.915,0.24337,0.36736,0.44164,-5.7857,1.9286,-1.7876,-7.7142,2.4291e-07,-0.89379,0,0,0.11111,-0,-0,0.66667
0.80151,0.29131,7.2136,-0.31303,-11.938,38.608,6.0214,-2.0071,-1.6501,8.0286,-9.4878e-11,-0.82507,0,0,0.11111,-2.1053e-15,0,0.66667
0.25311,0.42333,2.278,-0.115,-11.559,416.76,0.6986,-0.23287,-1.9526,0.93146,-9.7198e-12,-0.9763,0,0,0.11111,5.2633e-16,0,0.66667
0.031897,0.73674,0.28708,0.35511,38.152,629.37,-0.27185,0.090616,-1.5545,-0.36246,4.5061e-07,-0.77723,0,0,0.11111,-0,-0,0.66667
0.95281,0.73377,8.5753,0.35066,3.3301,3.2008,-8.0187,2.6729,-1.5661,-10.692,-2.9521e-08,-0.78306,0,0,0.11111,-0,-0,0.66667
0.55683,0.15503,5.0115,-0.51746,-38.399,168.95,6.9153,-2.3051,-1.0471,9.2204,2.7969e-12,-0.52357,0,0,0.11111,8.2428e-17,0,0.66667
0.55271,0.82495,4.9744,0.48743,36.396,171.7,-6.4657,2.1552,-1.153,-8.621,-7.6783e-13,-0.57649,0,0,0.11111,-0,-0,0.66667
0.047378,0.51354,0.4264,0.02031,2.1767,614.13,-0.023094,0.0076976,-2.0016,-0.030792,-4.3146e-07,-1.0008,0,0,0.11111,-0,-0,0.66667
0.63904,0.34107,5.7513,-0.2384,-15.108,116.15,3.6563,-1.2188,-1.8005,4.8751,-6.4859e-13,-0.90026,0,0,0.11111,-0,-0,0.66667
0.5001,0.19252,4.5009,-0.46123,-37.187,209.22,5.5359,-1.8453,-1.2481,7.3812,1.148e-12,-0.62403,0,0,0.11111,-0,-0,0.66667
0.80429,0.95777,7.2387,0.68665,26.121,38.811,-13.254,4.4182,-0.321,-17.673,-9.036e-10,-0.1605,0,0,0.11111,1.0527e-15,0,0.66667
0.06955,0.88797,0.62595,0.58195,62.412,592.46,-0.97139,0.3238,-0.79319,-1.2952,-1.9245e-07,-0.39659,0,0,0.11111,-0,-0,0.66667
0.56293,0.6373,5.0664,0.20595,15.083,164.3,-2.7825,0.92749,-1.8524,-3.7099,1.4595e-12,-0.92619,0,0,0.11111,-0,-0,0.66667
0.40868,0.27336,3.6781,-0.33996,-30.425,280.61,3.3344,-1.1115,-1.5899,4.4459,-1.4966e-13,-0.79493,0,0,0.11111,-0,-0,0.66667
0.55177,0.25238,4.9659,-0.37143,-27.738,172.13,4.9186,-1.6395,-1.5089,6.5581,-2.6201e-14,-0.75443,0,0,0.11111,2.1053e-15,0,0.66667
0.35846,0.49466,3.2262,-0.0080068,-0.74895,322.68,0.068884,-0.022961,-2.0029,0.091845,4.937e-12,-1.0014,0,0,0.11111,-1.579e-15,0,0.66667
0.99938,0.97886,8.9944,0.7183,0.062176,2.0709,-17.228,5.7427,-0.16831,-22.971,-0.0001246,-0.084157,0,0,0.11111,-0,-3.4565e-16,0.66667
0.45032,0.75416,4.0529,0.38124,32.659,247.14,-4.1204,1.3735,-1.4841,-5.4938,-1.9762e-12,-0.74204,0,0,0.11111,1.0527e-15,0,0.66667
0.34582,0.069376,3.1124,-0.64594,-61.321,334.18,5.3611,-1.787,-0.51783,7.1482,2.1951e-12,-0.25891,0,0,0.11111,-0,-0,0.66667
0.18973,0.48952,1.7075,-0.015713,-1.6267,476.13,0.071546,-0.023849,-1.9999,0.095395,-2.7464e-11,-0.99996,0,0,0.11111,5.2633e-16,0,0.66667
0.92353,0.31245,8.3117,-0.28132,-4.3281,6.8067,6.2353,-2.0784,-1.7216,8.3138,-5.7395e-08,-0.86082,0,0,0.11111,-2.7756e-15,0,0.66667
0.10429,0.64551,0.93865,0.21826,23.199,558.43,-0.54633,0.18211,-1.8288,-0.72843,-2.0917e-08,-0.91441,0,0,0.11111,-0,-0,0.66667
0.44034,0.14551,3.9631,-0.53174,-46.138,255.28,5.6196,-1.8732,-0.99474,7.4928,2.4913e-13,-0.49737,0,0,0.11111,-0,-0,0.66667
0.6862,0.70325,6.1758,0.30488,17.274,89.957,-5.021,1.6737,-1.6713,-6.6946,-2.9616e-12,-0.83566,0,0,0.11111,1.0527e-15,0,0.66667
0.14241,0.89648,1.2816,0.59472,62.799,521.65,-2.0326,0.67754,-0.74381,-2.7101,-2.7202e-09,-0.37191,0,0,0.11111,-0,-0,0.66667
0.9315,0.088475,8.3835,-0.61729,-8.7048,6.7504,13.8,-4.6,-0.64352,18.4,-2.0371e-07,-0.32176,0,0,0.11111,1.579e-15,0,0.66667
0.058875,0.82102,0.52987,0.48153,51.66,602.89,-0.68041,0.2268,-1.175,-0.90721,-5.9515e-08,-0.58752,0,0,0.11111,-0,-0,0.66667
0.2181,0.50082,1.9629,0.0012249,0.12528,449.34,-0.0064115,0.0021372,-2.0043,-0.0085486,7.2891e-11,-1.0022,0,0,0.11111,-0,-0,0.66667
0.077195,0.8302,0.69476,0.49529,53.01,584.96,-0.91762,0.30587,-1.1301,-1.2235,-9.2909e-08,-0.56507,0,0,0.11111,4.0164e-17,0,0.66667
0.41151,0.27601,3.7036,-0.33598,-29.985,278.28,3.3182,-1.1061,-1.5973,4.4243,5.4157e-13,-0.79866,0,0,0.11111,-2.6316e-16,0,0.66667
0.59726,0.83998,5.3753,0.50996,35.269,142.25,-7.3099,2.4366,-1.0756,-9.7466,4.4498e-13,-0.53778,0,0,0.11111,-2.6316e-16,0,0.66667
0.73114,0.79938,6.5803,0.44908,22.405,67.982,-7.8801,2.6267,-1.2825,-10.507,-8.7592e-12,-0.64125,0,0,0.11111,-1.9185e-15,0,0.66667
0.87843,0.5875,7.9059,0.13125,3.1626,15.393,-2.767,0.92234,-1.9387,-3.6893,9.0606e-09,-0.96934,0,0,0.11111,1.579e-15,0,0.66667
0.35325,0.77228,3.1792,0.40841,38.437,327.41,-3.4625,1.1542,-1.4048,-4.6167,8.3067e-13,-0.70239,0,0,0.11111,-5.2633e-16,0,0.66667
0.70246,0.63224,6.3222,0.19836,10.744,81.419,-3.3442,1.1147,-1.8633,-4.4589,-3.594e-12,-0.93167,0,0,0.11111,-0,-0,0.66667
0.048616,0.39034,0.43755,-0.16448,-17.631,612.92,0.19192,-0.063973,-1.905,0.25589,-6.1178e-08,-0.95251,0,0,0.11111,6.5791e-17,0,0.66667
0.81926,0.70255,7.3734,0.30382,10.641,32.446,-5.9738,1.9913,-1.6692,-7.965,3.8171e-10,-0.83458,0,0,0.11111,-1.0527e-15,0,0.66667
0.31828,0.8403,2.8645,0.51045,49.385,358.11,-3.8992,1.2997,-1.0723,-5.1989,1.3582e-12,-0.53614,0,0,0.11111,1.3158e-16,0,0.66667
0.22164,0.81954,1.9948,0.47931,49.057,446.22,-2.5497,0.84989,-1.1835,-3.3995,9.3028e-12,-0.59176,0,0,0.11111,-0,-0,0.66667
0.36104,0.19907,3.2493,-0.45139,-42.228,320.76,3.9112,-1.3037,-1.277,5.215,2.6241e-12,-0.63849,0,0,0.11111,-0,-0,0.66667
0.11407,0.92768,1.0266,0.64152,68.282,549.09,-1.7563,0.58542,-0.53524,-2.3417,-5.246e-08,-0.26762,0,0,0.11111,-0,-0,0.66667
0.29371,0.39314,2.6433,-0.16029,-15.728,379.76,1.1299,-0.37662,-1.9083,1.5065,-5.2003e-12,-0.95413,0,0,0.11111,5.2633e-16,0,0.66667
0.008789,0.091676,0.079101,-0.61249,-66.024,652.11,0.12919,-0.043053,-0.6648,0.17226,1.5387e-05,-0.3324,0,0,0.11111,-2.056e-17,0,0.66667
0.25326,0.0082937,2.2794,-0.73756,-74.533,417.16,4.4831,-1.4944,-0.065643,5.9775,9.305e-12,-0.032822,0,0,0.11111,-0,-0,0.66667
0.83771,0.76864,7.5394,0.40297,12.812,26.828,-8.1017,2.7006,-1.4203,-10.802,1.2953e-09,-0.71014,0,0,0.11111,-1.0527e-15,0,0.66667
0.80776,0.26752,7.2698,-0.34872,-12.929,36.465,6.7604,-2.2535,-1.5659,9.0139,-1.4388e-10,-0.78295,0,0,0.11111,1.0527e-15,0,0.66667
0.38257,0.11092,3.4431,-0.58361,-53.671,302.68,5.3585,-1.7862,-0.78622,7.1447,3.0762e-12,-0.39311,0,0,0.11111,-0,-0,0.66667
0.43068,0.60817,3.8761,0.16226,14.184,262.57,-1.6772,0.55906,-1.9037,-2.2362,-2.7082e-12,-0.95187,0,0,0.11111,1.0527e-15,0,0.66667
0.18259,0.62822,1.6433,0.19233,19.974,482.95,-0.84281,0.28094,-1.8677,-1.1237,-1.9734e-10,-0.93385,0,0,0.11111,-5.2633e-16,0,0.66667
0.31687,0.04861,2.8519,-0.67708,-65.71,359.6,5.1492,-1.7164,-0.36851,6.8656,2.5824e-12,-0.18425,0,0,0.11111,-5.2633e-16,0,0.66667
0.41737,0.18496,3.7563,-0.47255,-41.979,273.68,4.7335,-1.5778,-1.2056,6.3113,2.4318e-12,-0.60282,0,0,0.11111,-6.5791e-16,0,0.66667
0.066468,0.93124,0.59822,0.64686,69.456,595.5,-1.0319,0.34397,-0.51169,-1.3759,2.49e-07,-0.25585,0,0,0.11111,-0,-0,0.66667
0.33789,0.11261,3.041,-0.58109,-55.457,340.97,4.7122,-1.5707,-0.79714,6.2829,5.8709e-13,-0.39857,0,0,0.11111,-0,-0,0.66667
0.49567,0.024039,4.461,-0.71394,-58.122,213.11,8.4931,-2.831,-0.18673,11.324,1.803e-13,-0.093364,0,0,0.11111,-0,-1.7129e-16,0.66667
0.0067213,0.86003,0.060492,0.54005,58.171,654.14,-0.087114,0.029036,-0.96037,-0.11615,-3.3589e-06,-0.48019,0,0,0.11111,-8.2239e-18,0,0.66667
0.43808,0.21982,3.9427,-0.42026,-36.51,256.9,4.4186,-1.4729,-1.3764,5.8914,-1.954e-13,-0.68819,0,0,0.11111,-0,-0,0.66667
0.21869,0.84929,1.9682,0.52393,53.722,449.02,-2.7499,0.91663,-1.0284,-3.6665,8.7e-11,-0.51421,0,0,0.11111,-0,-0,0.66667
0.2134,0.64424,1.9206,0.21636,22.187,453.79,-1.1081,0.36937,-1.8315,-1.4775,2.0225e-12,-0.91577,0,0,0.11111,2.6316e-16,0,0.66667
0.24924,0.77146,2.2432,0.40719,41.077,420.49,-2.4357,0.8119,-1.4133,-3.2476,3.0648e-11,-0.70666,0,0,0.11111,-2.6316e-16,0,0.66667
0.12833,0.62819,1.1549,0.19229,20.321,535.08,-0.59222,0.19741,-1.869,-0.78963,-7.3132e-09,-0.93451,0,0,0.11111,-0,-0,0.66667
0.94481,0.17354,8.5033,-0.48969,-5.5123,4.5157,11.104,-3.7013,-1.1447,14.805,-3.3462e-08,-0.57234,0,0,0.11111,-1.0527e-15,0,0.66667
0.16907,0.18691,1.5217,-0.46964,-49.105,495.97,1.9057,-0.63523,-1.2173,2.5409,-2.4193e-10,-0.60865,0,0,0.11111,-2.8784e-16,0,0.66667
0.56761,0.46806,5.1085,-0.047908,-3.4792,161.05,0.65263,-0.21754,-1.9914,0.87018,1.6726e-12,-0.99571,0,0,0.11111,-2.3027e-16,0,0.66667
0.17151,0.68881,1.5436,0.28322,29.546,493.55,-1.1658,0.3886,-1.7194,-1.5544,-8.5405e-10,-0.85972,0,0,0.11111,5.2633e-16,0,0.66667
0.26092,0.90297,2.3483,0.60446,60.714,409.95,-3.7852,1.2617,-0.70024,-5.0469,-3.5855e-11,-0.35012,0,0,0.11111,-1.3158e-16,0,0.66667
0.67678,0.24808,6.091,-0.37788,-21.954,95.116,6.1377,-2.0459,-1.4918,8.1836,7.1454e-13,-0.74588,0,0,0.11111,1.1842e-15,0,0.66667
0.50327,0.022845,4.5294,-0.71573,-57.684,207.49,8.6449,-2.8816,-0.17842,11.527,3.4905e-13,-0.089209,0,0,0.11111,-1.0527e-15,0,0.66667
0.15729,0.96524,1.4156,0.69785,73.449,507.43,-2.6343,0.87811,-0.27167,-3.5124,2.0582e-09,-0.13583,0,0,0.11111,-3.9475e-16,0,0.66667
0.082507,0.62724,0.74256,0.19085,20.368,579.7,-0.37792,0.12597,-1.8702,-0.50389,-2.6348e-08,-0.93512,0,0,0.11111,-0,-0,0.66667
0.88189,0.79276,7.937,0.43914,10.373,15.211,-9.2946,3.0982,-1.3118,-12.393,9.1881e-09,-0.65589,0,0,0.11111,-0,-0,0.66667
0.24189,0.88857,2.177,0.58285,59.13,427.46,-3.3837,1.1279,-0.78941,-4.5115,1.8632e-11,-0.3947,0,0,0.11111,-0,-0,0.66667
0.95897,0.63286,8.6308,0.19929,1.6218,2.289,-4.5867,1.5289,-1.8569,-6.1156,-9.8365e-08,-0.92843,0,0,0.11111,-0,-0,0.66667
0.89236,0.43385,8.0313,-0.099221,-2.1258,12.264,2.125,-0.70833,-1.9672,2.8333,-2.0588e-08,-0.98361,0,0,0.11111,-2.6316e-16,0,0.66667
0.15998,0.77837,1.4398,0.41755,43.773,504.65,-1.6032,0.53439,-1.3803,-2.1376,-1.411e-09,-0.69013,0,0,0.11111,-6.5791e-17,0,0.66667
0.50371,0.66382,4.5333,0.24572,19.677,206.25,-2.9705,0.99018,-1.7848,-3.9607,-5.7732e-15,-0.89241,0,0,0.11111,-0,-0,0.66667
0.11892,0.74561,1.0703,0.36841,39.063,544.25,-1.0515,0.35049,-1.5159,-1.402,-1.25e-08,-0.75793,0,0,0.11111,-0,-0,0.66667
0.11084,0.31804,0.99754,-0.27295,-28.978,552.08,0.72607,-0.24202,-1.7374,0.96809,1.8648e-08,-0.86871,0,0,0.11111,-0,-0,0.66667
0.6963,0.15929,6.2667,-0.51106,-28.275,85.177,8.5404,-2.8468,-1.0698,11.387,6.1249e-12,-0.53489,0,0,0.11111,-2.1053e-15,0,0.66667
0.27155,0.6912,2.444,0.28679,28.547,399.92,-1.8691,0.62303,-1.7062,-2.4921,1.0817e-11,-0.85308,0,0,0.11111,-0,-0,0.66667
0.96639,0.47602,8.6975,-0.035968,-0.23581,1.5194,0.83421,-0.27807,-1.9963,1.1123,-3.3986e-08,-0.99817,0,0,0.11111,-0,-0,0.66667
0.83925,0.38764,7.5532,-0.16853,-5.2882,25.917,3.3946,-1.1315,-1.8975,4.5261,-1.1986e-09,-0.94874,0,0,0.11111,2.1053e-15,0,0.66667
0.09252,0.63288,0.83268,0.19931,21.234,569.91,-0.44257,0.14752,-1.8611,-0.5901,-2.3314e-08,-0.93054,0,0,0.11111,2.6316e-16,0,0.66667
0.39056,0.17051,3.515,-0.49424,-45.073,295.83,4.6327,-1.5442,-1.1352,6.177,4.6363e-13,-0.5676,0,0,0.11111,-5.2633e-16,3.8914e-17,0.66667
0.12422,0.48099,1.118,-0.028517,-3.0157,539.05,0.085016,-0.028339,-1.9998,0.11335,7.0262e-10,-0.99988,0,0,0.11111,-0,-0,0.66667
0.55539,0.68838,4.9985,0.28257,20.962,169.51,-3.7665,1.2555,-1.7149,-5.0219,-1.0434e-12,-0.85746,0,0,0.11111,2.1053e-15,0,0.66667
0.16211,0.60796,1.4589,0.16194,16.94,502.51,-0.63004,0.21001,-1.9044,-0.84005,-9.9177e-10,-0.95221,0,0,0.11111,-0,-0,0.66667
0.83177,0.049378,7.4859,-0.67593,-22.422,29.632,13.493,-4.4977,-0.37468,17.991,9.1799e-09,-0.18734,0,0,0.11111,1.0527e-15,0,0.66667
0.25769,0.24392,2.3193,-0.38412,-38.565,412.68,2.3757,-0.79189,-1.4732,3.1676,-2.239e-11,-0.73662,0,0,0.11111,-1.3158e-16,0,0.66667
0.51057,0.17655,4.5951,-0.48517,-38.575,201.57,5.9451,-1.9817,-1.1613,7.9268,1.6023e-12,-0.58063,0,0,0.11111,-5.2633e-16,0,0.66667
0.78245,0.19913,7.0421,-0.4513,-18.732,46.076,8.475,-2.825,-1.2779,11.3,-1.5823e-11,-0.63894,0,0,0.11111,-0,-0,0.66667
0.53834,0.56889,4.845,0.10334,7.8673,181.19,-1.3352,0.44507,-1.9599,-1.7803,1.8473e-12,-0.97996,0,0,0.11111,-0,-0,0.66667
0.52882,0.91703,4.7594,0.62555,48.555,188.73,-7.9394,2.6465,-0.60919,-10.586,5.1514e-14,-0.30459,0,0,0.11111,-0,1.7539e-16,0.66667
0.85484,0.20663,7.6936,-0.44005,-12.628,22.003,9.0281,-3.0094,-1.31,12.037,-3.0548e-09,-0.65499,0,0,0.11111,-0,-0,0.66667
0.2451,0.082677,2.2059,-0.62598,-63.434,424.54,3.6823,-1.2274,-0.60503,4.9097,-9.3643e-11,-0.30251,0,0,0.11111,-0,-0,0.66667
0.1271,0.87104,1.1439,0.55656,58.992,536.41,-1.6977,0.56591,-0.90033,-2.2637,-5.6506e-09,-0.45017,0,0,0.11111,6.5791e-17,0,0.66667
0.56024,0.70531,5.0422,0.30797,22.671,166.24,-4.1409,1.3803,-1.6634,-5.5212,3.3098e-12,-0.83169,0,0,0.11111,-1.0527e-15,0,0.66667
0.12838,0.63065,1.1554,0.19598,20.711,535.03,-0.60384,0.20128,-1.8635,-0.80512,-7.4106e-09,-0.93174,0,0,0.11111,-0,-0,0.66667
0.33116,0.0071143,2.9804,-0.73933,-71.079,347.13,5.876,-1.9587,-0.056717,7.8347,3.8107e-12,-0.028359,0,0,0.11111,-0,-0,0.66667
0.32644,0.60926,2.938,0.16389,15.723,350.59,-1.284,0.42801,-1.9058,-1.712,2.8445e-12,-0.95289,0,0,0.11111,-0,-0,0.66667
0.94804,0.79681,8.5324,0.44522,4.6984,3.9925,-10.13,3.3767,-1.2933,-13.507,9.5542e-08,-0.64663,0,0,0.11111,-0,-0,0.66667
0.37591,0.52619,3.3832,0.039288,3.6207,307.78,-0.35446,0.11815,-1.9977,-0.47261,7.3531e-12,-0.99883,0,0,0.11111,-5.2633e-16,0,0.66667
0.46911,0.15871,4.222,-0.51194,-42.963,232.73,5.7638,-1.9213,-1.0726,7.685,-2.5691e-12,-0.53629,0,0,0.11111,1.0527e-15,0,0.66667
0.94734,0.6721,8.5261,0.25815,2.7261,3.5718,-5.8693,1.9564,-1.7607,-7.8258,-3.412e-08,-0.88037,0,0,0.11111,2.1053e-15,0,0.66667
0.82838,0.15169,7.4554,-0.52246,-17.549,30.083,10.387,-3.4624,-1.0337,13.849,-1.1084e-09,-0.51686,0,0,0.11111,-0,-0,0.66667
0.672,0.43977,6.048,-0.090339,-5.2988,97.342,1.457,-0.48566,-1.9758,1.9427,7.413e-13,-0.98792,0,0,0.11111,-0,-0,0.66667
0.26731,0.52533,2.4058,0.038,3.7887,403.71,-0.24379,0.081263,-1.9968,-0.32505,4.3913e-12,-0.99841,0,0,0.11111,-0,-0,0.66667
0.13326,0.44762,1.1994,-0.078572,-8.2898,530.29,0.2513,-0.083768,-1.9755,0.33507,3.1837e-09,-0.98776,0,0,0.11111,-0,-0,0.66667
0.33396,0.64467,3.0057,0.217,20.706,344.01,-1.7393,0.57976,-1.8303,-2.319,2.4899e-12,-0.91517,0,0,0.11111,-0,-0,0.66667
0.15982,0.52645,1.4384,0.039673,4.1522,504.69,-0.15217,0.050725,-1.9944,-0.2029,-4.775e-10,-0.9972,0,0,0.11111,1.3158e-16,0,0.66667
0.9604,0.16475,8.6436,-0.50287,-4.0547,2.9805,11.591,-3.8636,-1.0985,15.455,-8.6543e-07,-0.54925,0,0,0.11111,-2.1053e-15,0,0.66667
0.20094,0.87979,1.8084,0.56969,58.902,465.77,-2.7473,0.91578,-0.84752,-3.6631,4.8481e-10,-0.42376,0,0,0.11111,5.2633e-16,0,0.66667
0.31067,0.37074,2.796,-0.19389,-18.814,364.58,1.4457,-0.48189,-1.8683,1.9275,-4.5686e-13,-0.93417,0,0,0.11111,-7.8949e-16,0,0.66667
0.66142,0.93218,5.9528,0.64828,39.289,104.28,-10.291,3.4303,-0.50447,-13.721,-1.2976e-12,-0.25223,0,0,0.11111,5.2633e-16,0,0.66667
0.43762,0.007813,3.9386,-0.73828,-64.451,257.91,7.7541,-2.5847,-0.066062,10.339,4.8805e-13,-0.033031,0,0,0.11111,-0,-0,0.66667
0.58983,0.1248,5.3085,-0.5628,-39.493,147.15,7.967,-2.6557,-0.87432,10.623,2.1805e-13,-0.43716,0,0,0.11111,-1.2336e-15,0,0.66667
0.84885,0.71031,7.6396,0.31547,9.3698,23.354,-6.4268,2.1423,-1.6445,-8.569,2.5636e-09,-0.82227,0,0,0.11111,-0,-0,0.66667
0.58815,0.055265,5.2933,-0.6671,-47.043,148.54,9.4165,-3.1388,-0.41594,12.555,1.6085e-12,-0.20797,0,0,0.11111,-5.2633e-16,0,0.66667
0.49698,0.79371,4.4728,0.44056,35.66,211.51,-5.2548,1.7516,-1.3097,-7.0064,-8.1979e-13,-0.65483,0,0,0.11111,-0,-0,0.66667
0.83558,0.56519,7.5202,0.097782,3.1312,26.966,-1.9609,0.65364,-1.9644,-2.6145,1.2406e-09,-0.98221,0,0,0.11111,-0,-0,0.66667
0.79797,0.49385,7.1817,-0.009229,-0.35668,39.579,0.17675,-0.058916,-2.0024,0.23566,-1.2887e-10,-1.0012,0,0,0.11111,3.158e-15,0,0.66667
0.98116,0.36389,8.8304,-0.20417,-0.71272,0.74667,4.8078,-1.6026,-1.8514,6.4104,1.0755e-07,-0.92572,0,0,0.11111,-0,-0,0.66667
0.94861,0.49415,8.5375,-0.0087718,-0.089752,3.179,0.1997,-0.066568,-1.9988,0.26627,1.3473e-07,-0.9994,0,0,0.11111,1.579e-15,0,0.66667
0.91719,0.27032,8.2547,-0.34452,-5.7487,7.973,7.5837,-2.5279,-1.5764,10.112,-5.0486e-08,-0.78821,0,0,0.11111,-0,-0,0.66667
0.49483,0.19346,4.4534,-0.45981,-37.333,213.14,5.4606,-1.8202,-1.2469,7.2808,-3.4905e-13,-0.62345,0,0,0.11111,1.0527e-15,0,0.66667
0.73715,0.52341,6.6344,0.035108,1.7109,64.625,-0.62112,0.20704,-1.996,-0.82816,-2.9888e-12,-0.99801,0,0,0.11111,-1.0527e-15,0,0.66667
0.60052,0.10126,5.4047,-0.59812,-41.174,140.41,8.6204,-2.8735,-0.72583,11.494,-1.3811e-12,-0.36292,0,0,0.11111,-0,-0,0.66667
0.738,0.39337,6.642,-0.15994,-7.7766,64.311,2.8329,-0.94429,-1.9082,3.7772,1.1936e-11,-0.95411,0,0,0.11111,1.0527e-15,0,0.66667
0.37576,0.6771,3.3818,0.26566,24.504,308.02,-2.3958,0.79858,-1.7519,-3.1943,8.1424e-13,-0.87593,0,0,0.11111,-0,-0,0.66667
0.91111,0.45029,8.2,-0.074558,-1.3249,8.6067,1.6303,-0.54344,-1.9785,2.1738,-1.6461e-08,-0.98923,0,0,0.11111,-0,-0,0.66667
0.87231,0.5237,7.8508,0.035555,0.89736,16.806,-0.74436,0.24812,-1.996,-0.99249,2.7289e-09,-0.99801,0,0,0.11111,-0,-0,0.66667
0.70467,0.62868,6.342,0.19303,10.39,80.304,-3.2644,1.0881,-1.87,-4.3526,-2.2105e-12,-0.935,0,0,0.11111,-2.1053e-15,0,0.66667
0.26123,0.57984,2.3511,0.11975,11.983,409.3,-0.75079,0.25026,-1.9475,-1.0011,1.0745e-11,-0.97376,0,0,0.11111,-0,-0,0.66667
0.50107,0.11302,4.5096,-0.58047,-46.815,208.76,6.9806,-2.3269,-0.8042,9.3074,1.1156e-12,-0.4021,0,0,0.11111,-0,-0,0.66667
0.21771,0.55662,1.9594,0.084935,8.6893,449.71,-0.44378,0.14793,-1.9772,-0.59171,3.6618e-11,-0.9886,0,0,0.11111,1.3158e-16,0,0.66667
0.10252,0.64209,0.92268,0.21314,22.663,560.16,-0.52443,0.17481,-1.8358,-0.69924,-2.2349e-08,-0.91791,0,0,0.11111,-0,-0,0.66667
0.57796,0.31422,5.2016,-0.27866,-19.902,154.33,3.8654,-1.2885,-1.7288,5.1538,3.7303e-12,-0.8644,0,0,0.11111,-2.1053e-15,0,0.66667
0.4796,0.69801,4.3164,0.29701,24.553,224.38,-3.4187,1.1396,-1.6848,-4.5583,4.3787e-13,-0.84238,0,0,0.11111,-1.0527e-15,0,0.66667
0.24749,0.81062,2.2274,0.46593,47.071,422.16,-2.7675,0.92251,-1.2297,-3.69,-4.1644e-12,-0.61486,0,0,0.11111,-0,-0,0.66667
0.44668,0.003778,4.0201,-0.74433,-64.342,250.75,7.9794,-2.6598,-0.028526,10.639,-1.7422e-12,-0.014263,0,0,0.11111,-0,-0,0.66667
0.13839,0.5755,1.2455,0.11325,11.932,525.33,-0.37614,0.12538,-1.955,-0.50152,-3.9123e-09,-0.97752,0,0,0.11111,-2.6316e-16,0,0.66667
0.5228,0.10844,4.7052,-0.58733,-45.962,192.94,7.3694,-2.4565,-0.77076,9.8259,7.3674e-13,-0.38538,0,0,0.11111,-0,-0,0.66667
0.97037,0.025917,8.7333,-0.71112,-4.4416,3.1854,16.561,-5.5204,-0.20409,22.082,2.9715e-05,-0.10205,0,0,0.11111,1.0527e-15,0,0.66667
0.82378,0.73619,7.414,0.35428,12.136,31.071,-7.0045,2.3348,-1.5523,-9.3393,5.4941e-10,-0.77614,0,0,0.11111,7.7102e-17,0,0.66667
0.0044396,0.58786,0.039957,0.13179,14.159,656.38,-0.014043,0.0046808,-1.9374,-0.018724,-2.211e-07,-0.96868,0,0,0.11111,4.1119e-18,0,0.66667
0.09162,0.85325,0.82458,0.52987,56.591,570.88,-1.1651,0.38837,-1.0027,-1.5535,-1.9937e-08,-0.50136,0,0,0.11111,-0,1.2152e-17,0.66667
0.025576,0.10481,0.23018,-0.59279,-63.849,635.61,0.36386,-0.12129,-0.74846,0.48515,-9.8191e-06,-0.37423,0,0,0.11111,-0,-0,0.66667
0.30843,0.74443,2.7758,0.36665,35.668,366.7,-2.714,0.90467,-1.5215,-3.6187,1.301e-12,-0.76074,0,0,0.11111,-2.6316e-16,0,0.66667
0.98064,0.89841,8.8258,0.59762,2.3472,2.0096,-14.065,4.6884,-0.72959,-18.754,-5.4173e-06,-0.36479,0,0,0.11111,1.0527e-15,0,0.66667
0.4604,0.41938,4.1436,-0.12092,-10.223,239.01,1.3362,-0.44539,-1.9453,1.7816,2.4989e-12,-0.97266,0,0,0.11111,-1.0527e-15,0,0.66667
0.40975,0.4452,3.6877,-0.082201,-7.3399,279.55,0.80836,-0.26945,-1.9757,1.0778,-1.6829e-12,-0.98783,0,0,0.11111,-0,-0,0.66667
0.40822,0.057261,3.674,-0.66411,-59.688,281.52,6.5064,-2.1688,-0.43353,8.6753,2.4776e-12,-0.21676,0,0,0.11111,-7.8949e-16,0,0.66667
0.82481,0.81368,7.4233,0.47052,16.079,31.053,-9.3142,3.1047,-1.2137,-12.419,3.5325e-10,-0.60686,0,0,0.11111,-2.1053e-15,0,0.66667
0.58171,0.29952,5.2353,-0.30072,-21.341,151.9,4.1984,-1.3995,-1.6777,5.5979,2.5229e-12,-0.83883,0,0,0.11111,-1.0527e-15,0,0.66667
0.11935,0.27295,1.0742,-0.34058,-36.101,543.82,0.97557,-0.32519,-1.5857,1.3008,1.2471e-08,-0.79285,0,0,0.11111,1.3158e-16,0,0.66667
0.44473,0.41263,4.0026,-0.13106,-11.281,251.33,1.3989,-0.4663,-1.9368,1.8652,-3.2989e-12,-0.9684,0,0,0.11111,-0,-0,0.66667
0.1464,0.00071456,1.3176,-0.74893,-79.149,517.92,2.6315,-0.87717,-0.0049481,3.5087,9.4301e-10,-0.0024741,0,0,0.11111,-0,-0,0.66667
0.66607,0.41235,5.9947,-0.13148,-7.8255,100.62,2.1018,-0.70059,-1.9368,2.8023,8.9928e-14,-0.96842,0,0,0.11111,-0,-0,0.66667
0.12237,0.035943,1.1013,-0.69609,-73.995,541.08,2.0443,-0.68144,-0.27818,2.7257,-1.3829e-07,-0.13909,0,0,0.11111,-2.6316e-16,0,0.66667
0.086689,0.37305,0.7802,-0.19043,-20.307,575.61,0.39619,-0.13206,-1.8697,0.52825,2.1414e-08,-0.93484,0,0,0.11111,1.8093e-16,0,0.66667
0.70336,0.16039,6.3302,-0.50941,-27.639,81.586,8.5993,-2.8664,-1.0817,11.466,3.233e-13,-0.54084,0,0,0.11111,-0,-0,0.66667
0.41126,0.58077,3.7013,0.12116,10.803,278.32,-1.1958,0.39861,-1.9459,-1.5944,6.2172e-14,-0.97297,0,0,0.11111,-0,-0,0.66667
0.99611,0.19017,8.965,-0.46474,-0.22263,0.9249,11.11,-3.7035,-1.2321,14.814,-1.5922e-06,-0.61606,0,0,0.11111,-0,-0,0.66667
0.53405,0.89124,4.8064,0.58686,45.172,184.93,-7.522,2.5073,-0.77538,-10.029,-1.3021e-12,-0.38769,0,0,0.11111,-0,-0,0.66667
0.77901,0.87135,7.0111,0.55703,23.505,47.755,-10.414,3.4715,-0.89838,-13.886,5.3615e-11,-0.44919,0,0,0.11111,-0,-1.0266e-16,0.66667
0.86863,0.22467,7.8177,-0.413,-10.782,18.308,8.6098,-2.8699,-1.3917,11.48,-7.2924e-09,-0.69583,0,0,0.11111,-0,-0,0.66667
0.79875,0.9449,7.1887,0.66735,26.01,40.716,-12.793,4.2643,-0.41805,-17.057,-1.4775e-09,-0.20902,0,0,0.11111,-0,-0,0.66667
0.21409,0.55583,1.9268,0.083748,8.582,453.11,-0.4303,0.14343,-1.9739,-0.57374,3.8541e-11,-0.98696,0,0,0.11111,-3.9475e-16,0,0.66667
0.68037,0.69326,6.1233,0.28989,16.672,93.028,-4.7335,1.5778,-1.6992,-6.3114,-2.4185e-12,-0.84959,0,0,0.11111,-0,-0,0.66667
0.0046244,0.54912,0.04162,0.073681,7.9148,656.2,-0.0081774,0.0027247,-1.9791,-0.010904,-1.6079e-06,-0.98953,0,0,0.11111,8.2239e-18,0,0.66667
0.7958,0.13228,7.1622,-0.55158,-21.697,41.344,10.535,-3.5116,-0.92087,14.046,2.1022e-10,-0.46044,0,0,0.11111,-0,-0,0.66667
0.21583,0.018666,1.9425,-0.722,-74.313,451.92,3.74,-1.2467,-0.14642,4.9866,1.6016e-10,-0.073211,0,0,0.11111,-0,1.266e-16,0.66667
0.98672,0.63188,8.8805,0.19783,0.45619,0.49427,-4.6848,1.5616,-1.8618,-6.2464,1.1662e-07,-0.93092,0,0,0.11111,-0,-0,0.66667
0.94415,0.26021,8.4973,-0.35968,-4.0566,4.1765,8.1502,-2.7167,-1.5376,10.867,-3.4074e-08,-0.7688,0,0,0.11111,-0,-0,0.66667
0.58512,0.95673,5.266,0.6851,48.593,150.56,-9.6207,3.2069,-0.32855,-12.828,1.6325e-12,-0.16428,0,0,0.11111,-1.7456e-15,0,0.66667
0.16047,0.66185,1.4442,0.24278,25.418,504.11,-0.935,0.31167,-1.7898,-1.2467,-1.5251e-09,-0.89488,0,0,0.11111,-0,-0,0.66667
0.7034,0.3659,6.3306,-0.20115,-10.867,80.949,3.3958,-1.1319,-1.8598,4.5277,4.218e-12,-0.9299,0,0,0.11111,-1.0527e-15,0,0.66667
0.41745,0.89585,3.7571,0.59377,52.823,273.82,-5.949,1.983,-0.74509,-7.9319,-1.5539e-12,-0.37255,0,0,0.11111,-5.2633e-16,0,0.66667
0.46677,0.78309,4.2009,0.42463,35.7,234.39,-4.7569,1.5856,-1.3611,-6.3426,-6.3505e-14,-0.68056,0,0,0.11111,-0,-0,0.66667
0.30497,0.45951,2.7447,-0.060728,-5.9134,369.63,0.44448,-0.14816,-1.9844,0.59264,3.2853e-12,-0.99221,0,0,0.11111,-0,-0,0.66667
0.86917,0.59235,7.8225,0.13853,3.5808,17.648,-2.8898,0.96326,-1.9308,-3.853,3.9704e-09,-0.96542,0,0,0.11111,1.3158e-15,0,0.66667
0.46942,0.84225,4.2248,0.51337,43.067,232.5,-5.7837,1.9279,-1.0671,-7.7116,2.3115e-12,-0.53354,0,0,0.11111,-1.9737e-16,0,0.66667
0.80616,0.94861,7.2554,0.67291,25.367,38.095,-13.019,4.3398,-0.38763,-17.359,-8.2673e-10,-0.19382,0,0,0.11111,2.1053e-15,0,0.66667
0.8068,0.5848,7.2612,0.1272,4.7234,36.46,-2.463,0.821,-1.9405,-3.284,1.0384e-10,-0.97025,0,0,0.11111,1.0527e-15,0,0.66667
0.55703,0.23813,5.0132,-0.39281,-29.094,168.56,5.2513,-1.7504,-1.4493,7.0017,2.5446e-12,-0.72465,0,0,0.11111,-5.2633e-16,0,0.66667
0.38613,0.75043,3.4751,0.37564,34.357,299.38,-3.4811,1.1604,-1.4983,-4.6415,-9.0483e-13,-0.74916,0,0,0.11111,1.0527e-15,0,0.66667
0.68707,0.25157,6.1836,-0.37265,-21.084,89.628,6.1448,-2.0483,-1.5107,8.1931,4.5337e-12,-0.75537,0,0,0.11111,-2.1053e-15,0,0.66667
0.6809,0.43568,6.1281,-0.096483,-5.5337,92.538,1.5767,-0.52557,-1.9656,2.1023,-9.6922e-13,-0.98281,0,0,0.11111,1.6798e-15,0,0.66667
0.18194,0.85222,1.6375,0.52834,55.016,483.74,-2.307,0.76901,-1.0056,-3.0761,1.3278e-11,-0.50282,0,0,0.11111,-0,-0,0.66667
0.76415,0.2725,6.8774,-0.34125,-15.177,53.18,6.2584,-2.0861,-1.5879,8.3445,2.6893e-11,-0.79393,0,0,0.11111,5.2633e-16,0,0.66667
0.16518,0.19291,1.4866,-0.46064,-48.224,499.69,1.8261,-0.60869,-1.2437,2.4348,9.9121e-11,-0.62183,0,0,0.11111,-0,-0,0.66667
0.32411,0.22206,2.917,-0.41691,-40.128,352.84,3.243,-1.081,-1.3818,4.3239,-1.1402e-12,-0.69092,0,0,0.11111,-0,-0,0.66667
0.87021,0.71548,7.8319,0.32322,8.3197,17.684,-6.7504,2.2501,-1.6278,-9.0006,8.2939e-09,-0.81392,0,0,0.11111,1.579e-15,0,0.66667
0.57167,0.5681,5.145,0.10215,7.3681,158.35,-1.4015,0.46715,-1.961,-1.8686,1.3134e-12,-0.98052,0,0,0.11111,-0,-0,0.66667
0.2566,0.0028742,2.3094,-0.74569,-75.227,414.11,4.5922,-1.5307,-0.021458,6.123,-5.9428e-12,-0.010729,0,0,0.11111,-0,-0,0.66667
0.92392,0.57012,8.3153,0.10518,1.6025,6.4936,-2.3323,0.77743,-1.9619,-3.1097,5.0062e-08,-0.98097,0,0,0.11111,-0,-0,0.66667
0.66058,0.12216,5.9452,-0.56676,-34.358,104.49,8.9853,-2.9951,-0.8576,11.98,-1.1573e-12,-0.4288,0,0,0.11111,1.3158e-15,0,0.66667
0.55451,0.9045,4.9906,0.60674,45.257,170.75,-8.0747,2.6916,-0.68965,-10.766,-1.8598e-12,-0.34482,0,0,0.11111,1.579e-15,0,0.66667
0.99332,0.17595,8.9399,-0.48607,-0.53448,1.0672,11.588,-3.8626,-1.1574,15.45,-1.8834e-06,-0.57872,0,0,0.11111,-0,-0,0.66667
0.84555,0.95639,7.61,0.68458,21.008,25.546,-13.892,4.6308,-0.3349,-18.523,8.9483e-09,-0.16745,0,0,0.11111,-0,-0,0.66667
0.67719,0.3039,6.0947,-0.29415,-17.055,94.738,4.7808,-1.5936,-1.6906,6.3743,2.2236e-12,-0.8453,0,0,0.11111,-1.0527e-15,0,0.66667
0.081731,0.85741,0.73557,0.53612,57.361,580.54,-1.0516,0.35054,-0.97723,-1.4021,-3.5958e-08,-0.48861,0,0,0.11111,-1.3158e-16,0,0.66667
0.36445,0.54278,3.28,0.064174,5.9731,317.55,-0.56131,0.1871,-1.9835,-0.74841,1.2254e-12,-0.99176,0,0,0.11111,1.0527e-15,0,0.66667
0.50217,0.48077,4.5195,-0.028847,-2.313,207.27,0.34767,-0.11589,-1.9978,0.46356,1.7836e-13,-0.9989,0,0,0.11111,-0,-0,0.66667
0.61766,0.53276,5.5589,0.049133,3.2534,128.87,-0.72833,0.24278,-1.9901,-0.97111,-1.7331e-12,-0.99503,0,0,0.11111,2.1053e-15,0,0.66667
0.63988,0.045828,5.7589,-0.68126,-43.381,116.7,10.462,-3.4874,-0.35246,13.95,2.137e-12,-0.17623,0,0,0.11111,-0,-1.3099e-16,0.66667
0.72511,0.27032,6.526,-0.34452,-17.486,70.565,5.9955,-1.9985,-1.5756,7.994,1.097e-11,-0.7878,0,0,0.11111,-0,-0,0.66667
0.91024,0.80438,8.1921,0.45656,8.2871,9.5005,-9.974,3.3247,-1.258,-13.299,2.526e-08,-0.62902,0,0,0.11111,1.0527e-15,0,0.66667
0.56828,0.63492,5.1145,0.20238,14.689,160.69,-2.7602,0.92006,-1.8523,-3.6802,2.2768e-12,-0.92614,0,0,0.11111,-0,-0,0.66667
0.98027,0.7613,8.8224,0.39194,1.4877,1.2299,-9.2211,3.0737,-1.4526,-12.295,-8.2995e-07,-0.72632,0,0,0.11111,-0,-0,0.66667
0.1132,0.87359,1.0188,0.56038,59.601,549.89,-1.5224,0.50747,-0.88382,-2.0299,-6.9832e-09,-0.44191,0,0,0.11111,-1.6448e-16,0,0.66667
0.46568,0.67703,4.1911,0.26555,22.325,235.02,-2.9679,0.9893,-1.7491,-3.9572,6.5481e-13,-0.87456,0,0,0.11111,-5.2633e-16,0,0.66667
0.10167,0.90383,0.91505,0.60575,64.621,561.12,-1.4781,0.4927,-0.69382,-1.9708,-5.6775e-08,-0.34691,0,0,0.11111,1.9737e-16,0,0.66667
0.74245,0.35396,6.682,-0.21906,-10.5,62.366,3.9034,-1.3011,-1.8268,5.2045,1.58e-11,-0.91341,0,0,0.11111,-0,-0,0.66667
0.80683,0.7336,7.2614,0.35039,13.048,36.795,-6.7849,2.2616,-1.5612,-9.0466,1.2697e-10,-0.7806,0,0,0.11111,1.0527e-15,0,0.66667
0.52316,0.14529,4.7084,-0.53207,-41.582,192.56,6.6806,-2.2269,-0.99082,8.9074,6.5636e-13,-0.49541,0,0,0.11111,-0,-0,0.66667
0.43253,0.37518,3.8928,-0.18723,-16.335,261.09,1.9435,-0.64785,-1.8751,2.5914,-2.974e-12,-0.93757,0,0,0.11111,-0,-0,0.66667
0.066995,0.60593,0.60295,0.1589,16.996,594.88,-0.25549,0.085164,-1.9087,-0.34066,-4.5477e-09,-0.95436,0,0,0.11111,1.3158e-16,0,0.66667
0.56461,0.93203,5.0815,0.64805,47.582,164.01,-8.7815,2.9272,-0.50824,-11.709,3.3662e-13,-0.25412,0,0,0.11111,-0,-0,0.66667
0.25483,0.3156,2.2934,-0.2766,-27.794,415.25,1.6917,-0.56389,-1.7273,2.2556,-1.8133e-11,-0.86363,0,0,0.11111,-0,-0,0.66667
0.082332,0.29831,0.74099,-0.30254,-32.305,579.88,0.5978,-0.19927,-1.6732,0.79707,4.6916e-08,-0.83661,0,0,0.11111,-0,-0,0.66667
0.73371,0.39424,6.6034,-0.15864,-7.8216,66.276,2.7936,-0.93119,-1.9134,3.7247,1.1093e-11,-0.95668,0,0,0.11111,-1.0527e-15,0,0.66667
0.74344,0.52461,6.691,0.036919,1.762,61.782,-0.65873,0.21958,-1.9931,-0.8783,-3.4145e-12,-0.99656,0,0,0.11111,-1.0527e-15,0,0.66667
0.37108,0.52504,3.3397,0.037562,3.4762,311.89,-0.33452,0.11151,-1.9945,-0.44603,3.3268e-12,-0.99724,0,0,0.11111,-5.2633e-16,0,0.66667
0.18447,0.35779,1.6603,-0.21331,-22.139,481.16,0.9444,-0.3148,-1.8379,1.2592,2.793e-10,-0.91897,0,0,0.11111,-0,-0,0.66667
0.51289,0.28806,4.616,-0.3179,-25.15,199.6,3.9132,-1.3044,-1.6412,5.2176,9.75e-13,-0.82061,0,0,0.11111,-0,-0,0.66667
0.093456,0.74398,0.84111,0.36597,39.017,569.03,-0.82085,0.27362,-1.5278,-1.0945,-3.6282e-08,-0.76389,0,0,0.11111,-1.0454e-17,0,0.66667
0.77844,0.91715,7.006,0.62572,26.517,48.234,-11.69,3.8967,-0.608,-15.587,-1.1188e-10,-0.304,0,0,0.11111,-0,-0,0.66667
0.47595,0.27968,4.2836,-0.33048,-27.451,227.2,3.7751,-1.2584,-1.6103,5.0334,1.6016e-12,-0.80516,0,0,0.11111,-1.1842e-15,0,0.66667
0.96096,0.35202,8.6487,-0.22197,-1.717,2.149,5.1194,-1.7065,-1.8224,6.8258,1.4036e-07,-0.91121,0,0,0.11111,-0,-0,0.66667
0.10902,0.097227,0.98118,-0.60416,-64.35,553.97,1.5808,-0.52693,-0.70646,2.1077,1.6313e-08,-0.35323,0,0,0.11111,2.6316e-16,-5.2046e-17,0.66667
0.69796,0.66861,6.2816,0.25292,13.878,83.776,-4.2366,1.4122,-1.7706,-5.6488,-4.3849e-12,-0.88531,0,0,0.11111,1.0527e-15,0,0.66667
0.80356,0.17973,7.2321,-0.4804,-18.217,38.298,9.2648,-3.0883,-1.1772,12.353,5.7351e-11,-0.58861,0,0,0.11111,-0,-0,0.66667
0.72687,0.99026,6.5419,0.73538,37.443,70.962,-12.829,4.2762,-0.074683,-17.105,4.3245e-12,-0.037342,0,0,0.11111,-1.9186e-16,0,0.66667
0.46145,0.58701,4.1531,0.13051,11.02,238.2,-1.4454,0.48181,-1.9372,-1.9273,-1.5983e-12,-0.96862,0,0,0.11111,5.364e-16,0,0.66667
0.54611,0.65954,4.915,0.23931,18.012,175.86,-3.1365,1.0455,-1.8,-4.182,1.3187e-12,-0.90002,0,0,0.11111,-0,-0,0.66667
0.61519,0.61921,5.5367,0.17882,11.905,130.46,-2.6402,0.88007,-1.8846,-3.5203,7.8515e-13,-0.94232,0,0,0.11111,-5.2633e-16,0,0.66667
0.059105,0.57011,0.53195,0.10517,11.259,602.62,-0.14919,0.049729,-1.9605,-0.19892,9.5447e-08,-0.98023,0,0,0.11111,-0,-0,0.66667
0.99567,0.70411,8.9611,0.30616,0.13668,0.44672,-7.3161,2.4387,-1.6653,-9.7548,6.4919e-07,-0.83263,0,0,0.11111,2.1053e-15,0,0.66667
0.25491,0.65454,2.2942,0.23182,23.287,415.15,-1.4182,0.47273,-1.8084,-1.8909,1.5298e-11,-0.90421,0,0,0.11111,6.5791e-16,0,0.66667
0.64341,0.60733,5.7907,0.16099,10.1,113.52,-2.486,0.82867,-1.9078,-3.3147,-3.3928e-13,-0.95392,0,0,0.11111,1.0527e-15,0,0.66667
0.12643,0.1123,1.1379,-0.58154,-61.667,537.07,1.7646,-0.58821,-0.79923,2.3528,7.3398e-09,-0.39961,0,0,0.11111,1.3158e-16,0,0.66667
0.16786,0.05337,1.5108,-0.66994,-70.236,497.28,2.699,-0.89967,-0.40326,3.5987,-1.1789e-08,-0.20163,0,0,0.11111,-0,-0,0.66667
0.4911,0.17172,4.4199,-0.49242,-40.191,215.99,5.8039,-1.9346,-1.1352,7.7386,6.608e-13,-0.56761,0,0,0.11111,-1.0527e-15,0,0.66667
0.2885,0.73032,2.5965,0.34548,34.047,384.57,-2.3921,0.79736,-1.573,-3.1895,5.7105e-12,-0.7865,0,0,0.11111,5.2633e-16,0,0.66667
0.50424,0.043184,4.5382,-0.68522,-55.122,206.69,8.2924,-2.7641,-0.32926,11.057,1.3305e-12,-0.16463,0,0,0.11111,-1.0527e-15,0,0.66667
0.10218,0.47686,0.91963,-0.034713,-3.6896,560.47,0.085127,-0.028376,-1.9934,0.1135,1.0116e-09,-0.99669,0,0,0.11111,-0,-0,0.66667
0.41929,0.31207,3.7737,-0.28189,-24.951,271.87,2.8367,-0.94556,-1.7193,3.7822,2.1378e-12,-0.85964,0,0,0.11111,-6.7436e-16,0,0.66667
0.2686,0.46217,2.4174,-0.056748,-5.6537,402.53,0.36582,-0.12194,-1.9889,0.48776,2.6047e-12,-0.99444,0,0,0.11111,-0,-0,0.66667
0.5819,0.95133,5.2371,0.677,48.285,152.63,-9.4547,3.1516,-0.36942,-12.606,-1.7435e-12,-0.18471,0,0,0.11111,1.0527e-15,0,0.66667
0.17171,0.71153,1.5453,0.31729,33.105,493.37,-1.3075,0.43584,-1.6461,-1.7434,-8.0264e-10,-0.82305,0,0,0.11111,-0,-0,0.66667
0.96232,0.3213,8.6609,-0.26806,-2.0041,2.1196,6.1909,-2.0636,-1.7423,8.2546,1.7527e-07,-0.87114,0,0,0.11111,-0,-0,0.66667
0.54421,0.36037,4.8979,-0.20944,-15.808,177.15,2.7355,-0.91184,-1.8441,3.6473,1.5761e-12,-0.92207,0,0,0.11111,-0,-0,0.66667
0.70195,0.51346,6.3176,0.020196,1.0946,81.568,-0.34023,0.11341,-2.0006,-0.45365,-1.5803e-12,-1.0003,0,0,0.11111,2.1053e-15,0,0.66667
0.93237,0.113,8.3913,-0.5805,-8.0579,6.4651,12.99,-4.3299,-0.79995,17.32,-1.6068e-07,-0.39998,0,0,0.11111,-1.0527e-15,0,0.66667
0.34537,0.84351,3.1083,0.51526,48.852,334.36,-4.2709,1.4236,-1.0591,-5.6945,1.0645e-12,-0.52953,0,0,0.11111,-4.9343e-17,0,0.66667
0.51572,0.419,4.6415,-0.12149,-9.5626,197.37,1.5038,-0.50126,-1.9512,2.005,9.0117e-13,-0.97562,0,0,0.11111,-0,-0,0.66667
0.78659,0.039177,7.0793,-0.69124,-28.403,45.343,13.049,-4.3498,-0.29944,17.399,-3.7634e-10,-0.14972,0,0,0.11111,-2.1053e-15,0,0.66667
0.06941,0.32548,0.62469,-0.26179,-28.003,592.53,0.4361,-0.14537,-1.7537,0.58146,4.7801e-08,-0.87685,0,0,0.11111,-0,-0,0.66667
0.75322,0.42424,6.779,-0.11364,-5.2453,57.51,2.0543,-0.68477,-1.9536,2.7391,1.393e-11,-0.97682,0,0,0.11111,-0,-0,0.66667
0.11748,0.95419,1.0573,0.68128,72.493,545.81,-1.9209,0.64029,-0.34695,-2.5612,2.2403e-08,-0.17348,0,0,0.11111,-1.3158e-16,0,0.66667
0.38913,0.64055,3.5022,0.21082,19.208,296.71,-1.9689,0.65629,-1.8435,-2.6252,1.2815e-12,-0.92176,0,0,0.11111,-5.2633e-16,0,0.66667
0.69699,0.57905,6.2729,0.11858,6.5177,84.131,-1.9836,0.66119,-1.9475,-2.6447,-9.9742e-13,-0.97377,0,0,0.11111,-1.0527e-15,0,0.66667
0.059872,0.71595,0.53885,0.32393,34.705,601.89,-0.46546,0.15515,-1.6282,-0.62061,-4.0378e-08,-0.8141,0,0,0.11111,8.2239e-17,0,0.66667
0.66498,0.064142,5.9848,-0.65379,-39.294,102.32,10.434,-3.4781,-0.47891,13.912,-1.3589e-13,-0.23946,0,0,0.11111,-0,-0,0.66667
0.97191,0.60156,8.7472,0.15234,0.82598,1.2078,-3.5535,1.1845,-1.9175,-4.7379,-5.1101e-08,-0.95874,0,0,0.11111,2.1053e-15,0,0.66667
0.24942,0.25854,2.2448,-0.36219,-36.521,420.29,2.1681,-0.7227,-1.5368,2.8908,-2.1821e-11,-0.76841,0,0,0.11111,-0,-0,0.66667
0.25914,0.33311,2.3322,-0.25034,-25.091,411.27,1.5569,-0.51898,-1.7748,2.0759,-1.6365e-11,-0.88739,0,0,0.11111,2.6316e-16,0,0.66667
0.087231,0.61674,0.78508,0.1751,18.671,575.07,-0.36659,0.1222,-1.8888,-0.48878,-2.4464e-08,-0.94439,0,0,0.11111,-0,-0,0.66667
0.093025,0.68387,0.83722,0.27581,29.391,569.43,-0.61577,0.20526,-1.7332,-0.82103,-3.3267e-08,-0.86659,0,0,0.11111,-1.6448e-16,0,0.66667
0.31441,0.11066,2.8296,-0.584,-56.704,361.64,4.4067,-1.4689,-0.78835,5.8756,3.9102e-12,-0.39418,0,0,0.11111,-5.2633e-16,0,0.66667
0.83253,0.30777,7.4928,-0.28835,-9.4137,28.151,5.7614,-1.9205,-1.7037,7.6818,-1.0968e-09,-0.85185,0,0,0.11111,-5.2633e-16,0,0.66667
0.51242,0.21617,4.6118,-0.42575,-33.739,200.11,5.2359,-1.7453,-1.3562,6.9812,6.013e-13,-0.67811,0,0,0.11111,-3.7462e-16,0,0.66667
0.38564,0.8473,3.4708,0.52094,47.737,299.99,-4.8215,1.6072,-1.0342,-6.4287,1.1933e-12,-0.5171,0,0,0.11111,-0,-0,0.66667
0.1825,0.9761,1.6425,0.71415,74.52,483.37,-3.1281,1.0427,-0.18519,-4.1707,-5.797e-11,-0.092596,0,0,0.11111,-0,-0,0.66667
0.97602,0.47668,8.7842,-0.03498,-0.15867,0.86511,0.8194,-0.27313,-1.9933,1.0925,2.2282e-07,-0.99666,0,0,0.11111,-0,-0,0.66667
0.74144,0.91258,6.6729,0.61886,29.98,63.814,-11.012,3.6708,-0.63615,-14.683,3.2037e-11,-0.31808,0,0,0.11111,-0,-0,0.66667
0.34016,0.79368,3.0615,0.44052,41.902,338.79,-3.5964,1.1988,-1.3093,-4.7951,2.4925e-12,-0.65463,0,0,0.11111,-5.2633e-16,0,0.66667
0.92233,0.0018629,8.301,-0.74721,-12.045,8.7613,16.54,-5.5134,-0.019274,22.054,9.207e-07,-0.0096368,0,0,0.11111,-0,-0,0.66667
0.58633,0.84497,5.277,0.51746,36.515,149.3,-7.2816,2.4272,-1.0467,-9.7089,1.4424e-12,-0.52333,0,0,0.11111,-0,-0,0.66667
0.2652,0.4424,2.3868,-0.086401,-8.6253,405.65,0.54992,-0.18331,-1.9774,0.73323,-1.2164e-12,-0.98869,0,0,0.11111,-0,-0,0.66667
0.48157,0.46284,4.3341,-0.055736,-4.5912,222.72,0.64418,-0.21473,-1.9896,0.8589,-6.8628e-13,-0.99478,0,0,0.11111,-2.6316e-16,0,0.66667
0.43439,0.6225,3.9095,0.18375,16,259.6,-1.9157,0.63856,-1.8808,-2.5542,-1.0669e-13,-0.94038,0,0,0.11111,6.5791e-16,0,0.66667
0.3025,0.62677,2.7225,0.19016,18.554,371.87,-1.3806,0.46019,-1.8705,-1.8408,5.3556e-12,-0.93526,0,0,0.11111,-0,-0,0.66667
0.65676,0.83246,5.9109,0.49869,30.465,106.44,-7.8605,2.6202,-1.1189,-10.481,-1.0614e-13,-0.55944,0,0,0.11111,-0,-0,0.66667
0.79219,0.17371,7.1297,-0.48944,-19.523,42.475,9.3056,-3.1019,-1.1466,12.407,4.1644e-11,-0.57329,0,0,0.11111,-0,-0,0.66667
0.35326,0.69306,3.1794,0.2896,27.229,327.28,-2.4553,0.81843,-1.7001,-3.2737,-1.1444e-12,-0.85003,0,0,0.11111,1.0527e-15,0,0.66667
0.43787,0.45644,3.9409,-0.065336,-5.6655,256.76,0.68661,-0.22887,-1.9881,0.91548,-1.619e-12,-0.99405,0,0,0.11111,-0,-0,0.66667
0.96304,0.018192,8.6673,-0.72271,-5.6335,3.795,16.704,-5.568,-0.14066,22.272,-8.6416e-06,-0.070332,0,0,0.11111,-2.2809e-15,0,0.66667
0.25951,0.47543,2.3356,-0.036859,-3.6912,410.86,0.22957,-0.076523,-1.9933,0.30609,-6.654e-12,-0.99664,0,0,0.11111,5.2633e-16,0,0.66667
0.71926,0.8446,6.4733,0.5169,26.786,73.787,-8.9228,2.9743,-1.0545,-11.897,-1.7562e-11,-0.52727,0,0,0.11111,2.1053e-15,0,0.66667
0.85114,0.21637,7.6602,-0.42545,-12.493,22.985,8.6908,-2.8969,-1.3549,11.588,-2.0972e-09,-0.67745,0,0,0.11111,-1.0638e-15,0,0.66667
0.74183,0.96338,6.6765,0.69508,33.7,63.934,-12.375,4.125,-0.28018,-16.5,-1.6621e-11,-0.14009,0,0,0.11111,-0,-0,0.66667
0.21655,0.87343,1.949,0.56015,57.515,451.06,-2.9113,0.97042,-0.88639,-3.8817,-4.2332e-10,-0.4432,0,0,0.11111,-3.2895e-17,0,0.66667
0.43531,0.60887,3.9178,0.1633,14.204,258.85,-1.7061,0.56869,-1.9058,-2.2747,-2.4947e-13,-0.95291,0,0,0.11111,-0,-0,0.66667
0.60876,0.65497,5.4788,0.23245,15.679,134.5,-3.3962,1.1321,-1.8121,-4.5282,-4.2299e-13,-0.90607,0,0,0.11111,1.4474e-15,0,0.66667
0.59156,0.56195,5.324,0.09293,6.4709,145.31,-1.3194,0.43979,-1.9715,-1.7592,4.4902e-12,-0.98576,0,0,0.11111,-1.3158e-15,0,0.66667
0.95189,0.15731,8.567,-0.51403,-5.0547,3.8336,11.743,-3.9144,-1.0639,15.658,-4.2703e-07,-0.53195,0,0,0.11111,-0,-0,0.66667
0.3584,0.072437,3.2256,-0.64134,-60.267,323.32,5.5166,-1.8389,-0.54003,7.3555,2.8e-12,-0.27002,0,0,0.11111,-0,-1.1415e-16,0.66667
0.53179,0.92257,4.7861,0.63385,48.991,186.65,-8.0899,2.6966,-0.57443,-10.787,1.199e-13,-0.28722,0,0,0.11111,-1.0527e-15,0,0.66667
0.39838,0.20662,3.5854,-0.44007,-39.817,289.24,4.2076,-1.4025,-1.3087,5.6101,3.3933e-12,-0.65437,0,0,0.11111,-9.981e-16,0,0.66667
0.61473,0.051728,5.5326,-0.67241,-45.101,131.77,9.9204,-3.3068,-0.39047,13.227,1.295e-12,-0.19523,0,0,0.11111,-5.2633e-16,0,0.66667
0.46485,0.25474,4.1836,-0.36788,-30.983,235.79,4.1042,-1.3681,-1.5185,5.4723,-7.7938e-13,-0.75926,0,0,0.11111,-0,-0,0.66667
0.95549,0.54183,8.5994,0.062752,0.55358,2.4799,-1.439,0.47967,-1.9866,-1.9187,-3.6971e-07,-0.99331,0,0,0.11111,-0,-0,0.66667
0.70849,0.44988,6.3764,-0.07518,-4.0004,78.307,1.2783,-0.42611,-1.9779,1.7044,8.4199e-13,-0.98893,0,0,0.11111,1.0527e-15,0,0.66667
0.49885,0.94631,4.4896,0.66946,54.23,210.62,-8.015,2.6717,-0.40884,-10.687,3.4639e-14,-0.20442,0,0,0.11111,-1.0527e-15,0,0.66667
0.49291,0.27747,4.4362,-0.33379,-27.135,214.38,3.9487,-1.3162,-1.6021,5.2649,6.1129e-13,-0.80106,0,0,0.11111,-2.6316e-16,0,0.66667
0.2485,0.39876,2.2365,-0.15187,-15.304,421.04,0.90571,-0.3019,-1.92,1.2076,-1.157e-11,-0.96,0,0,0.11111,-0,-0,0.66667
0.21539,0.16364,1.9385,-0.50455,-51.802,452.1,2.6081,-0.86938,-1.0947,3.4775,-1.3386e-10,-0.54736,0,0,0.11111,-5.2633e-16,0,0.66667
0.38386,0.34359,3.4547,-0.23461,-21.481,301.15,2.1614,-0.72047,-1.8033,2.8819,-4.3632e-13,-0.90166,0,0,0.11111,2.3849e-16,0,0.66667
0.26942,0.35289,2.4248,-0.22066,-21.984,401.83,1.4268,-0.47559,-1.8262,1.9024,-1.2574e-11,-0.91308,0,0,0.11111,-0,-0,0.66667
0.29831,0.33635,2.6847,-0.24547,-24.024,375.67,1.7574,-0.58579,-1.7879,2.3432,-4.9494e-12,-0.89393,0,0,0.11111,-0,-0,0.66667
0.21497,0.020409,1.9348,-0.71939,-74.07,452.72,3.7116,-1.2372,-0.1591,4.9488,1.7472e-10,-0.079548,0,0,0.11111,-0,-0,0.66667
0.43072,0.15501,3.8764,-0.51749,-45.362,262.95,5.3493,-1.7831,-1.0466,7.1325,4.805e-13,-0.52332,0,0,0.11111,-1.3158e-16,0,0.66667
0.23735,0.75909,2.1361,0.38863,39.442,431.5,-2.2138,0.73793,-1.463,-2.9517,3.1134e-11,-0.73152,0,0,0.11111,-0,-0,0.66667
0.42905,0.17085,3.8614,-0.49372,-43.343,264.25,5.0839,-1.6946,-1.1306,6.7785,1.716e-12,-0.56529,0,0,0.11111,-0,-0,0.66667
0.73823,0.60584,6.6441,0.15875,7.713,64.206,-2.8127,0.93758,-1.9094,-3.7503,-1.2783e-11,-0.9547,0,0,0.11111,-0,-0,0.66667
0.19031,0.11985,1.7128,-0.57023,-59.214,475.82,2.6045,-0.86817,-0.84458,3.4727,1.706e-10,-0.42229,0,0,0.11111,1.3158e-16,0,0.66667
0.98048,0.16187,8.8243,-0.50719,-1.9571,1.6258,11.935,-3.9783,-1.0849,15.913,2.262e-06,-0.54247,0,0,0.11111,-2.1053e-15,0,0.66667
0.25094,0.1722,2.2585,-0.4917,-49.596,419,2.9613,-0.9871,-1.1427,3.9484,-1.3849e-11,-0.57136,0,0,0.11111,-5.2633e-16,0,0.66667
0.091928,0.4598,0.82735,-0.060295,-6.4219,570.48,0.13303,-0.044342,-1.9885,0.17737,3.6488e-08,-0.99425,0,0,0.11111,6.5791e-17,0,0.66667
0.6622,0.95684,5.9598,0.68526,41.489,103.97,-10.891,3.6303,-0.32806,-14.521,-6.7235e-13,-0.16403,0,0,0.11111,1.0527e-15,0,0.66667
0.12414,0.13506,1.1172,-0.54741,-58.06,539.28,1.6309,-0.54362,-0.93722,2.1745,7.7464e-09,-0.46861,0,0,0.11111,-0,1.2853e-16,0.66667
0.45854,0.48308,4.1269,-0.025377,-2.1497,240.44,0.27928,-0.093093,-1.9956,0.37237,-9.0905e-13,-0.99779,0,0,0.11111,-0,-0,0.66667
0.55491,0.83972,4.9942,0.50959,37.929,170.24,-6.7866,2.2622,-1.0749,-9.0488,-1.6995e-12,-0.53744,0,0,0.11111,2.6316e-16,0,0.66667
0.91222,0.64111,8.21,0.21167,3.7236,8.5534,-4.634,1.5447,-1.8383,-6.1787,2.7699e-08,-0.91915,0,0,0.11111,-0,-0,0.66667
0.84078,0.79813,7.567,0.44719,13.987,26.036,-9.0237,3.0079,-1.2887,-12.032,1.1418e-09,-0.64437,0,0,0.11111,-0,-0,0.66667
0.47647,0.52464,4.2883,0.036956,3.0636,226.59,-0.4226,0.14087,-1.9929,-0.56347,-2.4394e-12,-0.99647,0,0,0.11111,-0,-0,0.66667
0.8806,0.82029,7.9254,0.48043,11.486,15.641,-10.154,3.3846,-1.1775,-13.538,4.1961e-09,-0.58875,0,0,0.11111,-0,-0,0.66667
0.81353,0.16821,7.3218,-0.49769,-18.014,34.88,9.7173,-3.2391,-1.1216,12.956,3.0021e-11,-0.5608,0,0,0.11111,-0,-0,0.66667
0.19464,0.39622,1.7517,-0.15566,-16.088,471.49,0.72716,-0.24239,-1.9113,0.96955,6.2543e-11,-0.95567,0,0,0.11111,2.6316e-16,0,0.66667
0.67245,0.58822,6.052,0.13233,7.7545,97.122,-2.1357,0.7119,-1.9413,-2.8476,1.0858e-13,-0.97067,0,0,0.11111,-1.0527e-15,0,0.66667
0.71923,0.41989,6.473,-0.12017,-6.1965,73.076,2.0743,-0.69143,-1.9517,2.7657,4.3947e-12,-0.97586,0,0,0.11111,-0,-0,0.66667
0.65257,0.12506,5.8732,-0.56241,-34.731,108.99,8.8084,-2.9361,-0.87612,11.744,3.7925e-12,-0.43806,0,0,0.11111,-2.1053e-15,0,0.66667
0.40566,0.80602,3.6509,0.45903,41.25,283.25,-4.469,1.4897,-1.2543,-5.9586,-2.7072e-12,-0.62714,0,0,0.11111,2.6316e-16,0,0.66667
0.04361,0.98809,0.39249,0.73213,78.899,617.92,-0.76629,0.25543,-0.093758,-1.0217,-4.3575e-06,-0.046879,0,0,0.11111,-1.1744e-16,0,0.66667
0.37899,0.23112,3.4109,-0.40332,-37.135,305.42,3.6685,-1.2228,-1.4205,4.8914,-4.8295e-13,-0.71025,0,0,0.11111,-0,-0,0.66667
0.033161,0.86161,0.29845,0.54241,58.365,628.14,-0.43169,0.1439,-0.95496,-0.57558,5.9837e-07,-0.47748,0,0,0.11111,-0,-0,0.66667
0.2442,0.48693,2.1978,-0.019599,-1.9791,424.99,0.11487,-0.038289,-1.9964,0.15316,-8.5428e-12,-0.99818,0,0,0.11111,-2.6316e-16,0,0.66667
0.84278,0.47684,7.5851,-0.034735,-1.0666,24.774,0.70259,-0.2342,-1.9984,0.93678,-7.8693e-10,-0.9992,0,0,0.11111,-0,-0,0.66667
0.47471,0.64723,4.2724,0.22085,18.359,228.03,-2.5161,0.83872,-1.8245,-3.3549,-3.2707e-13,-0.91225,0,0,0.11111,-0,-0,0.66667
0.19554,0.60545,1.7599,0.15817,16.341,470.63,-0.74228,0.24743,-1.9084,-0.98971,-5.5011e-11,-0.9542,0,0,0.11111,-0,-0,0.66667
0.93344,0.088897,8.4009,-0.61665,-8.4541,6.4793,13.815,-4.6049,-0.64752,18.419,-5.1919e-08,-0.32376,0,0,0.11111,1.579e-15,0,0.66667
0.17584,0.69495,1.5826,0.29243,30.461,489.41,-1.2341,0.41138,-1.6952,-1.6455,-5.8685e-10,-0.84762,0,0,0.11111,-0,-0,0.66667
0.71019,0.86153,6.3917,0.54229,28.877,78.282,-9.2431,3.081,-0.95171,-12.324,-6.2048e-12,-0.47585,0,0,0.11111,-0,-0,0.66667
0.25216,0.30615,2.2694,-0.29077,-29.262,417.72,1.7597,-0.58656,-1.7007,2.3462,-2.1505e-11,-0.85034,0,0,0.11111,-0,-0,0.66667
0.12576,0.67788,1.1318,0.26683,28.226,537.59,-0.80532,0.26844,-1.7497,-1.0738,-9.6361e-09,-0.87486,0,0,0.11111,-0,-0,0.66667
0.42352,0.61043,3.8117,0.16565,14.589,268.35,-1.6838,0.56125,-1.9038,-2.245,-5.4623e-13,-0.95189,0,0,0.11111,-5.2633e-16,0,0.66667
0.30687,0.21702,2.7619,-0.42447,-41.357,368.14,3.1262,-1.0421,-1.3585,4.1682,-1.2217e-12,-0.67925,0,0,0.11111,6.5791e-17,0,0.66667
0.55624,0.17689,5.0061,-0.48466,-35.984,169.28,6.4701,-2.1567,-1.1625,8.6268,3.511e-12,-0.58124,0,0,0.11111,5.2633e-16,0,0.66667
0.0056956,0.16886,0.05126,-0.49671,-53.481,655.15,0.067896,-0.022631,-1.1205,0.090529,2.0891e-06,-0.56027,0,0,0.11111,-0,-0,0.66667
0.40187,0.72846,3.6169,0.34268,30.875,286.22,-3.3052,1.1017,-1.5812,-4.4069,6.2639e-13,-0.79061,0,0,0.11111,-0,-0,0.66667
0.32437,0.085679,2.9194,-0.62148,-59.944,352.88,4.8382,-1.6127,-0.62612,6.451,2.6028e-12,-0.31306,0,0,0.11111,2.6316e-16,0,0.66667
0.20888,0.59186,1.8799,0.13778,14.154,458.03,-0.69072,0.23024,-1.9315,-0.92096,-3.4186e-11,-0.96576,0,0,0.11111,9.8686e-17,0,0.66667
0.7647,0.14669,6.8823,-0.52996,-23.612,53.455,9.7263,-3.2421,-1.004,12.968,7.5344e-12,-0.502,0,0,0.11111,1.0527e-15,-1.7514e-16,0.66667
0.21573,0.59044,1.9415,0.13565,13.892,451.58,-0.70235,0.23412,-1.9353,-0.93646,-3.4628e-11,-0.96767,0,0,0.11111,-2.6316e-16,0,0.66667
0.36723,0.19459,3.3051,-0.45811,-42.637,315.48,4.0376,-1.3459,-1.2515,5.3835,8.6109e-13,-0.62577,0,0,0.11111,-0,-0,0.66667
0.061462,0.39229,0.55316,-0.16157,-17.294,600.31,0.23833,-0.079443,-1.9094,0.31777,4.4114e-09,-0.9547,0,0,0.11111,-0,-0,0.66667
0.79907,0.030563,7.1917,-0.70416,-27.442,40.759,13.504,-4.5014,-0.23923,18.006,4.6383e-10,-0.11961,0,0,0.11111,5.2633e-16,0,0.66667
0.85776,0.92974,7.7199,0.64461,18.298,21.972,-13.27,4.4234,-0.5244,-17.694,-1.8453e-08,-0.2622,0,0,0.11111,-0,-0,0.66667
0.979,0.76823,8.811,0.40235,1.6384,1.3272,-9.4535,3.1512,-1.4223,-12.605,-1.0193e-06,-0.71117,0,0,0.11111,-1.0527e-15,0,0.66667
0.95064,0.52667,8.5558,0.040011,0.39276,2.9643,-0.91286,0.30429,-1.9955,-1.2172,-9.2128e-08,-0.99773,0,0,0.11111,-0,-0,0.66667
0.48709,0.67411,4.3838,0.26117,21.38,218.66,-3.0531,1.0177,-1.7576,-4.0708,-1.0407e-12,-0.87878,0,0,0.11111,-0,-0,0.66667
0.29631,0.18938,2.6668,-0.46594,-45.736,377.64,3.3135,-1.1045,-1.2323,4.418,-3.8982e-12,-0.61617,0,0,0.11111,1.0527e-15,0,0.66667
0.69417,0.60314,6.2475,0.15471,8.571,85.613,-2.5775,0.85916,-1.9125,-3.4366,-2.0679e-12,-0.95627,0,0,0.11111,-0,-0,0.66667
0.72461,0.63265,6.5215,0.19898,10.099,70.577,-3.4604,1.1535,-1.8573,-4.6139,-1.0695e-11,-0.92866,0,0,0.11111,2.1053e-15,0,0.66667
0.86836,0.68137,7.8152,0.27205,7.0888,18.041,-5.6697,1.8899,-1.7349,-7.5595,7.3709e-09,-0.86743,0,0,0.11111,-1.579e-15,0,0.66667
0.20632,0.21398,1.8569,-0.42903,-44.194,460.57,2.1244,-0.70815,-1.3459,2.8326,5.5975e-12,-0.67295,0,0,0.11111,3.9475e-16,0,0.66667
0.39895,0.35357,3.5906,-0.21965,-19.829,288.53,2.1031,-0.70104,-1.826,2.8042,-2.3435e-12,-0.91298,0,0,0.11111,1.0527e-15,0,0.66667
0.78884,0.11693,7.0996,-0.5746,-23.302,44.022,10.878,-3.6262,-0.82372,14.505,-7.4882e-11,-0.41186,0,0,0.11111,-0,-0,0.66667
0.22269,0.9841,2.0042,0.72615,74.508,445.51,-3.8809,1.2936,-0.12405,-5.1745,-1.5525e-11,-0.062025,0,0,0.11111,-0,-0,0.66667
0.48218,0.71631,4.3396,0.32446,26.741,222.45,-3.7548,1.2516,-1.6275,-5.0064,-1.1329e-12,-0.81377,0,0,0.11111,-2.5199e-16,0,0.66667
0.78097,0.98027,7.0287,0.7204,30.318,47.642,-13.503,4.5009,-0.15821,-18.003,1.4117e-10,-0.079106,0,0,0.11111,-0,-0,0.66667
0.60466,0.8741,5.4419,0.56114,38.302,137.7,-8.1432,2.7144,-0.88021,-10.858,-6.235e-13,-0.4401,0,0,0.11111,-2.1037e-17,0,0.66667
0.19904,0.019905,1.7914,-0.72014,-74.661,467.71,3.4401,-1.1467,-0.15493,4.5868,-2.3141e-10,-0.077467,0,0,0.11111,-0,-0,0.66667
0.49234,0.79671,4.4311,0.44506,36.247,214.97,-5.2589,1.753,-1.293,-7.0118,5.6266e-13,-0.64648,0,0,0.11111,-0,-0,0.66667
0.98027,0.33228,8.8225,-0.25158,-0.93106,0.87543,5.9187,-1.9729,-1.7738,7.8916,2.0132e-07,-0.88691,0,0,0.11111,1.0527e-15,0,0.66667
0.19192,0.006661,1.7272,-0.74001,-76.966,474.47,3.4085,-1.1362,-0.051974,4.5446,1.9673e-12,-0.025987,0,0,0.11111,-0,-0,0.66667
0.24271,0.98931,2.1844,0.73397,74.581,426.9,-4.2753,1.4251,-0.082023,-5.7005,-2.5523e-11,-0.041012,0,0,0.11111,-5.2633e-16,0,0.66667
0.41545,0.075015,3.7391,-0.63748,-56.861,275.54,6.3562,-2.1187,-0.55262,8.475,3.1224e-12,-0.27631,0,0,0.11111,-1.0527e-15,0,0.66667
0.79504,0.88159,7.1554,0.57238,22.604,41.697,-10.922,3.6406,-0.83679,-14.562,-1.6968e-10,-0.41839,0,0,0.11111,-0,-0,0.66667
0.85992,0.20208,7.7393,-0.44688,-12.406,20.654,9.2227,-3.0742,-1.2929,12.297,-3.691e-09,-0.64645,0,0,0.11111,-0,-0,0.66667
0.76878,0.93642,6.9191,0.65463,28.823,52.224,-12.079,4.0262,-0.47734,-16.105,-1.4631e-10,-0.23867,0,0,0.11111,1.25e-15,0,0.66667
0.42266,0.42529,3.8039,-0.11206,-9.877,269.02,1.1368,-0.37892,-1.958,1.5157,-4.6041e-13,-0.979,0,0,0.11111,-0,-0,0.66667
0.26259,0.41026,2.3633,-0.1346,-13.459,408.05,0.84831,-0.28277,-1.9362,1.1311,-9.0573e-12,-0.96811,0,0,0.11111,-0,-0,0.66667
0.59111,0.54918,5.32,0.073766,5.1404,145.59,-1.0465,0.34883,-1.9808,-1.3953,3.4746e-12,-0.99041,0,0,0.11111,-1.0527e-15,0,0.66667
0.55633,0.69535,5.0069,0.29302,21.707,168.89,-3.9123,1.3041,-1.6927,-5.2164,1.4762e-12,-0.84633,0,0,0.11111,-0,-0,0.66667
0.32302,0.30077,2.9072,-0.29885,-28.762,353.69,2.3168,-0.77228,-1.6806,3.0891,-7.1188e-13,-0.84029,0,0,0.11111,1.438e-16,0,0.66667
0.2448,0.59919,2.2032,0.14879,15.023,424.45,-0.87417,0.29139,-1.92,-1.1656,1.4269e-11,-0.95999,0,0,0.11111,5.2633e-16,0,0.66667
0.62917,0.66007,5.6625,0.2401,15.54,122.01,-3.6256,1.2085,-1.7947,-4.8341,1.1076e-12,-0.89733,0,0,0.11111,-2.1053e-15,0,0.66667
0.36144,0.13262,3.253,-0.55107,-51.593,320.56,4.7803,-1.5934,-0.92151,6.3737,2.0863e-12,-0.46075,0,0,0.11111,-0,-0,0.66667
0.44656,0.0040602,4.019,-0.74391,-64.314,250.84,7.9728,-2.6576,-0.030687,10.63,-4.1247e-12,-0.015344,0,0,0.11111,-0,-0,0.66667
0.42369,0.47054,3.8132,-0.044197,-3.8907,268.17,0.44942,-0.14981,-1.9955,0.59923,-2.0983e-12,-0.99776,0,0,0.11111,-0,-0,0.66667
0.60498,0.78444,5.4448,0.42666,29.046,137.18,-6.195,2.065,-1.3523,-8.26,4.885e-14,-0.67616,0,0,0.11111,-0,-0,0.66667
0.067117,0.11203,0.60405,-0.58195,-62.433,594.85,0.93741,-0.31247,-0.79423,1.2499,1.5501e-07,-0.39711,0,0,0.11111,-0,-0,0.66667
0.46478,0.8614,4.1831,0.5421,45.748,236.13,-6.047,2.0157,-0.95398,-8.0627,-8.8107e-13,-0.47699,0,0,0.11111,-0,-0,0.66667
0.93632,0.049022,8.4269,-0.67647,-8.9351,6.384,15.201,-5.0671,-0.37497,20.268,1.5685e-06,-0.18748,0,0,0.11111,1.0527e-15,0,0.66667
0.14808,0.36654,1.3328,-0.20019,-21.038,516,0.71148,-0.23716,-1.8551,0.94864,2.4422e-09,-0.92756,0,0,0.11111,-1.3158e-16,0,0.66667
0.88159,0.62735,7.9343,0.19102,4.4922,14.729,-4.0416,1.3472,-1.8689,-5.3888,8.8581e-09,-0.93445,0,0,0.11111,-2.1053e-15,0,0.66667
0.19859,0.79705,1.7873,0.44558,46.057,467.88,-2.1237,0.70791,-1.2925,-2.8316,5.525e-11,-0.64623,0,0,0.11111,-0,-0,0.66667
0.48283,0.46615,4.3455,-0.050771,-4.1755,221.76,0.58833,-0.19611,-1.9935,0.78443,-4.5469e-13,-0.99675,0,0,0.11111,-1.3158e-16,0,0.66667
0.49097,0.46971,4.4187,-0.045434,-3.6976,215.62,0.53535,-0.17845,-1.9916,0.71381,4.0771e-12,-0.99578,0,0,0.11111,-0,-0,0.66667
0.2348,0.76103,2.1132,0.39155,39.79,433.87,-2.2065,0.73549,-1.4582,-2.942,3.0514e-11,-0.72908,0,0,0.11111,-0,-0,0.66667
0.59658,0.98386,5.3693,0.72579,50.46,143.32,-10.392,3.464,-0.12694,-13.856,-7.7183e-13,-0.063468,0,0,0.11111,-0,-0,0.66667
0.83706,0.94017,7.5335,0.66025,21.258,27.942,-13.264,4.4213,-0.44858,-17.685,-9.6808e-09,-0.22429,0,0,0.11111,2.1053e-15,0,0.66667
0.24277,0.73399,2.1849,0.35099,35.513,426.44,-2.045,0.68168,-1.5593,-2.7267,2.3703e-11,-0.77963,0,0,0.11111,-5.2633e-16,0,0.66667
0.50573,0.24703,4.5515,-0.37945,-30.335,204.93,4.6056,-1.5352,-1.4869,6.1407,1.6365e-12,-0.74344,0,0,0.11111,1.3158e-15,0,0.66667
0.46839,0.64587,4.2156,0.21881,18.33,232.88,-2.4597,0.8199,-1.8332,-3.2796,8.6331e-13,-0.9166,0,0,0.11111,-5.2633e-16,0,0.66667
0.8049,0.69937,7.2441,0.29906,11.227,37.367,-5.7771,1.9257,-1.6793,-7.7028,1.3874e-10,-0.83967,0,0,0.11111,-0,-0,0.66667
0.48547,0.79099,4.3692,0.43648,35.862,220.13,-5.0855,1.6952,-1.325,-6.7807,1.3092e-12,-0.66248,0,0,0.11111,-1.0527e-15,0,0.66667
0.047994,0.56902,0.43195,0.10353,11.096,613.53,-0.11925,0.039751,-1.9645,-0.159,-9.0532e-09,-0.98227,0,0,0.11111,-0,-0,0.66667
0.29891,0.054888,2.6902,-0.66767,-65.585,375.59,4.7897,-1.5966,-0.4163,6.3863,2.8844e-12,-0.20815,0,0,0.11111,-0,-0,0.66667
0.72163,0.78061,6.4947,0.42092,21.618,72.39,-7.29,2.43,-1.3715,-9.72,-1.4233e-11,-0.68574,0,0,0.11111,1.5132e-15,0,0.66667
0.54076,0.55602,4.8669,0.084023,6.3725,179.48,-1.0905,0.36349,-1.973,-1.454,9.5113e-13,-0.98651,0,0,0.11111,5.2633e-16,0,0.66667
0.71301,0.79379,6.4171,0.44069,23.23,76.61,-7.5412,2.5137,-1.3072,-10.055,-6.926e-12,-0.65362,0,0,0.11111,-0,-0,0.66667
0.89043,0.44086,8.0138,-0.088714,-1.9336,12.669,1.8958,-0.63194,-1.9766,2.5278,-1.5483e-08,-0.98828,0,0,0.11111,-2.1053e-15,0,0.66667
0.036948,0.26201,0.33253,-0.35698,-38.341,624.4,0.31655,-0.10552,-1.5447,0.42207,-1.7634e-07,-0.77235,0,0,0.11111,-0,-0,0.66667
0.16157,0.6831,1.4542,0.27465,28.75,503.05,-1.065,0.35502,-1.7306,-1.4201,-1.5055e-09,-0.86529,0,0,0.11111,3.2895e-16,0,0.66667
0.20618,0.93382,1.8556,0.65073,67.197,460.9,-3.22,1.0733,-0.49509,-4.2934,1.8059e-10,-0.24754,0,0,0.11111,-3.2895e-16,0,0.66667
0.54819,0.36489,4.9337,-0.20266,-15.2,174.38,2.6663,-0.88878,-1.856,3.5551,1.4118e-12,-0.92798,0,0,0.11111,-0,-0,0.66667
0.6875,0.13204,6.1875,-0.55194,-31.288,89.858,9.107,-3.0357,-0.92117,12.143,-1.1831e-12,-0.46058,0,0,0.11111,-0,-0,0.66667
0.34233,0.21535,3.081,-0.42697,-40.541,336.89,3.508,-1.1693,-1.3545,4.6773,4.6119e-13,-0.67725,0,0,0.11111,-0,-0,0.66667
0.8698,0.73147,7.8282,0.3472,8.9694,17.841,-7.2479,2.416,-1.5694,-9.6638,7.8357e-09,-0.78471,0,0,0.11111,-0,-0,0.66667
0.8792,0.14304,7.9128,-0.53544,-12.974,16.162,11.298,-3.766,-0.97934,15.064,-2.8145e-09,-0.48967,0,0,0.11111,1.0527e-15,0,0.66667
0.19012,0.73826,1.7111,0.35738,37.041,475.85,-1.6307,0.54357,-1.5461,-2.1743,-1.6869e-10,-0.77306,0,0,0.11111,-2.6316e-16,0,0.66667
0.53183,0.077815,4.7864,-0.63328,-48.943,186.62,8.0831,-2.6944,-0.57697,10.777,1.4131e-12,-0.28848,0,0,0.11111,1.0527e-15,0,0.66667
0.98953,0.23623,8.9058,-0.39565,-0.72332,0.85916,9.3963,-3.1321,-1.4414,12.528,-3.9849e-07,-0.72071,0,0,0.11111,-2.2245e-15,0,0.66667
0.057573,0.18054,0.51815,-0.4792,-51.416,604.17,0.66213,-0.22071,-1.1822,0.88284,5.5277e-08,-0.5911,0,0,0.11111,-9.8686e-17,0,0.66667
0.083431,0.12343,0.75088,-0.56485,-60.437,578.89,1.131,-0.37701,-0.86487,1.508,4.6188e-08,-0.43244,0,0,0.11111,1.9737e-16,0,0.66667
0.41763,0.37178,3.7587,-0.19233,-17.044,273.15,1.9277,-0.64258,-1.8682,2.5703,3.859e-12,-0.93408,0,0,0.11111,-6.5791e-16,0,0.66667
0.85461,0.86451,7.6915,0.54677,15.773,22.426,-11.215,3.7382,-0.93548,-14.953,2.8077e-09,-0.46774,0,0,0.11111,-0,-0,0.66667
0.39859,0.87339,3.5873,0.56008,50.734,289.26,-5.3578,1.7859,-0.88326,-7.1438,2.3492e-13,-0.44163,0,0,0.11111,-7.237e-16,0,0.66667
0.0099489,0.23513,0.08954,-0.3973,-42.738,650.96,0.094865,-0.031621,-1.4365,0.12649,4.7184e-07,-0.71824,0,0,0.11111,-2.823e-17,0,0.66667
0.64554,0.83317,5.8099,0.49976,31.32,112.86,-7.7428,2.5809,-1.1103,-10.324,6.3105e-13,-0.55514,0,0,0.11111,-0,-0,0.66667
0.2938,0.61627,2.6442,0.1744,17.113,379.68,-1.2298,0.40992,-1.8918,-1.6397,4.9607e-12,-0.94592,0,0,0.11111,-0,-0,0.66667
0.14993,0.39599,1.3494,-0.15601,-16.383,514.21,0.56137,-0.18712,-1.9111,0.74849,2.6562e-09,-0.95557,0,0,0.11111,-1.3158e-16,0,0.66667
0.10779,0.76584,0.97007,0.39876,42.398,555.08,-1.0315,0.34384,-1.4361,-1.3754,-2.4966e-08,-0.71803,0,0,0.11111,-0,-0,0.66667
0.8689,0.90366,7.8201,0.60549,15.899,18.922,-12.627,4.2089,-0.6952,-16.836,1.9743e-08,-0.3476,0,0,0.11111,1.3099e-15,0,0.66667
0.0032652,0.16902,0.029387,-0.49647,-53.456,657.54,0.038905,-0.012967,-1.1231,0.051874,1.6846e-06,-0.56157,0,0,0.11111,-0,-0,0.66667
0.51859,0.51887,4.6673,0.028305,2.2183,195.26,-0.35229,0.11743,-1.997,-0.46972,-1.4074e-12,-0.9985,0,0,0.11111,-0,-0,0.66667
0.55082,0.56016,4.9574,0.090235,6.7367,172.49,-1.1929,0.39763,-1.9711,-1.5905,6.7502e-14,-0.98557,0,0,0.11111,1.579e-15,0,0.66667
0.11595,0.8304,1.0435,0.4956,52.642,547.19,-1.3792,0.45972,-1.1241,-1.8389,-1.5022e-09,-0.56206,0,0,0.11111,-1.3158e-16,0,0.66667
0.20004,0.71909,1.8004,0.32864,33.918,466.44,-1.5778,0.52593,-1.6173,-2.1037,-7.5085e-11,-0.80864,0,0,0.11111,-5.2633e-16,0,0.66667
0.86222,0.77056,7.76,0.40584,11.078,19.928,-8.3981,2.7994,-1.4145,-11.197,5.3284e-09,-0.70723,0,0,0.11111,-0,-0,0.66667
0.11697,0.99245,1.0527,0.73867,78.672,546.34,-2.0737,0.69123,-0.05766,-2.7649,1.5271e-08,-0.02883,0,0,0.11111,3.9475e-16,0,0.66667
0.8247,0.20683,7.4223,-0.43975,-15.023,30.996,8.7039,-2.9013,-1.3118,11.605,-4.6523e-10,-0.65592,0,0,0.11111,-0,-0,0.66667
0.19309,0.65675,1.7378,0.23513,24.323,472.98,-1.0896,0.3632,-1.8028,-1.4528,-1.3633e-10,-0.9014,0,0,0.11111,-5.2633e-16,0,0.66667
0.99555,0.84449,8.9599,0.51673,0.33767,1.1394,-12.346,4.1154,-1.0506,-16.462,2.049e-06,-0.52532,0,0,0.11111,-4.2106e-15,1.2123e-17,0.66667
0.47141,0.5506,4.2427,0.075894,6.3312,230.48,-0.85865,0.28622,-1.9797,-1.1449,-1.7132e-12,-0.98986,0,0,0.11111,-0,-0,0.66667
0.54727,0.051508,4.9254,-0.67274,-50.818,175.92,8.8361,-2.9454,-0.39417,11.781,2.8164e-12,-0.19708,0,0,0.11111,5.2633e-16,0,0.66667
0.082274,0.82521,0.74047,0.48782,52.164,579.99,-0.96324,0.32108,-1.1526,-1.2843,-3.1807e-08,-0.57631,0,0,0.11111,-1.3158e-16,0,0.66667
0.051293,0.18006,0.46164,-0.47992,-51.529,610.33,0.59079,-0.19693,-1.18,0.78772,1.3988e-07,-0.59002,0,0,0.11111,-6.5791e-17,0,0.66667
0.20742,0.92561,1.8668,0.63842,65.88,459.72,-3.1782,1.0594,-0.5495,-4.2376,-4.488e-11,-0.27475,0,0,0.11111,2.6316e-16,0,0.66667
0.16079,0.48158,1.4471,-0.027637,-2.8916,503.76,0.10665,-0.03555,-1.9957,0.1422,3.4805e-10,-0.99786,0,0,0.11111,-0,-0,0.66667
0.45106,0.29321,4.0596,-0.31018,-26.533,246.47,3.3578,-1.1193,-1.6588,4.4771,1.3802e-12,-0.82941,0,0,0.11111,-0,-0,0.66667
0.62995,0.83047,5.6695,0.49571,32.128,122.02,-7.4945,2.4982,-1.1245,-9.9926,-1.9451e-13,-0.56223,0,0,0.11111,-0,-0,0.66667
0.72633,0.68441,6.537,0.27661,13.975,69.869,-4.8219,1.6073,-1.7263,-6.4292,-1.1237e-11,-0.86314,0,0,0.11111,-2.6316e-16,0,0.66667
0.45605,0.7094,4.1044,0.3141,26.716,242.57,-3.4379,1.146,-1.6493,-4.5838,1.386e-12,-0.82465,0,0,0.11111,-0,-0,0.66667
0.37693,0.88298,3.3924,0.57448,53.09,307.42,-5.1969,1.7323,-0.82797,-6.9292,-2.0282e-12,-0.41398,0,0,0.11111,-0,-0,0.66667
0.064415,0.017369,0.57973,-0.72395,-77.833,597.54,1.1192,-0.37306,-0.13755,1.4922,-1.4439e-06,-0.068777,0,0,0.11111,-0,-0,0.66667
0.53834,0.38627,4.845,-0.17059,-12.99,181.23,2.204,-0.73468,-1.894,2.9387,-7.0655e-13,-0.94698,0,0,0.11111,-0,-0,0.66667
0.45104,0.69432,4.0593,0.29148,24.931,246.47,-3.1552,1.0517,-1.6992,-4.207,6.4104e-13,-0.84962,0,0,0.11111,1.0527e-15,0,0.66667
0.40236,0.24368,3.6212,-0.38448,-34.636,285.87,3.7128,-1.2376,-1.4739,4.9504,8.9684e-13,-0.73695,0,0,0.11111,2.3824e-16,0,0.66667
0.073837,0.21207,0.66453,-0.43189,-46.222,588.22,0.76535,-0.25512,-1.3359,1.0205,1.2187e-07,-0.66796,0,0,0.11111,-6.5791e-17,0,0.66667
0.19382,0.35916,1.7443,-0.21126,-21.846,472.28,0.98271,-0.32757,-1.8388,1.3103,1.6106e-10,-0.91939,0,0,0.11111,2.6316e-16,0,0.66667
0.60843,0.69692,5.4759,0.29538,19.946,134.79,-4.3133,1.4378,-1.6924,-5.7511,7.0166e-14,-0.84618,0,0,0.11111,-0,-0,0.66667
0.91508,0.77214,8.2358,0.40821,7.0018,8.503,-8.9651,2.9884,-1.4052,-11.953,3.8181e-08,-0.70258,0,0,0.11111,1.0527e-15,0,0.66667
0.63152,0.47343,5.6837,-0.039862,-2.565,120.47,0.60417,-0.20139,-1.9926,0.80556,-1.5876e-13,-0.9963,0,0,0.11111,-0,-0,0.66667
0.57768,0.17616,5.1991,-0.48577,-34.791,154.89,6.7348,-2.2449,-1.1642,8.9797,2.0499e-12,-0.58211,0,0,0.11111,-5.2633e-16,-1.7338e-17,0.66667
0.34238,0.69081,3.0814,0.28622,27.146,336.71,-2.3519,0.78397,-1.7115,-3.1359,3.4803e-12,-0.85575,0,0,0.11111,-1.0527e-15,0,0.66667
0.13547,0.12426,1.2192,-0.56361,-59.609,528.32,1.8325,-0.61082,-0.87011,2.4433,-5.1032e-09,-0.43506,0,0,0.11111,1.0691e-16,0,0.66667
0.50839,0.27324,4.5755,-0.34014,-27.083,202.92,4.1501,-1.3834,-1.5863,5.5335,1.6391e-12,-0.79316,0,0,0.11111,-5.2633e-16,0,0.66667
0.64626,0.39138,5.8164,-0.16293,-10.156,111.86,2.5271,-0.84236,-1.9034,3.3694,1.823e-13,-0.95168,0,0,0.11111,-1.0527e-15,0,0.66667
0.96752,0.81559,8.7076,0.47339,3.1014,2.296,-10.992,3.6641,-1.2062,-14.656,-6.1571e-07,-0.60311,0,0,0.11111,-0,-0,0.66667
0.76195,0.85486,6.8576,0.53229,23.958,54.608,-9.7339,3.2446,-0.99182,-12.979,-7.4349e-12,-0.49591,0,0,0.11111,-0,-0,0.66667
0.183,0.64412,1.647,0.21618,22.45,482.56,-0.94946,0.31649,-1.8323,-1.2659,-3.165e-10,-0.91617,0,0,0.11111,-2.6316e-16,0,0.66667
0.23966,0.22336,2.1569,-0.41496,-42.073,429.37,2.3868,-0.79559,-1.3865,3.1824,-3.0112e-11,-0.69327,0,0,0.11111,5.2633e-16,0,0.66667
0.95701,0.3396,8.613,-0.2406,-2.0604,2.5407,5.5261,-1.842,-1.794,7.3681,1.2388e-07,-0.897,0,0,0.11111,1.579e-15,0,0.66667
0.758,0.23111,6.822,-0.40333,-18.365,55.911,7.3375,-2.4458,-1.4189,9.7833,3.2536e-11,-0.70945,0,0,0.11111,-0,-0,0.66667
0.19292,0.84703,1.7363,0.52055,53.97,473.31,-2.4102,0.8034,-1.0355,-3.2136,-1.2606e-10,-0.51773,0,0,0.11111,-0,-0,0.66667
0.70195,0.38441,6.3176,-0.17338,-9.4029,81.652,2.9209,-0.97365,-1.8954,3.8946,3.0265e-12,-0.94769,0,0,0.11111,-0,-0,0.66667
0.83347,0.60193,7.5013,0.15289,4.9559,27.659,-3.0583,1.0194,-1.9152,-4.0777,5.0826e-10,-0.95758,0,0,0.11111,-0,-0,0.66667
0.43625,0.13515,3.9263,-0.54728,-47.708,258.57,5.73,-1.91,-0.93716,7.64,1.1835e-12,-0.46858,0,0,0.11111,-0,-0,0.66667
0.0094767,0.45364,0.085291,-0.069545,-7.4699,651.42,0.015817,-0.005273,-1.9803,0.02109,-7.4539e-07,-0.99017,0,0,0.11111,-0,-0,0.66667
0.66811,0.47907,6.013,-0.031388,-1.8585,99.456,0.5033,-0.16777,-1.9957,0.67107,-2.322e-13,-0.99785,0,0,0.11111,-0,-0,0.66667
0.069735,0.47072,0.62762,-0.043927,-4.6955,592.19,0.073519,-0.024506,-1.9917,0.098025,-7.6498e-08,-0.99586,0,0,0.11111,-0,-0,0.66667
0.2378,0.35642,2.1402,-0.21538,-21.83,430.97,1.2292,-0.40974,-1.8344,1.6389,-1.8475e-11,-0.91722,0,0,0.11111,-0,-0,0.66667
0.097031,0.025205,0.87328,-0.71219,-76.152,565.69,1.6585,-0.55284,-0.19665,2.2114,-1.8408e-07,-0.098326,0,0,0.11111,-0,-0,0.66667
0.87047,0.11661,7.8342,-0.57508,-14.91,18.408,12.014,-4.0047,-0.82287,16.019,-6.654e-09,-0.41143,0,0,0.11111,-0,-0,0.66667
0.83404,0.4647,7.5063,-0.05295,-1.7099,27.416,1.0599,-0.3533,-1.9886,1.4132,3.8933e-10,-0.9943,0,0,0.11111,1.5465e-15,0,0.66667
0.23516,0.93252,2.1164,0.64878,66.098,433.78,-3.6616,1.2205,-0.50676,-4.8822,2.2099e-11,-0.25338,0,0,0.11111,-1.3158e-16,0,0.66667
0.75438,0.78506,6.7894,0.4276,19.731,57.521,-7.7417,2.5806,-1.3494,-10.322,-3.6445e-11,-0.67469,0,0,0.11111,2.1053e-15,0,0.66667
0.50836,0.37029,4.5753,-0.19457,-15.477,202.78,2.3739,-0.79129,-1.8635,3.1652,1.3896e-12,-0.93175,0,0,0.11111,-7.8949e-16,0,0.66667
0.42116,0.14188,3.7904,-0.53718,-47.572,270.71,5.4296,-1.8099,-0.97669,7.2395,1.9047e-12,-0.48835,0,0,0.11111,-0,-1.6913e-16,0.66667
0.21872,0.14525,1.9685,-0.53212,-54.566,449,2.7933,-0.93109,-0.99716,3.7243,-2.5296e-11,-0.49858,0,0,0.11111,-0,1.7531e-16,0.66667
0.22166,0.93891,1.9949,0.65837,67.523,446.39,-3.5024,1.1675,-0.46007,-4.6699,-9.0858e-11,-0.23004,0,0,0.11111,-0,-0,0.66667
0.090802,0.76097,0.81722,0.39146,41.763,571.63,-0.85308,0.28436,-1.4551,-1.1374,-3.2114e-08,-0.72755,0,0,0.11111,-0,-0,0.66667
0.24882,0.026728,2.2394,-0.70991,-71.88,421.22,4.2393,-1.4131,-0.21095,5.6524,3.8153e-11,-0.10547,0,0,0.11111,-2.6316e-16,6.5146e-17,0.66667
0.58965,0.62878,5.3069,0.19316,13.503,146.6,-2.7336,0.91119,-1.867,-3.6448,1.936e-12,-0.93352,0,0,0.11111,-0,-0,0.66667
0.88221,0.63154,7.9399,0.19731,4.6171,14.595,-4.1777,1.3926,-1.8594,-5.5703,9.7586e-09,-0.92971,0,0,0.11111,-0,-0,0.66667
0.15505,0.93265,1.3954,0.64898,68.309,509.54,-2.4149,0.80498,-0.50527,-3.2199,-2.6407e-08,-0.25264,0,0,0.11111,-3.9775e-17,0,0.66667
0.26188,0.66923,2.3569,0.25385,25.405,408.75,-1.5955,0.53183,-1.7699,-2.1273,1.5557e-11,-0.88497,0,0,0.11111,-0,-0,0.66667
0.63358,0.49126,5.7022,-0.01311,-0.83988,119.24,0.19935,-0.066451,-1.997,0.2658,1.6832e-13,-0.99851,0,0,0.11111,-0,-0,0.66667
0.1012,0.7394,0.91077,0.35909,38.224,561.48,-0.87213,0.29071,-1.5389,-1.1628,-3.0781e-08,-0.76947,0,0,0.11111,1.3158e-16,0,0.66667
0.51534,0.57134,4.6381,0.10701,8.4262,197.63,-1.3235,0.44115,-1.963,-1.7646,8.5609e-13,-0.98148,0,0,0.11111,-1.0527e-15,0,0.66667
0.44685,0.77241,4.0217,0.40861,35.15,249.92,-4.3821,1.4607,-1.4042,-5.8428,2.8155e-13,-0.70209,0,0,0.11111,-5.2633e-16,0,0.66667
0.050434,0.58372,0.45391,0.12559,13.458,611.13,-0.15201,0.050671,-1.9433,-0.20268,5.5753e-08,-0.97166,0,0,0.11111,-0,-0,0.66667
0.76578,0.93336,6.892,0.65005,28.942,53.442,-11.947,3.9823,-0.50206,-15.929,-3.8948e-11,-0.25103,0,0,0.11111,5.2633e-16,0,0.66667
0.095195,0.17618,0.85676,-0.48573,-51.819,567.38,1.1097,-0.36991,-1.1629,1.4797,3.1453e-08,-0.58143,0,0,0.11111,-0,-0,0.66667
0.33837,0.15823,3.0453,-0.51265,-48.868,340.45,4.1632,-1.3877,-1.0647,5.5509,-7.4341e-13,-0.53237,0,0,0.11111,-0,-0,0.66667
0.57897,0.89137,5.2107,0.58705,42.017,154.29,-8.1572,2.7191,-0.77712,-10.876,-7.6383e-13,-0.38856,0,0,0.11111,1.0527e-15,0,0.66667
0.85085,0.17392,7.6577,-0.48912,-14.418,23.263,9.9881,-3.3294,-1.1467,13.318,-6.9504e-10,-0.57334,0,0,0.11111,-1.0527e-15,0,0.66667
0.26085,0.13156,2.3477,-0.55266,-55.479,409.94,3.4599,-1.1533,-0.91281,4.6133,-4.9112e-11,-0.45641,0,0,0.11111,5.2633e-16,0,0.66667
0.81028,0.34521,7.2925,-0.23218,-8.4896,35.366,4.5152,-1.5051,-1.8103,6.0203,-2.278e-10,-0.90517,0,0,0.11111,-0,-0,0.66667
0.43666,0.88637,3.93,0.57956,50.521,258.31,-6.0738,2.0246,-0.80834,-8.0984,-1.8692e-12,-0.40417,0,0,0.11111,-0,-0,0.66667
0.82762,0.9403,7.4486,0.66046,22.386,30.866,-13.119,4.3728,-0.45321,-17.491,-7.9369e-09,-0.2266,0,0,0.11111,-0,-4.2991e-17,0.66667
0.92159,0.2574,8.2943,-0.36391,-5.7592,7.3073,8.049,-2.683,-1.533,10.732,-7.152e-08,-0.76649,0,0,0.11111,-2.1053e-15,0,0.66667
0.4382,0.095884,3.9438,-0.60617,-52.773,257.14,6.3751,-2.125,-0.69749,8.5001,1.6147e-12,-0.34874,0,0,0.11111,-0,-0,0.66667
0.26206,0.77643,2.3585,0.41464,41.538,408.7,-2.6078,0.86927,-1.3887,-3.4771,1.1387e-11,-0.69435,0,0,0.11111,-3.9475e-16,0,0.66667
0.46144,0.92486,4.153,0.63729,54.069,238.93,-7.0578,2.3526,-0.55325,-9.4104,1.1222e-12,-0.27663,0,0,0.11111,-0,-0,0.66667
0.094812,0.0021036,0.85331,-0.74684,-79.93,567.87,1.6994,-0.56648,-0.020229,2.2659,9.477e-08,-0.010114,0,0,0.11111,-0,-0,0.66667
0.65878,0.3059,5.929,-0.29115,-17.654,104.87,4.6033,-1.5344,-1.6994,6.1377,5.7865e-13,-0.84971,0,0,0.11111,-5.2633e-16,0,0.66667
0.63235,0.068554,5.6911,-0.64717,-41.85,121.03,9.8217,-3.2739,-0.50873,13.096,1.8341e-12,-0.25437,0,0,0.11111,-0,-0,0.66667
0.4968,0.75362,4.4712,0.38042,30.781,211.54,-4.5359,1.512,-1.486,-6.0478,-1.6378e-12,-0.74299,0,0,0.11111,1.0527e-15,0,0.66667
0.47016,0.6291,4.2314,0.19365,16.186,231.51,-2.1852,0.72838,-1.8693,-2.9135,-7.2475e-13,-0.93463,0,0,0.11111,-1.0527e-15,0,0.66667
0.12851,0.39432,1.1566,-0.15852,-16.749,534.9,0.4889,-0.16297,-1.91,0.65187,5.9128e-09,-0.95499,0,0,0.11111,-0,-0,0.66667
0.33439,0.65505,3.0095,0.23257,22.187,343.65,-1.8665,0.62215,-1.8066,-2.4886,2.0748e-12,-0.90331,0,0,0.11111,1.9737e-16,0,0.66667
0.2686,0.044112,2.4174,-0.68383,-68.459,403.03,4.4082,-1.4694,-0.33714,5.8776,-4.1362e-12,-0.16857,0,0,0.11111,-0,-0,0.66667
0.53581,0.33024,4.8223,-0.25463,-19.474,183.09,3.2745,-1.0915,-1.7679,4.3659,1.8026e-12,-0.88394,0,0,0.11111,-0,-0,0.66667
0.41981,0.20545,3.7783,-0.44183,-39.139,271.64,4.4516,-1.4839,-1.3068,5.9354,1.8314e-12,-0.65338,0,0,0.11111,5.2633e-16,0,0.66667
0.83603,0.20952,7.5243,-0.43572,-13.998,27.43,8.7427,-2.9142,-1.3225,11.657,-8.4754e-10,-0.66124,0,0,0.11111,-0,-0,0.66667
0.70121,0.67707,6.3109,0.26561,14.446,82.142,-4.4699,1.49,-1.7503,-5.9599,-4.9125e-12,-0.87517,0,0,0.11111,1.0527e-15,0,0.66667
0.4959,0.20641,4.4631,-0.44038,-35.697,212.31,5.2412,-1.7471,-1.3092,6.9883,1.1458e-13,-0.65462,0,0,0.11111,5.2633e-16,0,0.66667
0.59952,0.74057,5.3957,0.36086,24.803,140.5,-5.1922,1.7307,-1.5349,-6.923,6.3061e-14,-0.76747,0,0,0.11111,5.2633e-16,0,0.66667
0.39672,0.19321,3.5705,-0.46018,-41.71,290.65,4.3815,-1.4605,-1.2453,5.842,7.6827e-13,-0.62265,0,0,0.11111,1.0527e-15,0,0.66667
0.21745,0.25738,1.9571,-0.36393,-37.283,450.06,1.8993,-0.63309,-1.5314,2.5324,-1.125e-11,-0.76569,0,0,0.11111,-0,-0,0.66667
0.74224,0.067516,6.6801,-0.64873,-31.368,63.568,11.556,-3.8521,-0.50168,15.408,-4.1105e-12,-0.25084,0,0,0.11111,-0,-0,0.66667
0.92264,0.03978,8.3037,-0.69033,-11.028,8.4124,15.286,-5.0954,-0.30853,20.382,-2.3347e-06,-0.15427,0,0,0.11111,-0,-0,0.66667
0.26129,0.86916,2.3516,0.55373,55.574,409.55,-3.4724,1.1575,-0.909,-4.6299,5.1591e-11,-0.4545,0,0,0.11111,2.6316e-16,0,0.66667
0.63229,0.85857,5.6906,0.53785,34.712,120.73,-8.1618,2.7206,-0.96872,-10.882,4.5475e-13,-0.48436,0,0,0.11111,-1.0527e-15,0,0.66667
0.70958,0.56351,6.3862,0.095258,5.0532,77.775,-1.6222,0.54074,-1.9667,-2.163,-2.1885e-12,-0.98333,0,0,0.11111,-0,-0,0.66667
0.73708,0.73766,6.6337,0.35649,17.423,65.029,-6.3062,2.1021,-1.5483,-8.4083,-1.7413e-11,-0.77414,0,0,0.11111,-0,-0,0.66667
0.27022,0.14358,2.432,-0.53463,-53.37,401.35,3.4672,-1.1557,-0.98214,4.6229,-1.5807e-12,-0.49107,0,0,0.11111,-0,-0,0.66667
0.10234,0.55983,0.92109,0.089748,9.5397,560.32,-0.22044,0.073481,-1.9698,-0.29393,-2.1338e-08,-0.98492,0,0,0.11111,1.6448e-16,0,0.66667
0.71856,0.61273,6.467,0.16909,8.7392,73.44,-2.916,0.97201,-1.9019,-3.888,-6.0862e-12,-0.95096,0,0,0.11111,2.0172e-16,0,0.66667
0.44319,0.60296,3.9888,0.15443,13.316,252.56,-1.6427,0.54755,-1.9132,-2.1902,2.1194e-13,-0.9566,0,0,0.11111,-0,-0,0.66667
0.6827,0.5378,6.1443,0.056698,3.2365,91.562,-0.929,0.30967,-1.9874,-1.2387,-1.3846e-12,-0.99368,0,0,0.11111,-0,-0,0.66667
0.058429,0.079962,0.52586,-0.63006,-67.706,603.37,0.88353,-0.29451,-0.58731,1.178,-1.5136e-06,-0.29366,0,0,0.11111,-0,2.5614e-17,0.66667
0.65428,0.65854,5.8885,0.23781,14.564,107.34,-3.7343,1.2448,-1.8011,-4.9791,1.6942e-12,-0.90054,0,0,0.11111,-2.1053e-15,0,0.66667
0.28838,0.50181,2.5954,0.0027126,0.26701,384.54,-0.018774,0.0062579,-1.9986,-0.025032,1.4574e-12,-0.9993,0,0,0.11111,2.1053e-15,0,0.66667
0.87785,0.94264,7.9006,0.66396,16.365,17.019,-13.988,4.6628,-0.43323,-18.651,1.4481e-07,-0.21661,0,0,0.11111,-0,-0,0.66667
0.1653,0.16239,1.4877,-0.50642,-53.038,499.6,2.0091,-0.66968,-1.0862,2.6787,1.8266e-09,-0.54309,0,0,0.11111,-0,-0,0.66667
0.44557,0.6772,4.0101,0.2658,22.872,250.76,-2.8424,0.94746,-1.7462,-3.7899,1.199e-12,-0.87312,0,0,0.11111,-0,-0,0.66667
0.96915,0.79812,8.7224,0.44718,2.7654,2.0838,-10.401,3.4671,-1.2922,-13.868,-9.047e-07,-0.64608,0,0,0.11111,-2.1053e-15,0,0.66667
0.086128,0.09899,0.77515,-0.60151,-64.356,576.27,1.2434,-0.41446,-0.71152,1.6578,-5.9486e-08,-0.35576,0,0,0.11111,2.6316e-16,0,0.66667
0.40046,0.55068,3.6042,0.076022,6.8498,287.21,-0.73066,0.24355,-1.9772,-0.97421,-4.0847e-12,-0.98861,0,0,0.11111,-0,-0,0.66667
0.28546,0.22438,2.5691,-0.41343,-40.845,387.38,2.8324,-0.94415,-1.3916,3.7766,-3.2461e-12,-0.6958,0,0,0.11111,-0,-0,0.66667
0.082679,0.83941,0.74411,0.50912,54.449,579.6,-1.0102,0.33675,-1.0777,-1.347,-1.4781e-08,-0.53883,0,0,0.11111,-0,-0,0.66667
0.70977,0.10768,6.388,-0.58848,-31.406,78.636,10.024,-3.3415,-0.76608,13.366,3.3182e-12,-0.38304,0,0,0.11111,1.0527e-15,0,0.66667
0.56244,0.5588,5.062,0.088205,6.4619,164.55,-1.1906,0.39688,-1.9771,-1.5875,1.0908e-12,-0.98853,0,0,0.11111,-5.2633e-16,0,0.66667
0.98804,0.26266,8.8924,-0.35601,-0.75312,0.79173,8.4421,-2.814,-1.5485,11.256,-1.6566e-07,-0.77425,0,0,0.11111,-0,-0,0.66667
0.22761,0.11116,2.0485,-0.58326,-59.594,440.74,3.1861,-1.062,-0.78781,4.2481,2.5069e-11,-0.39391,0,0,0.11111,-2.6954e-16,0,0.66667
0.10466,0.077583,0.94196,-0.63363,-67.576,558.22,1.5916,-0.53053,-0.57078,2.1221,-1.7105e-07,-0.28539,0,0,0.11111,-0,-0,0.66667
0.46991,0.1978,4.2292,-0.4533,-37.979,232.01,5.1122,-1.7041,-1.2716,6.8163,-1.334e-12,-0.63581,0,0,0.11111,-0,-0,0.66667
0.72526,0.37891,6.5274,-0.18163,-9.1981,70.247,3.1615,-1.0538,-1.8811,4.2153,9.6763e-12,-0.94054,0,0,0.11111,-0,-0,0.66667
0.20312,0.70621,1.8281,0.30932,31.878,463.52,-1.5079,0.50262,-1.6637,-2.0105,-4.7373e-11,-0.83185,0,0,0.11111,-0,-0,0.66667
0.19345,0.1337,1.741,-0.54945,-56.971,472.83,2.551,-0.85033,-0.92454,3.4013,-4.0133e-10,-0.46227,0,0,0.11111,-0,-0,0.66667
0.01645,0.13756,0.14805,-0.54366,-58.549,644.57,0.21463,-0.071544,-0.95165,0.28617,-4.2749e-07,-0.47583,0,0,0.11111,-0,-0,0.66667
0.61338,0.56042,5.5204,0.090624,6.053,131.52,-1.3341,0.44469,-1.9709,-1.7788,3.5139e-13,-0.98544,0,0,0.11111,-1.0527e-15,0,0.66667
0.58667,0.097704,5.28,-0.60344,-42.617,149.3,8.4965,-2.8322,-0.70351,11.329,1.4921e-12,-0.35176,0,0,0.11111,-0,-0,0.66667
0.46014,0.28463,4.1413,-0.32305,-27.349,239.38,3.5676,-1.1892,-1.6273,4.7568,7.7871e-13,-0.81364,0,0,0.11111,1.0527e-15,0,0.66667
0.7062,0.97831,6.3558,0.71747,38.807,80.884,-12.16,4.0534,-0.16963,-16.214,-2.3057e-12,-0.084816,0,0,0.11111,-0,-0,0.66667
0.059315,0.41156,0.53383,-0.13265,-14.201,602.41,0.18884,-0.062946,-1.9377,0.25178,8.1495e-09,-0.96886,0,0,0.11111,-0,-0,0.66667
0.66498,0.37536,5.9848,-0.18695,-11.16,101.28,2.9837,-0.99456,-1.8747,3.9783,9.972e-13,-0.93734,0,0,0.11111,-0,-0,0.66667
0.18851,0.4474,1.6966,-0.078903,-8.1732,477.29,0.35698,-0.11899,-1.9803,0.47597,3.7278e-11,-0.99016,0,0,0.11111,-0,-0,0.66667
0.13418,0.26542,1.2077,-0.35187,-37.157,529.46,1.1332,-0.37772,-1.5572,1.5109,6.3279e-09,-0.77861,0,0,0.11111,-0,-0,0.66667
0.89487,0.59422,8.0538,0.14133,2.961,11.778,-3.0353,1.0118,-1.9292,-4.0471,5.4686e-09,-0.9646,0,0,0.11111,-2.1053e-15,0,0.66667
0.68858,0.36354,6.1972,-0.20469,-11.515,88.568,3.3827,-1.1276,-1.8533,4.5103,2.1805e-12,-0.92664,0,0,0.11111,-0,-0,0.66667
0.63478,0.56155,5.713,0.092321,5.8999,118.54,-1.4065,0.46883,-1.9689,-1.8753,2.9683e-12,-0.98443,0,0,0.11111,-1.1184e-15,0,0.66667
0.062431,0.3765,0.56188,-0.18525,-19.828,599.36,0.27757,-0.092525,-1.8831,0.3701,-9.8512e-09,-0.94154,0,0,0.11111,-0,-0,0.66667
0.10037,0.94613,0.90333,0.66919,71.465,562.42,-1.612,0.53734,-0.40549,-2.1493,3.4743e-08,-0.20274,0,0,0.11111,-0,-0,0.66667
0.41814,0.0010114,3.7633,-0.74848,-66.701,273.61,7.5114,-2.5038,-0.0086098,10.015,4.762e-12,-0.0043049,0,0,0.11111,-0,-0,0.66667
0.77618,0.4522,6.9856,-0.071707,-3.0373,47.931,1.3358,-0.44526,-1.9798,1.781,7.2209e-12,-0.98988,0,0,0.11111,-0,-0,0.66667
0.0092608,0.82901,0.083347,0.49352,53.132,651.64,-0.10969,0.036561,-1.1315,-0.14625,-1.8686e-06,-0.56574,0,0,0.11111,-0,-0,0.66667
0.46474,0.586,4.1827,0.12901,10.85,235.65,-1.4389,0.47963,-1.9401,-1.9185,-1.6103e-12,-0.97003,0,0,0.11111,2.7518e-16,0,0.66667
0.20022,0.36077,1.802,-0.20884,-21.538,466.21,1.0036,-0.33453,-1.8448,1.3381,9.1897e-11,-0.92239,0,0,0.11111,-0,-0,0.66667
0.89358,0.11128,8.0422,-0.58308,-12.555,13.189,12.505,-4.1683,-0.79096,16.673,-2.1007e-09,-0.39548,0,0,0.11111,-0,-0,0.66667
0.59828,0.60656,5.3846,0.15984,10.995,141.04,-2.2952,0.76505,-1.9076,-3.0602,-7.7049e-14,-0.9538,0,0,0.11111,1.0527e-15,0,0.66667
0.68755,0.3002,6.188,-0.2997,-16.92,89.237,4.9455,-1.6485,-1.6844,6.594,3.0136e-12,-0.84222,0,0,0.11111,-0,-0,0.66667
0.80757,0.22143,7.2682,-0.41786,-15.529,36.7,8.0988,-2.6996,-1.3785,10.798,-1.5596e-10,-0.68924,0,0,0.11111,-0,-0,0.66667
0.5879,0.87413,5.2911,0.56119,39.517,148.39,-7.9181,2.6394,-0.8794,-10.557,1.0774e-12,-0.4397,0,0,0.11111,-2.6316e-16,0,0.66667
0.84743,0.9362,7.6268,0.6543,19.827,24.872,-13.307,4.4358,-0.47834,-17.743,4.2157e-08,-0.23917,0,0,0.11111,-1.579e-15,0,0.66667
0.47046,0.23204,4.2341,-0.40194,-33.635,231.51,4.5383,-1.5128,-1.4269,6.051,-3.4062e-13,-0.71344,0,0,0.11111,-0,-0,0.66667
0.17437,0.54799,1.5694,0.07199,7.4969,490.76,-0.30128,0.10043,-1.9819,-0.4017,-3.2045e-10,-0.99093,0,0,0.11111,-0,-0,0.66667
0.64155,0.75616,5.7739,0.38425,24.253,114.92,-5.9163,1.9721,-1.478,-7.8884,-5.4623e-13,-0.73901,0,0,0.11111,-0,-0,0.66667
0.97645,0.26735,8.788,-0.34897,-1.5951,1.311,8.1781,-2.726,-1.5642,10.904,7.1429e-07,-0.78212,0,0,0.11111,1.0527e-15,0,0.66667
0.35024,0.7531,3.1522,0.37965,35.808,329.97,-3.1913,1.0638,-1.486,-4.255,3.5087e-12,-0.74302,0,0,0.11111,-1.0527e-15,0,0.66667
0.80271,0.2252,7.2244,-0.41221,-15.666,38.407,7.9412,-2.6471,-1.3941,10.588,-1.3132e-10,-0.69705,0,0,0.11111,-0,-0,0.66667
0.67727,0.43628,6.0955,-0.095581,-5.5329,94.485,1.5536,-0.51788,-1.9668,2.0715,-2.8111e-13,-0.98342,0,0,0.11111,1.3158e-15,0,0.66667
0.52046,0.0078146,4.6842,-0.73828,-58.122,195.04,9.2219,-3.074,-0.060642,12.296,6.537e-13,-0.030321,0,0,0.11111,-0,-0,0.66667
0.14443,0.17836,1.2999,-0.48246,-50.853,519.63,1.6724,-0.55746,-1.1717,2.2299,2.2176e-09,-0.58583,0,0,0.11111,1.3158e-16,0,0.66667
0.83883,0.18186,7.5495,-0.47721,-15.108,26.71,9.6072,-3.2024,-1.1891,12.81,-8.329e-10,-0.59456,0,0,0.11111,1.579e-15,0,0.66667
0.42617,0.24512,3.8356,-0.38231,-33.626,266.4,3.9104,-1.3035,-1.4797,5.2139,2.7827e-12,-0.73984,0,0,0.11111,-0,-0,0.66667
0.78295,0.31725,7.0465,-0.27413,-11.319,45.482,5.1511,-1.717,-1.7349,6.8681,1.2964e-11,-0.86746,0,0,0.11111,2.1053e-15,0,0.66667
0.59163,0.19987,5.3247,-0.45019,-31.434,145.72,6.3923,-2.1308,-1.2802,8.5231,1.3998e-12,-0.6401,0,0,0.11111,-0,-0,0.66667
0.25054,0.27554,2.2549,-0.33669,-33.923,419.24,2.0245,-0.67483,-1.6006,2.6993,-2.2667e-11,-0.80029,0,0,0.11111,-1.3158e-16,0,0.66667
0.17356,0.66649,1.562,0.24973,26.029,491.57,-1.0403,0.34675,-1.7797,-1.387,-6.9163e-10,-0.88987,0,0,0.11111,-5.2633e-16,0,0.66667
0.73804,0.070876,6.6424,-0.64369,-31.552,65.439,11.402,-3.8005,-0.52627,15.202,-1.0916e-11,-0.26314,0,0,0.11111,-0,-0,0.66667
0.11212,0.81803,1.009,0.47704,50.707,550.9,-1.2836,0.42787,-1.1916,-1.7115,-1.3314e-08,-0.5958,0,0,0.11111,-0,-0,0.66667
0.21762,0.74417,1.9586,0.36626,37.52,449.9,-1.913,0.63765,-1.5258,-2.5506,1.224e-11,-0.76289,0,0,0.11111,-1.3158e-16,0,0.66667
0.86531,0.047775,7.7878,-0.67834,-18.334,20.153,14.087,-4.6958,-0.36156,18.783,2.182e-08,-0.18078,0,0,0.11111,-0,-0,0.66667
0.9046,0.7924,8.1414,0.4386,8.4382,10.477,-9.5221,3.174,-1.3175,-12.696,3.2302e-08,-0.65876,0,0,0.11111,-0,-0,0.66667
0.093513,0.8345,0.84161,0.50175,53.554,569.02,-1.1261,0.37536,-1.1086,-1.5015,-1.7926e-08,-0.55429,0,0,0.11111,-0,-6.5233e-17,0.66667
0.014555,0.89052,0.131,0.58578,63.117,646.44,-0.20462,0.068204,-0.7821,-0.27283,-5.4751e-06,-0.39105,0,0,0.11111,-0,-0,0.66667
0.30404,0.056843,2.7363,-0.66474,-65.072,370.99,4.8505,-1.6168,-0.42687,6.4674,-2.4869e-12,-0.21343,0,0,0.11111,-2.6316e-16,0,0.66667
0.12829,0.83822,1.1546,0.50733,53.729,535.23,-1.562,0.52067,-1.085,-2.0827,-5.8474e-09,-0.54251,0,0,0.11111,1.9737e-16,0,0.66667
0.25704,0.59827,2.3134,0.1474,14.785,413.15,-0.90933,0.30311,-1.9209,-1.2124,1.6696e-11,-0.96045,0,0,0.11111,-0,-0,0.66667
0.50233,0.45725,4.521,-0.064124,-5.1407,207.16,0.77308,-0.25769,-1.986,1.0308,4.5131e-13,-0.99299,0,0,0.11111,-0,-0,0.66667
0.56141,0.43258,5.0527,-0.10113,-7.4215,165.25,1.3626,-0.4542,-1.9666,1.8168,1.1643e-12,-0.98328,0,0,0.11111,-2.6316e-16,0,0.66667
0.98057,0.62685,8.8251,0.19027,0.68708,0.75455,-4.4778,1.4926,-1.8716,-5.9703,-1.0678e-07,-0.93579,0,0,0.11111,-4.2106e-15,0,0.66667
0.42958,0.18921,3.8662,-0.46619,-40.891,263.78,4.8064,-1.6021,-1.2258,6.4085,-4.0989e-13,-0.61292,0,0,0.11111,1.0527e-15,0,0.66667
0.67931,0.31843,6.1138,-0.27236,-15.703,93.569,4.4404,-1.4801,-1.7342,5.9205,1.414e-12,-0.86708,0,0,0.11111,-0,-0,0.66667
0.88941,0.93667,8.0047,0.655,14.69,14.385,-13.982,4.6606,-0.47803,-18.642,-1.5262e-07,-0.23901,0,0,0.11111,1.0527e-15,0,0.66667
0.15189,0.8952,1.367,0.5928,62.416,512.52,-2.161,0.72033,-0.7492,-2.8813,8.7824e-09,-0.3746,0,0,0.11111,-0,-0,0.66667
0.09317,0.76162,0.83853,0.39243,41.848,569.32,-0.87749,0.2925,-1.4554,-1.17,-3.3976e-08,-0.72772,0,0,0.11111,-0,-0,0.66667
0.29675,0.39727,2.6707,-0.15409,-15.09,377.02,1.0974,-0.36581,-1.9195,1.4633,-2.8528e-12,-0.95975,0,0,0.11111,-2.6316e-16,0,0.66667
0.12968,0.40991,1.1671,-0.13513,-14.272,533.77,0.42056,-0.14019,-1.9344,0.56075,4.858e-09,-0.96719,0,0,0.11111,-0,-0,0.66667
0.16102,0.81612,1.4492,0.47418,49.718,503.68,-1.8325,0.61084,-1.1998,-2.4434,-7.711e-10,-0.59989,0,0,0.11111,5.2633e-16,0,0.66667
0.34358,0.97471,3.0922,0.71206,67.783,336.25,-5.8716,1.9572,-0.20143,-7.8288,6.2217e-13,-0.10071,0,0,0.11111,-0,-0,0.66667
0.31134,0.46702,2.802,-0.049475,-4.7967,363.94,0.36968,-0.12323,-1.9947,0.49291,5.6405e-13,-0.99733,0,0,0.11111,7.237e-16,0,0.66667
0.76235,0.29486,6.8612,-0.30771,-13.769,53.864,5.6301,-1.8767,-1.6628,7.5067,2.7682e-11,-0.83141,0,0,0.11111,-0,-0,0.66667
0.94892,0.56358,8.5403,0.095363,0.97062,3.1791,-2.1718,0.72393,-1.9678,-2.8957,-6.0086e-08,-0.98389,0,0,0.11111,-0,-0,0.66667
0.58072,0.58003,5.2265,0.12005,8.5247,152.37,-1.6731,0.55772,-1.949,-2.2309,1.8912e-12,-0.97448,0,0,0.11111,1.0527e-15,0,0.66667
0.98347,0.50288,8.8512,0.0043156,0.012759,0.4749,-0.10186,0.033959,-2.0035,-0.13581,6.8139e-06,-1.0017,0,0,0.11111,-0,-0,0.66667
0.95183,0.40946,8.5665,-0.1358,-1.3023,2.9036,3.1023,-1.0341,-1.9373,4.1364,8.0652e-08,-0.96866,0,0,0.11111,-0,-0,0.66667
0.25764,0.23644,2.3188,-0.39533,-39.695,412.74,2.4445,-0.81485,-1.4416,3.2594,-1.8901e-11,-0.72078,0,0,0.11111,5.2633e-16,0,0.66667
0.30135,0.78665,2.7122,0.42998,42.052,373.08,-3.1098,1.0366,-1.3418,-4.1465,4.4844e-12,-0.6709,0,0,0.11111,-0,-0,0.66667
0.84189,0.8618,7.577,0.5427,16.918,26.025,-10.966,3.6552,-0.9539,-14.621,3.0429e-10,-0.47695,0,0,0.11111,-0,-0,0.66667
0.58489,0.39145,5.264,-0.16282,-11.479,149.67,2.2856,-0.76186,-1.9031,3.0474,1.3471e-12,-0.95155,0,0,0.11111,-0,-0,0.66667
0.17505,0.14134,1.5755,-0.53799,-56.17,490.31,2.2602,-0.75341,-0.97046,3.0136,5.0267e-10,-0.48523,0,0,0.11111,-0,-0,0.66667
0.052125,0.49578,0.46913,-0.0063334,-0.67845,609.47,0.0079231,-0.0026412,-1.9987,0.010564,-2.7979e-07,-0.99935,0,0,0.11111,1.3158e-16,0,0.66667
0.54514,0.32836,4.9062,-0.25746,-19.41,176.56,3.3684,-1.1228,-1.7655,4.4912,2.1347e-12,-0.88277,0,0,0.11111,-0,-0,0.66667
0.14795,0.34725,1.3315,-0.22912,-24.082,516.14,0.81354,-0.27118,-1.8116,1.0847,3.104e-09,-0.90582,0,0,0.11111,-0,-0,0.66667
0.77243,0.82979,6.9519,0.49468,21.386,50.176,-9.1705,3.0568,-1.1273,-12.227,7.3097e-12,-0.56365,0,0,0.11111,-0,-0,0.66667
0.60364,0.78353,5.4328,0.42529,29.027,138.02,-6.1613,2.0538,-1.3558,-8.2151,9.3481e-13,-0.67792,0,0,0.11111,-0,-0,0.66667
0.2545,0.086973,2.2905,-0.61954,-62.462,415.87,3.7841,-1.2614,-0.63424,5.0455,4.0412e-14,-0.31712,0,0,0.11111,-0,-0,0.66667
0.0097104,0.56805,0.087394,0.10207,10.964,651.19,-0.023788,0.0079289,-1.9613,-0.031717,-5.2876e-07,-0.98064,0,0,0.11111,-0,-0,0.66667
0.29272,0.16565,2.6345,-0.50153,-49.362,380.92,3.5233,-1.1744,-1.1046,4.6978,1.8232e-12,-0.55231,0,0,0.11111,-0,-0,0.66667
0.61384,0.18713,5.5245,-0.46931,-31.421,131.75,6.9138,-2.3046,-1.217,9.2185,-6.4082e-13,-0.60849,0,0,0.11111,-6.5791e-17,0,0.66667
0.19308,0.60797,1.7378,0.16195,16.749,472.96,-0.7505,0.25017,-1.9045,-1.0007,-1.0411e-10,-0.95226,0,0,0.11111,-0,-0,0.66667
0.29108,0.9694,2.6197,0.7041,69.55,382.67,-4.9188,1.6396,-0.23658,-6.5584,-2.8462e-12,-0.11829,0,0,0.11111,-0,-0,0.66667
0.98264,0.34097,8.8438,-0.23854,-0.76148,0.73614,5.6256,-1.8752,-1.8001,7.5008,8.4242e-08,-0.90003,0,0,0.11111,-7.8949e-16,0,0.66667
0.77969,0.5394,7.0172,0.059102,2.4684,46.532,-1.1059,0.36865,-1.9894,-1.4746,5.8702e-12,-0.99471,0,0,0.11111,-0,-0,0.66667
0.23048,0.27843,2.0743,-0.33235,-33.832,437.86,1.8384,-0.61279,-1.6073,2.4512,-3.0825e-11,-0.80365,0,0,0.11111,6.5791e-17,0,0.66667
0.27348,0.64063,2.4613,0.21095,20.965,398.12,-1.3846,0.46152,-1.839,-1.8461,9.7061e-12,-0.9195,0,0,0.11111,5.2633e-16,0,0.66667
0.68583,0.59511,6.1725,0.14266,8.08,89.952,-2.3482,0.78273,-1.9304,-3.1309,1.9273e-13,-0.96519,0,0,0.11111,-2.1053e-15,0,0.66667
0.97299,0.56159,8.7569,0.092385,0.47862,1.0802,-2.1573,0.71911,-1.9698,-2.8765,-4.9412e-07,-0.98489,0,0,0.11111,3.0264e-15,0,0.66667
0.36782,0.57037,3.3104,0.10556,9.7976,314.68,-0.93185,0.31062,-1.9581,-1.2425,4.1808e-12,-0.97904,0,0,0.11111,-0,-0,0.66667
0.02374,0.36914,0.21366,-0.19628,-21.08,637.38,0.11183,-0.037278,-1.8609,0.14911,-2.1142e-07,-0.93046,0,0,0.11111,-0,-0,0.66667
0.81142,0.74186,7.3028,0.36279,13.222,35.226,-7.065,2.355,-1.5345,-9.42,2.1161e-10,-0.76727,0,0,0.11111,-1.0527e-15,0,0.66667
0.45963,0.17044,4.1366,-0.49434,-41.947,240.04,5.4531,-1.8177,-1.1286,7.2708,2.6987e-12,-0.56428,0,0,0.11111,-1.0527e-15,0,0.66667
0.58271,0.16764,5.2444,-0.49854,-35.398,151.61,6.9721,-2.324,-1.1148,9.2961,2.3022e-12,-0.55739,0,0,0.11111,-0,-0,0.66667
0.55146,0.5329,4.9632,0.049349,3.6802,172.04,-0.65314,0.21771,-1.9911,-0.87085,-2.2545e-12,-0.99553,0,0,0.11111,2.1053e-15,0,0.66667
0.63102,0.039716,5.6792,-0.69043,-44.813,121.97,10.456,-3.4854,-0.30305,13.942,3.9977e-12,-0.15153,0,0,0.11111,-2.1053e-15,0,0.66667
0.72115,0.65868,6.4903,0.23803,12.213,72.276,-4.1196,1.3732,-1.8002,-5.4928,-7.5295e-12,-0.90009,0,0,0.11111,-0,-0,0.66667
0.37326,0.32717,3.3594,-0.25924,-23.964,310.13,2.3224,-0.77412,-1.7623,3.0965,9.388e-13,-0.88114,0,0,0.11111,-0,-0,0.66667
0.86276,0.27615,7.7648,-0.33578,-9.1143,19.609,6.9527,-2.3176,-1.5992,9.2703,-5.6111e-09,-0.79962,0,0,0.11111,-5.2633e-16,0,0.66667
0.044935,0.49823,0.40442,-0.0026499,-0.28406,616.53,0.0028577,-0.0009513,-2.0023,0.0038109,1.8924e-06,-1.0011,0,0,0.11111,1.6448e-17,0,0.66667
0.63268,0.76952,5.6942,0.40429,26.018,120.18,-6.1388,2.0463,-1.4162,-8.1851,3.8414e-13,-0.7081,0,0,0.11111,-0,-0,0.66667
0.32943,0.69593,2.9649,0.29389,28.151,348.04,-2.3236,0.77453,-1.6951,-3.0981,7.3275e-13,-0.84753,0,0,0.11111,-0,-0,0.66667
0.5372,0.78836,4.8348,0.43254,33.065,182.37,-5.5767,1.8589,-1.3329,-7.4356,-1.0196e-12,-0.66645,0,0,0.11111,-1.0527e-15,0,0.66667
0.25122,0.80612,2.261,0.45918,46.295,418.71,-2.7686,0.92287,-1.2528,-3.6915,1.3611e-11,-0.62641,0,0,0.11111,-1.3158e-16,0,0.66667
0.30016,0.31266,2.7014,-0.28101,-27.474,374.03,2.0243,-0.67478,-1.7204,2.6991,-6.4539e-12,-0.86018,0,0,0.11111,1.0527e-15,0,0.66667
0.68492,0.93824,6.1643,0.65737,37.602,91.563,-10.806,3.6019,-0.46528,-14.408,-2.28e-12,-0.23264,0,0,0.11111,2.1053e-15,0,0.66667
0.30867,0.061581,2.778,-0.65763,-64.168,366.85,4.8717,-1.6239,-0.46277,6.4956,-1.3314e-12,-0.23138,0,0,0.11111,-7.566e-16,-1.3898e-16,0.66667
0.48557,0.87777,4.3701,0.56666,46.628,220.3,-6.6037,2.2012,-0.86142,-8.8049,1.4877e-13,-0.43071,0,0,0.11111,1.0527e-15,0,0.66667
0.72351,0.48597,6.5116,-0.021049,-1.071,70.983,0.3655,-0.12183,-1.9967,0.48733,2.3853e-12,-0.99834,0,0,0.11111,-1.0527e-15,0,0.66667
0.93934,0.28048,8.4541,-0.32929,-4.0284,4.6847,7.4235,-2.4745,-1.6171,9.898,-4.7879e-08,-0.80855,0,0,0.11111,6.5791e-17,0,0.66667
0.18872,0.52448,1.6985,0.036714,3.8025,477.08,-0.16629,0.05543,-1.9977,-0.22172,-1.3352e-10,-0.99884,0,0,0.11111,2.6316e-16,0,0.66667
0.52997,0.4294,4.7697,-0.1059,-8.164,187.11,1.3469,-0.44897,-1.9624,1.7959,2.3661e-12,-0.98118,0,0,0.11111,5.2633e-16,0,0.66667
0.74163,0.24219,6.6747,-0.38671,-18.628,63.034,6.8831,-2.2944,-1.466,9.1775,1.653e-11,-0.73299,0,0,0.11111,5.2633e-16,0,0.66667
0.53447,0.5874,4.8103,0.1311,10.04,183.93,-1.6817,0.56056,-1.939,-2.2423,1.7969e-12,-0.9695,0,0,0.11111,-2.6316e-16,0,0.66667
0.78526,0.015055,7.0673,-0.72742,-30.093,46.015,13.709,-4.5697,-0.11743,18.279,-1.1205e-10,-0.058713,0,0,0.11111,-0,-0,0.66667
0.74517,0.86547,6.7066,0.5482,26.181,61.902,-9.8041,3.268,-0.92993,-13.072,-2.3473e-11,-0.46497,0,0,0.11111,-1.0527e-15,0,0.66667
0.76862,0.49539,6.9176,-0.0069182,-0.30172,50.975,0.12762,-0.04254,-2.0004,0.17016,-2.6364e-11,-1.0002,0,0,0.11111,-5.2633e-16,0,0.66667
0.77155,0.9836,6.944,0.72541,31.679,51.401,-13.433,4.4775,-0.12664,-17.91,-6.7388e-11,-0.06332,0,0,0.11111,1.8274e-15,0,0.66667
0.88414,0.19785,7.9573,-0.45323,-10.517,14.747,9.6172,-3.2057,-1.2673,12.823,-1.1328e-08,-0.63363,0,0,0.11111,-0,-0,0.66667
0.45436,0.36201,4.0893,-0.20699,-17.628,243.79,2.2572,-0.7524,-1.8496,3.0096,-9.468e-13,-0.9248,0,0,0.11111,5.2633e-16,0,0.66667
0.45973,0.72499,4.1376,0.33749,28.588,239.72,-3.7237,1.2412,-1.593,-4.965,6.7057e-13,-0.79651,0,0,0.11111,1.0527e-15,0,0.66667
0.14676,0.58809,1.3209,0.13214,13.889,517.26,-0.46544,0.15515,-1.9361,-0.62059,-2.4691e-09,-0.96807,0,0,0.11111,1.9737e-16,0,0.66667
0.23564,0.030415,2.1208,-0.70438,-71.8,433.41,3.9835,-1.3278,-0.23931,5.3113,-5.6312e-11,-0.11966,0,0,0.11111,-0,-0,0.66667
0.26969,0.0085646,2.4272,-0.73715,-73.807,402.11,4.7713,-1.5904,-0.067028,6.3617,3.9266e-12,-0.033514,0,0,0.11111,-0,-0,0.66667
0.73747,0.54593,6.6372,0.068902,3.3545,64.492,-1.2195,0.4065,-1.9828,-1.626,-4.0729e-12,-0.99138,0,0,0.11111,-1.0527e-15,0,0.66667
0.15702,0.43756,1.4132,-0.093663,-9.8124,507.38,0.35297,-0.11766,-1.9731,0.47062,2.1033e-10,-0.98655,0,0,0.11111,5.2633e-16,0,0.66667
0.72315,0.84583,6.5084,0.51875,26.569,71.932,-9.0032,3.0011,-1.043,-12.004,-1.8988e-11,-0.52149,0,0,0.11111,-0,-0,0.66667
0.59594,0.15424,5.3635,-0.51863,-35.962,143.11,7.4178,-2.4726,-1.0456,9.8904,4.805e-13,-0.52279,0,0,0.11111,-1.3158e-16,0,0.66667
0.9303,0.58654,8.3727,0.12982,1.8129,5.5642,-2.8984,0.96615,-1.9378,-3.8646,9.7406e-09,-0.96892,0,0,0.11111,-1.579e-15,0,0.66667
0.72528,0.87418,6.5275,0.56127,28.587,71.059,-9.7699,3.2566,-0.87885,-13.026,1.856e-11,-0.43942,0,0,0.11111,-3.9475e-16,0,0.66667
0.69888,0.4145,6.2899,-0.12825,-7.0134,83.175,2.1512,-0.71707,-1.9405,2.8683,2.206e-12,-0.97025,0,0,0.11111,-0,-0,0.66667
0.075963,0.58761,0.68366,0.13141,14.036,586.09,-0.23957,0.079858,-1.9399,-0.31943,-7.2023e-09,-0.96996,0,0,0.11111,6.5791e-17,0,0.66667
0.50651,0.51371,4.5586,0.020562,1.639,204.07,-0.24996,0.083319,-1.9959,-0.33327,1.7068e-12,-0.99797,0,0,0.11111,-0,-0,0.66667
0.76296,0.79402,6.8667,0.44103,19.736,53.914,-8.0758,2.6919,-1.3086,-10.768,-2.2153e-11,-0.65428,0,0,0.11111,-0,-0,0.66667
0.29181,0.026241,2.6263,-0.71064,-70.171,382.03,4.9769,-1.659,-0.20326,6.6358,2.5198e-12,-0.10163,0,0,0.11111,-2.6316e-16,0,0.66667
0.49858,0.83079,4.4872,0.49618,40.104,210.42,-5.9373,1.9791,-1.1263,-7.9163,-6.728e-13,-0.56316,0,0,0.11111,-0,-0,0.66667
0.30177,0.7986,2.7159,0.44789,43.8,372.73,-3.2438,1.0813,-1.2849,-4.3251,1.372e-12,-0.64245,0,0,0.11111,1.6896e-16,0,0.66667
0.4502,0.77404,4.0518,0.41105,35.228,247.28,-4.4413,1.4804,-1.3995,-5.9218,2.4514e-13,-0.69977,0,0,0.11111,7.8949e-16,0,0.66667
0.24377,0.95846,2.1939,0.68769,69.793,425.85,-4.0232,1.3411,-0.31624,-5.3643,-4.3846e-11,-0.15812,0,0,0.11111,2.6316e-16,0,0.66667
0.5657,0.12472,5.0913,-0.56292,-41.197,163.05,7.6426,-2.5475,-0.8745,10.19,3.4697e-12,-0.43725,0,0,0.11111,2.7961e-16,0,0.66667
0.94963,0.34226,8.5467,-0.23662,-2.3851,3.2793,5.3928,-1.7976,-1.8016,7.1904,5.8724e-08,-0.90079,0,0,0.11111,-2.6316e-15,0,0.66667
0.2179,0.39203,1.9611,-0.16195,-16.57,449.55,0.84693,-0.28231,-1.9092,1.1292,3.3972e-12,-0.95461,0,0,0.11111,-0,-0,0.66667
0.4385,0.10384,3.9465,-0.59423,-51.708,256.87,6.2537,-2.0846,-0.74694,8.3383,2.1632e-12,-0.37347,0,0,0.11111,-0,-0,0.66667
0.76894,0.080707,6.9205,-0.62894,-27.654,52.059,11.607,-3.8689,-0.59301,15.476,-1.5844e-10,-0.2965,0,0,0.11111,-0,-0,0.66667
0.14093,0.63588,1.2684,0.20383,21.466,522.9,-0.68942,0.22981,-1.8558,-0.91923,-4.3556e-09,-0.92788,0,0,0.11111,-0,-0,0.66667
0.9131,0.24378,8.2179,-0.38434,-6.7351,8.7743,8.4225,-2.8075,-1.4727,11.23,-3.7903e-08,-0.73637,0,0,0.11111,-0,-0,0.66667
0.39416,0.29986,3.5474,-0.30021,-27.238,292.58,2.8399,-0.94664,-1.6788,3.7865,2.556e-12,-0.83942,0,0,0.11111,-0,-0,0.66667
0.32525,0.83584,2.9272,0.50377,48.49,351.94,-3.9324,1.3108,-1.098,-5.2432,-1.4693e-12,-0.54898,0,0,0.11111,-2.6316e-16,0,0.66667
0.57673,0.40088,5.1906,-0.14868,-10.633,155.02,2.0579,-0.68596,-1.9238,2.7438,7.1188e-13,-0.96191,0,0,0.11111,-0,-0,0.66667
0.24807,0.98425,2.2326,0.72637,73.594,421.93,-4.3246,1.4415,-0.12502,-5.7661,-3.6469e-11,-0.062509,0,0,0.11111,-0,1.3157e-16,0.66667
0.81192,0.36376,7.3073,-0.20436,-7.4111,34.761,3.9823,-1.3274,-1.8545,5.3097,-2.1485e-10,-0.92726,0,0,0.11111,-0,-0,0.66667
0.88291,0.59285,7.9461,0.13928,3.2379,14.368,-2.9512,0.98373,-1.9298,-3.9349,1.2179e-08,-0.96489,0,0,0.11111,-1.0527e-15,0,0.66667
0.83441,0.64376,7.5097,0.21564,6.9588,27.447,-4.3184,1.4395,-1.8322,-5.7578,1.1252e-09,-0.91611,0,0,0.11111,-0,-0,0.66667
0.35124,0.25397,3.1611,-0.36904,-34.776,329.1,3.1109,-1.037,-1.514,4.1479,3.2085e-13,-0.75698,0,0,0.11111,-0,-0,0.66667
0.14604,0.26902,1.3144,-0.34647,-36.462,518.01,1.2144,-0.4048,-1.5711,1.6192,3.4559e-09,-0.78556,0,0,0.11111,-0,-0,0.66667
0.60481,0.18451,5.4433,-0.47324,-32.248,137.39,6.8692,-2.2897,-1.2032,9.1589,1.1382e-12,-0.6016,0,0,0.11111,2.6316e-16,0,0.66667
0.9963,0.96892,8.9667,0.70338,0.51113,2.0321,-16.819,5.6062,-0.24172,-22.425,-1.0131e-05,-0.12086,0,0,0.11111,-0,-0,0.66667
0.80367,0.81149,7.233,0.46724,17.702,38.219,-9.0121,3.004,-1.2226,-12.016,-2.0637e-10,-0.61132,0,0,0.11111,-3.2895e-16,0,0.66667
0.74154,0.58003,6.6739,0.12004,5.7671,62.673,-2.1363,0.71211,-1.9461,-2.8484,-9.1886e-12,-0.97304,0,0,0.11111,-0,-0,0.66667
0.38666,0.13967,3.48,-0.54049,-49.494,299.17,5.0157,-1.6719,-0.96015,6.6876,6.0885e-13,-0.48007,0,0,0.11111,-0,-0,0.66667
0.40617,0.50856,3.6555,0.01284,1.1505,282.48,-0.12517,0.041723,-2.0035,-0.16689,-4.0695e-12,-1.0017,0,0,0.11111,2.1053e-15,0,0.66667
0.29465,0.0027351,2.6518,-0.7459,-73.558,379.54,5.2746,-1.7582,-0.023584,7.0328,1.3554e-12,-0.011792,0,0,0.11111,-2.1053e-15,0,0.66667
0.29924,0.72252,2.6931,0.33377,32.664,374.89,-2.3971,0.79902,-1.6053,-3.1961,3.4832e-12,-0.80266,0,0,0.11111,-0,-0,0.66667
0.65307,0.7729,5.8776,0.40934,25.186,108.32,-6.4159,2.1386,-1.4041,-8.5545,-1.9789e-12,-0.70207,0,0,0.11111,1.0527e-15,0,0.66667
0.042617,0.90375,0.38355,0.60563,65.167,618.87,-0.61945,0.20648,-0.69566,-0.82593,-5.0366e-06,-0.34783,0,0,0.11111,6.5791e-17,0,0.66667
0.60103,0.23314,5.4093,-0.40028,-27.447,139.61,5.774,-1.9247,-1.4276,7.6987,1.2723e-12,-0.71379,0,0,0.11111,-1.0527e-15,0,0.66667
0.45501,0.80477,4.0951,0.45715,38.983,243.58,-4.9922,1.6641,-1.2584,-6.6562,6.2572e-13,-0.6292,0,0,0.11111,-5.2633e-16,0,0.66667
0.38402,0.73484,3.4562,0.35227,32.274,301.12,-3.2467,1.0822,-1.5562,-4.3289,-9.4413e-13,-0.77809,0,0,0.11111,-0,-0,0.66667
0.72104,0.75542,6.4894,0.38312,19.7,72.586,-6.63,2.21,-1.4794,-8.84,-8.9648e-12,-0.73968,0,0,0.11111,-0,-0,0.66667
0.090843,0.66278,0.81759,0.24417,26.025,571.56,-0.53234,0.17745,-1.7884,-0.70978,-3.3558e-08,-0.89422,0,0,0.11111,-2.6316e-16,0,0.66667
0.24894,0.2326,2.2405,-0.4011,-40.467,420.77,2.3964,-0.79879,-1.4302,3.1952,-2.2993e-11,-0.71508,0,0,0.11111,-0,-0,0.66667
0.16059,0.26301,1.4453,-0.35548,-37.241,504.03,1.3701,-0.45669,-1.5493,1.8268,1.489e-09,-0.77464,0,0,0.11111,-2.6316e-16,0,0.66667
0.67252,0.43446,6.0527,-0.098317,-5.7594,97.062,1.5869,-0.52897,-1.9695,2.1159,7.5662e-13,-0.98476,0,0,0.11111,-0,-0,0.66667
0.19789,0.31044,1.781,-0.28435,-29.365,468.45,1.3505,-0.45016,-1.7118,1.8006,1.0911e-10,-0.85588,0,0,0.11111,-3.6185e-16,0,0.66667
0.47419,0.44472,4.2677,-0.082925,-6.8943,228.35,0.94373,-0.31458,-1.9739,1.2583,-1.4345e-12,-0.98694,0,0,0.11111,-0,-0,0.66667
0.95248,0.16332,8.5723,-0.50502,-4.8996,3.7378,11.544,-3.8482,-1.0965,15.393,-4.4474e-07,-0.54823,0,0,0.11111,2.1053e-15,0,0.66667
0.79059,0.82106,7.1153,0.4816,19.338,43.052,-9.1379,3.046,-1.1732,-12.184,-2.9043e-13,-0.58659,0,0,0.11111,-0,-0,0.66667
0.6679,0.30867,6.0111,-0.287,-17.026,99.79,4.6005,-1.5335,-1.7069,6.134,1.1653e-12,-0.85346,0,0,0.11111,2.6316e-16,0,0.66667
0.85654,0.90607,7.7088,0.60911,17.4,22.149,-12.521,4.1738,-0.68243,-16.695,1.827e-09,-0.34122,0,0,0.11111,1.4961e-15,-1.3007e-16,0.66667
0.28897,0.98897,2.6008,0.73346,72.58,384.62,-5.0868,1.6956,-0.084622,-6.7824,5.8118e-12,-0.042311,0,0,0.11111,-7.8949e-16,0,0.66667
0.77802,0.63128,7.0022,0.19692,8.2869,47.303,-3.6769,1.2256,-1.8622,-4.9026,-1.2952e-11,-0.93112,0,0,0.11111,2.1053e-15,0,0.66667
0.019068,0.51385,0.17161,0.02077,2.2303,641.97,-0.0095048,0.0031678,-1.9978,-0.012673,-7.324e-07,-0.99889,0,0,0.11111,-0,-0,0.66667
0.87353,0.51688,7.8618,0.025323,0.63326,16.506,-0.5309,0.17697,-1.9993,-0.70786,4.6859e-10,-0.99966,0,0,0.11111,-0,-0,0.66667
0.24772,0.057296,2.2295,-0.66406,-67.233,422.17,3.948,-1.316,-0.4334,5.264,2.5993e-11,-0.2167,0,0,0.11111,-1.3158e-16,0,0.66667
0.12308,0.25167,1.1077,-0.37249,-39.456,540.22,1.1003,-0.36676,-1.509,1.4671,1.0583e-08,-0.75451,0,0,0.11111,-0,-0,0.66667
0.12635,0.28386,1.1372,-0.3242,-34.301,537.03,0.98312,-0.32771,-1.6292,1.3108,9.777e-09,-0.8146,0,0,0.11111,-0,-0,0.66667
0.58781,0.20525,5.2903,-0.44212,-31.083,148.17,6.2371,-2.079,-1.3026,8.3162,1.8434e-12,-0.65132,0,0,0.11111,-0,-0,0.66667
0.89189,0.26146,8.027,-0.35781,-7.7425,12.786,7.659,-2.553,-1.5468,10.212,-2.3118e-08,-0.77339,0,0,0.11111,-2.1053e-15,0,0.66667
0.092472,0.81384,0.83225,0.47077,50.241,570.03,-1.0448,0.34826,-1.2153,-1.393,-2.7961e-08,-0.60764,0,0,0.11111,-0,-0,0.66667
0.48349,0.19925,4.3514,-0.45113,-37.164,221.65,5.2347,-1.7449,-1.2789,6.9796,-1.1591e-13,-0.63945,0,0,0.11111,-0,-0,0.66667
0.88532,0.85798,7.9679,0.53698,12.386,14.779,-11.409,3.8032,-0.9727,-15.213,7.6425e-09,-0.48635,0,0,0.11111,-0,-0,0.66667
0.95716,0.88716,8.6144,0.58073,5.1233,3.596,-13.34,4.4468,-0.79975,-17.787,3.1632e-06,-0.39987,0,0,0.11111,-0,-0,0.66667
0.99077,0.98505,8.917,0.72757,1.4183,2.298,-17.3,5.7669,-0.11548,-23.067,4.4616e-05,-0.057742,0,0,0.11111,-2.1053e-15,0,0.66667
0.36192,0.079453,3.2573,-0.63082,-59.097,320.29,5.4793,-1.8264,-0.58537,7.3058,3.6442e-12,-0.29268,0,0,0.11111,-5.2633e-16,0,0.66667
0.58532,0.88982,5.2679,0.58474,41.382,150.13,-8.2142,2.7381,-0.78157,-10.952,1.9629e-13,-0.39079,0,0,0.11111,-0,-0,0.66667
0.38493,0.55988,3.4643,0.089824,8.2119,300.18,-0.82981,0.2766,-1.9702,-1.1064,6.1756e-13,-0.98511,0,0,0.11111,-6.5791e-16,0,0.66667
0.13587,0.62579,1.2228,0.18868,19.899,527.79,-0.61527,0.20509,-1.8732,-0.82035,-6.1171e-09,-0.9366,0,0,0.11111,-5.2633e-16,0,0.66667
0.76152,0.28575,6.8537,-0.32138,-14.428,54.239,5.8737,-1.9579,-1.6324,7.8316,2.6378e-11,-0.81618,0,0,0.11111,2.1053e-15,0,0.66667
0.22086,0.91893,1.9877,0.6284,64.447,447.1,-3.3309,1.1103,-0.59678,-4.4412,1.4134e-10,-0.29839,0,0,0.11111,-0,-0,0.66667
0.6968,0.81949,6.2712,0.47924,26.463,84.833,-8.0144,2.6715,-1.1814,-10.686,-2.5464e-12,-0.5907,0,0,0.11111,-0,-0,0.66667
0.80946,0.14408,7.2851,-0.53388,-19.726,36.4,10.372,-3.4572,-0.98635,13.829,7.2749e-11,-0.49318,0,0,0.11111,-0,-0,0.66667
0.27256,0.92771,2.453,0.64157,64.041,399.35,-4.1968,1.3989,-0.53405,-5.5957,8.554e-12,-0.26703,0,0,0.11111,-0,-0,0.66667
0.5085,0.79705,4.5765,0.44557,35.511,203.01,-5.4378,1.8126,-1.2914,-7.2504,-1.8243e-12,-0.64569,0,0,0.11111,-1.0527e-15,0,0.66667
0.42229,0.85988,3.8006,0.53982,47.752,269.79,-5.4711,1.8237,-0.96702,-7.2948,-1.1062e-12,-0.48351,0,0,0.11111,-0,-0,0.66667
0.054664,0.58636,0.49198,0.12953,13.874,606.98,-0.16994,0.056647,-1.938,-0.22659,2.5466e-08,-0.96902,0,0,0.11111,-6.5791e-17,0,0.66667
0.74161,0.59326,6.6745,0.13989,6.7204,62.661,-2.4899,0.82997,-1.9293,-3.3199,-1.4017e-11,-0.96464,0,0,0.11111,-1.0581e-15,0,0.66667
0.80872,0.17886,7.2785,-0.48171,-17.834,36.486,9.3497,-3.1166,-1.1743,12.466,-1.1439e-10,-0.58713,0,0,0.11111,-0,-0,0.66667
0.53813,0.90951,4.8432,0.61427,47.012,182.13,-7.9334,2.6445,-0.65679,-10.578,-1.14e-12,-0.3284,0,0,0.11111,-0,-0,0.66667
0.75933,0.96086,6.834,0.69129,31.551,56.303,-12.598,4.1994,-0.29875,-16.797,2.8935e-11,-0.14938,0,0,0.11111,5.2633e-16,0,0.66667
0.041085,0.10174,0.36977,-0.59739,-64.282,620.37,0.58906,-0.19635,-0.72919,0.78541,4.5663e-06,-0.36459,0,0,0.11111,1.3158e-16,0,0.66667
0.18226,0.92309,1.6403,0.63464,66.159,483.52,-2.7761,0.92535,-0.5659,-3.7014,-1.3189e-09,-0.28295,0,0,0.11111,-0,-0,0.66667
0.5671,0.98912,5.1039,0.73368,53.736,162.61,-9.9856,3.3285,-0.0846,-13.314,-2.4158e-12,-0.0423,0,0,0.11111,-0,-0,0.66667
0.62121,0.67436,5.5908,0.26155,17.212,126.86,-3.8994,1.2998,-1.7558,-5.1991,-5.5111e-13,-0.8779,0,0,0.11111,1.0527e-15,0,0.66667
0.78202,0.95959,7.0382,0.68938,28.859,47.095,-12.939,4.3129,-0.31313,-17.251,2.5642e-10,-0.15656,0,0,0.11111,-0,-0,0.66667
0.60149,0.78602,5.4134,0.42903,29.403,139.38,-6.1934,2.0645,-1.3436,-8.2579,5.2403e-13,-0.67179,0,0,0.11111,-0,-0,0.66667
0.56027,0.64982,5.0424,0.22473,16.533,166.12,-3.0218,1.0073,-1.8216,-4.029,1.4488e-12,-0.91081,0,0,0.11111,-1.9458e-16,0,0.66667
0.66962,0.97796,6.0266,0.71694,42.675,99.999,-11.522,3.8406,-0.17329,-15.363,2.1272e-12,-0.086645,0,0,0.11111,-2.1053e-15,1.0941e-16,0.66667
0.18539,0.29702,1.6685,-0.30447,-31.604,480.32,1.3547,-0.45157,-1.6711,1.8063,2.7125e-10,-0.83557,0,0,0.11111,2.6316e-16,0,0.66667
0.14813,0.40063,1.3332,-0.14906,-15.661,515.94,0.52992,-0.17664,-1.9189,0.70655,2.9256e-09,-0.95947,0,0,0.11111,-1.7545e-16,0,0.66667
0.2334,0.74877,2.1006,0.37315,37.941,435.16,-2.0902,0.69675,-1.5086,-2.787,3.7764e-11,-0.75432,0,0,0.11111,-1.3158e-16,0,0.66667
0.88661,0.57757,7.9795,0.11635,2.6221,13.519,-2.4759,0.82529,-1.9507,-3.3012,7.4554e-09,-0.97533,0,0,0.11111,-0,-0,0.66667
0.62684,0.65672,5.6416,0.23508,15.289,123.41,-3.5366,1.1789,-1.8062,-4.7155,1.1162e-12,-0.9031,0,0,0.11111,-2.1053e-15,0,0.66667
0.65717,0.14509,5.9146,-0.53236,-32.51,106.3,8.3965,-2.7988,-0.99482,11.195,1.0658e-14,-0.49741,0,0,0.11111,1.0527e-15,0,0.66667
0.3064,0.70785,2.7576,0.31177,30.36,368.46,-2.2927,0.76422,-1.6521,-3.0569,5.1217e-12,-0.82605,0,0,0.11111,-2.6316e-16,0,0.66667
0.25905,0.83032,2.3314,0.49548,49.758,411.54,-3.0805,1.0268,-1.1246,-4.1073,8.6953e-13,-0.56228,0,0,0.11111,-0,-0,0.66667
0.59709,0.85008,5.3738,0.52512,36.338,142.4,-7.525,2.5083,-1.0196,-10.033,3.3973e-13,-0.50978,0,0,0.11111,-0,-0,0.66667
0.21493,0.16032,1.9343,-0.50952,-52.326,452.54,2.6282,-0.87607,-1.0768,3.5043,-1.7794e-10,-0.53842,0,0,0.11111,5.2633e-16,0,0.66667
0.93549,0.81204,8.4194,0.46806,6.145,5.6003,-10.509,3.5029,-1.2235,-14.012,1.5788e-07,-0.61176,0,0,0.11111,-2.2369e-15,0,0.66667
0.80368,0.67108,7.2331,0.25662,9.6818,37.727,-4.9497,1.6499,-1.7632,-6.5996,1.0219e-10,-0.8816,0,0,0.11111,-0,-0,0.66667
0.077647,0.31879,0.69883,-0.27182,-29.042,584.46,0.50655,-0.16885,-1.7409,0.67539,5.1497e-08,-0.87047,0,0,0.11111,-0,-0,0.66667
0.17487,0.50876,1.5738,0.013146,1.3687,490.28,-0.055173,0.018391,-1.9995,-0.073563,-1.2092e-10,-0.99973,0,0,0.11111,-0,-0,0.66667
0.48717,0.46685,4.3845,-0.049732,-4.0675,218.48,0.58147,-0.19382,-1.9925,0.7753,3.549e-12,-0.99624,0,0,0.11111,-1.0527e-15,0,0.66667
0.26934,0.37478,2.424,-0.18783,-18.711,401.89,1.2142,-0.40472,-1.8753,1.6189,-5.3797e-12,-0.93763,0,0,0.11111,-5.51e-16,0,0.66667
0.2902,0.61015,2.6118,0.16523,16.25,382.93,-1.1508,0.3836,-1.9003,-1.5344,7.4976e-12,-0.95015,0,0,0.11111,-5.2633e-16,0,0.66667
0.96137,0.73957,8.6523,0.35936,2.7792,2.421,-8.2914,2.7638,-1.5383,-11.055,-1.1084e-07,-0.76914,0,0,0.11111,-0,-0,0.66667
0.34206,0.85788,3.0785,0.53682,51.04,337.27,-4.4069,1.469,-0.97668,-5.8759,-1.6254e-12,-0.48834,0,0,0.11111,-0,2.6893e-17,0.66667
0.8359,0.38975,7.5231,-0.16538,-5.2892,26.928,3.3177,-1.1059,-1.9,4.4236,-9.07e-10,-0.95,0,0,0.11111,-0,-0,0.66667
0.34459,0.88581,3.1013,0.57872,54.943,335.13,-4.7861,1.5954,-0.81184,-6.3815,6.8612e-13,-0.40592,0,0,0.11111,-1.0527e-15,0,0.66667
0.72145,0.95561,6.493,0.68341,35.324,73.315,-11.833,3.9443,-0.33949,-15.777,9.0683e-13,-0.16974,0,0,0.11111,-1.0527e-15,0,0.66667
0.18399,0.30215,1.6559,-0.29678,-30.821,481.65,1.3105,-0.43684,-1.6863,1.7474,2.993e-10,-0.84313,0,0,0.11111,-2.6316e-16,0,0.66667
0.68595,0.46095,6.1736,-0.058575,-3.3155,89.843,0.96431,-0.32144,-1.9897,1.2858,8.5554e-13,-0.99485,0,0,0.11111,-0,-0,0.66667
0.57425,0.40398,5.1683,-0.14402,-10.344,156.66,1.985,-0.66165,-1.9264,2.6466,6.6791e-13,-0.9632,0,0,0.11111,-3.5631e-16,0,0.66667
0.72788,0.25412,6.5509,-0.36881,-18.566,69.314,6.4428,-2.1476,-1.5147,8.5904,1.1179e-11,-0.75735,0,0,0.11111,-0,-0,0.66667
0.43689,0.28551,3.9321,-0.32173,-27.961,257.72,3.3735,-1.1245,-1.6357,4.498,-1.1366e-12,-0.81786,0,0,0.11111,-0,-0,0.66667
0.94886,0.7014,8.5398,0.3021,3.104,3.497,-6.8796,2.2932,-1.6741,-9.1728,-3.5111e-08,-0.83706,0,0,0.11111,-0,-0,0.66667
0.98993,0.48451,8.9094,-0.02324,-0.036733,0.2286,0.55216,-0.18405,-1.9959,0.73621,-3.5789e-06,-0.99793,0,0,0.11111,9.3299e-16,0,0.66667
0.37841,0.39853,3.4056,-0.1522,-13.999,305.71,1.3822,-0.46074,-1.9174,1.843,-1.9635e-12,-0.9587,0,0,0.11111,5.2633e-16,0,0.66667
0.75586,0.011683,6.8028,-0.73248,-33.891,57.954,13.288,-4.4292,-0.090122,17.717,-2.7069e-11,-0.045061,0,0,0.11111,-0,-0,0.66667
0.93393,0.78293,8.4053,0.42439,5.6884,5.6653,-9.5123,3.1708,-1.3602,-12.683,1.3653e-07,-0.68008,0,0,0.11111,-0,-0,0.66667
0.81266,0.43779,7.314,-0.09331,-3.3685,34.399,1.8199,-0.60664,-1.9742,2.4265,6.6308e-11,-0.98712,0,0,0.11111,-0,-0,0.66667
0.44965,0.018959,4.0469,-0.72156,-62.141,248.35,7.7868,-2.5956,-0.14814,10.382,-2.5095e-12,-0.07407,0,0,0.11111,-0,1.2559e-16,0.66667
0.0019673,0.20045,0.017706,-0.44933,-48.359,658.81,0.021214,-0.0070704,-1.2831,0.028286,1.6163e-06,-0.64157,0,0,0.11111,-0,-0,0.66667
0.94677,0.115,8.5209,-0.5775,-6.3263,4.6472,13.122,-4.3741,-0.81188,17.496,2.0248e-07,-0.40594,0,0,0.11111,-0,-0,0.66667
0.34939,0.57471,3.1445,0.11206,10.562,330.52,-0.9397,0.31323,-1.9532,-1.2529,1.3096e-12,-0.97659,0,0,0.11111,-0,-0,0.66667
0.037035,0.09806,0.33332,-0.60291,-64.901,624.35,0.53589,-0.17863,-0.70613,0.71453,3.3431e-06,-0.35307,0,0,0.11111,-0,-0,0.66667
0.24443,0.3046,2.1999,-0.2931,-29.618,424.86,1.7194,-0.57314,-1.6928,2.2926,-2.2739e-11,-0.84638,0,0,0.11111,2.6316e-16,0,0.66667
0.96294,0.67631,8.6665,0.26446,1.9426,2.0603,-6.1119,2.0373,-1.7491,-8.1492,-1.8349e-07,-0.87456,0,0,0.11111,1.0527e-15,0,0.66667
0.46377,0.11732,4.1739,-0.57402,-48.521,236.98,6.3891,-2.1297,-0.82701,8.5188,2.208e-12,-0.4135,0,0,0.11111,-0,-0,0.66667
0.12421,0.10987,1.1179,-0.5852,-62.093,539.22,1.7445,-0.58151,-0.78492,2.326,2.1846e-09,-0.39246,0,0,0.11111,-0,1.3145e-16,0.66667
0.66748,0.057237,6.0073,-0.66414,-39.687,100.98,10.639,-3.5464,-0.43094,14.186,8.0913e-13,-0.21547,0,0,0.11111,-5.2633e-16,0,0.66667
0.013877,0.98545,0.12489,0.72818,78.604,647.11,-0.2425,0.080816,-0.11603,-0.32334,-2.4143e-05,-0.058017,0,0,0.11111,1.6448e-17,-1.3096e-16,0.66667
0.79892,0.42357,7.1903,-0.11465,-4.4137,39.273,2.1983,-0.73277,-1.9541,2.9311,-6.875e-11,-0.97706,0,0,0.11111,-0,-0,0.66667
0.53493,0.28333,4.8144,-0.32501,-24.903,183.8,4.1726,-1.3909,-1.6248,5.5635,-1.2879e-12,-0.81239,0,0,0.11111,2.1053e-15,0,0.66667
0.85021,0.49177,7.6519,-0.012342,-0.36222,22.631,0.25184,-0.083947,-1.9973,0.33579,2.0681e-09,-0.99864,0,0,0.11111,-3.158e-15,0,0.66667
0.2292,0.39748,2.0628,-0.15379,-15.65,438.97,0.84595,-0.28198,-1.9142,1.1279,-2.7192e-11,-0.95711,0,0,0.11111,-0,-0,0.66667
0.090134,0.75312,0.8112,0.37968,40.507,572.28,-0.82132,0.27377,-1.4877,-1.0951,-3.4984e-08,-0.74384,0,0,0.11111,-2.6316e-16,0,0.66667
0.6928,0.87025,6.2352,0.55538,31.046,87.11,-9.2343,3.0781,-0.90206,-12.312,2.2649e-12,-0.45103,0,0,0.11111,-1.3158e-15,0,0.66667
0.81499,0.88573,7.3349,0.57859,20.846,34.668,-11.317,3.7724,-0.81018,-15.089,-3.2239e-10,-0.40509,0,0,0.11111,-0,-0,0.66667
0.63154,0.75341,5.6839,0.38012,24.514,120.81,-5.7615,1.9205,-1.4847,-7.682,-5.1159e-13,-0.74235,0,0,0.11111,-0,-0,0.66667
0.77283,0.25272,6.9554,-0.37091,-15.97,49.686,6.8797,-2.2932,-1.5093,9.1729,3.8178e-11,-0.75464,0,0,0.11111,-2.1053e-15,0,0.66667
0.63111,0.69567,5.68,0.2935,18.928,120.93,-4.4455,1.4818,-1.6916,-5.9274,9.2104e-13,-0.84582,0,0,0.11111,-0,-0,0.66667
0.89066,0.21171,8.0159,-0.43243,-9.4861,13.257,9.2436,-3.0812,-1.3394,12.325,-2.2253e-08,-0.6697,0,0,0.11111,5.2633e-16,0,0.66667
0.99276,0.68328,8.9348,0.27491,0.28956,0.44328,-6.5502,2.1834,-1.7295,-8.7336,3.882e-07,-0.86473,0,0,0.11111,-1.579e-15,0,0.66667
0.17377,0.15252,1.5639,-0.52122,-54.435,491.52,2.1737,-0.72458,-1.0361,2.8983,6.5209e-10,-0.51803,0,0,0.11111,-2.6316e-16,0,0.66667
0.54939,0.89922,4.9445,0.59883,45.027,174.25,-7.8958,2.6319,-0.72577,-10.528,-6.3904e-13,-0.36288,0,0,0.11111,-5.2633e-16,0,0.66667
0.11999,0.51846,1.0799,0.027697,2.9321,543.15,-0.079765,0.026588,-1.9954,-0.10635,1.5842e-09,-0.99771,0,0,0.11111,-2.6316e-16,0,0.66667
0.76715,0.62586,6.9043,0.18879,8.2868,51.69,-3.4759,1.1586,-1.8763,-4.6346,-6.247e-12,-0.93815,0,0,0.11111,-2.1053e-15,0,0.66667
0.22811,0.13594,2.053,-0.54608,-55.759,440.24,2.9896,-0.99653,-0.93735,3.9861,-1.6364e-10,-0.46868,0,0,0.11111,-0,-0,0.66667
0.11092,0.93622,0.99829,0.65434,69.708,552.15,-1.7419,0.58063,-0.48059,-2.3225,1.2452e-07,-0.24029,0,0,0.11111,-1.4803e-16,0,0.66667
0.96882,0.67706,8.7194,0.2656,1.6253,1.606,-6.1756,2.0585,-1.7531,-8.2341,-2.9083e-07,-0.87654,0,0,0.11111,-1.0527e-15,0,0.66667
0.44753,0.59294,4.0278,0.13941,11.962,249.12,-1.4973,0.4991,-1.9302,-1.9964,7.4074e-13,-0.9651,0,0,0.11111,-1.3135e-16,0,0.66667
0.82994,0.93803,7.4695,0.65705,21.994,30.118,-13.087,4.3625,-0.46773,-17.45,-1.475e-08,-0.23387,0,0,0.11111,-0,-0,0.66667
0.025977,0.7558,0.2338,0.38369,41.246,635.19,-0.23922,0.079739,-1.4752,-0.31896,9.4582e-07,-0.73758,0,0,0.11111,-0,-0,0.66667
0.090511,0.88705,0.8146,0.58058,62.053,571.98,-1.2612,0.42039,-0.80111,-1.6816,-4.1609e-08,-0.40055,0,0,0.11111,-0,-0,0.66667
0.81523,0.42493,7.337,-0.1126,-4.0146,33.539,2.2031,-0.73436,-1.955,2.9374,-1.0602e-10,-0.97751,0,0,0.11111,1.0527e-15,0,0.66667
0.90936,0.78987,8.1843,0.4348,7.9582,9.5869,-9.4895,3.1632,-1.3278,-12.653,2.492e-08,-0.66388,0,0,0.11111,-0,-0,0.66667
0.068241,0.54807,0.61417,0.072099,7.7087,593.65,-0.11808,0.03936,-1.9792,-0.15744,2.0581e-08,-0.98961,0,0,0.11111,-0,-0,0.66667
0.65027,0.57187,5.8525,0.1078,6.6579,109.51,-1.6824,0.56081,-1.9566,-2.2432,2.2048e-12,-0.97828,0,0,0.11111,-2.1053e-15,0,0.66667
0.55332,0.81868,4.9798,0.47802,35.654,171.26,-6.3478,2.1159,-1.1856,-8.4638,-2.0961e-13,-0.59281,0,0,0.11111,-0,-0,0.66667
0.20654,0.83462,1.8588,0.50193,51.734,460.42,-2.488,0.82935,-1.1039,-3.3174,4.1368e-11,-0.55193,0,0,0.11111,2.6316e-16,0,0.66667
0.4248,0.36788,3.8232,-0.19818,-17.434,267.33,2.0205,-0.6735,-1.8607,2.694,-2.0552e-12,-0.93034,0,0,0.11111,-2.6316e-16,0,0.66667
0.4726,0.24122,4.2534,-0.38816,-32.393,229.84,4.4027,-1.4676,-1.4635,5.8703,-1.6445e-12,-0.73177,0,0,0.11111,5.2633e-16,0,0.66667
0.011484,0.19768,0.10336,-0.45348,-48.801,649.45,0.12499,-0.041662,-1.2677,0.16665,5.3246e-07,-0.63386,0,0,0.11111,-0,-0,0.66667
0.54494,0.030193,4.9045,-0.70471,-53.459,177.63,9.2167,-3.0722,-0.2367,12.289,4.6185e-12,-0.11835,0,0,0.11111,-2.6316e-16,-1.7208e-17,0.66667
0.7824,0.56254,7.0416,0.093817,3.8759,45.487,-1.7617,0.58722,-1.9724,-2.3489,-4.9936e-11,-0.98621,0,0,0.11111,-0,-0,0.66667
0.91446,0.69653,8.2302,0.2948,5.0683,8.3172,-6.4701,2.1567,-1.6885,-8.6267,4.0118e-08,-0.84427,0,0,0.11111,-0,-0,0.66667
0.046043,0.5624,0.41439,0.093599,10.033,615.44,-0.10343,0.034476,-1.973,-0.13791,-1.3691e-07,-0.98652,0,0,0.11111,7.0931e-17,0,0.66667
0.79178,0.84718,7.126,0.52077,20.826,42.732,-9.896,3.2987,-1.0348,-13.195,-5.0973e-11,-0.5174,0,0,0.11111,-0,-0,0.66667
0.43939,0.49438,3.9545,-0.0084251,-0.72932,255.55,0.088846,-0.029615,-2.0015,0.11846,-2.1194e-13,-1.0007,0,0,0.11111,-5.2633e-16,0,0.66667
0.70462,0.8257,6.3416,0.48855,26.403,80.895,-8.2618,2.7539,-1.1529,-11.016,-2.3368e-12,-0.57647,0,0,0.11111,-1.0527e-15,0,0.66667
0.60938,0.72096,5.4844,0.33144,22.347,134.25,-4.8473,1.6158,-1.6145,-6.4631,1.8363e-12,-0.80725,0,0,0.11111,-2.1053e-15,0,0.66667
0.91416,0.091372,8.2274,-0.61294,-10.758,9.4255,13.448,-4.4826,-0.66265,17.93,3.8279e-08,-0.33132,0,0,0.11111,-1.579e-15,0,0.66667
0.67954,0.21584,6.1159,-0.42624,-24.608,93.736,6.9516,-2.3172,-1.3524,9.2687,-4.6185e-14,-0.67619,0,0,0.11111,1.0527e-15,0,0.66667
0.20458,0.61786,1.8412,0.17679,18.197,462.09,-0.86803,0.28934,-1.891,-1.1574,-5.6007e-11,-0.94549,0,0,0.11111,-1.3158e-16,0,0.66667
0.98969,0.11041,8.9072,-0.58438,-1.1602,1.5862,13.881,-4.6269,-0.78367,18.508,-1.0245e-05,-0.39183,0,0,0.11111,-0,-0,0.66667
0.80836,0.96883,7.2752,0.70325,26.271,37.46,-13.643,4.5478,-0.24195,-18.191,-1.7466e-10,-0.12098,0,0,0.11111,-0,-0,0.66667
0.05115,0.84838,0.46035,0.52257,56.133,610.48,-0.64151,0.21384,-1.0285,-0.85535,-1.9459e-07,-0.51423,0,0,0.11111,-0,-0,0.66667
0.99025,0.55421,8.9122,0.081317,0.12361,0.24268,-1.9326,0.64419,-1.9745,-2.5768,-9.3756e-08,-0.98725,0,0,0.11111,1.0527e-15,0,0.66667
0.084374,0.42204,0.75936,-0.11695,-12.474,577.86,0.23682,-0.078938,-1.9489,0.31575,8.2798e-09,-0.97443,0,0,0.11111,-0,-0,0.66667
0.41597,0.6851,3.7438,0.27765,24.658,274.57,-2.7719,0.92397,-1.7248,-3.6959,-2.8644e-14,-0.86238,0,0,0.11111,7.8949e-16,0,0.66667
0.88805,0.48665,7.9924,-0.020019,-0.44532,13.156,0.42667,-0.14222,-1.9988,0.56889,-4.1525e-09,-0.9994,0,0,0.11111,-0,-0,0.66667
0.76211,0.85011,6.859,0.52516,23.619,54.518,-9.6056,3.2019,-1.0192,-12.808,-1.2507e-11,-0.50961,0,0,0.11111,-0,-0,0.66667
0.67305,0.223,6.0574,-0.4155,-24.378,97.214,6.7116,-2.2372,-1.3891,8.9488,1.0303e-12,-0.69454,0,0,0.11111,-0,-0,0.66667
0.53369,0.95804,4.8032,0.68706,53.003,185.46,-8.8003,2.9334,-0.32212,-11.734,-2.4292e-12,-0.16106,0,0,0.11111,5.2633e-16,0,0.66667
0.34698,0.67441,3.1228,0.26161,24.719,332.69,-2.1786,0.72619,-1.7562,-2.9048,8.2445e-13,-0.8781,0,0,0.11111,-5.2633e-16,0,0.66667
0.89994,0.24899,8.0995,-0.37652,-7.5659,11.192,8.1322,-2.7107,-1.4949,10.843,-3.2492e-08,-0.74746,0,0,0.11111,-0,-0,0.66667
0.81896,0.76853,7.3706,0.40279,14.158,32.776,-7.9169,2.639,-1.4206,-10.556,2.4759e-10,-0.71032,0,0,0.11111,-0,-0,0.66667
0.94589,0.56327,8.513,0.094906,1.0247,3.5183,-2.1545,0.71816,-1.9668,-2.8727,-1.2392e-07,-0.98339,0,0,0.11111,-4.2106e-15,0,0.66667
0.39956,0.6123,3.596,0.16845,15.195,288,-1.6154,0.53846,-1.8965,-2.1538,-7.162e-13,-0.94827,0,0,0.11111,-5.2633e-16,0,0.66667
0.23362,0.88896,2.1026,0.58343,59.437,435.14,-3.2713,1.0904,-0.79234,-4.3617,2.3096e-11,-0.39617,0,0,0.11111,-0,-0,0.66667
0.72322,0.45298,6.509,-0.070529,-3.5922,71.136,1.2242,-0.40806,-1.9808,1.6322,2.8918e-12,-0.99038,0,0,0.11111,1.0527e-15,0,0.66667
0.6891,0.71709,6.2019,0.32564,18.314,88.473,-5.3855,1.7952,-1.6257,-7.1806,-2.5238e-12,-0.81287,0,0,0.11111,-0,-0,0.66667
0.54337,0.36183,4.8903,-0.20725,-15.663,177.74,2.7027,-0.90091,-1.8466,3.6036,6.7679e-13,-0.92328,0,0,0.11111,-0,-0,0.66667
0.53711,0.91797,4.834,0.62695,48.067,182.88,-8.0817,2.6939,-0.60018,-10.776,-2.0721e-12,-0.30009,0,0,0.11111,-0,-0,0.66667
0.80969,0.85471,7.2872,0.53207,19.636,36.314,-10.339,3.4465,-0.99353,-13.786,-6.6469e-11,-0.49676,0,0,0.11111,-0,-0,0.66667
0.79958,0.93922,7.1963,0.65883,25.575,40.377,-12.643,4.2143,-0.4581,-16.857,-1.9156e-09,-0.22905,0,0,0.11111,-0,-0,0.66667
0.84777,0.23007,7.63,-0.40489,-12.132,23.877,8.2381,-2.746,-1.416,10.984,-1.9219e-09,-0.70802,0,0,0.11111,-2.1053e-15,0,0.66667
0.19036,0.017808,1.7133,-0.72329,-75.255,475.92,3.3045,-1.1015,-0.13984,4.406,1.2015e-10,-0.069922,0,0,0.11111,-0,-0,0.66667
0.20027,0.21397,1.8025,-0.42905,-44.311,466.28,2.0623,-0.68742,-1.3462,2.7497,6.9897e-11,-0.67309,0,0,0.11111,3.9475e-16,0,0.66667
0.77366,0.37533,6.963,-0.18701,-8.0057,49.031,3.4724,-1.1575,-1.8745,4.6298,5.2209e-12,-0.93727,0,0,0.11111,-2.1053e-15,0,0.66667
0.56553,0.59476,5.0898,0.14214,10.361,162.49,-1.9292,0.64308,-1.9294,-2.5723,-1.7449e-12,-0.96468,0,0,0.11111,2.1053e-15,0,0.66667
0.2689,0.094748,2.4201,-0.60788,-60.782,402.64,3.923,-1.3077,-0.68712,5.2307,3.8041e-12,-0.34356,0,0,0.11111,1.0527e-15,0,0.66667
0.47936,0.47423,4.3142,-0.038656,-3.193,224.4,0.44471,-0.14824,-1.9935,0.59295,-8.2326e-13,-0.99674,0,0,0.11111,-0,-0,0.66667
0.67466,0.39539,6.0719,-0.15692,-9.1457,95.94,2.5407,-0.84691,-1.9126,3.3877,2.7067e-13,-0.95629,0,0,0.11111,1.0527e-15,0,0.66667
0.68423,0.27147,6.1581,-0.34279,-19.531,91.065,5.6292,-1.8764,-1.5819,7.5056,2.5362e-12,-0.79095,0,0,0.11111,-5.2633e-16,0,0.66667
0.82139,0.41112,7.3925,-0.13332,-4.6087,31.497,2.6281,-0.87605,-1.935,3.5042,-4.3864e-10,-0.96749,0,0,0.11111,-0,-0,0.66667
0.36466,0.0047454,3.282,-0.74288,-69.554,318.16,6.5016,-2.1672,-0.036532,8.6689,-2.613e-12,-0.018266,0,0,0.11111,-0,-0,0.66667
0.67275,0.24439,6.0547,-0.38341,-22.502,97.307,6.1906,-2.0635,-1.4804,8.2541,1.9478e-12,-0.74022,0,0,0.11111,-1.0527e-15,0,0.66667
0.55308,0.35718,4.9777,-0.21423,-15.945,171.02,2.8437,-0.94789,-1.8344,3.7916,1.5368e-12,-0.91718,0,0,0.11111,-0,-0,0.66667
0.40642,0.13019,3.6577,-0.55471,-49.867,282.78,5.4106,-1.8035,-0.91025,7.2142,3.1126e-12,-0.45513,0,0,0.11111,-0,-0,0.66667
0.39796,0.34808,3.5816,-0.22788,-20.592,289.36,2.1765,-0.72548,-1.8135,2.9019,1.7362e-12,-0.90676,0,0,0.11111,-1.0527e-15,0,0.66667
0.61288,0.81187,5.5159,0.4678,31.378,132.34,-6.8809,2.2936,-1.2227,-9.1745,-4.774e-13,-0.61136,0,0,0.11111,9.8686e-17,0,0.66667
0.061349,0.072785,0.55215,-0.64082,-68.847,600.51,0.94354,-0.31451,-0.54212,1.2581,-9.9631e-07,-0.27106,0,0,0.11111,1.3158e-16,1.1621e-16,0.66667
0.7645,0.67763,6.8805,0.26644,11.822,52.895,-4.8887,1.6296,-1.7499,-6.5182,-2.4974e-11,-0.87494,0,0,0.11111,-0,-0,0.66667
0.23365,0.93904,2.1028,0.65856,67.154,435.2,-3.6929,1.231,-0.46197,-4.9239,1.0509e-10,-0.23099,0,0,0.11111,5.2633e-16,0,0.66667
0.16594,0.55642,1.4934,0.084633,8.84,498.83,-0.33705,0.11235,-1.9728,-0.44941,-9.3537e-10,-0.98639,0,0,0.11111,-3.3327e-17,0,0.66667
0.42348,0.15657,3.8114,-0.51515,-45.499,268.78,5.2357,-1.7452,-1.0595,6.981,1.3309e-12,-0.52974,0,0,0.11111,-0,-0,0.66667
0.46845,0.72071,4.216,0.33106,27.753,232.96,-3.722,1.2407,-1.6149,-4.9627,-1.219e-13,-0.80747,0,0,0.11111,-0,-0,0.66667
0.27444,0.64514,2.4699,0.21771,21.626,397.25,-1.434,0.47799,-1.829,-1.912,9.6325e-12,-0.91448,0,0,0.11111,-0,-0,0.66667
0.31013,0.37143,2.7912,-0.19285,-18.72,365.06,1.4354,-0.47847,-1.8692,1.9139,-7.1154e-13,-0.93461,0,0,0.11111,7.4973e-16,0,0.66667
0.67315,0.48338,6.0583,-0.024926,-1.4576,96.696,0.40269,-0.13423,-1.9996,0.53692,1.5254e-13,-0.99982,0,0,0.11111,-0,-0,0.66667
0.030054,0.92243,0.27049,0.63365,68.267,631.21,-0.45705,0.15236,-0.57437,-0.6094,9.9059e-06,-0.28719,0,0,0.11111,-0,-1.3141e-16,0.66667
0.65518,0.84641,5.8967,0.51961,31.871,107.39,-8.1706,2.7235,-1.0433,-10.894,-2.1414e-12,-0.52166,0,0,0.11111,2.1053e-15,1.5112e-16,0.66667
0.52145,0.99389,4.6931,0.74083,58.243,194.33,-9.2714,3.0905,-0.046898,-12.362,1.1733e-12,-0.023449,0,0,0.11111,-1.0527e-15,0,0.66667
0.47871,0.60007,4.3084,0.15011,12.413,224.93,-1.7246,0.57487,-1.9182,-2.2995,-1.0998e-12,-0.95911,0,0,0.11111,-0,-0,0.66667
0.72049,0.077973,6.4844,-0.63304,-32.772,73.582,10.946,-3.6488,-0.57636,14.595,1.1391e-11,-0.28818,0,0,0.11111,1.0527e-15,0,0.66667
0.68825,0.062768,6.1943,-0.65585,-37.189,89.808,10.833,-3.6111,-0.4749,14.444,-7.5229e-13,-0.23745,0,0,0.11111,2.1053e-15,0,0.66667
0.064811,0.85186,0.5833,0.52779,56.606,597.09,-0.82096,0.27365,-1.0105,-1.0946,-1.3683e-07,-0.50523,0,0,0.11111,-0,-0,0.66667
0.80024,0.17718,7.2021,-0.48423,-18.642,39.503,9.3,-3.1,-1.1659,12.4,5.1702e-11,-0.58293,0,0,0.11111,1.0527e-15,0,0.66667
0.039175,0.31591,0.35258,-0.27613,-29.637,622.2,0.25962,-0.08654,-1.7272,0.34616,-1.5426e-07,-0.86359,0,0,0.11111,1.3158e-16,0,0.66667
0.027013,0.73317,0.24311,0.34976,37.587,634.17,-0.22675,0.075584,-1.5637,-0.30233,7.0456e-07,-0.78184,0,0,0.11111,-0,-0,0.66667
0.52587,0.23344,4.7328,-0.39983,-31.074,190.36,5.0462,-1.6821,-1.4295,6.7283,2.2169e-12,-0.71473,0,0,0.11111,-1.0527e-15,0,0.66667
0.7348,0.49708,6.6132,-0.0043849,-0.21531,65.7,0.077328,-0.025776,-2.0042,0.1031,-4.6338e-12,-1.0021,0,0,0.11111,-0,-0,0.66667
0.50557,0.70884,4.5502,0.31326,25.034,204.95,-3.8011,1.267,-1.6491,-5.0681,6.9567e-13,-0.82454,0,0,0.11111,-5.2633e-16,0,0.66667
0.29367,0.9591,2.643,0.68866,67.898,380.32,-4.8537,1.6179,-0.31356,-6.4716,2.3581e-13,-0.15678,0,0,0.11111,-0,-1.1231e-16,0.66667
0.18618,0.37326,1.6756,-0.19011,-19.716,479.53,0.84947,-0.28316,-1.8746,1.1326,1.5695e-10,-0.93732,0,0,0.11111,-9.8686e-17,0,0.66667
0.66274,0.91465,5.9647,0.62198,37.556,103.45,-9.8931,3.2977,-0.62229,-13.191,-1.2879e-13,-0.31115,0,0,0.11111,-0,-0,0.66667
0.94213,0.57844,8.4791,0.11766,1.3613,3.9827,-2.6605,0.88682,-1.9491,-3.5473,-5.4421e-08,-0.97455,0,0,0.11111,-0,-0,0.66667
0.15878,0.65999,1.429,0.23998,25.139,505.73,-0.91448,0.30483,-1.7965,-1.2193,-1.7415e-09,-0.89824,0,0,0.11111,5.2633e-16,0,0.66667
0.27586,0.95722,2.4828,0.68583,68.368,396.41,-4.5407,1.5136,-0.32557,-6.0543,8.1668e-13,-0.16278,0,0,0.11111,-2.6316e-16,0,0.66667
0.99109,0.69236,8.9198,0.28855,0.40924,0.52049,-6.8634,2.2878,-1.7021,-9.1512,3.3252e-07,-0.85107,0,0,0.11111,-2.1053e-15,0,0.66667
0.83374,0.1849,7.5037,-0.47265,-15.397,28.244,9.4576,-3.1525,-1.2046,12.61,9.6545e-13,-0.60232,0,0,0.11111,1.3158e-15,0,0.66667
0.75016,0.47517,6.7514,-0.037248,-1.7374,58.811,0.67061,-0.22354,-1.9992,0.89415,1.5377e-14,-0.99961,0,0,0.11111,-0,-0,0.66667
0.042073,0.27303,0.37866,-0.34046,-36.547,619.36,0.34378,-0.11459,-1.5865,0.45838,-6.2997e-08,-0.79323,0,0,0.11111,3.2895e-17,0,0.66667
0.027017,0.59236,0.24315,0.13854,14.873,634.15,-0.089828,0.029943,-1.9318,-0.11977,2.1128e-09,-0.9659,0,0,0.11111,-0,-0,0.66667
0.48721,0.38564,4.3849,-0.17154,-14.034,218.5,2.0059,-0.66862,-1.8955,2.6745,-2.5824e-13,-0.94773,0,0,0.11111,-0,-0,0.66667
0.032196,0.75526,0.28976,0.38289,41.144,629.07,-0.29586,0.098621,-1.4818,-0.39448,4.8607e-07,-0.74091,0,0,0.11111,-0,-0,0.66667
0.10153,0.068736,0.91373,-0.6469,-69.048,561.28,1.5762,-0.52541,-0.50994,2.1016,-2.538e-07,-0.25497,0,0,0.11111,-0,-0,0.66667
0.56329,0.20885,5.0696,-0.43673,-32.033,164.39,5.9042,-1.9681,-1.3246,7.8723,1.4935e-12,-0.66231,0,0,0.11111,5.2633e-16,0,0.66667
0.4278,0.23171,3.8502,-0.40244,-35.342,265.11,4.132,-1.3773,-1.4218,5.5093,1.2665e-12,-0.71091,0,0,0.11111,-0,-0,0.66667
0.79087,0.71861,7.1178,0.32791,13.109,42.554,-6.224,2.0747,-1.617,-8.2986,3.3595e-12,-0.80848,0,0,0.11111,4.7698e-16,0,0.66667
0.27399,0.50562,2.4659,0.0084336,0.83753,397.6,-0.055457,0.018486,-1.9977,-0.073943,7.2457e-12,-0.99886,0,0,0.11111,-0,-0,0.66667
0.27245,0.50798,2.452,0.011964,1.1892,399.01,-0.078228,0.026076,-1.9972,-0.1043,4.2709e-12,-0.99862,0,0,0.11111,-0,-0,0.66667
0.40582,0.33431,3.6524,-0.24854,-22.292,282.87,2.4207,-0.80689,-1.7838,3.2276,-2.3757e-12,-0.89188,0,0,0.11111,5.2633e-16,0,0.66667
0.67323,0.63754,6.0591,0.20631,12.071,96.764,-3.3335,1.1112,-1.8505,-4.4447,-1.2852e-12,-0.92523,0,0,0.11111,-0,-0,0.66667
0.9815,0.87609,8.8335,0.56413,2.0907,1.816,-13.289,4.4295,-0.86981,-17.718,-2.6379e-06,-0.43491,0,0,0.11111,4.2106e-15,-1.5887e-19,0.66667
0.39748,0.70174,3.5773,0.30262,27.371,289.82,-2.8868,0.96228,-1.6717,-3.8491,-1.0472e-12,-0.83587,0,0,0.11111,-0,-0,0.66667
0.74457,0.49309,6.7012,-0.010359,-0.49248,61.273,0.18511,-0.061704,-1.998,0.24681,-2.1745e-12,-0.999,0,0,0.11111,1.579e-15,0,0.66667
0.85672,0.19742,7.7105,-0.45388,-12.872,21.533,9.3323,-3.1108,-1.2679,12.443,-3.1939e-09,-0.63394,0,0,0.11111,-0,-0,0.66667
0.67501,0.62333,6.0751,0.185,10.775,95.778,-2.9971,0.99902,-1.8793,-3.9961,-4.9871e-13,-0.93964,0,0,0.11111,-1.4474e-15,0,0.66667
0.77949,0.11469,7.0154,-0.57797,-24.357,47.644,10.812,-3.6042,-0.81365,14.417,-4.3295e-11,-0.40682,0,0,0.11111,-0,-0,0.66667
0.81192,0.48144,7.3073,-0.027839,-1.0084,34.627,0.54248,-0.18083,-2.0002,0.72331,-6.168e-11,-1.0001,0,0,0.11111,2.1053e-15,0,0.66667
0.59693,0.29305,5.3723,-0.31043,-21.43,142.07,4.4473,-1.4824,-1.657,5.9297,1.3149e-12,-0.82851,0,0,0.11111,-0,-0,0.66667
0.439,0.91189,3.951,0.61784,53.751,256.53,-6.5095,2.1698,-0.645,-8.6793,-2.0877e-12,-0.3225,0,0,0.11111,-0,-0,0.66667
0.16875,0.6492,1.5188,0.22381,23.364,496.16,-0.90642,0.30214,-1.822,-1.2086,-8.6347e-10,-0.91101,0,0,0.11111,9.992e-17,0,0.66667
0.78139,0.85571,7.0325,0.53357,22.287,46.743,-10.006,3.3354,-0.99144,-13.342,-9.0736e-12,-0.49572,0,0,0.11111,-0,-0,0.66667
0.19409,0.21275,1.7468,-0.43088,-44.613,472.13,2.0071,-0.66904,-1.3379,2.6761,9.1736e-11,-0.66897,0,0,0.11111,-2.6316e-16,0,0.66667
0.99872,0.067145,8.9885,-0.64928,-0.084372,1.7021,15.563,-5.1876,-0.50381,20.75,3.7176e-05,-0.25191,0,0,0.11111,-0,-0,0.66667
0.5426,0.83692,4.8834,0.50537,38.35,178.74,-6.5812,2.1937,-1.091,-8.775,-1.4504e-12,-0.54551,0,0,0.11111,-0,-0,0.66667
0.0093665,0.55067,0.084298,0.076006,8.1641,651.53,-0.017086,0.0056955,-1.9771,-0.022781,3.5504e-07,-0.98853,0,0,0.11111,-0,-0,0.66667
0.4188,0.72064,3.7692,0.33096,29.319,272.32,-3.3266,1.1089,-1.6115,-4.4354,-4.4764e-12,-0.80576,0,0,0.11111,-0,-0,0.66667
0.24105,0.44452,2.1695,-0.083227,-8.4183,427.92,0.48149,-0.1605,-1.9733,0.64198,-1.218e-11,-0.98663,0,0,0.11111,5.2633e-16,0,0.66667
0.053138,0.55421,0.47824,0.081314,8.7103,608.47,-0.1037,0.034567,-1.9744,-0.13827,1.7567e-08,-0.98718,0,0,0.11111,-0,-0,0.66667
0.71613,0.503,6.4452,0.0045025,0.23426,74.532,-0.077385,0.025795,-2.0012,-0.10318,-1.0715e-12,-1.0006,0,0,0.11111,-0,-0,0.66667
0.31649,0.553,2.8484,0.079499,7.68,359.36,-0.60386,0.20129,-1.9766,-0.80514,2.7885e-12,-0.9883,0,0,0.11111,-0,-0,0.66667
0.82107,0.47779,7.3896,-0.033312,-1.1529,31.549,0.65644,-0.21881,-1.9937,0.87526,-1.4153e-10,-0.99683,0,0,0.11111,-0,-0,0.66667
0.76442,0.10543,6.8798,-0.59186,-26.439,53.782,10.858,-3.6194,-0.75657,14.478,-1.9599e-11,-0.37828,0,0,0.11111,-0,-1.4157e-16,0.66667
0.065672,0.63317,0.59104,0.19975,21.372,596.18,-0.31483,0.10494,-1.8581,-0.41977,-1.8504e-08,-0.92904,0,0,0.11111,-0,-0,0.66667
0.71272,0.63446,6.4145,0.20169,10.609,76.314,-3.45,1.15,-1.8532,-4.6,-5.234e-12,-0.9266,0,0,0.11111,-0,-0,0.66667
0.19497,0.38152,1.7547,-0.17772,-18.367,471.18,0.83161,-0.2772,-1.8855,1.1088,1.3957e-10,-0.94276,0,0,0.11111,5.2633e-16,0,0.66667
0.77656,0.66816,6.989,0.25223,10.683,47.961,-4.701,1.567,-1.7722,-6.2679,-2.1452e-11,-0.88609,0,0,0.11111,-0,-0,0.66667
0.25043,0.5076,2.2539,0.011397,1.147,419.23,-0.068499,0.022833,-2.0031,-0.091331,5.23e-12,-1.0016,0,0,0.11111,1.0527e-15,0,0.66667
0.40375,0.97453,3.6337,0.7118,64.301,285.3,-6.8972,2.2991,-0.19952,-9.1963,7.7849e-13,-0.099762,0,0,0.11111,-0,-0,0.66667
0.8833,0.82686,7.9497,0.49029,11.474,15.061,-10.394,3.4645,-1.1426,-13.858,2.2206e-09,-0.57129,0,0,0.11111,-0,-0,0.66667
0.65698,0.97919,5.9128,0.71879,44.089,107.02,-11.333,3.7778,-0.16584,-15.111,3.4106e-13,-0.08292,0,0,0.11111,1.0527e-15,0,0.66667
0.081501,0.95598,0.73351,0.68396,73.31,580.82,-1.3379,0.44595,-0.3361,-1.7838,-6.5424e-08,-0.16805,0,0,0.11111,-0,-0,0.66667
0.13451,0.37497,1.2106,-0.18754,-19.786,529.1,0.60542,-0.20181,-1.8742,0.80723,6.4418e-09,-0.93709,0,0,0.11111,-1.213e-16,0,0.66667
0.007682,0.092827,0.069138,-0.61076,-65.838,653.2,0.1126,-0.037524,-0.67243,0.15014,1.3185e-05,-0.33622,0,0,0.11111,6.1679e-18,0,0.66667
0.98219,0.018289,8.8397,-0.72257,-2.7245,2.5848,17.033,-5.6776,-0.14433,22.71,4.9049e-06,-0.072163,0,0,0.11111,-0,-1.2776e-16,0.66667
0.047674,0.90892,0.42907,0.61338,65.976,613.91,-0.70182,0.23394,-0.66598,-0.93576,-1.9917e-06,-0.33299,0,0,0.11111,-0,-0,0.66667
0.10538,0.80014,0.9484,0.45022,47.916,557.44,-1.1386,0.37954,-1.2782,-1.5182,-2.8015e-08,-0.63909,0,0,0.11111,-0,-0,0.66667
0.45747,0.79156,4.1172,0.43734,37.179,241.63,-4.8016,1.6005,-1.3187,-6.4021,1.6387e-13,-0.65934,0,0,0.11111,-0,-0,0.66667
0.054401,0.030179,0.4896,-0.70473,-75.838,607.34,0.92011,-0.30671,-0.23287,1.2268,-9.7456e-06,-0.11643,0,0,0.11111,-0,-0,0.66667
0.28909,0.93075,2.6018,0.64612,63.852,384.38,-4.4828,1.4943,-0.51345,-5.9771,-5.6311e-12,-0.25672,0,0,0.11111,-9.1991e-17,0,0.66667
0.67797,0.15526,6.1018,-0.5171,-30.019,94.808,8.414,-2.8047,-1.0483,11.219,-5.5689e-13,-0.52415,0,0,0.11111,-1.1184e-15,0,0.66667
0.048629,0.10223,0.43766,-0.59665,-64.158,612.97,0.69635,-0.23211,-0.73581,0.92846,1.0335e-06,-0.3679,0,0,0.11111,-0,-0,0.66667
0.45797,0.27436,4.1217,-0.33847,-28.73,241.09,3.7202,-1.2401,-1.5914,4.9603,-3.1974e-13,-0.7957,0,0,0.11111,2.6316e-16,0,0.66667
0.57276,0.1317,5.1548,-0.55245,-39.944,158.3,7.594,-2.5313,-0.91329,10.125,2.125e-12,-0.45664,0,0,0.11111,-0,-0,0.66667
0.19927,0.979,1.7934,0.7185,74.483,467.5,-3.4362,1.1454,-0.16357,-4.5816,2.6098e-10,-0.081787,0,0,0.11111,-0,-0,0.66667
0.18617,0.27618,1.6755,-0.33574,-34.846,479.59,1.5001,-0.50003,-1.6018,2.0001,2.5158e-10,-0.80089,0,0,0.11111,1.1023e-16,0,0.66667
0.10269,0.15264,0.92419,-0.52104,-55.522,560.09,1.2841,-0.42803,-1.0331,1.7121,4.2674e-08,-0.51656,0,0,0.11111,1.6448e-16,0,0.66667
0.0688,0.62323,0.6192,0.18485,19.768,593.11,-0.30522,0.10174,-1.8773,-0.40696,-2.7753e-08,-0.93867,0,0,0.11111,1.3158e-16,0,0.66667
0.16898,0.44195,1.5209,-0.087082,-9.0862,495.91,0.35317,-0.11772,-1.9738,0.4709,9.7487e-10,-0.98688,0,0,0.11111,-0,-0,0.66667
0.060817,0.56416,0.54735,0.09624,10.3,600.94,-0.14047,0.046824,-1.9697,-0.1873,1.1082e-07,-0.98486,0,0,0.11111,-2.6316e-16,0,0.66667
0.55168,0.48582,4.9651,-0.02127,-1.5856,171.89,0.28162,-0.093872,-1.9966,0.37549,2.9531e-12,-0.99831,0,0,0.11111,-1.0527e-15,0,0.66667
0.80791,0.36717,7.2711,-0.19925,-7.3654,36.148,3.8634,-1.2878,-1.8576,5.1513,-1.8256e-10,-0.92881,0,0,0.11111,-5.2633e-16,0,0.66667
0.80434,0.79191,7.2391,0.43787,16.526,37.895,-8.4526,2.8175,-1.3157,-11.27,2.9321e-11,-0.65786,0,0,0.11111,2.1053e-15,0,0.66667
0.63118,0.95628,5.6806,0.68443,44.403,121.85,-10.368,3.456,-0.33203,-13.824,-4.0767e-13,-0.16602,0,0,0.11111,-0,-0,0.66667
0.54175,0.27632,4.8757,-0.33551,-25.444,179.02,4.3623,-1.4541,-1.5986,5.8164,8.1712e-13,-0.79928,0,0,0.11111,-5.2633e-16,0,0.66667
0.46714,0.39516,4.2042,-0.15726,-13.19,233.81,1.7631,-0.5877,-1.9136,2.3508,1.2798e-12,-0.9568,0,0,0.11111,-5.2633e-16,0,0.66667
0.96014,0.44631,8.6412,-0.080539,-0.63321,2.0572,1.8559,-0.61863,-1.9746,2.4745,8.2065e-08,-0.98728,0,0,0.11111,-0,-0,0.66667
0.2899,0.52914,2.6091,0.043714,4.2989,383.17,-0.30414,0.10138,-1.9918,-0.40552,6.6748e-12,-0.9959,0,0,0.11111,-6.5791e-16,0,0.66667
0.36643,0.44034,3.2979,-0.089489,-8.3156,315.86,0.787,-0.26233,-1.97,1.0493,3.0722e-12,-0.98498,0,0,0.11111,-0,-0,0.66667
0.57534,0.97488,5.1781,0.71232,51.424,157.06,-9.8358,3.2786,-0.19652,-13.114,-3.1042e-12,-0.098258,0,0,0.11111,-0,-0,0.66667
0.51258,0.54727,4.6132,0.07091,5.6051,199.63,-0.87233,0.29078,-1.9818,-1.1631,9.9365e-13,-0.99091,0,0,0.11111,-1.0527e-15,0,0.66667
0.67424,0.021483,6.0681,-0.71778,-42.244,97.492,11.615,-3.8716,-0.16885,15.486,1.8927e-12,-0.084427,0,0,0.11111,-1.0527e-15,0,0.66667
0.77467,0.9113,6.9721,0.61695,26.528,49.696,-11.47,3.8234,-0.64486,-15.294,1.6749e-10,-0.32243,0,0,0.11111,-0,-0,0.66667
0.18244,0.86178,1.642,0.54267,56.507,483.27,-2.3761,0.79204,-0.951,-3.1682,-7.2915e-10,-0.4755,0,0,0.11111,-0,-0,0.66667
0.6289,0.1619,5.6601,-0.50715,-32.948,122.68,7.6547,-2.5516,-1.0851,10.206,2.1605e-12,-0.54255,0,0,0.11111,-0,-0,0.66667
0.69402,0.58745,6.2462,0.13118,7.2692,85.667,-2.185,0.72833,-1.9368,-2.9133,-1.5064e-12,-0.96842,0,0,0.11111,-5.2633e-16,0,0.66667
0.27231,0.79202,2.4508,0.43804,43.632,399.35,-2.8627,0.95425,-1.3153,-3.817,8.5476e-12,-0.65765,0,0,0.11111,-0,-0,0.66667
0.92808,0.17284,8.3527,-0.49073,-7.1858,6.7183,10.931,-3.6435,-1.1413,14.574,-1.5706e-07,-0.57063,0,0,0.11111,-1.0527e-15,0,0.66667
0.34525,0.51288,3.1073,0.019322,1.8268,334.1,-0.1601,0.053367,-2.0003,-0.21347,6.1881e-14,-1.0001,0,0,0.11111,1.0527e-15,0,0.66667
0.63808,0.87711,5.7427,0.56566,36.076,117.39,-8.6625,2.8875,-0.86383,-11.55,-2.7187e-12,-0.43192,0,0,0.11111,2.1053e-15,0,0.66667
0.9258,0.6681,8.3322,0.25216,3.7611,6.4011,-5.6027,1.8676,-1.7729,-7.4702,4.7118e-08,-0.88645,0,0,0.11111,2.1053e-15,0,0.66667
0.98063,0.70771,8.8257,0.31157,1.1405,0.9901,-7.3329,2.4443,-1.654,-9.7772,-3.6802e-07,-0.827,0,0,0.11111,-0,-0,0.66667
0.24873,0.16139,2.2386,-0.50792,-51.301,421.06,3.032,-1.0107,-1.0854,4.0427,-4.554e-11,-0.54268,0,0,0.11111,5.2633e-16,0,0.66667
0.94195,0.0028303,8.4776,-0.74575,-9.0741,6.0473,16.859,-5.6197,-0.022165,22.479,-2.4911e-06,-0.011083,0,0,0.11111,-0,-0,0.66667
0.90908,0.0056606,8.1817,-0.74151,-13.891,10.95,16.178,-5.3927,-0.04564,21.571,-4.391e-08,-0.02282,0,0,0.11111,-0,-0,0.66667
0.25098,0.69021,2.2588,0.28532,28.731,418.8,-1.7186,0.57287,-1.714,-2.2915,2.2089e-11,-0.857,0,0,0.11111,-1.0527e-15,0,0.66667
0.10105,0.12034,0.90947,-0.5695,-60.737,561.7,1.3812,-0.46039,-0.84494,1.8416,2.0968e-09,-0.42247,0,0,0.11111,1.3158e-16,0,0.66667
0.36236,0.45733,3.2612,-0.064002,-5.9676,319.34,0.5566,-0.18553,-1.9853,0.74213,-3.4728e-13,-0.99266,0,0,0.11111,-0,-0,0.66667
0.92363,0.63064,8.3126,0.19596,3.0026,6.6406,-4.3438,1.4479,-1.8654,-5.7917,3.8716e-08,-0.93268,0,0,0.11111,-0,-0,0.66667
0.84527,0.95444,7.6074,0.68165,20.95,25.615,-13.828,4.6095,-0.34942,-18.438,1.1942e-08,-0.17471,0,0,0.11111,-0,-0,0.66667
0.25812,0.29777,2.3231,-0.30335,-30.431,412.23,1.8792,-0.62641,-1.6701,2.5056,-1.4799e-11,-0.83503,0,0,0.11111,-3.0568e-16,0,0.66667
0.27562,0.96631,2.4806,0.69947,69.75,396.66,-4.6269,1.5423,-0.2594,-6.1691,-2.1059e-12,-0.1297,0,0,0.11111,-5.2633e-16,0,0.66667
0.29828,0.38595,2.6845,-0.17108,-16.738,375.65,1.2247,-0.40823,-1.8978,1.6329,-2.1702e-12,-0.94888,0,0,0.11111,-0,-0,0.66667
0.081417,0.65253,0.73276,0.22879,24.424,580.77,-0.44706,0.14902,-1.8143,-0.59608,-3.5948e-08,-0.90716,0,0,0.11111,-0,-0,0.66667
0.16833,0.73778,1.515,0.35666,37.267,496.61,-1.4409,0.48031,-1.547,-1.9212,-8.519e-10,-0.77349,0,0,0.11111,-2.6316e-16,0,0.66667
0.61444,0.93696,5.5299,0.65544,43.973,131.9,-9.6655,3.2218,-0.47216,-12.887,-6.7146e-13,-0.23608,0,0,0.11111,-3.6185e-16,0,0.66667
0.4924,0.90732,4.4316,0.61098,49.868,215.28,-7.2203,2.4068,-0.67142,-9.6271,-5.5742e-12,-0.33571,0,0,0.11111,2.1053e-15,0,0.66667
0.41191,0.2003,3.7072,-0.44955,-40.145,278.1,4.4441,-1.4814,-1.2792,5.9255,2.109e-12,-0.63962,0,0,0.11111,-0,-0,0.66667
0.5157,0.56419,4.6413,0.096291,7.5784,197.37,-1.1918,0.39726,-1.9721,-1.589,3.838e-13,-0.98604,0,0,0.11111,-0,-0,0.66667
0.88736,0.49583,7.9863,-0.0062554,-0.13997,13.305,0.13322,-0.044407,-2.0002,0.17763,-4.823e-09,-1.0001,0,0,0.11111,-2.1053e-15,0,0.66667
0.9551,0.1493,8.5959,-0.52605,-4.8315,3.56,12.058,-4.0195,-1.0175,16.078,-1.0912e-06,-0.50875,0,0,0.11111,-1.0527e-15,0,0.66667
0.25568,0.73144,2.3011,0.34715,34.882,414.51,-2.1302,0.71007,-1.5693,-2.8403,1.9912e-11,-0.78464,0,0,0.11111,-0,-0,0.66667
0.23367,0.23431,2.103,-0.39854,-40.525,434.93,2.235,-0.74499,-1.4379,2.98,-2.4411e-11,-0.71897,0,0,0.11111,5.2633e-16,0,0.66667
0.070154,0.19109,0.63139,-0.46336,-49.629,591.84,0.78016,-0.26005,-1.2349,1.0402,1.4183e-07,-0.61743,0,0,0.11111,-0,-0,0.66667
0.2597,0.13872,2.3373,-0.54193,-54.43,410.99,3.3777,-1.1259,-0.95343,4.5036,-2.9739e-11,-0.47672,0,0,0.11111,-0,-0,0.66667
0.17421,0.29027,1.5679,-0.31459,-32.793,490.98,1.3153,-0.43844,-1.6489,1.7538,6.6142e-10,-0.82445,0,0,0.11111,-0,-0,0.66667
0.027562,0.31251,0.24806,-0.28124,-30.21,633.62,0.18604,-0.062014,-1.7195,0.24805,-4.0515e-07,-0.85977,0,0,0.11111,6.5791e-17,0,0.66667
0.17447,0.00024811,1.5702,-0.74963,-78.495,491.05,3.1389,-1.0463,-0.0038136,4.1852,1.1107e-09,-0.0019068,0,0,0.11111,-0,-0,0.66667
0.78046,0.34589,7.0241,-0.23116,-9.6366,46.387,4.3298,-1.4433,-1.8138,5.7731,5.9233e-12,-0.90692,0,0,0.11111,-2.1053e-15,0,0.66667
0.92026,0.96037,8.2824,0.69055,11.358,8.7875,-15.252,5.0839,-0.30625,-20.336,9.3458e-07,-0.15313,0,0,0.11111,-0,-0,0.66667
0.72159,0.58927,6.4943,0.1339,6.8559,71.952,-2.3189,0.77298,-1.937,-3.0919,-4.2908e-12,-0.96851,0,0,0.11111,-0,-0,0.66667
0.29842,0.88849,2.6858,0.58273,57.195,375.9,-4.1735,1.3912,-0.79413,-5.5647,6.8447e-12,-0.39707,0,0,0.11111,-0,-0,0.66667
0.63146,0.25681,5.6831,-0.36478,-23.525,120.84,5.5283,-1.8428,-1.5248,7.3711,3.6771e-13,-0.76242,0,0,0.11111,-0,-0,0.66667
0.77018,0.0001895,6.9317,-0.74972,-32.939,52.065,13.858,-4.6194,-0.0015592,18.477,6.2679e-12,-0.0007796,0,0,0.11111,-0,-0,0.66667
0.4425,0.25967,3.9825,-0.3605,-31.148,253.3,3.8285,-1.2762,-1.5363,5.1047,2.9998e-13,-0.76813,0,0,0.11111,-0,-0,0.66667
0.61945,0.28477,5.575,-0.32285,-21.335,128.02,4.7997,-1.5999,-1.6282,6.3995,4.019e-13,-0.81411,0,0,0.11111,-0,-0,0.66667
0.57375,0.57005,5.1637,0.10507,7.552,156.97,-1.4468,0.48227,-1.9597,-1.9291,4.2588e-13,-0.97986,0,0,0.11111,-0,-0,0.66667
0.90274,0.61167,8.1247,0.16751,3.255,10.238,-3.6291,1.2097,-1.8995,-4.8389,1.8995e-08,-0.94975,0,0,0.11111,-1.0527e-15,0,0.66667
0.75239,0.17289,6.7715,-0.49067,-22.83,58.556,8.8601,-2.9534,-1.1444,11.814,2.3674e-11,-0.5722,0,0,0.11111,-0,-0,0.66667
0.26495,0.048723,2.3846,-0.67692,-67.901,406.35,4.3044,-1.4348,-0.37356,5.7393,-1.0498e-12,-0.18678,0,0,0.11111,-5.2633e-16,0,0.66667
0.22937,0.136,2.0643,-0.546,-55.716,439.07,3.0056,-1.0019,-0.93827,4.0075,-1.6143e-10,-0.46913,0,0,0.11111,-0,-0,0.66667
0.6936,0.33972,6.2424,-0.24042,-13.348,85.998,4.0021,-1.334,-1.793,5.3361,2.6965e-12,-0.89649,0,0,0.11111,-2.6316e-16,0,0.66667
0.23301,0.65629,2.0971,0.23443,23.82,435.44,-1.311,0.437,-1.808,-1.748,3.5347e-11,-0.90401,0,0,0.11111,-1.0527e-15,0,0.66667
0.62193,0.28459,5.5973,-0.32311,-21.245,126.51,4.8228,-1.6076,-1.6295,6.4304,3.3471e-12,-0.81476,0,0,0.11111,-2.1053e-15,0,0.66667
0.25494,0.67987,2.2944,0.26981,27.109,415.14,-1.6508,0.55028,-1.7397,-2.2011,1.8887e-11,-0.86987,0,0,0.11111,2.6316e-16,0,0.66667
0.92042,0.50062,8.2838,0.00092674,0.014755,7.0071,-0.020472,0.006824,-2.0032,-0.027296,1.3481e-07,-1.0016,0,0,0.11111,-0,-0,0.66667
0.30256,0.49417,2.723,-0.0087448,-0.85288,371.78,0.063499,-0.021166,-1.9981,0.084665,7.7351e-13,-0.99906,0,0,0.11111,5.2633e-16,0,0.66667
0.84854,0.45807,7.6369,-0.062901,-1.8655,23.116,1.281,-0.427,-1.9843,1.708,-1.778e-09,-0.99216,0,0,0.11111,-0,-0,0.66667
0.22971,0.052843,2.0674,-0.67074,-68.539,438.88,3.6978,-1.2326,-0.39896,4.9304,-1.6158e-10,-0.19948,0,0,0.11111,-2.6316e-16,-1.2565e-17,0.66667
0.5721,0.47714,5.1489,-0.034287,-2.471,158.05,0.47077,-0.15692,-1.9938,0.62769,-9.0841e-13,-0.99688,0,0,0.11111,-0,-0,0.66667
0.1889,0.92066,1.7001,0.631,65.608,477.21,-2.8607,0.95357,-0.58601,-3.8143,3.7562e-10,-0.293,0,0,0.11111,-2.6316e-16,0,0.66667
0.42001,0.78668,3.7801,0.43001,38.081,271.46,-4.3346,1.4449,-1.3443,-5.7795,-1.2839e-12,-0.67216,0,0,0.11111,-0,-0,0.66667
0.37624,0.11005,3.3862,-0.58493,-54.096,308.02,5.2818,-1.7606,-0.78539,7.0424,9.357e-13,-0.3927,0,0,0.11111,-0,-0,0.66667
0.039037,0.31379,0.35133,-0.27932,-29.98,622.34,0.26169,-0.087229,-1.7213,0.34892,-1.5622e-07,-0.86064,0,0,0.11111,-1.3158e-16,0,0.66667
0.12795,0.87577,1.1516,0.56366,59.736,535.59,-1.7309,0.57696,-0.87169,-2.3078,-4.951e-09,-0.43584,0,0,0.11111,-0,-0,0.66667
0.75376,0.24184,6.7838,-0.38724,-17.895,57.69,7.0052,-2.3351,-1.4662,9.3403,2.393e-11,-0.73312,0,0,0.11111,-1.0527e-15,0,0.66667
0.41261,0.29163,3.7135,-0.31256,-27.859,277.35,3.0952,-1.0317,-1.6503,4.1269,-9.7833e-13,-0.82515,0,0,0.11111,-0,-0,0.66667
0.80409,0.41005,7.2368,-0.13493,-5.0743,37.427,2.6038,-0.86794,-1.9335,3.4718,-2.1704e-11,-0.96676,0,0,0.11111,2.1053e-15,0,0.66667
0.6699,0.66664,6.0291,0.24996,14.751,98.638,-4.0187,1.3396,-1.779,-5.3583,-1.6191e-12,-0.88948,0,0,0.11111,-0,-0,0.66667
0.38282,0.14763,3.4454,-0.52855,-48.563,302.37,4.8562,-1.6187,-1.0043,6.4749,4.5963e-13,-0.50213,0,0,0.11111,-5.2633e-16,0,0.66667
0.49483,0.50932,4.4535,0.013973,1.1314,212.72,-0.16594,0.055313,-1.9976,-0.22125,-4.0564e-12,-0.99879,0,0,0.11111,2.1053e-15,0,0.66667
0.95056,0.12666,8.555,-0.56,-5.6884,4.16,12.776,-4.2585,-0.88653,17.034,-4.8498e-07,-0.44327,0,0,0.11111,-0,-0,0.66667
0.94795,0.81977,8.5315,0.47965,5.0873,4.1241,-10.912,3.6375,-1.1805,-14.55,1.1697e-07,-0.59023,0,0,0.11111,-0,-0,0.66667
0.48498,0.57913,4.3648,0.1187,9.7365,220.15,-1.3816,0.46053,-1.9528,-1.8421,-2.2582e-12,-0.97638,0,0,0.11111,-0,-0,0.66667
0.71243,0.94193,6.4119,0.66289,35.17,77.593,-11.334,3.7781,-0.43596,-15.113,-5.7998e-13,-0.21798,0,0,0.11111,2.1053e-15,0,0.66667
0.74983,0.30181,6.7485,-0.29728,-13.908,59.214,5.3498,-1.7833,-1.6895,7.1331,2.2581e-11,-0.84475,0,0,0.11111,-0,-0,0.66667
0.5106,0.31647,4.5954,-0.2753,-21.842,201.22,3.3736,-1.1245,-1.7295,4.4981,7.5495e-14,-0.86477,0,0,0.11111,2.1053e-15,0,0.66667
0.44701,0.71743,4.0231,0.32615,28.032,249.68,-3.499,1.1663,-1.6208,-4.6654,-7.1543e-13,-0.81038,0,0,0.11111,7.237e-16,0,0.66667
0.76902,0.19985,6.9212,-0.45023,-19.7,51.433,8.3097,-2.7699,-1.2787,11.08,5.0574e-11,-0.63934,0,0,0.11111,-0,-0,0.66667
0.41563,0.8541,3.7406,0.53114,47.3,275.19,-5.2982,1.7661,-0.99462,-7.0643,2.7756e-13,-0.49731,0,0,0.11111,-0,-0,0.66667
0.50009,0.39768,4.5008,-0.15349,-12.345,208.86,1.8422,-0.61405,-1.9203,2.4562,-1.1081e-12,-0.96013,0,0,0.11111,5.2633e-16,0,0.66667
0.08748,0.21866,0.78732,-0.42201,-45.06,574.88,0.88601,-0.29534,-1.366,1.1813,2.7454e-08,-0.68299,0,0,0.11111,-1.028e-18,0,0.66667
0.90434,0.31461,8.139,-0.27809,-5.3315,10.111,6.0357,-2.0119,-1.7273,8.0476,-3.1897e-08,-0.86365,0,0,0.11111,-2.1053e-15,0,0.66667
0.45473,0.95554,4.0926,0.68331,58.47,244.27,-7.4573,2.4858,-0.3413,-9.943,9.2104e-13,-0.17065,0,0,0.11111,-0,-0,0.66667
0.59906,0.65771,5.3915,0.23657,16.256,140.62,-3.4012,1.1337,-1.8003,-4.535,1.823e-12,-0.90016,0,0,0.11111,-2.1053e-15,0,0.66667
0.070556,0.64267,0.635,0.21401,22.883,591.4,-0.36239,0.1208,-1.8344,-0.48318,-3.6537e-08,-0.91721,0,0,0.11111,-1.3158e-16,0,0.66667
0.52944,0.98419,4.765,0.72629,56.426,188.58,-9.2286,3.0762,-0.12559,-12.305,1.2266e-12,-0.062797,0,0,0.11111,-1.0527e-15,0,0.66667
0.22131,0.21307,1.9918,-0.43039,-44.037,446.49,2.286,-0.76201,-1.3423,3.048,-3.4979e-11,-0.67114,0,0,0.11111,1.3158e-16,0,0.66667
0.38519,0.50439,3.4667,0.0065848,0.6018,299.95,-0.060873,0.020291,-1.9986,-0.081165,3.9236e-12,-0.99929,0,0,0.11111,-0,-0,0.66667
0.56,0.28796,5.04,-0.31806,-23.426,166.42,4.2747,-1.4249,-1.6411,5.6996,1.5814e-12,-0.82057,0,0,0.11111,1.0527e-15,0,0.66667
0.81503,0.43318,7.3353,-0.10022,-3.5764,33.595,1.9604,-0.65348,-1.9654,2.6139,6.2224e-11,-0.98271,0,0,0.11111,5.2633e-16,0,0.66667
0.26284,0.84909,2.3656,0.52364,52.489,408.09,-3.3032,1.1011,-1.0258,-4.4043,-6.7841e-12,-0.5129,0,0,0.11111,-5.2633e-16,0,0.66667
0.72782,0.47373,6.5503,-0.039407,-1.9786,68.952,0.68834,-0.22945,-1.9927,0.91779,3.3922e-12,-0.99634,0,0,0.11111,-2.1053e-15,0,0.66667
0.49204,0.3654,4.4284,-0.2019,-16.417,214.89,2.3843,-0.79476,-1.8525,3.179,-1.7011e-12,-0.92627,0,0,0.11111,-5.2633e-16,0,0.66667
0.30424,0.35736,2.7382,-0.21396,-20.854,370.32,1.5623,-0.52077,-1.8345,2.0831,-2.532e-12,-0.91726,0,0,0.11111,-0,-0,0.66667
0.29041,0.19412,2.6137,-0.45881,-45.205,382.95,3.1978,-1.0659,-1.2495,4.2638,-1.7013e-12,-0.62476,0,0,0.11111,-0,-0,0.66667
0.2411,0.039655,2.1699,-0.69052,-70.179,428.33,3.9956,-1.3319,-0.30239,5.3275,2.6874e-11,-0.15119,0,0,0.11111,-0,-0,0.66667
0.073163,0.15515,0.65847,-0.51727,-55.408,588.91,0.90829,-0.30276,-1.0482,1.211,1.7197e-07,-0.52412,0,0,0.11111,-3.2895e-17,0,0.66667
0.58112,0.341,5.2301,-0.2385,-16.935,152.21,3.3263,-1.1088,-1.7987,4.4351,-6.7524e-13,-0.89933,0,0,0.11111,1.579e-15,0,0.66667
0.62494,0.43467,5.6245,-0.097991,-6.3937,124.44,1.4697,-0.48991,-1.9707,1.9596,5.5733e-14,-0.98536,0,0,0.11111,-0,-0,0.66667
0.23524,0.52149,2.1172,0.03224,3.2705,433.31,-0.18202,0.060674,-1.999,-0.24269,1.1044e-11,-0.99949,0,0,0.11111,-5.2633e-16,0,0.66667
0.56429,0.40065,5.0787,-0.14902,-10.886,163.33,2.0182,-0.67273,-1.9229,2.6909,8.0003e-13,-0.96145,0,0,0.11111,-0,-0,0.66667
0.8726,0.7893,7.8534,0.43395,11.013,17.388,-9.0879,3.0293,-1.3312,-12.117,7.1483e-09,-0.66562,0,0,0.11111,-0,-0,0.66667
0.80766,0.36148,7.2689,-0.20778,-7.6902,36.246,4.0275,-1.3425,-1.8447,5.37,-1.7834e-10,-0.92236,0,0,0.11111,-1.0527e-15,0,0.66667
0.40735,0.52843,3.6661,0.042652,3.8173,281.52,-0.41698,0.13899,-1.9968,-0.55598,-3.1988e-12,-0.99839,0,0,0.11111,2.6316e-16,0,0.66667
0.49622,0.41891,4.466,-0.12163,-9.8323,211.71,1.4485,-0.48284,-1.9465,1.9314,2.1921e-12,-0.97323,0,0,0.11111,-0,-0,0.66667
0.70639,0.042664,6.3575,-0.686,-37.054,80.666,11.63,-3.8767,-0.32634,15.507,3.4373e-13,-0.16317,0,0,0.11111,-0,-0,0.66667
0.57792,0.82615,5.2013,0.48922,35.025,154.73,-6.7856,2.2619,-1.1525,-9.0474,9.7655e-13,-0.57627,0,0,0.11111,-0,-2.5099e-17,0.66667
0.75469,0.004817,6.7922,-0.74277,-34.522,58.503,13.454,-4.4845,-0.037455,17.938,-2.2014e-11,-0.018727,0,0,0.11111,-0,-0,0.66667
0.95016,0.2406,8.5514,-0.3891,-3.9187,3.5855,8.873,-2.9577,-1.4617,11.831,-2.9789e-08,-0.73086,0,0,0.11111,-1.0527e-15,0,0.66667
0.17702,0.42636,1.5932,-0.11047,-11.494,488.23,0.46933,-0.15644,-1.9548,0.62577,2.5513e-10,-0.97738,0,0,0.11111,-0,-0,0.66667
0.78926,0.94083,7.1033,0.66124,26.842,44.203,-12.525,4.1751,-0.44367,-16.7,4.5018e-10,-0.22184,0,0,0.11111,-0,-0,0.66667
0.33497,0.19395,3.0147,-0.45907,-43.849,343.35,3.6906,-1.2302,-1.2486,4.9208,2.971e-13,-0.6243,0,0,0.11111,-0,-0,0.66667
0.56378,0.40497,5.0741,-0.14254,-10.421,163.67,1.9287,-0.64289,-1.931,2.5716,-9.7478e-13,-0.96552,0,0,0.11111,1.25e-15,0,0.66667
0.20689,0.20808,1.862,-0.43789,-45.099,460.04,2.1743,-0.72475,-1.3174,2.899,1.2474e-11,-0.65871,0,0,0.11111,-0,-0,0.66667
0.74097,0.045532,6.6687,-0.6817,-33.132,64.266,12.123,-4.041,-0.34508,16.164,1.2216e-11,-0.17254,0,0,0.11111,-0,-0,0.66667
0.98,0.51363,8.82,0.020449,0.075522,0.64275,-0.48097,0.16032,-1.9971,-0.64129,1.8308e-08,-0.99853,0,0,0.11111,-0,-0,0.66667
0.83333,0.19865,7.5,-0.45203,-14.749,28.307,9.0406,-3.0135,-1.2716,12.054,-2.3604e-10,-0.6358,0,0,0.11111,-2.1053e-15,0,0.66667
0.62051,0.48939,5.5846,-0.015914,-1.0477,127.11,0.237,-0.078999,-1.9977,0.31599,-2.2564e-13,-0.99885,0,0,0.11111,5.2633e-16,0,0.66667
0.49211,0.53688,4.429,0.055317,4.4954,214.77,-0.65333,0.21778,-1.9871,-0.87111,-2.0637e-12,-0.99353,0,0,0.11111,-1.0527e-15,0,0.66667
0.52358,0.46563,4.7122,-0.051553,-4.0115,191.67,0.64781,-0.21594,-1.9889,0.86374,2.3067e-12,-0.99444,0,0,0.11111,1.3158e-16,0,0.66667
0.93153,0.69868,8.3838,0.29802,4.11,5.6563,-6.6627,2.2209,-1.682,-8.8836,6.3955e-08,-0.84098,0,0,0.11111,-0,-0,0.66667
0.15835,0.40239,1.4251,-0.14642,-15.335,506.12,0.55645,-0.18548,-1.9255,0.74194,1.4781e-09,-0.96275,0,0,0.11111,-0,-0,0.66667
0.59051,0.34256,5.3146,-0.23616,-16.488,146.09,3.347,-1.1157,-1.8026,4.4626,-1.0723e-12,-0.90132,0,0,0.11111,1.1842e-15,0,0.66667
0.63801,0.24598,5.7421,-0.38104,-24.236,116.99,5.8345,-1.9448,-1.4849,7.7793,2.7978e-14,-0.74243,0,0,0.11111,5.2633e-16,0,0.66667
0.90792,0.27379,8.1713,-0.33932,-6.2803,9.5797,7.3938,-2.4646,-1.5924,9.8584,-3.6004e-08,-0.7962,0,0,0.11111,-1.579e-15,0,0.66667
0.2694,0.3406,2.4246,-0.2391,-23.823,401.86,1.5459,-0.51531,-1.7968,2.0612,-1.153e-11,-0.89841,0,0,0.11111,3.2895e-16,0,0.66667
0.71075,0.50843,6.3968,0.012651,0.66873,77.17,-0.21581,0.071935,-1.997,-0.28774,2.0708e-13,-0.99851,0,0,0.11111,-0,-0,0.66667
0.35033,0.7624,3.1529,0.3936,37.125,329.91,-3.3093,1.1031,-1.4466,-4.4124,-6.8612e-13,-0.72332,0,0,0.11111,-0,-0,0.66667
0.36439,0.96919,3.2795,0.70378,65.867,318.32,-6.1548,2.0516,-0.23859,-8.2063,-4.2144e-13,-0.1193,0,0,0.11111,-0,-0,0.66667
0.081405,0.23915,0.73265,-0.39128,-41.812,580.81,0.76446,-0.25482,-1.4553,1.0193,5.7161e-08,-0.72763,0,0,0.11111,-0,-0,0.66667
0.3283,0.55945,2.9547,0.08917,8.541,348.93,-0.70259,0.2342,-1.9764,-0.93679,1.1688e-12,-0.98818,0,0,0.11111,7.8949e-16,0,0.66667
0.32443,0.42529,2.9199,-0.11206,-10.765,352.35,0.87254,-0.29085,-1.9545,1.1634,-3.556e-13,-0.97725,0,0,0.11111,5.2633e-16,0,0.66667
0.029581,0.22891,0.26623,-0.40663,-43.71,631.65,0.28868,-0.096228,-1.4136,0.38491,-8.7441e-07,-0.70681,0,0,0.11111,-0,-0,0.66667
0.54957,0.33671,4.9461,-0.24494,-18.336,173.47,3.2307,-1.0769,-1.7873,4.3076,1.5499e-12,-0.89363,0,0,0.11111,-0,-0,0.66667
0.70674,0.3877,6.3607,-0.16844,-9.012,79.239,2.8571,-0.95237,-1.8983,3.8095,4.4151e-12,-0.94915,0,0,0.11111,-0,-0,0.66667
0.4985,0.88039,4.4865,0.57059,46.17,210.64,-6.8265,2.2755,-0.84469,-9.102,-3.2241e-13,-0.42234,0,0,0.11111,-0,-1.6524e-16,0.66667
0.5273,0.29545,4.7457,-0.30682,-23.774,189.19,3.8829,-1.2943,-1.6641,5.1772,3.4617e-13,-0.83207,0,0,0.11111,-0,-0,0.66667
0.10581,0.53832,0.95233,0.057485,6.1055,556.93,-0.14599,0.048662,-1.9879,-0.19465,1.178e-08,-0.99397,0,0,0.11111,-0,-0,0.66667
0.68474,0.87934,6.1627,0.56901,32.498,91.358,-9.3511,3.117,-0.84969,-12.468,-3.6771e-13,-0.42484,0,0,0.11111,-0,2.5393e-18,0.66667
0.47114,0.11289,4.2403,-0.58066,-48.655,231.31,6.5658,-2.1886,-0.80167,8.7544,2.5357e-13,-0.40084,0,0,0.11111,-5.2633e-16,0,0.66667
0.22927,0.8793,2.0634,0.56895,58.076,439.18,-3.1307,1.0436,-0.84796,-4.1742,1.9591e-10,-0.42398,0,0,0.11111,5.2633e-16,0,0.66667
0.85572,0.85186,7.7015,0.52778,15.106,22.053,-10.839,3.6131,-1.0091,-14.452,2.3499e-09,-0.50454,0,0,0.11111,-0,-0,0.66667
0.56519,0.76802,5.0867,0.40204,29.383,163.04,-5.4535,1.8178,-1.4254,-7.2713,-1.7364e-13,-0.7127,0,0,0.11111,1.0527e-15,0,0.66667
0.99916,0.89649,8.9925,0.59473,-0.021266,1.425,-14.262,4.7538,-0.74515,-19.015,-1.3759e-05,-0.37257,0,0,0.11111,1.0527e-15,0,0.66667
0.077097,0.31797,0.69387,-0.27304,-29.175,585,0.50522,-0.16841,-1.7379,0.67362,5.3135e-08,-0.86893,0,0,0.11111,-0,-0,0.66667
0.515,0.17398,4.635,-0.48903,-38.644,198.35,6.0445,-2.0148,-1.1525,8.0593,9.5124e-13,-0.57626,0,0,0.11111,-0,2.4638e-17,0.66667
0.30396,0.20562,2.7356,-0.44158,-43.116,370.77,3.2213,-1.0738,-1.304,4.295,-9.77e-15,-0.65202,0,0,0.11111,-0,-0,0.66667
0.86161,0.78636,7.7545,0.42953,11.783,20.157,-8.8822,2.9607,-1.3454,-11.843,4.9976e-09,-0.67268,0,0,0.11111,-0,-0,0.66667
0.16178,0.44413,1.456,-0.083803,-8.7656,502.82,0.32537,-0.10846,-1.9734,0.43383,7.8506e-10,-0.9867,0,0,0.11111,-0,-0,0.66667
0.0013843,0.43984,0.012459,-0.090236,-9.6936,659.39,0.0029976,-0.0010007,-1.974,0.0039961,-2.2895e-06,-0.98699,0,0,0.11111,-4.1119e-18,0,0.66667
0.44299,0.16485,3.9869,-0.50272,-43.478,253.13,5.3448,-1.7816,-1.0996,7.1264,2.2338e-12,-0.54979,0,0,0.11111,-0,-0,0.66667
0.67716,0.99973,6.0944,0.7496,43.834,96.045,-12.182,4.0608,-0.0017092,-16.243,-1.2745e-12,-0.00085461,0,0,0.11111,-4.4409e-16,0,0.66667
0.96791,0.35873,8.7112,-0.2119,-1.3316,1.5734,4.9224,-1.6408,-1.8428,6.5632,1.896e-07,-0.92142,0,0,0.11111,-0,-0,0.66667
0.62011,0.12849,5.581,-0.55726,-36.895,128.13,8.2935,-2.7645,-0.89505,11.058,-1.6094e-12,-0.44753,0,0,0.11111,2.1053e-15,0,0.66667
0.19035,0.92635,1.7132,0.63953,66.465,475.84,-2.9217,0.9739,-0.5458,-3.8956,-6.2444e-11,-0.2729,0,0,0.11111,2.6316e-16,0,0.66667
0.36217,0.29186,3.2595,-0.31221,-29.145,319.63,2.7138,-0.90459,-1.6535,3.6184,3.0496e-12,-0.82677,0,0,0.11111,-1.0527e-15,0,0.66667
0.78006,0.16497,7.0205,-0.50254,-21.088,47.165,9.4083,-3.1361,-1.1043,12.544,4.2541e-11,-0.55217,0,0,0.11111,-0,-0,0.66667
0.32974,0.15921,2.9677,-0.51119,-49.046,348,4.0455,-1.3485,-1.0734,5.3939,1.5188e-12,-0.53669,0,0,0.11111,-1.0527e-15,0,0.66667
0.16424,0.31847,1.4782,-0.27229,-28.476,500.5,1.0733,-0.35778,-1.7343,1.4311,1.2918e-09,-0.86713,0,0,0.11111,-0,-0,0.66667
0.28507,0.99317,2.5656,0.73975,73.389,388.16,-5.0611,1.687,-0.053794,-6.7482,-7.3532e-12,-0.026897,0,0,0.11111,-0,-0,0.66667
0.04034,0.82931,0.36306,0.49397,53.099,621.08,-0.47825,0.15942,-1.1298,-0.63767,-7.8753e-07,-0.56492,0,0,0.11111,-6.5791e-17,0,0.66667
0.75512,0.97231,6.7961,0.70847,32.841,58.168,-12.839,4.2798,-0.2144,-17.119,4.8508e-11,-0.1072,0,0,0.11111,-0,-0,0.66667
0.28529,0.94636,2.5676,0.66953,66.345,387.85,-4.5842,1.5281,-0.40523,-6.1123,-2.4114e-13,-0.20261,0,0,0.11111,-0,-0,0.66667
0.7645,0.31156,6.8805,-0.28265,-12.544,52.924,5.1861,-1.7287,-1.7195,6.9148,2.5437e-11,-0.85975,0,0,0.11111,1.1184e-15,0,0.66667
0.84257,0.63037,7.5831,0.19556,6.0202,24.962,-3.9546,1.3182,-1.8667,-5.2728,1.572e-09,-0.93337,0,0,0.11111,-2.1053e-15,0,0.66667
0.45502,0.68833,4.0952,0.28249,24.051,243.34,-3.0849,1.0283,-1.7188,-4.1132,3.7805e-12,-0.85941,0,0,0.11111,-1.0527e-15,0,0.66667
0.85839,0.65863,7.7255,0.23794,6.638,20.572,-4.9019,1.634,-1.8022,-6.5359,4.2129e-09,-0.9011,0,0,0.11111,-0,-0,0.66667
0.99143,0.94876,8.9229,0.67314,1.1642,1.9773,-16.017,5.339,-0.38637,-21.356,4.0927e-05,-0.19318,0,0,0.11111,-0,-0,0.66667
0.94175,0.82043,8.4758,0.48064,5.7059,4.8467,-10.863,3.6211,-1.1776,-14.485,5.5312e-08,-0.58882,0,0,0.11111,-0,-0,0.66667
0.97927,0.49542,8.8135,-0.0068697,-0.026424,0.67915,0.16146,-0.053818,-1.9987,0.21528,7.4613e-07,-0.99936,0,0,0.11111,-1.579e-15,0,0.66667
0.95065,0.89175,8.5559,0.58762,5.9763,4.2701,-13.407,4.469,-0.77259,-17.876,6.3404e-07,-0.38629,0,0,0.11111,-0,-0,0.66667
0.96389,0.84945,8.675,0.52417,3.8585,2.7722,-12.126,4.042,-1.0219,-16.168,5.0412e-07,-0.51097,0,0,0.11111,2.1053e-15,0,0.66667
0.69794,0.65299,6.2814,0.22948,12.59,83.757,-3.8439,1.2813,-1.8118,-5.1252,-5.0993e-12,-0.9059,0,0,0.11111,1.579e-15,0,0.66667
0.15618,0.43843,1.4057,-0.092353,-9.6778,508.19,0.34618,-0.11539,-1.9749,0.46157,2.1986e-11,-0.98745,0,0,0.11111,-5.2633e-16,0,0.66667
0.64676,0.28654,5.8208,-0.32019,-19.963,111.77,4.9701,-1.6567,-1.6338,6.6267,1.2346e-13,-0.81688,0,0,0.11111,-0,-0,0.66667
0.99073,0.98547,8.9165,0.7282,1.4276,2.303,-17.315,5.7716,-0.11224,-23.086,4.4631e-05,-0.056122,0,0,0.11111,-0,-0,0.66667
0.24429,0.35672,2.1986,-0.21492,-21.711,424.95,1.26,-0.42001,-1.8335,1.6801,-1.914e-11,-0.91677,0,0,0.11111,-0,-0,0.66667
0.68176,0.52694,6.1359,0.040405,2.312,92.058,-0.66112,0.22037,-1.9928,-0.88149,-1.112e-12,-0.99639,0,0,0.11111,-0,-0,0.66667
0.12926,0.94433,1.1634,0.66649,70.697,534.39,-2.0676,0.68922,-0.41972,-2.7569,2.8887e-09,-0.20986,0,0,0.11111,-0,-0,0.66667
0.99818,0.4018,8.9837,-0.1473,0.024883,0.11304,3.5288,-1.1763,-1.9248,4.705,-8.8845e-07,-0.96242,0,0,0.11111,1.0527e-15,0,0.66667
0.41986,0.3835,3.7787,-0.17476,-15.45,271.33,1.761,-0.58698,-1.8926,2.3479,1.1259e-12,-0.94631,0,0,0.11111,-0,-0,0.66667
0.35068,0.69955,3.1561,0.29933,28.205,329.52,-2.5192,0.83974,-1.6788,-3.359,1.6409e-13,-0.83942,0,0,0.11111,-5.2633e-16,0,0.66667
0.20659,0.19178,1.8593,-0.46233,-47.633,460.34,2.2923,-0.7641,-1.2402,3.0564,5.0966e-12,-0.62009,0,0,0.11111,5.2633e-16,0,0.66667
0.85016,0.0082616,7.6514,-0.73761,-22.071,24.495,15.05,-5.0167,-0.063372,20.067,5.7907e-09,-0.031686,0,0,0.11111,-0,-0,0.66667
0.6124,0.82578,5.5116,0.48866,32.819,132.68,-7.1822,2.3941,-1.1507,-9.5763,7.4607e-13,-0.57535,0,0,0.11111,-1.0527e-15,0,0.66667
0.57534,0.67458,5.178,0.26187,18.786,156.05,-3.6159,1.2053,-1.7562,-4.8212,5.1559e-13,-0.87809,0,0,0.11111,1.0527e-15,0,0.66667
0.24805,0.19061,2.2324,-0.46409,-46.871,421.64,2.7628,-0.92093,-1.2362,3.6837,4.3396e-12,-0.61812,0,0,0.11111,-0,-0,0.66667
0.13351,0.054195,1.2016,-0.66871,-70.853,530.29,2.1427,-0.71422,-0.40772,2.8569,-4.9185e-08,-0.20386,0,0,0.11111,1.3158e-16,0,0.66667
0.064967,0.69842,0.5847,0.29763,31.862,596.89,-0.46406,0.15469,-1.6855,-0.61874,-5.2549e-08,-0.84276,0,0,0.11111,1.3158e-16,0,0.66667
0.60725,0.31245,5.4653,-0.28132,-19.038,135.5,4.1,-1.3667,-1.721,5.4667,7.8204e-13,-0.86052,0,0,0.11111,-9.1765e-17,0,0.66667
0.72959,0.57936,6.5663,0.11904,5.9452,68.155,-2.0845,0.69482,-1.9479,-2.7793,-6.65e-12,-0.97393,0,0,0.11111,-0,-0,0.66667
0.4249,0.43766,3.8241,-0.093517,-8.2227,267.2,0.95364,-0.31788,-1.9703,1.2715,4.8153e-12,-0.98514,0,0,0.11111,-1.0527e-15,0,0.66667
0.099,0.91922,0.891,0.62883,67.139,563.73,-1.4941,0.49803,-0.59201,-1.9921,6.6951e-08,-0.29601,0,0,0.11111,-0,-0,0.66667
0.089276,0.6007,0.80348,0.15104,16.098,573.07,-0.32363,0.10788,-1.9178,-0.4315,-3.2041e-08,-0.95892,0,0,0.11111,2.6316e-16,0,0.66667
0.52952,0.48026,4.7657,-0.029606,-2.2837,187.41,0.37625,-0.12542,-1.9982,0.50166,2.2286e-12,-0.99912,0,0,0.11111,-1.0527e-15,0,0.66667
0.33597,0.25846,3.0237,-0.36231,-34.55,342.37,2.9214,-0.97379,-1.5309,3.8952,-2.2293e-13,-0.76543,0,0,0.11111,-0,-0,0.66667
0.6614,0.58679,5.9526,0.13019,7.8363,103.23,-2.0666,0.68887,-1.9383,-2.7555,1.1207e-12,-0.96913,0,0,0.11111,-5.2633e-16,0,0.66667
0.9539,0.7147,8.5851,0.32206,2.98,3.0178,-7.373,2.4577,-1.6347,-9.8306,-6.504e-08,-0.81737,0,0,0.11111,1.579e-15,0,0.66667
0.048989,0.1339,0.4409,-0.54915,-59.017,612.6,0.64565,-0.21522,-0.92884,0.86087,5.2776e-07,-0.46442,0,0,0.11111,-0,-0,0.66667
0.12125,0.59496,1.0912,0.14244,15.078,541.94,-0.41451,0.13817,-1.9283,-0.55268,-1.1789e-08,-0.96416,0,0,0.11111,-0,-0,0.66667
0.60823,0.069076,5.4741,-0.64639,-43.887,135.71,9.4357,-3.1452,-0.51705,12.581,5.4179e-13,-0.25852,0,0,0.11111,-0,-8.7449e-17,0.66667
0.29619,0.84512,2.6658,0.51768,50.846,377.81,-3.68,1.2267,-1.0513,-4.9066,-4.2584e-12,-0.52565,0,0,0.11111,1.0527e-15,1.4234e-16,0.66667
0.71874,0.77776,6.4687,0.41664,21.584,73.767,-7.187,2.3957,-1.3876,-9.5827,-9.4413e-12,-0.69381,0,0,0.11111,-2.6316e-16,0,0.66667
0.48481,0.8088,4.3633,0.4632,38.1,220.67,-5.3895,1.7965,-1.2413,-7.186,5.3824e-13,-0.62063,0,0,0.11111,-7.8949e-16,0,0.66667
0.95416,0.90269,8.5875,0.60404,5.7197,3.988,-13.832,4.6108,-0.70593,-18.443,3.189e-06,-0.35296,0,0,0.11111,-1.579e-15,0,0.66667
0.35878,0.25036,3.229,-0.37446,-35.072,322.61,3.2244,-1.0748,-1.5059,4.2991,2.8542e-12,-0.75296,0,0,0.11111,-0,-0,0.66667
0.72512,0.76654,6.5261,0.39981,20.309,70.681,-6.9578,2.3193,-1.4291,-9.2771,-1.1279e-11,-0.71456,0,0,0.11111,-1.0527e-15,0,0.66667
0.59297,0.27261,5.3367,-0.34108,-23.727,144.65,4.8539,-1.618,-1.5893,6.4719,6.4615e-13,-0.79464,0,0,0.11111,5.2633e-16,0,0.66667
0.70173,0.86943,6.3155,0.55415,30.231,82.543,-9.3327,3.1109,-0.91054,-12.444,-5.7048e-12,-0.45527,0,0,0.11111,1.0527e-15,0,0.66667
0.28609,0.64282,2.5748,0.21423,21.129,386.66,-1.4709,0.49032,-1.835,-1.9613,5.4405e-12,-0.91752,0,0,0.11111,-0,-0,0.66667
0.55036,0.0073181,4.9533,-0.73902,-55.626,173.99,9.7616,-3.2539,-0.057851,13.015,4.075e-12,-0.028925,0,0,0.11111,-2.1053e-15,0,0.66667
0.0072068,0.9965,0.064861,0.74475,80.422,653.67,-0.12908,0.042985,-0.026437,-0.17213,-6.223e-05,-0.013219,0,0,0.11111,-1.028e-17,0,0.66667
0.95089,0.73424,8.558,0.35136,3.4757,3.4018,-8.0186,2.6729,-1.5616,-10.691,-1.567e-08,-0.78082,0,0,0.11111,-0,-0,0.66667
0.43824,0.37122,3.9441,-0.19317,-16.75,256.53,2.0316,-0.67721,-1.871,2.7089,-1.4411e-12,-0.93548,0,0,0.11111,-6.5791e-16,0,0.66667
0.35615,0.7316,3.2053,0.34739,32.6,324.84,-2.9693,0.98978,-1.5705,-3.9591,1.726e-12,-0.78523,0,0,0.11111,-0,-0,0.66667
0.10194,0.58169,0.91745,0.12254,13.027,560.71,-0.2998,0.099934,-1.9439,-0.39974,-1.5017e-08,-0.97197,0,0,0.11111,-0,-0,0.66667
0.23738,0.33081,2.1364,-0.25378,-25.733,431.38,1.4458,-0.48194,-1.7708,1.9278,-2.4302e-11,-0.88539,0,0,0.11111,2.6316e-16,0,0.66667
0.29709,0.17858,2.6738,-0.48213,-47.309,376.97,3.4376,-1.1459,-1.1773,4.5835,-1.6844e-12,-0.58865,0,0,0.11111,-0,-0,0.66667
0.47856,0.18239,4.3071,-0.47641,-39.503,225.43,5.4718,-1.8239,-1.1914,7.2958,-1.6804e-12,-0.59572,0,0,0.11111,-7.8949e-16,0,0.66667
0.41502,0.63324,3.7351,0.19986,17.759,275.29,-1.9907,0.66356,-1.8557,-2.6542,-1.7599e-12,-0.92785,0,0,0.11111,-0,-0,0.66667
0.056184,0.26058,0.50566,-0.35913,-38.502,605.51,0.48426,-0.16142,-1.5391,0.64568,3.604e-08,-0.76954,0,0,0.11111,-0,-0,0.66667
0.58894,0.62004,5.3004,0.18006,12.603,147.05,-2.545,0.84835,-1.8837,-3.3934,9.2459e-13,-0.94186,0,0,0.11111,7.8949e-16,0,0.66667
0.067005,0.13597,0.60304,-0.54605,-58.559,594.94,0.87811,-0.2927,-0.9384,1.1708,1.0912e-07,-0.4692,0,0,0.11111,-0,-0,0.66667
0.27883,0.90532,2.5095,0.60798,60.435,393.61,-4.0685,1.3562,-0.68763,-5.4247,1.7149e-11,-0.34381,0,0,0.11111,1.8512e-16,0,0.66667
0.93135,0.66958,8.3821,0.25437,3.5112,5.5925,-5.6859,1.8953,-1.7675,-7.5812,4.2394e-08,-0.88375,0,0,0.11111,-0,-0,0.66667
0.70165,0.30499,6.3149,-0.29252,-15.894,81.958,4.9259,-1.642,-1.6978,6.5678,4.3898e-12,-0.8489,0,0,0.11111,5.2633e-16,0,0.66667
0.68369,0.22207,6.1532,-0.41689,-23.81,91.503,6.8407,-2.2802,-1.3821,9.1209,1.3571e-12,-0.69103,0,0,0.11111,-0,-0,0.66667
0.35623,0.23193,3.2061,-0.4021,-37.749,324.83,3.4378,-1.1459,-1.4247,4.5837,7.3075e-13,-0.71237,0,0,0.11111,5.2633e-16,0,0.66667
0.59594,0.52362,5.3634,0.035423,2.4464,142.48,-0.50664,0.16888,-1.9966,-0.67551,1.4904e-12,-0.99832,0,0,0.11111,-0,-0,0.66667
0.82071,0.68626,7.3864,0.27939,9.7096,31.92,-5.5032,1.8344,-1.7212,-7.3376,4.4787e-10,-0.86058,0,0,0.11111,-1.1842e-15,0,0.66667
0.77901,0.60893,7.0111,0.16339,6.8467,46.872,-3.0549,1.0183,-1.9057,-4.0731,-8.8889e-12,-0.95283,0,0,0.11111,-1.0527e-15,0,0.66667
0.75092,0.77838,6.7582,0.41756,19.5,58.998,-7.5253,2.5084,-1.3836,-10.034,-3.2568e-11,-0.69178,0,0,0.11111,-2.6316e-16,0,0.66667
0.53154,0.056081,4.7839,-0.66588,-51.514,186.92,8.4946,-2.8315,-0.42743,11.326,3.217e-12,-0.21371,0,0,0.11111,-2.6316e-16,0,0.66667
0.74519,0.8227,6.7067,0.48404,23.082,61.697,-8.6569,2.8856,-1.1654,-11.543,-1.2651e-11,-0.58268,0,0,0.11111,-0,-0,0.66667
0.21772,0.41978,1.9595,-0.12033,-12.311,449.71,0.62874,-0.20958,-1.9508,0.83831,4.8867e-12,-0.97538,0,0,0.11111,-0,-0,0.66667
0.51855,0.57939,4.667,0.11908,9.3347,195.31,-1.482,0.49399,-1.9494,-1.976,-9.1793e-13,-0.9747,0,0,0.11111,-0,-0,0.66667
0.81265,0.86599,7.3138,0.54898,19.987,35.356,-10.707,3.569,-0.93231,-14.276,5.2825e-10,-0.46616,0,0,0.11111,-1.0527e-15,0,0.66667
0.27694,0.25652,2.4925,-0.36522,-36.256,395.06,2.4274,-0.80914,-1.5249,3.2366,-3.8478e-12,-0.76245,0,0,0.11111,-0,-0,0.66667
0.50368,0.54304,4.5331,0.064559,5.1662,206.16,-0.7804,0.26013,-1.9844,-1.0405,-1.9174e-12,-0.99218,0,0,0.11111,1.0527e-15,0,0.66667
0.65239,0.09754,5.8715,-0.60369,-37.325,109.22,9.4522,-3.1507,-0.70411,12.603,2.2515e-12,-0.35205,0,0,0.11111,-0,-0,0.66667
0.08124,0.28293,0.73116,-0.32561,-34.779,580.96,0.63485,-0.21162,-1.624,0.84647,5.3642e-08,-0.81201,0,0,0.11111,-2.6316e-16,0,0.66667
0.14553,0.27324,1.3097,-0.34014,-35.799,518.51,1.188,-0.39599,-1.5872,1.584,3.5718e-09,-0.7936,0,0,0.11111,1.3158e-16,0,0.66667
0.59348,0.93421,5.3413,0.65132,45.473,145.05,-9.277,3.0923,-0.49613,-12.369,-1.4371e-12,-0.24806,0,0,0.11111,1.3158e-15,-4.9564e-17,0.66667
0.41393,0.024229,3.7253,-0.71366,-63.83,276.96,7.0896,-2.3632,-0.18689,9.4528,4.6718e-13,-0.093445,0,0,0.11111,-0,-0,0.66667
0.13115,0.39261,1.1803,-0.16109,-17.009,532.35,0.50702,-0.16901,-1.9053,0.67602,4.8908e-09,-0.95265,0,0,0.11111,-0,-0,0.66667
0.80877,0.86814,7.2789,0.55221,20.481,36.703,-10.719,3.5729,-0.91536,-14.292,-1.4411e-10,-0.45768,0,0,0.11111,-1.579e-15,0,0.66667
0.71564,0.28785,6.4407,-0.31823,-16.615,75.063,5.4657,-1.8219,-1.6401,7.2876,8.1513e-12,-0.82006,0,0,0.11111,-0,-0,0.66667
0.97583,0.28545,8.7825,-0.32183,-1.5067,1.2757,7.5371,-2.5124,-1.6299,10.05,5.7136e-07,-0.81497,0,0,0.11111,-0,-0,0.66667
0.040034,0.77323,0.3603,0.40984,44.024,621.37,-0.39378,0.13126,-1.4005,-0.52503,-8.5957e-08,-0.70026,0,0,0.11111,6.5791e-17,0,0.66667
0.80309,0.78713,7.2278,0.43069,16.346,38.32,-8.3013,2.7671,-1.3386,-11.068,8.1227e-11,-0.66931,0,0,0.11111,-0,-0,0.66667
0.49155,0.76403,4.424,0.39604,32.271,215.48,-4.6722,1.5574,-1.4396,-6.2296,2.1094e-13,-0.71981,0,0,0.11111,-0,-0,0.66667
0.19478,0.51431,1.753,0.02147,2.2182,471.34,-0.10036,0.033454,-1.9956,-0.13382,-6.0284e-11,-0.99782,0,0,0.11111,5.2633e-16,0,0.66667
0.14213,0.99615,1.2792,0.74423,78.746,522.03,-2.5387,0.84623,-0.033173,-3.3849,-8.702e-09,-0.016587,0,0,0.11111,4.6054e-16,0,0.66667
0.19893,0.33177,1.7904,-0.25234,-26.044,467.45,1.2048,-0.40159,-1.7723,1.6064,7.3002e-11,-0.88617,0,0,0.11111,-0,-0,0.66667
0.0073553,0.33649,0.066198,-0.24526,-26.359,653.51,0.043295,-0.014432,-1.7839,0.057727,3.259e-07,-0.89193,0,0,0.11111,-8.2239e-18,0,0.66667
0.12102,0.53567,1.0892,0.053511,5.6635,542.15,-0.15542,0.051808,-1.9895,-0.20723,-1.2494e-08,-0.99476,0,0,0.11111,2.6316e-16,0,0.66667
0.69054,0.31819,6.2148,-0.27271,-15.27,87.634,4.5197,-1.5066,-1.7359,6.0262,3.4714e-12,-0.86797,0,0,0.11111,-0,-0,0.66667
0.2922,0.89439,2.6298,0.59159,58.306,381.5,-4.1487,1.3829,-0.75403,-5.5315,1.7808e-12,-0.37701,0,0,0.11111,-0,-0,0.66667
0.49257,0.89587,4.4331,0.5938,48.441,215.11,-7.0197,2.3399,-0.74377,-9.3596,-1.1688e-12,-0.37188,0,0,0.11111,-0,-0,0.66667
0.88095,0.81143,7.9285,0.46714,11.131,15.517,-9.8766,3.2922,-1.2232,-13.169,9.1262e-09,-0.6116,0,0,0.11111,1.3158e-15,0,0.66667
0.5238,0.641,4.7142,0.2115,16.461,191.6,-2.6588,0.88626,-1.8382,-3.545,-1.6562e-12,-0.9191,0,0,0.11111,1.0527e-15,0,0.66667
0.70601,0.66852,6.3541,0.25279,13.562,79.704,-4.2833,1.4278,-1.7727,-5.711,-3.9466e-12,-0.88636,0,0,0.11111,-1.0527e-15,0,0.66667
0.15105,0.79881,1.3595,0.44821,47.135,513.24,-1.6249,0.54163,-1.2837,-2.1665,-2.4217e-09,-0.64185,0,0,0.11111,-0,-0,0.66667
0.43644,0.12165,3.928,-0.56753,-49.476,258.46,5.9446,-1.9815,-0.85801,7.9261,9.6678e-13,-0.42901,0,0,0.11111,-7.8949e-16,5.0395e-17,0.66667
0.89086,0.94844,8.0178,0.67266,14.915,14.16,-14.382,4.794,-0.39481,-19.176,-7.7958e-08,-0.19741,0,0,0.11111,-0,-0,0.66667
0.15977,0.19566,1.4379,-0.45651,-47.877,504.87,1.7505,-0.58349,-1.2586,2.334,9.9026e-10,-0.62932,0,0,0.11111,-0,-0,0.66667
0.11866,0.40741,1.0679,-0.13889,-14.71,544.45,0.39551,-0.13184,-1.9303,0.52735,1.2107e-08,-0.96517,0,0,0.11111,-5.2633e-16,0,0.66667
0.82221,0.86054,7.3999,0.54081,18.771,32.133,-10.672,3.5572,-0.95773,-14.229,6.5235e-10,-0.47887,0,0,0.11111,-0,-0,0.66667
0.058073,0.36444,0.52266,-0.20334,-21.776,603.64,0.2834,-0.094467,-1.8516,0.37787,-2.2451e-08,-0.92582,0,0,0.11111,-0,-0,0.66667
0.23225,0.68184,2.0902,0.27276,27.731,436.17,-1.5203,0.50677,-1.7369,-2.0271,2.7664e-11,-0.86845,0,0,0.11111,-3.9475e-16,0,0.66667
0.59496,0.98912,5.3546,0.73367,51.171,144.38,-10.476,3.492,-0.088235,-13.968,-1.5365e-13,-0.044118,0,0,0.11111,1.0527e-15,0,0.66667
0.71146,0.41434,6.4031,-0.12848,-6.7798,76.867,2.1939,-0.73129,-1.939,2.9252,2.7025e-12,-0.96948,0,0,0.11111,2.1053e-15,0,0.66667
0.43296,0.072959,3.8966,-0.64056,-56.112,261.4,6.656,-2.2187,-0.53966,8.8747,8.2334e-13,-0.26983,0,0,0.11111,-0,-0,0.66667
0.47992,0.005084,4.3193,-0.74237,-61.701,225.02,8.5507,-2.8502,-0.039694,11.401,2.3714e-13,-0.019847,0,0,0.11111,-2.1053e-15,-7.5179e-17,0.66667
0.086929,0.78992,0.78236,0.43489,46.444,575.42,-0.9073,0.30243,-1.3252,-1.2097,-2.8765e-08,-0.66261,0,0,0.11111,-2.6316e-16,0,0.66667
0.61004,0.94796,5.4903,0.67194,45.486,134.67,-9.8378,3.2793,-0.39759,-13.117,3.9702e-13,-0.1988,0,0,0.11111,-0,-0,0.66667
0.28032,0.88183,2.5229,0.57274,56.856,392.21,-3.8532,1.2844,-0.83655,-5.1376,-1.0898e-11,-0.41827,0,0,0.11111,-5.2633e-16,8.9875e-17,0.66667
0.91892,0.34558,8.2702,-0.23163,-3.7701,7.4488,5.1084,-1.7028,-1.8103,6.8112,-3.6734e-08,-0.90517,0,0,0.11111,-2.1053e-15,0,0.66667
0.23822,0.098807,2.144,-0.60179,-61.18,430.89,3.4406,-1.1469,-0.71207,4.5874,-9.1556e-12,-0.35603,0,0,0.11111,-5.2633e-16,0,0.66667
0.75065,0.098175,6.7559,-0.60274,-28.291,59.679,10.859,-3.6196,-0.71194,14.478,8.1847e-11,-0.35597,0,0,0.11111,-0,-0,0.66667
0.70514,0.74125,6.3463,0.36188,19.488,80.328,-6.1242,2.0414,-1.5356,-8.1656,-4.7189e-12,-0.76779,0,0,0.11111,-5.2633e-16,0,0.66667
0.12278,0.10137,1.105,-0.59794,-63.477,540.62,1.762,-0.58733,-0.72983,2.3493,-1.4429e-08,-0.36492,0,0,0.11111,-2.6316e-16,0,0.66667
0.20873,0.73491,1.8785,0.35236,36.237,458.26,-1.7652,0.58838,-1.5563,-2.3535,-8.4573e-12,-0.77815,0,0,0.11111,-0,-0,0.66667
0.19717,0.33817,1.7745,-0.24274,-25.07,469.12,1.1487,-0.3829,-1.7888,1.5316,7.9174e-11,-0.8944,0,0,0.11111,-0,-0,0.66667
0.78433,0.68777,7.059,0.28165,11.565,44.959,-5.3017,1.7672,-1.7193,-7.069,-1.4058e-11,-0.85963,0,0,0.11111,-2.1053e-15,0,0.66667
0.55115,0.047646,4.9604,-0.67853,-50.949,173.26,8.9754,-2.9918,-0.36159,11.967,4.7828e-12,-0.1808,0,0,0.11111,-0,-0,0.66667
0.50799,0.84727,4.5719,0.5209,41.583,203.53,-6.3506,2.1169,-1.0335,-8.4675,-9.357e-13,-0.51676,0,0,0.11111,-0,-0,0.66667
0.74258,0.32315,6.6832,-0.26527,-12.716,62.376,4.7276,-1.5759,-1.7472,6.3034,1.7793e-11,-0.87361,0,0,0.11111,-0,-0,0.66667
0.87749,0.77433,7.8974,0.41149,10.054,16.149,-8.6659,2.8886,-1.3988,-11.555,7.9768e-09,-0.69939,0,0,0.11111,-1.579e-15,0,0.66667
0.070046,0.20967,0.63041,-0.4355,-46.634,591.94,0.73211,-0.24404,-1.3232,0.97615,1.3797e-07,-0.6616,0,0,0.11111,-6.5791e-17,0,0.66667
0.37632,0.79928,3.3869,0.44891,41.449,307.74,-4.0545,1.3515,-1.2853,-5.406,1.1728e-12,-0.64265,0,0,0.11111,-0,-0,0.66667
0.34177,0.35177,3.076,-0.22235,-21.09,337.19,1.8238,-0.60794,-1.8255,2.4317,1.9607e-13,-0.91277,0,0,0.11111,-0,-0,0.66667
0.84428,0.24471,7.5985,-0.38294,-11.712,24.827,7.7594,-2.5865,-1.4823,10.346,-2.0217e-09,-0.74116,0,0,0.11111,-0,-0,0.66667
0.76885,0.67753,6.9197,0.2663,11.623,51.097,-4.9139,1.638,-1.7476,-6.5518,-2.6696e-11,-0.87379,0,0,0.11111,1.0527e-15,0,0.66667
0.5325,0.78639,4.7925,0.42958,33.071,185.69,-5.49,1.83,-1.3465,-7.3201,-2.3164e-12,-0.67326,0,0,0.11111,-0,-0,0.66667
0.089548,0.037124,0.80593,-0.69431,-74.327,572.97,1.4922,-0.4974,-0.28527,1.9896,-1.4938e-06,-0.14264,0,0,0.11111,-0,-0,0.66667
0.92511,0.70405,8.326,0.30607,4.617,6.6171,-6.7956,2.2652,-1.6664,-9.0607,6.8276e-08,-0.83321,0,0,0.11111,-0,-0,0.66667
0.55794,0.054578,5.0215,-0.66813,-49.615,168.59,8.9467,-2.9822,-0.41159,11.929,3.971e-12,-0.20579,0,0,0.11111,-0,-8.4558e-18,0.66667
0.023909,0.61852,0.21518,0.17778,19.091,637.21,-0.10201,0.034005,-1.8855,-0.13602,1.5416e-07,-0.94273,0,0,0.11111,6.35e-17,0,0.66667
0.64606,0.72693,5.8146,0.34039,21.26,112.21,-5.278,1.7593,-1.5863,-7.0373,6.5059e-13,-0.79313,0,0,0.11111,-0,-0,0.66667
0.27371,0.95235,2.4634,0.67852,67.718,398.36,-4.4572,1.4857,-0.3603,-5.943,4.0323e-13,-0.18015,0,0,0.11111,-0,-0,0.66667
0.45368,0.64093,4.0831,0.21139,18.018,244.33,-2.3017,0.76722,-1.844,-3.0689,3.0087e-13,-0.92202,0,0,0.11111,-0,-0,0.66667
0.89562,0.55546,8.0606,0.083191,1.7299,11.578,-1.7882,0.59606,-1.974,-2.3842,1.5307e-08,-0.987,0,0,0.11111,1.0527e-15,0,0.66667
0.20404,0.24962,1.8364,-0.37557,-38.709,462.69,1.8392,-0.61306,-1.5025,2.4522,1.4555e-11,-0.75123,0,0,0.11111,-2.6316e-16,0,0.66667
0.11364,0.12572,1.0227,-0.56142,-59.706,549.46,1.5312,-0.51039,-0.87947,2.0416,8.6094e-09,-0.43973,0,0,0.11111,2.6316e-16,0,0.66667
0.61817,0.82868,5.5635,0.49303,32.736,129.15,-7.3146,2.4382,-1.1331,-9.7528,-2.3537e-14,-0.56654,0,0,0.11111,-0,-0,0.66667
0.67549,0.37953,6.0794,-0.1807,-10.512,95.513,2.9295,-0.9765,-1.8839,3.906,1.2206e-12,-0.94195,0,0,0.11111,-0,-0,0.66667
0.98885,0.48398,8.8997,-0.024031,-0.043543,0.26474,0.57031,-0.19011,-1.9964,0.76041,-4.2328e-06,-0.99819,0,0,0.11111,-2.1053e-15,0,0.66667
0.32157,0.57126,2.8941,0.10689,10.289,354.87,-0.82492,0.27497,-1.9571,-1.0999,2.0667e-13,-0.97856,0,0,0.11111,-0,-0,0.66667
0.90723,0.6197,8.165,0.17955,3.3325,9.4072,-3.9095,1.3032,-1.8884,-5.2126,2.0919e-08,-0.9442,0,0,0.11111,1.579e-15,0,0.66667
0.59047,0.84133,5.3142,0.512,35.857,146.6,-7.2557,2.4186,-1.0686,-9.6743,1.3323e-12,-0.5343,0,0,0.11111,-1.3158e-15,0,0.66667
0.076837,0.81593,0.69153,0.47389,50.712,585.3,-0.8739,0.2913,-1.2044,-1.1652,-9.0386e-08,-0.60219,0,0,0.11111,-0,-0,0.66667
0.93059,0.025954,8.3753,-0.71107,-10.249,7.3418,15.881,-5.2937,-0.20031,21.175,-2.6769e-06,-0.10016,0,0,0.11111,-1.0527e-15,0,0.66667
0.54246,0.74558,4.8822,0.36837,27.914,178.57,-4.7959,1.5986,-1.5169,-6.3945,7.7627e-13,-0.75844,0,0,0.11111,-1.0527e-15,0,0.66667
0.47386,0.94375,4.2648,0.66563,55.663,229.43,-7.57,2.5233,-0.4233,-10.093,1.5485e-12,-0.21165,0,0,0.11111,-0,-0,0.66667
0.54448,0.051543,4.9003,-0.67268,-51.036,177.86,8.7903,-2.9301,-0.39164,11.72,2.8075e-12,-0.19582,0,0,0.11111,5.2633e-16,0,0.66667
0.52734,0.99163,4.7461,0.73745,57.482,190.11,-9.3333,3.1111,-0.06561,-12.444,-2.4327e-12,-0.032805,0,0,0.11111,1.0527e-15,-1.0318e-16,0.66667
0.66148,0.11325,5.9533,-0.58013,-35.104,104.03,9.2098,-3.0699,-0.80143,12.28,-1.7764e-13,-0.40072,0,0,0.11111,1.0527e-15,0,0.66667
0.64445,0.93366,5.8,0.65049,40.982,113.94,-10.061,3.3537,-0.49543,-13.415,-9.3081e-13,-0.24771,0,0,0.11111,1.3158e-15,0,0.66667
0.17293,0.29964,1.5564,-0.30054,-31.34,492.19,1.2474,-0.41578,-1.6811,1.6631,7.4828e-10,-0.84053,0,0,0.11111,2.6316e-16,0,0.66667
0.50754,0.067573,4.5678,-0.64864,-51.912,204.17,7.901,-2.6337,-0.50208,10.535,-2.1627e-13,-0.25104,0,0,0.11111,1.0527e-15,0,0.66667
0.17819,0.88408,1.6037,0.57612,60.108,487.35,-2.4638,0.82126,-0.81762,-3.2851,2.2867e-10,-0.40881,0,0,0.11111,-0,-0,0.66667
0.46566,0.75635,4.191,0.38453,32.359,235.18,-4.2975,1.4325,-1.4745,-5.73,9.7256e-13,-0.73726,0,0,0.11111,-0,-0,0.66667
0.095605,0.1393,0.86045,-0.54106,-57.749,567,1.2415,-0.41382,-0.96022,1.6553,3.2501e-08,-0.48011,0,0,0.11111,-0,-0,0.66667
0.90893,0.29188,8.1804,-0.31218,-5.7105,9.3315,6.81,-2.27,-1.6537,9.0801,-3.5793e-08,-0.82687,0,0,0.11111,-0,-0,0.66667
0.84302,0.68888,7.5871,0.28332,8.7112,24.973,-5.7322,1.9107,-1.7187,-7.643,1.9623e-09,-0.85933,0,0,0.11111,-0,-0,0.66667
0.20466,0.17407,1.8419,-0.48889,-50.425,462.18,2.4014,-0.80046,-1.1517,3.2018,-4.0653e-11,-0.57584,0,0,0.11111,-2.6316e-16,0,0.66667
0.22201,0.42071,1.9981,-0.11894,-12.144,445.68,0.63372,-0.21124,-1.9492,0.84496,-2.2931e-12,-0.97459,0,0,0.11111,-0,-0,0.66667
0.56481,0.059662,5.0833,-0.66051,-48.492,163.92,8.9534,-2.9845,-0.45047,11.938,1.7915e-12,-0.22523,0,0,0.11111,3.9475e-16,0,0.66667
0.041276,0.55519,0.37148,0.082792,8.8786,620.13,-0.082016,0.027339,-1.9739,-0.10935,2.748e-08,-0.98694,0,0,0.11111,-0,-0,0.66667
0.97916,0.80337,8.8124,0.45505,1.8593,1.496,-10.694,3.5645,-1.262,-14.258,-1.5791e-06,-0.631,0,0,0.11111,-1.0527e-15,0,0.66667
0.34441,0.22292,3.0997,-0.41563,-39.395,335.06,3.4355,-1.1452,-1.3895,4.5807,2.8011e-12,-0.69473,0,0,0.11111,-0,-0,0.66667
0.29624,0.012106,2.6662,-0.73184,-72.082,378.08,5.2033,-1.7344,-0.098563,6.9377,3.1735e-12,-0.049282,0,0,0.11111,-1.0527e-15,0,0.66667
0.92794,0.47992,8.3515,-0.030121,-0.43438,5.8475,0.67082,-0.22361,-1.9945,0.89443,-5.1373e-08,-0.99724,0,0,0.11111,-0,-0,0.66667
0.24446,0.30123,2.2001,-0.29816,-30.13,424.84,1.7493,-0.58309,-1.6818,2.3324,-2.2164e-11,-0.84092,0,0,0.11111,-0,-0,0.66667
0.40519,0.92071,3.6467,0.63107,56.859,283.94,-6.1368,2.0456,-0.58617,-8.1824,1.0125e-12,-0.29308,0,0,0.11111,-5.2633e-16,0,0.66667
0.1838,0.8968,1.6542,0.59519,61.981,482.02,-2.6255,0.87518,-0.73975,-3.5007,2.8092e-09,-0.36988,0,0,0.11111,-2.6316e-16,0,0.66667
0.086017,0.79136,0.77415,0.43704,46.683,576.32,-0.90224,0.30075,-1.3183,-1.203,-3.1431e-08,-0.65915,0,0,0.11111,2.6316e-16,0,0.66667
0.91325,0.62485,8.2193,0.18727,3.2543,8.3366,-4.1047,1.3682,-1.8743,-5.4729,2.0504e-08,-0.93714,0,0,0.11111,-2.5494e-15,0,0.66667
0.27731,0.32441,2.4958,-0.26338,-26.123,394.65,1.7529,-0.5843,-1.7523,2.3372,-7.1863e-12,-0.87615,0,0,0.11111,-0,-0,0.66667
0.7783,0.62723,7.0047,0.19084,8.0215,47.183,-3.5648,1.1883,-1.8716,-4.753,-1.1957e-11,-0.93578,0,0,0.11111,-2.1053e-15,0,0.66667
0.16216,0.50909,1.4594,0.013641,1.4266,502.45,-0.053088,0.017696,-1.9973,-0.070784,-5.4868e-10,-0.99863,0,0,0.11111,-0,-0,0.66667
0.66577,0.30113,5.9919,-0.2983,-17.79,100.99,4.7663,-1.5888,-1.6813,6.3551,1.4952e-12,-0.84064,0,0,0.11111,-1.0527e-15,0,0.66667
0.27436,0.80006,2.4692,0.45009,44.782,397.49,-2.9637,0.98789,-1.2771,-3.9515,7.0008e-12,-0.63856,0,0,0.11111,-0,-0,0.66667
0.72525,0.54699,6.5273,0.070492,3.5679,70.169,-1.227,0.409,-1.9797,-1.636,-2.5573e-12,-0.98987,0,0,0.11111,-0,-0,0.66667
0.057234,0.30616,0.51511,-0.29077,-31.156,604.47,0.3994,-0.13313,-1.6979,0.53254,6.0711e-09,-0.84897,0,0,0.11111,3.2895e-17,0,0.66667
0.66212,0.32105,5.9591,-0.26843,-16.144,102.97,4.2656,-1.4219,-1.7418,5.6874,5.7776e-13,-0.8709,0,0,0.11111,-0,-0,0.66667
0.056097,0.61804,0.50487,0.17707,18.965,605.57,-0.23839,0.079463,-1.8865,-0.31785,2.7728e-08,-0.94325,0,0,0.11111,3.2895e-17,0,0.66667
0.65752,0.77573,5.9177,0.41359,25.188,105.81,-6.5266,2.1755,-1.3944,-8.7022,8.4333e-13,-0.69719,0,0,0.11111,-1.0527e-15,0,0.66667
0.34971,0.85953,3.1474,0.53929,50.969,330.64,-4.5263,1.5088,-0.96352,-6.0351,2.2768e-12,-0.48176,0,0,0.11111,-0,-0,0.66667
0.73581,0.79016,6.6223,0.43524,21.387,65.791,-7.6861,2.562,-1.3284,-10.248,-1.0544e-11,-0.6642,0,0,0.11111,-0,-0,0.66667
0.41791,0.029688,3.7612,-0.70547,-62.837,273.69,7.0757,-2.3586,-0.23067,9.4343,1.2328e-12,-0.11534,0,0,0.11111,-2.6316e-16,-2.4988e-17,0.66667
0.55544,0.54425,4.9989,0.066382,4.9191,169.31,-0.88491,0.29497,-1.9817,-1.1799,1.0475e-12,-0.99084,0,0,0.11111,-1.0527e-15,0,0.66667
0.18966,0.79106,1.7069,0.43659,45.287,476.34,-1.9872,0.66242,-1.3232,-2.6497,-1.1602e-10,-0.6616,0,0,0.11111,-0,-0,0.66667
0.27767,0.57146,2.4991,0.1072,10.623,394.26,-0.71438,0.23813,-1.9586,-0.95251,6.4713e-12,-0.97931,0,0,0.11111,-0,-0,0.66667
0.48609,0.32394,4.3748,-0.26408,-21.647,219.42,3.0809,-1.027,-1.7534,4.1078,-6.9922e-13,-0.8767,0,0,0.11111,1.0527e-15,0,0.66667
0.04653,0.67694,0.41877,0.26541,28.467,614.97,-0.2964,0.098799,-1.753,-0.39519,9.0347e-08,-0.87648,0,0,0.11111,-6.5791e-17,0,0.66667
0.84893,0.83095,7.6404,0.49643,14.813,23.828,-10.115,3.3715,-1.1218,-13.486,-3.7557e-10,-0.56089,0,0,0.11111,-0,-0,0.66667
0.43861,0.11627,3.9475,-0.57559,-50.067,256.75,6.0591,-2.0197,-0.82443,8.0788,2.9399e-13,-0.41222,0,0,0.11111,-0,-0,0.66667
0.1903,0.8332,1.7127,0.4998,51.862,475.78,-2.2827,0.7609,-1.1119,-3.0436,-1.0545e-10,-0.55597,0,0,0.11111,-0,-0,0.66667
0.1496,0.48883,1.3464,-0.016748,-1.7585,514.52,0.06013,-0.020043,-1.9965,0.080173,-1.4356e-09,-0.99826,0,0,0.11111,-0,-0,0.66667
0.12624,0.20331,1.1361,-0.44503,-47.129,537.19,1.3483,-0.44944,-1.2977,1.7978,7.0652e-09,-0.64885,0,0,0.11111,-0,-0,0.66667
0.48221,0.23428,4.3399,-0.39858,-32.87,222.53,4.6128,-1.5376,-1.4358,6.1504,-1.132e-12,-0.71791,0,0,0.11111,1.0527e-15,0,0.66667
0.99442,0.70979,8.9498,0.31468,0.22701,0.4953,-7.5102,2.5034,-1.646,-10.014,6.038e-07,-0.823,0,0,0.11111,-0,-0,0.66667
0.83565,0.99353,7.5208,0.7403,24.11,28.744,-14.847,4.949,-0.049251,-19.796,1.6706e-09,-0.024625,0,0,0.11111,1.579e-15,0,0.66667
0.87993,0.21715,7.9194,-0.42427,-10.174,15.616,8.9599,-2.9866,-1.3595,11.947,-7.7081e-09,-0.67974,0,0,0.11111,-5.2633e-16,0,0.66667
0.51326,0.48015,4.6194,-0.029782,-2.3518,199.13,0.36686,-0.12229,-1.9974,0.48915,4.9705e-13,-0.99871,0,0,0.11111,-0,-0,0.66667
0.013105,0.87556,0.11795,0.56333,60.686,647.86,-0.17718,0.059057,-0.87351,-0.23624,-4.0093e-06,-0.43675,0,0,0.11111,-3.2895e-17,0,0.66667
0.78924,0.063982,7.1032,-0.65403,-26.545,44.179,12.388,-4.1295,-0.47774,16.518,-4.278e-10,-0.23887,0,0,0.11111,-0,-0,0.66667
0.91445,0.39321,8.23,-0.16019,-2.7444,8.0963,3.5157,-1.1719,-1.9061,4.6875,-2.9236e-08,-0.95303,0,0,0.11111,-2.1356e-15,0,0.66667
0.063162,0.50324,0.56846,0.0048624,0.5202,598.63,-0.0073709,0.0024572,-2.0037,-0.0098277,3.8795e-07,-1.0019,0,0,0.11111,-0,-0,0.66667
0.17499,0.31232,1.5749,-0.28153,-29.333,490.22,1.1824,-0.39412,-1.7195,1.5765,6.5325e-10,-0.85974,0,0,0.11111,-2.6728e-16,0,0.66667
0.50956,0.72985,4.586,0.34477,27.409,202.07,-4.2163,1.4054,-1.5751,-5.6218,-1.112e-12,-0.78753,0,0,0.11111,-0,-0,0.66667
0.43088,0.94451,3.8779,0.66676,58.56,263.13,-6.895,2.2983,-0.41721,-9.1933,-3.7916e-12,-0.20861,0,0,0.11111,-0,-0,0.66667
0.95888,0.52057,8.6299,0.030855,0.25048,2.1492,-0.71008,0.23669,-1.9945,-0.94677,3.0334e-07,-0.99724,0,0,0.11111,-2.1053e-15,0,0.66667
0.98461,0.16511,8.8615,-0.50233,-1.4954,1.419,11.87,-3.9568,-1.1065,15.827,2.0163e-07,-0.55327,0,0,0.11111,2.1053e-15,0,0.66667
0.15433,0.54281,1.389,0.064213,6.7326,509.97,-0.23784,0.07928,-1.9864,-0.31712,-1.3355e-09,-0.99322,0,0,0.11111,-2.6316e-16,0,0.66667
0.3531,0.004495,3.1779,-0.74326,-70.255,328.07,6.2987,-2.0996,-0.034156,8.3983,-7.4727e-12,-0.017078,0,0,0.11111,-0,-0,0.66667
0.57686,0.067872,5.1917,-0.64819,-46.614,155.85,8.9739,-2.9913,-0.50872,11.965,1.0543e-12,-0.25436,0,0,0.11111,-0,-7.4921e-17,0.66667
0.42223,0.36136,3.8,-0.20796,-18.343,269.42,2.1073,-0.70244,-1.8495,2.8097,8.1934e-13,-0.92475,0,0,0.11111,-0,-0,0.66667
0.5079,0.84339,4.5711,0.51509,41.12,203.58,-6.2787,2.0929,-1.0555,-8.3716,2.0575e-12,-0.52776,0,0,0.11111,-1.1842e-15,0,0.66667
0.87702,0.051475,7.8932,-0.67279,-16.696,17.254,14.161,-4.7204,-0.39161,18.882,-6.9044e-08,-0.1958,0,0,0.11111,-0,-0,0.66667
0.060464,0.9197,0.54417,0.62954,67.634,601.38,-0.91355,0.30452,-0.59172,-1.2181,1.2079e-06,-0.29586,0,0,0.11111,-0,-0,0.66667
0.91535,0.011289,8.2382,-0.73307,-12.817,9.8145,16.104,-5.3681,-0.086836,21.473,1.6218e-07,-0.043418,0,0,0.11111,-0,-0,0.66667
0.31256,0.86811,2.813,0.55217,53.661,363.23,-4.1421,1.3807,-0.9202,-5.5227,2.669e-12,-0.4601,0,0,0.11111,-2.6316e-16,0,0.66667
0.72914,0.59123,6.5622,0.13685,6.845,68.382,-2.3948,0.79826,-1.9326,-3.193,-8.0964e-12,-0.96628,0,0,0.11111,1.0527e-15,0,0.66667
0.27511,0.53398,2.476,0.050977,5.0592,396.58,-0.33658,0.11219,-1.9895,-0.44877,-9.745e-13,-0.99473,0,0,0.11111,-0,-0,0.66667
0.72986,0.26527,6.5688,-0.35209,-17.609,68.35,6.1675,-2.0558,-1.5576,8.2233,1.2625e-11,-0.77882,0,0,0.11111,-0,-0,0.66667
0.78436,0.72778,7.0592,0.34168,14.041,45.067,-6.4319,2.144,-1.5848,-8.5759,-1.5914e-11,-0.79242,0,0,0.11111,-0,-0,0.66667
0.56721,0.29885,5.1048,-0.30172,-21.955,161.53,4.1073,-1.3691,-1.6746,5.4764,4.2077e-12,-0.83731,0,0,0.11111,-1.0527e-15,0,0.66667
0.11097,0.68494,0.99871,0.27741,29.452,551.95,-0.73881,0.24627,-1.729,-0.98508,-1.8713e-08,-0.86449,0,0,0.11111,-0,-0,0.66667
0.1247,0.32071,1.1223,-0.26894,-28.457,538.62,0.80488,-0.26829,-1.7465,1.0732,1.0097e-08,-0.87327,0,0,0.11111,-0,-0,0.66667
0.85571,0.090777,7.7014,-0.61383,-17.633,22.393,12.606,-4.2021,-0.6605,16.808,1.8075e-10,-0.33025,0,0,0.11111,1.5692e-15,-1.1909e-18,0.66667
0.93388,0.010177,8.405,-0.73474,-10.129,7.0149,16.468,-5.4893,-0.07993,21.957,-1.3176e-07,-0.039965,0,0,0.11111,-4.2106e-15,0,0.66667
0.64865,0.4219,5.8379,-0.11715,-7.2621,110.45,1.8238,-0.60792,-1.9484,2.4317,1.7547e-12,-0.97422,0,0,0.11111,-1.8208e-15,0,0.66667
0.18497,0.72501,1.6648,0.33751,35.047,480.73,-1.4983,0.49945,-1.5958,-1.9978,-2.6981e-10,-0.79792,0,0,0.11111,-5.2633e-16,0,0.66667
0.72233,0.58377,6.5009,0.12566,6.419,71.593,-2.1784,0.72612,-1.9433,-2.9045,-5.3744e-12,-0.97163,0,0,0.11111,1.0527e-15,0,0.66667
0.22405,0.94462,2.0164,0.66693,68.331,444.16,-3.5861,1.1954,-0.41694,-4.7815,5.0535e-11,-0.20847,0,0,0.11111,-0,-0,0.66667
0.75275,0.83358,6.7747,0.50037,23.258,58.432,-9.0397,3.0132,-1.11,-12.053,-4.0908e-11,-0.555,0,0,0.11111,-1.0527e-15,0,0.66667
0.99863,0.73645,8.9876,0.35467,-0.05552,0.52185,-8.5004,2.8335,-1.5545,-11.334,1.1572e-06,-0.77724,0,0,0.11111,-0,-0,0.66667
0.92131,0.72646,8.2918,0.33969,5.3892,7.2897,-7.511,2.5037,-1.5931,-10.015,6.5082e-08,-0.79653,0,0,0.11111,-0,-0,0.66667
0.52727,0.85522,4.7454,0.53282,41.393,189.62,-6.7426,2.2475,-0.98951,-8.9901,-8.0602e-13,-0.49475,0,0,0.11111,-1.0527e-15,0,0.66667
0.62264,0.69028,5.6038,0.28543,18.733,126.01,-4.2653,1.4218,-1.7119,-5.687,2.5153e-12,-0.85597,0,0,0.11111,-2.1053e-15,0,0.66667
0.31542,0.25648,2.8388,-0.36528,-35.363,360.48,2.7652,-0.92172,-1.526,3.6869,-7.4052e-13,-0.763,0,0,0.11111,-0,-0,0.66667
0.88054,0.50339,7.9248,0.0050788,0.12026,14.843,-0.10733,0.035776,-1.9987,-0.14311,-2.0935e-08,-0.99937,0,0,0.11111,-0,-0,0.66667
0.86029,0.74133,7.7426,0.36199,9.9989,20.321,-7.474,2.4913,-1.5368,-9.9653,4.6693e-09,-0.7684,0,0,0.11111,-0,-0,0.66667
0.060565,0.46919,0.54508,-0.04621,-4.9456,601.18,0.067169,-0.02239,-1.995,0.089559,2.6514e-07,-0.99749,0,0,0.11111,-0,-0,0.66667
0.54964,0.49547,4.9468,-0.006794,-0.50812,173.29,0.089623,-0.029874,-2.0007,0.1195,1.3605e-12,-1.0003,0,0,0.11111,-2.6316e-16,0,0.66667
0.38057,0.38521,3.4251,-0.17219,-15.808,303.89,1.5727,-0.52423,-1.8926,2.0969,1.2801e-13,-0.94628,0,0,0.11111,-0,-0,0.66667
0.55684,0.59003,5.0116,0.13504,9.9857,168.38,-1.8047,0.60156,-1.9339,-2.4062,-7.9159e-14,-0.96694,0,0,0.11111,6.9119e-16,0,0.66667
0.18217,0.57512,1.6396,0.11268,11.701,483.32,-0.49264,0.16421,-1.9528,-0.65685,-1.1615e-10,-0.97641,0,0,0.11111,-2.6316e-16,0,0.66667
0.79219,0.59841,7.1297,0.14761,5.8546,41.787,-2.8065,0.9355,-1.9217,-3.742,3.6501e-11,-0.96083,0,0,0.11111,2.1053e-15,0,0.66667
0.11789,0.92298,1.061,0.63447,67.465,545.37,-1.7952,0.5984,-0.56602,-2.3936,-9.5543e-08,-0.28301,0,0,0.11111,-1.3961e-16,0,0.66667
0.20303,0.13783,1.8273,-0.54325,-56.102,463.77,2.6471,-0.88238,-0.9544,3.5295,-1.8323e-10,-0.4772,0,0,0.11111,-0,-1.4956e-16,0.66667
0.02395,0.25079,0.21555,-0.37382,-40.185,637.18,0.21487,-0.071624,-1.5019,0.28649,-8.7365e-07,-0.75097,0,0,0.11111,-0,-0,0.66667
0.058498,0.37725,0.52648,-0.18413,-19.717,603.22,0.25851,-0.086169,-1.8795,0.34468,-2.8449e-08,-0.93976,0,0,0.11111,-0,-0,0.66667
0.11918,0.33199,1.0726,-0.25201,-26.7,543.97,0.72082,-0.24027,-1.772,0.9611,1.2529e-08,-0.88598,0,0,0.11111,-1.3158e-16,0,0.66667
0.45136,0.15015,4.0623,-0.52478,-44.973,246.56,5.6848,-1.8949,-1.0227,7.5797,1.5805e-12,-0.51133,0,0,0.11111,5.2633e-16,0,0.66667
0.89569,0.94915,8.0612,0.67372,14.312,13.165,-14.483,4.8275,-0.38431,-19.31,1.9174e-08,-0.19215,0,0,0.11111,-0,-0,0.66667
0.10377,0.30876,0.93392,-0.28686,-30.504,558.96,0.7144,-0.23813,-1.7062,0.95253,2.6021e-08,-0.85309,0,0,0.11111,-3.2895e-17,0,0.66667
0.99739,0.48015,8.9765,-0.029776,0.00055425,0.043544,0.71275,-0.23758,-1.9971,0.95034,7.7905e-06,-0.99856,0,0,0.11111,-0,-0,0.66667
0.92242,0.27988,8.3018,-0.33017,-5.163,7.0904,7.3094,-2.4365,-1.6168,9.7459,-6.779e-08,-0.80838,0,0,0.11111,-5.2633e-16,0,0.66667
0.12597,0.54934,1.1337,0.074016,7.8241,537.35,-0.22377,0.07459,-1.9829,-0.29836,-2.7651e-09,-0.99143,0,0,0.11111,-1.3158e-16,0,0.66667
0.56161,0.92168,5.0545,0.63252,46.66,166,-8.5254,2.8418,-0.5799,-11.367,6.1817e-13,-0.28995,0,0,0.11111,-1.0527e-15,1.3156e-16,0.66667
0.57872,0.79049,5.2085,0.43574,31.13,154.09,-6.0521,2.0174,-1.3281,-8.0695,1.2692e-12,-0.66403,0,0,0.11111,-0,-0,0.66667
0.78149,0.63883,7.0334,0.20824,8.6428,45.952,-3.9057,1.3019,-1.8493,-5.2076,-1.223e-11,-0.92463,0,0,0.11111,1.0527e-15,0,0.66667
0.099377,0.19821,0.8944,-0.45268,-48.239,563.29,1.0797,-0.35989,-1.2693,1.4396,3.2729e-08,-0.63465,0,0,0.11111,-0,-0,0.66667
0.089059,0.7685,0.80153,0.40274,42.984,573.34,-0.86083,0.28694,-1.4216,-1.1478,-2.9915e-08,-0.71081,0,0,0.11111,-1.3158e-16,0,0.66667
0.94471,0.51726,8.5024,0.025891,0.28557,3.624,-0.58704,0.19568,-1.9949,-0.78271,-2.3917e-07,-0.99745,0,0,0.11111,-0,-0,0.66667
0.42548,0.32683,3.8293,-0.25975,-22.841,266.83,2.6525,-0.88416,-1.7593,3.5366,1.3693e-12,-0.87963,0,0,0.11111,-0,-0,0.66667
0.81916,0.75611,7.3724,0.38416,13.484,32.661,-7.5525,2.5175,-1.4733,-10.07,3.596e-10,-0.73664,0,0,0.11111,-0,-0,0.66667
0.78299,0.12535,7.0469,-0.56198,-23.34,46.219,10.561,-3.5202,-0.87993,14.081,-4.3053e-10,-0.43997,0,0,0.11111,-0,-0,0.66667
0.8379,0.22923,7.5411,-0.40616,-12.901,26.78,8.1676,-2.7225,-1.4113,10.89,-1.3109e-09,-0.70565,0,0,0.11111,-0,-0,0.66667
0.13975,0.37112,1.2578,-0.19332,-20.366,524.03,0.64841,-0.21614,-1.8705,0.86454,4.902e-09,-0.93526,0,0,0.11111,2.6316e-16,0,0.66667
0.091732,0.80778,0.82559,0.46167,49.274,570.75,-1.0164,0.3388,-1.2438,-1.3552,-2.6936e-08,-0.62192,0,0,0.11111,3.2895e-17,0,0.66667
0.44285,0.43537,3.9857,-0.096951,-8.3616,252.81,1.0304,-0.34348,-1.9657,1.3739,-2.8807e-12,-0.98287,0,0,0.11111,5.2633e-16,0,0.66667
0.8081,0.926,7.2729,0.63901,23.843,37.27,-12.393,4.1311,-0.54678,-16.524,-2.0688e-10,-0.27339,0,0,0.11111,-0,-0,0.66667
0.14031,0.93136,1.2628,0.64705,68.409,523.71,-2.1789,0.72631,-0.51534,-2.9053,4.6944e-08,-0.25767,0,0,0.11111,6.5791e-17,0,0.66667
0.17975,0.85749,1.6177,0.53624,55.89,485.83,-2.3133,0.77109,-0.97486,-3.0844,-4.721e-10,-0.48743,0,0,0.11111,-0,-0,0.66667
0.1606,0.044473,1.4454,-0.68329,-71.824,504.24,2.6336,-0.87788,-0.33853,3.5115,-1.3975e-10,-0.16926,0,0,0.11111,2.6316e-16,0,0.66667
0.23062,0.062793,2.0756,-0.65581,-66.97,438.02,3.6298,-1.2099,-0.47146,4.8398,-1.6594e-10,-0.23573,0,0,0.11111,-0,-0,0.66667
0.32804,0.40405,2.9524,-0.14392,-13.79,349.17,1.1331,-0.37771,-1.9313,1.5108,-1.8617e-12,-0.96565,0,0,0.11111,1.3158e-16,0,0.66667
0.06778,0.081351,0.61002,-0.62797,-67.4,594.21,1.0215,-0.34051,-0.59587,1.362,7.0784e-09,-0.29793,0,0,0.11111,-8.0267e-17,0,0.66667
0.38652,0.61918,3.4787,0.17877,16.324,298.88,-1.6584,0.55279,-1.8858,-2.2112,-1.3081e-12,-0.94288,0,0,0.11111,7.8949e-16,0,0.66667
0.28048,0.76723,2.5244,0.40084,39.718,391.87,-2.6983,0.89944,-1.4313,-3.5978,8.9129e-12,-0.71566,0,0,0.11111,-0,-0,0.66667
0.15318,0.87575,1.3787,0.56363,59.3,511.26,-2.0721,0.69071,-0.8717,-2.7628,-4.5768e-09,-0.43585,0,0,0.11111,5.2633e-16,7.608e-20,0.66667
0.31327,0.55583,2.8195,0.083742,8.1083,362.22,-0.62962,0.20987,-1.9782,-0.8395,6.4893e-13,-0.98911,0,0,0.11111,-0,-0,0.66667
0.49926,0.70099,4.4933,0.30148,24.297,209.61,-3.6124,1.2041,-1.6795,-4.8166,-1.0247e-12,-0.83975,0,0,0.11111,-0,-0,0.66667
0.67091,0.26949,6.0382,-0.34577,-20.375,98.236,5.5676,-1.8559,-1.5773,7.4234,7.4785e-13,-0.78865,0,0,0.11111,-0,-0,0.66667
0.29158,0.70152,2.6242,0.30228,29.723,381.76,-2.1153,0.7051,-1.6731,-2.8204,4.7786e-12,-0.83653,0,0,0.11111,5.2633e-16,0,0.66667
0.48683,0.93705,4.3815,0.65557,53.931,219.56,-7.6596,2.5532,-0.47386,-10.213,-3.11e-12,-0.23693,0,0,0.11111,-2.6316e-16,0,0.66667
0.69406,0.034591,6.2465,-0.69811,-39.022,86.954,11.629,-3.8763,-0.26561,15.505,-1.9815e-12,-0.13281,0,0,0.11111,-0,-0,0.66667
0.94232,0.17582,8.4809,-0.48626,-5.7194,4.7985,10.997,-3.6657,-1.1576,14.663,-3.4288e-08,-0.57879,0,0,0.11111,1.0527e-15,0,0.66667
0.11331,0.60785,1.0198,0.16178,17.158,549.65,-0.43996,0.14665,-1.9058,-0.58662,-1.2271e-08,-0.95291,0,0,0.11111,-0,-0,0.66667
0.37705,0.53276,3.3935,0.049137,4.5238,306.82,-0.44465,0.14822,-1.9936,-0.59287,7.4425e-12,-0.99681,0,0,0.11111,-0,-0,0.66667
0.86667,0.21037,7.8001,-0.43445,-11.509,18.865,9.0365,-3.0122,-1.3265,12.049,-6.0459e-09,-0.66327,0,0,0.11111,-0,-0,0.66667
0.76793,0.81183,6.9114,0.46774,20.559,51.93,-8.6206,2.8735,-1.2242,-11.494,-8.1859e-11,-0.61209,0,0,0.11111,-1.0527e-15,0,0.66667
0.82594,0.12599,7.4335,-0.56102,-19.113,30.999,11.121,-3.707,-0.88307,14.828,1.3497e-10,-0.44153,0,0,0.11111,-2.1053e-15,0,0.66667
0.036904,0.38288,0.33214,-0.17568,-18.85,624.43,0.1556,-0.051866,-1.8884,0.20746,-1.2992e-07,-0.94421,0,0,0.11111,-0,-0,0.66667
0.80406,0.38067,7.2365,-0.17899,-6.7348,37.482,3.454,-1.1513,-1.8841,4.6053,-1.3932e-10,-0.94203,0,0,0.11111,-0,-0,0.66667
0.095263,0.42336,0.85737,-0.11496,-12.237,567.22,0.26283,-0.087611,-1.9545,0.35044,1.3851e-08,-0.97727,0,0,0.11111,1.3158e-16,0,0.66667
0.35271,0.098327,3.1744,-0.60251,-56.851,328.15,5.1002,-1.7001,-0.7075,6.8003,6.1089e-12,-0.35375,0,0,0.11111,-0,-0,0.66667
0.23302,0.85235,2.0972,0.52852,53.825,435.64,-2.9558,0.98527,-1.0089,-3.9411,9.0898e-12,-0.50445,0,0,0.11111,-0,9.9579e-18,0.66667
0.98438,0.12663,8.8594,-0.56006,-1.7303,1.6701,13.231,-4.4105,-0.88993,17.642,-7.1298e-07,-0.44497,0,0,0.11111,4.2106e-15,0,0.66667
0.48234,0.089524,4.3411,-0.61571,-50.909,222.85,7.1276,-2.3759,-0.65382,9.5035,-1.0147e-12,-0.32691,0,0,0.11111,-7.8949e-16,0,0.66667
0.28033,0.85604,2.523,0.53407,52.993,392.15,-3.5931,1.1977,-0.9883,-4.7909,3.2065e-12,-0.49415,0,0,0.11111,5.2633e-16,1.7402e-16,0.66667
0.42077,0.1314,3.787,-0.5529,-48.994,271.05,5.5835,-1.8612,-0.91577,7.4446,2.0264e-12,-0.45789,0,0,0.11111,-0,-0,0.66667
0.13901,0.42191,1.2511,-0.11714,-12.34,524.74,0.39079,-0.13026,-1.9526,0.52105,3.3799e-09,-0.97629,0,0,0.11111,-1.6462e-16,0,0.66667
0.78121,0.59495,7.0309,0.14243,5.9145,45.987,-2.6704,0.89013,-1.9331,-3.5605,2.2369e-11,-0.96655,0,0,0.11111,2.1053e-15,0,0.66667
0.82105,0.86609,7.3895,0.54913,19.177,32.54,-10.821,3.6069,-0.92546,-14.428,1.0002e-09,-0.46273,0,0,0.11111,1.0527e-15,0,0.66667
0.0059699,0.80743,0.053729,0.46114,49.634,654.88,-0.06607,0.022022,-1.2423,-0.088094,-1.4288e-06,-0.62115,0,0,0.11111,-0,-0,0.66667
0.35861,0.90751,3.2275,0.61127,57.408,323.09,-5.261,1.7537,-0.6755,-7.0146,4.7016e-12,-0.33775,0,0,0.11111,-1.0527e-15,0,0.66667
0.92793,0.57732,8.3514,0.11597,1.6742,5.8958,-2.5828,0.86093,-1.9497,-3.4437,3.6262e-08,-0.97487,0,0,0.11111,-0,-0,0.66667
0.55859,0.34121,5.0273,-0.23818,-17.572,167.28,3.1931,-1.0644,-1.7984,4.2574,-2.1962e-12,-0.89918,0,0,0.11111,1.4812e-15,0,0.66667
0.17029,0.65394,1.5326,0.23091,24.094,494.69,-0.94376,0.31459,-1.8131,-1.2584,-7.5655e-10,-0.90654,0,0,0.11111,-3.6185e-16,0,0.66667
0.39769,0.27575,3.5792,-0.33638,-30.426,289.69,3.2105,-1.0702,-1.5957,4.2807,5.6177e-14,-0.79785,0,0,0.11111,5.2633e-16,0,0.66667
0.63071,0.012783,5.6764,-0.73083,-47.51,122.29,11.063,-3.6875,-0.098724,14.75,4.5626e-12,-0.049362,0,0,0.11111,-2.1053e-15,0,0.66667
0.7635,0.13408,6.8715,-0.54888,-24.574,54.015,10.058,-3.3525,-0.92986,13.41,3.8365e-11,-0.46493,0,0,0.11111,2.1053e-15,-6.6211e-17,0.66667
0.98548,0.12831,8.8693,-0.55753,-1.5904,1.6143,13.187,-4.3955,-0.89793,17.582,-2.1604e-06,-0.44896,0,0,0.11111,-0,-0,0.66667
0.97769,0.7979,8.7992,0.44685,1.9616,1.5458,-10.485,3.495,-1.2874,-13.98,-1.6002e-06,-0.64371,0,0,0.11111,2.1053e-15,0,0.66667
0.44414,0.81817,3.9972,0.47725,41.21,252.18,-5.0871,1.6957,-1.1882,-6.7828,-3.026e-12,-0.59412,0,0,0.11111,1.0527e-15,0,0.66667
0.91798,0.25069,8.2618,-0.37396,-6.1895,7.9194,8.2389,-2.7463,-1.5032,10.985,-5.5624e-08,-0.75161,0,0,0.11111,4.2106e-15,0,0.66667
0.72376,0.76704,6.5138,0.40056,20.433,71.328,-6.9579,2.3193,-1.4276,-9.2772,-1.0518e-11,-0.7138,0,0,0.11111,-1.0527e-15,0,0.66667
0.15494,0.29825,1.3945,-0.30262,-31.75,509.44,1.1253,-0.3751,-1.6762,1.5004,2.1499e-09,-0.8381,0,0,0.11111,-1.8348e-16,0,0.66667
0.56932,0.47383,5.1239,-0.039254,-2.8425,159.9,0.53636,-0.17879,-1.9926,0.71514,7.736e-13,-0.99632,0,0,0.11111,-0,-0,0.66667
0.52955,0.08678,4.766,-0.61983,-48.055,188.2,7.8776,-2.6259,-0.63579,10.503,1.851e-12,-0.3179,0,0,0.11111,-0,-9.121e-17,0.66667
0.93954,0.47528,8.4559,-0.037087,-0.44809,4.2572,0.83627,-0.27876,-1.9965,1.115,-6.0224e-08,-0.99826,0,0,0.11111,-0,-0,0.66667
0.69262,0.80615,6.2336,0.45922,25.636,86.929,-7.6336,2.5445,-1.2488,-10.178,-1.7621e-12,-0.6244,0,0,0.11111,1.0527e-15,0,0.66667
0.53942,0.84989,4.8548,0.52484,40.033,181,-6.7947,2.2649,-1.0185,-9.0595,-1.9402e-12,-0.50924,0,0,0.11111,-0,-0,0.66667
0.91872,0.2421,8.2685,-0.38684,-6.3497,7.8332,8.5296,-2.8432,-1.4679,11.373,-5.8057e-08,-0.73396,0,0,0.11111,-0,-0,0.66667
0.080916,0.2071,0.72825,-0.43935,-46.971,581.3,0.85322,-0.28441,-1.3137,1.1376,5.8787e-08,-0.65687,0,0,0.11111,-0,-0,0.66667
0.30942,0.1449,2.7848,-0.53265,-51.864,366,3.9555,-1.3185,-0.99103,5.274,5.4801e-13,-0.49552,0,0,0.11111,-0,-0,0.66667
0.36636,0.72165,3.2972,0.33247,30.931,316.07,-2.9233,0.97442,-1.6054,-3.8977,-6.3327e-13,-0.80271,0,0,0.11111,1.0527e-15,0,0.66667
0.011747,0.3301,0.10572,-0.25485,-27.388,649.19,0.071849,-0.023949,-1.768,0.095798,1.5849e-07,-0.884,0,0,0.11111,-0,-0,0.66667
0.54516,0.50094,4.9064,0.0014064,0.10593,176.4,-0.018401,0.0061337,-2.0027,-0.024535,1.8294e-12,-1.0014,0,0,0.11111,-0,-0,0.66667
0.38558,0.59638,3.4702,0.14457,13.211,299.66,-1.3378,0.44594,-1.9249,-1.7838,1.1985e-12,-0.96246,0,0,0.11111,1.0527e-15,0,0.66667
0.46514,0.19373,4.1863,-0.4594,-38.713,235.7,5.1285,-1.7095,-1.2494,6.838,1.1031e-12,-0.62468,0,0,0.11111,-0,-0,0.66667
0.052614,0.35369,0.47353,-0.21947,-23.52,609,0.27713,-0.092378,-1.8267,0.36951,-4.4813e-08,-0.91333,0,0,0.11111,-0,-0,0.66667
0.98055,0.26454,8.8249,-0.35319,-1.3091,1.1027,8.3116,-2.7705,-1.5554,11.082,5.5832e-07,-0.77772,0,0,0.11111,-2.1053e-15,0,0.66667
0.87537,0.80673,7.8784,0.4601,11.447,16.8,-9.6662,3.2221,-1.2512,-12.888,7.5227e-09,-0.6256,0,0,0.11111,-1.579e-15,0,0.66667
0.31262,0.25213,2.8136,-0.37181,-36.068,362.97,2.7896,-0.92988,-1.5134,3.7195,1.6505e-12,-0.75669,0,0,0.11111,-0,-0,0.66667
0.081769,0.19176,0.73592,-0.46237,-49.434,580.47,0.90738,-0.30246,-1.2399,1.2098,4.9469e-08,-0.61995,0,0,0.11111,-0,-0,0.66667
0.1066,0.10151,0.95941,-0.59774,-63.695,556.32,1.5293,-0.50976,-0.73002,2.039,2.482e-08,-0.36501,0,0,0.11111,-0,-7.4377e-17,0.66667
0.11128,0.15852,1.0015,-0.51222,-54.475,551.73,1.368,-0.45599,-1.0694,1.824,1.548e-08,-0.53469,0,0,0.11111,-0,-0,0.66667
0.31416,0.97084,2.8275,0.70625,68.7,362.05,-5.3251,1.775,-0.22911,-7.1001,6.346e-13,-0.11456,0,0,0.11111,-0,-0,0.66667
0.74672,0.34448,6.7205,-0.23328,-11.023,60.482,4.1807,-1.3936,-1.8075,5.5743,1.8261e-11,-0.90375,0,0,0.11111,-0,-0,0.66667
0.86782,0.0019669,7.8104,-0.74705,-19.915,19.856,15.559,-5.1865,-0.014286,20.746,1.0498e-09,-0.0071432,0,0,0.11111,-0,-0,0.66667
0.45038,0.92507,4.0534,0.6376,54.79,247.57,-6.8919,2.2973,-0.55461,-9.1892,-4.9649e-13,-0.27731,0,0,0.11111,-0,-1.4691e-16,0.66667
0.7354,0.7774,6.6186,0.41609,20.467,65.933,-7.3439,2.448,-1.3876,-9.7919,-8.4253e-12,-0.6938,0,0,0.11111,-2.6316e-16,0,0.66667
0.19541,0.90556,1.7587,0.60834,63.071,471.02,-2.853,0.95102,-0.68296,-3.8041,-1.8594e-09,-0.34148,0,0,0.11111,-6.5791e-17,0,0.66667
0.1939,0.052008,1.7451,-0.67199,-69.769,472.51,3.1272,-1.0424,-0.39206,4.1697,-8.6268e-10,-0.19603,0,0,0.11111,-0,-0,0.66667
0.36744,0.091851,3.307,-0.61222,-57.074,315.53,5.399,-1.7997,-0.66587,7.1986,-1.1395e-12,-0.33294,0,0,0.11111,-1.3158e-16,0,0.66667
0.34924,0.47648,3.1432,-0.035287,-3.3256,330.64,0.29576,-0.098588,-1.9938,0.39435,-3.8355e-13,-0.99691,0,0,0.11111,-0,-0,0.66667
0.30208,0.6383,2.7187,0.20745,20.248,372.26,-1.504,0.50132,-1.845,-2.0053,3.9171e-12,-0.9225,0,0,0.11111,5.2633e-16,0,0.66667
0.54976,0.12317,4.9478,-0.56524,-42.453,173.91,7.4579,-2.486,-0.86521,9.9439,2.6694e-12,-0.4326,0,0,0.11111,1.0527e-15,0,0.66667
0.012695,0.45907,0.11426,-0.061393,-6.5938,648.25,0.018706,-0.0062367,-1.9867,0.02494,-2.1613e-06,-0.99333,0,0,0.11111,-1.6448e-17,0,0.66667
0.35923,0.86273,3.2331,0.54409,51.028,322.44,-4.6909,1.5636,-0.9511,-6.2545,2.955e-12,-0.47555,0,0,0.11111,-5.2633e-16,-1.4583e-16,0.66667
0.68499,0.67585,6.1649,0.26377,14.986,90.531,-4.3364,1.4455,-1.753,-5.7818,-2.8821e-12,-0.8765,0,0,0.11111,-0,-0,0.66667
0.20754,0.64976,1.8679,0.22464,23.097,459.31,-1.1189,0.37297,-1.8196,-1.4919,-2.5581e-11,-0.90982,0,0,0.11111,-2.6316e-16,0,0.66667
0.18084,0.94673,1.6275,0.6701,69.925,484.91,-2.9083,0.96943,-0.4011,-3.8777,-4.1847e-09,-0.20055,0,0,0.11111,5.2633e-16,0,0.66667
0.29412,0.78172,2.647,0.42259,41.523,379.57,-2.9829,0.99431,-1.3667,-3.9772,5.0737e-13,-0.68333,0,0,0.11111,1.0527e-15,0,0.66667
0.0056085,0.85954,0.050477,0.53931,58.092,655.23,-0.072592,0.024195,-0.9636,-0.09679,-2.688e-06,-0.4818,0,0,0.11111,-8.2239e-18,-6.7205e-17,0.66667
0.34478,0.093471,3.1031,-0.60979,-57.908,335.02,5.0459,-1.682,-0.68172,6.7279,2.6317e-12,-0.34086,0,0,0.11111,6.6613e-16,0,0.66667
0.8284,0.54598,7.4556,0.068969,2.2971,29.187,-1.3712,0.45707,-1.9865,-1.8283,3.0365e-10,-0.99323,0,0,0.11111,-0,-0,0.66667
0.022289,0.46279,0.2006,-0.055819,-5.9931,638.8,0.02986,-0.0099529,-1.987,0.039814,6.8062e-07,-0.99348,0,0,0.11111,-3.2895e-17,0,0.66667
0.030319,0.51366,0.27287,0.020497,2.1997,630.9,-0.014915,0.0049729,-2.0009,-0.019886,1.7704e-06,-1.0004,0,0,0.11111,-0,-0,0.66667
0.37436,0.48691,3.3692,-0.019641,-1.8125,309.1,0.17647,-0.058823,-2.0015,0.23529,-5.4142e-12,-1.0007,0,0,0.11111,5.2633e-16,0,0.66667
0.06536,0.46196,0.58824,-0.057059,-6.1029,596.48,0.089505,-0.029835,-1.9889,0.11934,1.6057e-08,-0.99443,0,0,0.11111,-6.5791e-17,0,0.66667
0.85305,0.87188,7.6774,0.55782,16.26,22.898,-11.42,3.8068,-0.8922,-15.227,3.9878e-09,-0.4461,0,0,0.11111,2.6316e-16,0,0.66667
0.36355,0.95926,3.272,0.68889,64.503,319,-6.0107,2.0036,-0.31159,-8.0143,1.1124e-12,-0.15579,0,0,0.11111,-0,-0,0.66667
0.70869,0.054388,6.3782,-0.66842,-35.853,79.458,11.369,-3.7896,-0.40961,15.158,-6.4126e-13,-0.20481,0,0,0.11111,5.2633e-16,0,0.66667
0.34251,0.84271,3.0826,0.51407,48.847,336.85,-4.2257,1.4086,-1.0638,-5.6343,1.898e-12,-0.53188,0,0,0.11111,-7.566e-16,0,0.66667
0.28541,0.31991,2.5687,-0.27014,-26.661,387.3,1.8504,-0.6168,-1.7397,2.4672,-3.4204e-12,-0.86984,0,0,0.11111,-0,-0,0.66667
0.0054914,0.54289,0.049423,0.064328,6.91,655.34,-0.0084779,0.0028246,-1.9832,-0.011305,-2.0516e-06,-0.99161,0,0,0.11111,-0,-0,0.66667
0.27003,0.96627,2.4303,0.69941,69.975,401.74,-4.5328,1.5109,-0.2604,-6.0437,1.2217e-12,-0.1302,0,0,0.11111,6.5791e-16,0,0.66667
0.55821,0.31488,5.0239,-0.27767,-20.505,167.58,3.72,-1.24,-1.7257,4.96,5.2376e-12,-0.86283,0,0,0.11111,-2.1053e-15,0,0.66667
0.39521,0.10285,3.5569,-0.59572,-54.161,292.13,5.6504,-1.8835,-0.73685,7.5339,1.4615e-12,-0.36842,0,0,0.11111,1.0527e-15,0,0.66667
0.84515,0.74048,7.6064,0.36073,10.969,24.518,-7.3168,2.4389,-1.5393,-9.7558,2.1635e-09,-0.76964,0,0,0.11111,-0,-0,0.66667
0.25356,0.77002,2.2821,0.40503,40.763,416.5,-2.4648,0.8216,-1.416,-3.2864,1.7528e-11,-0.70802,0,0,0.11111,2.6316e-16,0,0.66667
0.92019,0.55431,8.2817,0.081458,1.3013,7.0687,-1.799,0.59965,-1.9781,-2.3986,2.1729e-08,-0.98904,0,0,0.11111,1.0527e-15,0,0.66667
0.14496,0.19467,1.3046,-0.458,-48.257,519.11,1.5934,-0.53113,-1.2532,2.1245,3.1158e-09,-0.62661,0,0,0.11111,-0,-0,0.66667
0.48392,0.9817,4.3552,0.72256,59.732,221.94,-8.3917,2.7972,-0.14682,-11.189,1.4948e-12,-0.073409,0,0,0.11111,-0,-0,0.66667
0.20199,0.34741,1.8179,-0.22888,-23.59,464.56,1.1096,-0.36985,-1.8168,1.4794,4.2971e-11,-0.90839,0,0,0.11111,-0,-0,0.66667
0.11218,0.70238,1.0096,0.30357,32.225,550.78,-0.81733,0.27244,-1.6723,-1.0898,-1.7841e-08,-0.83614,0,0,0.11111,-0,-0,0.66667
0.078936,0.89002,0.71042,0.58504,62.657,583.29,-1.1083,0.36944,-0.78558,-1.4778,-1.5158e-09,-0.39279,0,0,0.11111,-1.3158e-16,0,0.66667
0.097961,0.085307,0.88165,-0.62204,-66.422,564.74,1.4625,-0.48749,-0.62323,1.9499,-1.476e-08,-0.31162,0,0,0.11111,-1.3158e-16,0,0.66667
0.44342,0.31687,3.9908,-0.27469,-23.695,252.47,2.9233,-0.97445,-1.7302,3.8978,2.669e-13,-0.86511,0,0,0.11111,-0,-0,0.66667
0.49394,0.86576,4.4454,0.54864,44.648,213.98,-6.5038,2.1679,-0.92762,-8.6717,8.6198e-13,-0.46381,0,0,0.11111,-0,-0,0.66667
0.29445,0.90543,2.6501,0.60815,59.864,379.5,-4.2977,1.4326,-0.6869,-5.7302,-4.9978e-12,-0.34345,0,0,0.11111,6.9081e-16,0,0.66667
0.71033,0.70738,6.393,0.31106,16.494,77.651,-5.303,1.7677,-1.6534,-7.0707,-5.989e-12,-0.82668,0,0,0.11111,-0,-0,0.66667
0.0215,0.4948,0.1935,-0.007805,-0.83799,639.58,0.0040273,-0.0013435,-1.9982,0.0053692,-1.6029e-06,-0.99909,0,0,0.11111,4.5626e-17,0,0.66667
0.30959,0.66677,2.7863,0.25015,24.297,365.57,-1.8587,0.61956,-1.7775,-2.4783,2.4942e-12,-0.88876,0,0,0.11111,-5.2633e-16,0,0.66667
0.84278,0.99771,7.5851,0.74657,23.356,26.649,-15.101,5.0336,-0.021804,-20.134,-4.3344e-09,-0.010902,0,0,0.11111,1.579e-15,3.5719e-17,0.66667
0.54746,0.3655,4.9271,-0.20176,-15.15,174.89,2.6509,-0.88362,-1.8584,3.5345,3.9302e-13,-0.92921,0,0,0.11111,5.2633e-16,0,0.66667
0.05517,0.16096,0.49653,-0.50857,-54.598,606.53,0.67338,-0.22446,-1.0785,0.89784,-1.5563e-08,-0.53924,0,0,0.11111,-0,-0,0.66667
0.51017,0.8193,4.5915,0.47895,38.098,201.85,-5.8643,1.9548,-1.1828,-7.819,-2.7711e-12,-0.59138,0,0,0.11111,-0,-0,0.66667
0.29425,0.90758,2.6483,0.61137,60.192,379.68,-4.3176,1.4392,-0.67258,-5.7568,-2.3217e-12,-0.33629,0,0,0.11111,-0,1.4209e-16,0.66667
0.16633,0.020615,1.4969,-0.71908,-75.478,498.79,2.8705,-0.95682,-0.15948,3.8273,2.1769e-09,-0.07974,0,0,0.11111,-0,-0,0.66667
0.67928,0.38913,6.1136,-0.1663,-9.581,93.455,2.7112,-0.90375,-1.8989,3.615,2.0024e-12,-0.94946,0,0,0.11111,-1.0527e-15,0,0.66667
0.19682,0.54707,1.7714,0.070602,7.2889,469.41,-0.3335,0.11117,-1.9798,-0.44466,-2.675e-11,-0.98988,0,0,0.11111,-0,-0,0.66667
0.39589,0.89271,3.563,0.58907,53.516,291.55,-5.597,1.8657,-0.76419,-7.4626,-2.3719e-12,-0.38209,0,0,0.11111,-0,-0,0.66667
0.72776,0.28688,6.5499,-0.31969,-16.087,69.268,5.5838,-1.8613,-1.6347,7.445,1.2565e-11,-0.81736,0,0,0.11111,-0,-0,0.66667
0.80994,0.72485,7.2894,0.33727,12.373,35.68,-6.556,2.1853,-1.5964,-8.7413,1.8681e-10,-0.7982,0,0,0.11111,2.1053e-15,0,0.66667
0.60148,0.7141,5.4134,0.32115,21.983,139.19,-4.636,1.5453,-1.6314,-6.1814,-1.4153e-12,-0.81568,0,0,0.11111,1.0527e-15,0,0.66667
0.13081,0.80871,1.1773,0.46306,48.987,532.77,-1.4537,0.48458,-1.2363,-1.9383,-4.9821e-09,-0.61813,0,0,0.11111,-2.6316e-16,0,0.66667
0.01089,0.87638,0.098014,0.56457,60.824,650.04,-0.14756,0.049183,-0.86636,-0.19675,-5.6619e-06,-0.43318,0,0,0.11111,-0,-0,0.66667
0.29257,0.67485,2.6332,0.26227,25.766,380.83,-1.8416,0.61387,-1.7541,-2.4555,2.783e-12,-0.87703,0,0,0.11111,5.2633e-16,0,0.66667
0.48388,0.98115,4.355,0.72172,59.664,221.96,-8.3815,2.7938,-0.15106,-11.175,3.0091e-12,-0.075531,0,0,0.11111,-0,1.2597e-16,0.66667
0.075671,0.54659,0.68104,0.069881,7.4635,586.37,-0.12691,0.042303,-1.983,-0.16921,2.234e-08,-0.99149,0,0,0.11111,1.3158e-16,0,0.66667
0.083491,0.55471,0.75142,0.082062,8.7537,578.72,-0.16444,0.054812,-1.9744,-0.21925,-1.0911e-08,-0.98718,0,0,0.11111,1.3158e-16,0,0.66667
0.97949,0.95961,8.8154,0.68942,2.9599,2.5296,-16.207,5.4023,-0.30847,-21.609,-2.6546e-05,-0.15423,0,0,0.11111,-0,-0,0.66667
0.62427,0.98317,5.6184,0.72475,47.741,126.14,-10.859,3.6195,-0.13505,-14.478,-1.2221e-12,-0.067524,0,0,0.11111,1.0527e-15,-1.308e-16,0.66667
0.82291,0.23267,7.4062,-0.401,-13.814,31.471,7.9197,-2.6399,-1.4262,10.56,-3.8255e-10,-0.71312,0,0,0.11111,-0,-0,0.66667
0.78101,0.77624,7.0291,0.41436,17.286,46.54,-7.7668,2.5889,-1.3938,-10.356,-4.5334e-11,-0.69688,0,0,0.11111,-1.1165e-15,0,0.66667
0.51024,0.88808,4.5921,0.58212,46.367,202.02,-7.1285,2.3762,-0.79305,-9.5047,-5.4667e-13,-0.39653,0,0,0.11111,-0,-0,0.66667
0.60696,0.87777,5.4627,0.56665,38.511,136.27,-8.2545,2.7515,-0.85987,-11.006,-1.5081e-12,-0.42993,0,0,0.11111,-0,-0,0.66667
0.28245,0.58043,2.5421,0.12065,11.922,389.92,-0.81787,0.27262,-1.9502,-1.0905,3.3621e-12,-0.97512,0,0,0.11111,5.2633e-16,0,0.66667
0.936,0.6952,8.424,0.2928,3.7735,5.0339,-6.5773,2.1924,-1.6972,-8.7698,4.5274e-08,-0.84858,0,0,0.11111,-2.1053e-15,0,0.66667
0.61687,0.87202,5.5518,0.55803,37.189,130.11,-8.2616,2.7539,-0.89116,-11.015,-1.0099e-12,-0.44558,0,0,0.11111,2.6316e-16,0,0.66667
0.40685,0.23849,3.6616,-0.39227,-35.186,282.17,3.8302,-1.2767,-1.4559,5.107,-6.6569e-13,-0.72793,0,0,0.11111,-0,-0,0.66667
0.050178,0.86192,0.45161,0.54289,58.333,611.44,-0.65379,0.21793,-0.95156,-0.87171,-3.6764e-07,-0.47578,0,0,0.11111,-0,-0,0.66667
0.10484,0.33565,0.9436,-0.24652,-26.203,557.9,0.62031,-0.20677,-1.7827,0.82709,2.1206e-08,-0.89136,0,0,0.11111,-0,-0,0.66667
0.44394,0.88971,3.9955,0.58457,50.557,252.53,-6.2283,2.0761,-0.78242,-8.3045,1.251e-12,-0.39121,0,0,0.11111,-0,-0,0.66667
0.023763,0.31514,0.21386,-0.2773,-29.791,637.36,0.15814,-0.052715,-1.725,0.21086,-3.8382e-07,-0.86251,0,0,0.11111,-6.5791e-17,0,0.66667
0.28857,0.67346,2.5971,0.26019,25.627,384.44,-1.802,0.60066,-1.7566,-2.4026,6.3728e-12,-0.87829,0,0,0.11111,-0,-0,0.66667
0.2149,0.54192,1.9341,0.062874,6.4404,452.35,-0.32427,0.10809,-1.985,-0.43236,-1.9284e-11,-0.99252,0,0,0.11111,-0,-0,0.66667
0.22151,0.077142,1.9936,-0.63429,-65.036,446.49,3.372,-1.124,-0.56953,4.496,-7.0452e-11,-0.28476,0,0,0.11111,-0,-0,0.66667
0.19268,0.10631,1.7342,-0.59054,-61.279,473.59,2.7309,-0.91029,-0.75811,3.6412,5.3379e-10,-0.37905,0,0,0.11111,-0,-0,0.66667
0.83915,0.32154,7.5524,-0.26769,-8.4161,26.09,5.3912,-1.7971,-1.7439,7.1883,-1.553e-09,-0.87193,0,0,0.11111,-0,-0,0.66667
0.46604,0.14617,4.1944,-0.53074,-44.716,235.13,5.9364,-1.9788,-0.9987,7.9152,1.076e-12,-0.49935,0,0,0.11111,-0,-0,0.66667
0.54314,0.98238,4.8883,0.72357,55.063,178.94,-9.4319,3.144,-0.13755,-12.576,-1.2648e-12,-0.068777,0,0,0.11111,1.0527e-15,1.2943e-16,0.66667
0.58082,0.14268,5.2274,-0.53598,-38.205,152.94,7.4713,-2.4904,-0.97869,9.9617,2.2009e-12,-0.48934,0,0,0.11111,-0,-0,0.66667
0.094346,0.70767,0.84911,0.31151,33.193,568.15,-0.70535,0.23512,-1.658,-0.94047,-3.5016e-08,-0.82899,0,0,0.11111,-0,-0,0.66667
0.064011,0.39216,0.5761,-0.16175,-17.308,597.81,0.2485,-0.082832,-1.9085,0.33133,3.6909e-09,-0.95426,0,0,0.11111,-0,-0,0.66667
0.98681,0.23433,8.8813,-0.39851,-0.96102,0.96333,9.4381,-3.146,-1.4357,12.584,-2.9508e-08,-0.71785,0,0,0.11111,-0,-0,0.66667
0.28383,0.89667,2.5545,0.595,58.955,389.06,-4.0531,1.351,-0.74167,-5.4042,1.6076e-13,-0.37084,0,0,0.11111,-0,-0,0.66667
0.1419,0.27554,1.2771,-0.33669,-35.473,522,1.1466,-0.38221,-1.5995,1.5289,4.4159e-09,-0.79974,0,0,0.11111,6.5791e-17,0,0.66667
0.018779,0.25641,0.16901,-0.36538,-39.285,642.27,0.16468,-0.054892,-1.5255,0.21957,-5.6941e-07,-0.76275,0,0,0.11111,-0,-0,0.66667
0.87071,0.11263,7.8364,-0.58105,-15.043,18.373,12.142,-4.0474,-0.79822,16.19,-8.7744e-09,-0.39911,0,0,0.11111,-0,-0,0.66667
0.17375,0.67566,1.5637,0.26349,27.464,491.4,-1.0987,0.36625,-1.7543,-1.465,-7.0546e-10,-0.87714,0,0,0.11111,2.6316e-16,0,0.66667
0.17154,0.66201,1.5438,0.24301,25.346,493.51,-1.0004,0.33348,-1.794,-1.3339,-7.4768e-10,-0.89699,0,0,0.11111,-0,-0,0.66667
0.3727,0.75567,3.3543,0.38351,35.501,310.73,-3.4304,1.1435,-1.4783,-4.5738,-2.256e-12,-0.73913,0,0,0.11111,-0,-0,0.66667
0.18251,0.071959,1.6426,-0.64206,-66.933,483.3,2.8124,-0.93745,-0.53261,3.7498,3.1093e-09,-0.2663,0,0,0.11111,-0,-0,0.66667
0.44101,0.26331,3.9691,-0.35503,-30.725,254.48,3.7577,-1.2526,-1.5511,5.0103,-7.3275e-15,-0.77555,0,0,0.11111,-0,-0,0.66667
0.57868,0.74507,5.2081,0.36761,26.244,154,-5.1054,1.7018,-1.5233,-6.8072,5.8575e-13,-0.76163,0,0,0.11111,-2.6316e-16,0,0.66667
0.83616,0.99925,7.5254,0.74887,24.33,28.632,-15.028,5.0094,-0.0047962,-20.038,1.1276e-09,-0.0023981,0,0,0.11111,1.4474e-15,0,0.66667
0.58829,0.88145,5.2947,0.57217,40.268,148.16,-8.0785,2.6928,-0.83441,-10.771,-1.2523e-12,-0.4172,0,0,0.11111,-0,-0,0.66667
0.92403,0.29377,8.3163,-0.30934,-4.7334,6.7897,6.8601,-2.2867,-1.6605,9.1469,-6.6914e-08,-0.83026,0,0,0.11111,-0,-0,0.66667
0.48128,0.086455,4.3316,-0.62032,-51.362,223.67,7.1652,-2.3884,-0.63197,9.5536,-1.7626e-12,-0.31598,0,0,0.11111,-0,-0,0.66667
0.62184,0.13831,5.5966,-0.54254,-35.786,127.03,8.097,-2.699,-0.95304,10.796,-7.8693e-13,-0.47652,0,0,0.11111,1.0527e-15,0,0.66667
0.44171,0.99171,3.9754,0.73757,64.102,254.66,-7.8189,2.6063,-0.06476,-10.425,-3.3804e-12,-0.03238,0,0,0.11111,-0,-0,0.66667
0.91251,0.81749,8.2126,0.47623,8.4402,9.1663,-10.43,3.4765,-1.1919,-13.906,2.0443e-08,-0.59595,0,0,0.11111,2.1053e-15,0,0.66667
0.71041,0.32137,6.3937,-0.26794,-14.197,77.543,4.5684,-1.5228,-1.7423,6.0912,6.2879e-12,-0.87116,0,0,0.11111,-0,-0,0.66667
0.6028,0.34505,5.4252,-0.23242,-15.858,138.24,3.3625,-1.1208,-1.8068,4.4833,-4.3299e-14,-0.90338,0,0,0.11111,-0,-0,0.66667
0.84339,0.48622,7.5905,-0.020668,-0.63235,24.594,0.41834,-0.13945,-2.0017,0.55779,2.4635e-10,-1.0009,0,0,0.11111,-0,-0,0.66667
0.9065,0.013038,8.1585,-0.73044,-14.041,11.36,15.891,-5.2972,-0.1064,21.189,3.9921e-07,-0.053202,0,0,0.11111,-0,-0,0.66667
0.57799,0.65976,5.2019,0.23964,17.109,154.27,-3.3242,1.1081,-1.8004,-4.4322,4.5826e-12,-0.90022,0,0,0.11111,-2.1053e-15,0,0.66667
0.2076,0.6129,1.8684,0.16935,17.408,459.24,-0.84376,0.28125,-1.8966,-1.125,-2.7648e-11,-0.94828,0,0,0.11111,2.6316e-16,0,0.66667
0.33309,0.014867,2.9978,-0.7277,-69.847,345.42,5.8173,-1.9391,-0.11528,7.7565,3.5261e-13,-0.057639,0,0,0.11111,-0,-0,0.66667
0.92001,0.49872,8.2801,-0.0019155,-0.030652,7.0731,0.042295,-0.014098,-2.0025,0.056393,-1.0642e-07,-1.0012,0,0,0.11111,1.579e-15,0,0.66667
0.49116,0.22704,4.4204,-0.40944,-33.385,215.8,4.8264,-1.6088,-1.4017,6.4352,-1.3278e-12,-0.70083,0,0,0.11111,1.0527e-15,0,0.66667
0.84515,0.33226,7.6064,-0.25161,-7.6337,24.292,5.1035,-1.7012,-1.7767,6.8046,-2.2199e-09,-0.88835,0,0,0.11111,-0,-0,0.66667
0.49158,0.99983,4.4242,0.74975,61.406,216.26,-8.8454,2.9485,-0.00027236,-11.794,-1.5072e-12,-0.00013618,0,0,0.11111,4.2764e-16,0,0.66667
0.048249,0.91957,0.43424,0.62936,67.704,613.35,-0.72877,0.24292,-0.59343,-0.9717,-1.9825e-06,-0.29671,0,0,0.11111,-0,-0,0.66667
0.58842,0.035467,5.2958,-0.6968,-49.143,148.45,9.8403,-3.2801,-0.27248,13.12,1.5969e-12,-0.13624,0,0,0.11111,-0,-0,0.66667
0.97989,0.095195,8.819,-0.60721,-2.4892,2.0921,14.28,-4.76,-0.68888,19.04,7.4244e-06,-0.34444,0,0,0.11111,-4.2106e-15,0,0.66667
0.15147,0.91791,1.3632,0.62686,66.038,512.96,-2.2788,0.75958,-0.60115,-3.0383,-6.3275e-09,-0.30058,0,0,0.11111,-0,-0,0.66667
0.62692,0.7816,5.6423,0.4224,27.521,123.67,-6.3555,2.1185,-1.3682,-8.474,7.8071e-13,-0.68411,0,0,0.11111,-0,-0,0.66667
0.64441,0.94021,5.7997,0.66032,41.613,113.99,-10.212,3.4041,-0.44986,-13.617,-2.1396e-12,-0.22493,0,0,0.11111,2.1053e-15,0,0.66667
0.10623,0.51827,0.95604,0.027401,2.9099,556.53,-0.069856,0.023285,-1.997,-0.093142,-1.1432e-08,-0.99848,0,0,0.11111,-0,-0,0.66667
0.29898,0.936,2.6908,0.654,64.227,375.5,-4.6927,1.5642,-0.48138,-6.257,-2.6472e-12,-0.24069,0,0,0.11111,7.237e-16,0,0.66667
0.38954,0.42618,3.5058,-0.11073,-10.081,296.32,1.0352,-0.34507,-1.9587,1.3803,1.3121e-12,-0.97933,0,0,0.11111,-5.2633e-16,0,0.66667
0.95436,0.18962,8.5893,-0.46557,-4.3177,3.4029,10.664,-3.5546,-1.2325,14.218,-3.4808e-07,-0.61625,0,0,0.11111,-0,-0,0.66667
0.57675,0.84837,5.1908,0.52255,37.505,155.58,-7.2332,2.4111,-1.0317,-9.6442,4.9871e-13,-0.51585,0,0,0.11111,-0,-0,0.66667
0.087358,0.64723,0.78623,0.22084,23.551,574.96,-0.46301,0.15434,-1.8244,-0.61735,-3.1006e-08,-0.91218,0,0,0.11111,6.5791e-17,0,0.66667
0.10716,0.037267,0.96444,-0.6941,-74.044,555.83,1.7851,-0.59504,-0.28829,2.3801,4.0992e-07,-0.14415,0,0,0.11111,-0,8.1832e-17,0.66667
0.95368,0.43728,8.5831,-0.094083,-0.86544,2.6773,2.1534,-0.7178,-1.9731,2.8712,-1.2648e-07,-0.98655,0,0,0.11111,-2.204e-15,0,0.66667
0.80534,0.53954,7.2481,0.059309,2.2166,36.933,-1.1463,0.38212,-1.9851,-1.5285,-1.6689e-11,-0.99257,0,0,0.11111,-0,-0,0.66667
0.4283,0.67811,3.8547,0.26717,23.425,264.56,-2.7463,0.91544,-1.7439,-3.6617,1.0305e-12,-0.87196,0,0,0.11111,-5.2633e-16,0,0.66667
0.67249,0.83457,6.0524,0.50186,29.527,97.73,-8.0999,2.7,-1.1076,-10.8,-3.1086e-14,-0.5538,0,0,0.11111,-1.0527e-15,0,0.66667
0.21193,0.078488,1.9074,-0.63227,-65.111,455.48,3.2159,-1.072,-0.57596,4.2879,-1.553e-10,-0.28798,0,0,0.11111,-5.1414e-16,0,0.66667
0.52016,0.56299,4.6815,0.09449,7.3895,194.14,-1.1796,0.3932,-1.9682,-1.5728,-8.2456e-13,-0.98412,0,0,0.11111,-0,-0,0.66667
0.97554,0.0057962,8.7799,-0.74131,-3.8585,3.0329,17.356,-5.7854,-0.044004,23.142,1.126e-05,-0.022002,0,0,0.11111,4.2106e-15,0,0.66667
0.83042,0.74754,7.4738,0.37132,12.284,28.991,-7.4004,2.4668,-1.5115,-9.8672,7.1964e-10,-0.75575,0,0,0.11111,-0,-0,0.66667
0.21598,0.68595,1.9438,0.27893,28.579,451.4,-1.4458,0.48194,-1.7247,-1.9278,1.9485e-11,-0.86237,0,0,0.11111,2.6316e-16,0,0.66667
0.44842,0.3499,4.0358,-0.22516,-19.308,248.47,2.4232,-0.80773,-1.8187,3.2309,-2.7656e-12,-0.90933,0,0,0.11111,-0,-0,0.66667
0.57268,0.07627,5.1541,-0.63559,-46.027,158.58,8.7358,-2.9119,-0.56149,11.648,2.8706e-12,-0.28074,0,0,0.11111,-1.0527e-15,0,0.66667
0.5708,0.13038,5.1372,-0.55443,-40.223,159.61,7.5953,-2.5318,-0.90503,10.127,2.7294e-12,-0.45251,0,0,0.11111,-0,-0,0.66667
0.93053,0.94964,8.3747,0.67447,9.6945,7.1619,-15.063,5.0209,-0.37996,-20.083,1.5018e-06,-0.18998,0,0,0.11111,-0,-0,0.66667
0.2551,0.60925,2.2959,0.16388,16.456,414.95,-1.0033,0.33444,-1.9025,-1.3378,1.6673e-11,-0.95127,0,0,0.11111,5.2633e-16,0,0.66667
0.65634,0.52892,5.9071,0.04338,2.6416,106.03,-0.68333,0.22778,-1.9982,-0.91111,-1.5749e-13,-0.99911,0,0,0.11111,1.0527e-15,0,0.66667
0.78125,0.10612,7.0312,-0.59082,-24.732,47.001,11.078,-3.6926,-0.76278,14.77,1.7188e-10,-0.38139,0,0,0.11111,-0,-0,0.66667
0.11597,0.14207,1.0437,-0.53689,-57.052,547.19,1.4943,-0.49812,-0.9725,1.9925,6.6527e-09,-0.48625,0,0,0.11111,-0,-0,0.66667
0.52639,0.76906,4.7375,0.40359,31.343,189.99,-5.0987,1.6996,-1.4191,-6.7983,-2.3856e-12,-0.70955,0,0,0.11111,5.2633e-16,0,0.66667
0.41234,0.50357,3.7111,0.0053589,0.47722,277.41,-0.053033,0.017678,-1.9985,-0.07071,2.7001e-12,-0.99923,0,0,0.11111,-0,-0,0.66667
0.50229,0.04608,4.5206,-0.68088,-54.912,208.11,8.208,-2.736,-0.35218,10.944,-9.77e-15,-0.17609,0,0,0.11111,-1.0527e-15,0,0.66667
0.065315,0.70099,0.58784,0.30149,32.274,596.54,-0.4726,0.15753,-1.6768,-0.63013,-5.6133e-08,-0.83839,0,0,0.11111,-0,-0,0.66667
0.26954,0.92971,2.4258,0.64456,64.457,402.12,-4.1696,1.3899,-0.5221,-5.5595,3.6824e-12,-0.26105,0,0,0.11111,2.6316e-16,0,0.66667
0.25,0.74757,2.25,0.37135,37.436,419.76,-2.2281,0.74271,-1.5147,-2.9708,1.9456e-11,-0.75736,0,0,0.11111,1.3158e-16,0,0.66667
0.66868,0.45537,6.0181,-0.066951,-3.9589,99.153,1.0744,-0.35815,-1.9836,1.4326,3.6082e-13,-0.99182,0,0,0.11111,-0,-0,0.66667
0.050074,0.06621,0.45067,-0.65069,-70.004,611.56,0.78198,-0.26066,-0.49513,1.0426,8.7806e-07,-0.24756,0,0,0.11111,-0,-0,0.66667
0.97313,0.305,8.7582,-0.2925,-1.5299,1.3708,6.8315,-2.2772,-1.6948,9.1086,4.5382e-07,-0.84738,0,0,0.11111,-0,-0,0.66667
0.37569,0.52209,3.3812,0.033132,3.0539,307.97,-0.29873,0.099577,-1.9991,-0.39831,5.5284e-12,-0.99955,0,0,0.11111,-0,-0,0.66667
0.87187,0.85284,7.8468,0.52926,13.555,17.887,-11.075,3.6916,-1.0039,-14.766,3.5264e-09,-0.50196,0,0,0.11111,-0,-0,0.66667
0.69429,0.93895,6.2486,0.65843,36.744,86.685,-10.971,3.6571,-0.45732,-14.629,-2.4585e-12,-0.22866,0,0,0.11111,-0,-0,0.66667
0.029579,0.41966,0.26621,-0.1205,-12.934,631.63,0.085545,-0.028515,-1.9497,0.11406,-1.7409e-07,-0.97486,0,0,0.11111,-0,-0,0.66667
0.087271,0.76168,0.78544,0.39252,41.903,575.08,-0.82212,0.27404,-1.4497,-1.0962,-3.5067e-08,-0.72487,0,0,0.11111,-1.3158e-16,0,0.66667
0.094963,0.37423,0.85467,-0.18865,-20.087,567.53,0.42995,-0.14332,-1.8769,0.57327,2.1838e-08,-0.93847,0,0,0.11111,1.3981e-16,0,0.66667
0.56423,0.50795,5.078,0.011919,0.8705,163.33,-0.1614,0.053801,-2.0011,-0.2152,7.2942e-14,-1.0006,0,0,0.11111,-0,-0,0.66667
0.56604,0.2336,5.0944,-0.39961,-29.163,162.46,5.4286,-1.8095,-1.4314,7.2382,2.3386e-12,-0.71572,0,0,0.11111,-1.0527e-15,0,0.66667
0.31061,0.384,2.7955,-0.174,-16.883,364.63,1.2971,-0.43236,-1.8937,1.7295,-1.8766e-12,-0.94684,0,0,0.11111,-0,-0,0.66667
0.11319,0.87245,1.0187,0.55867,59.418,549.89,-1.5177,0.5059,-0.89041,-2.0236,-7.2867e-09,-0.44521,0,0,0.11111,-1.6448e-16,0,0.66667
0.76861,0.52494,6.9175,0.037417,1.632,50.984,-0.69022,0.23007,-1.9954,-0.92029,-1.7761e-11,-0.99769,0,0,0.11111,-0,-0,0.66667
0.1382,0.84383,1.2438,0.51574,54.478,525.66,-1.7106,0.5702,-1.0563,-2.2808,-1.0545e-08,-0.52816,0,0,0.11111,-5.2633e-16,0,0.66667
0.58503,0.095523,5.2653,-0.60672,-42.976,150.38,8.5187,-2.8396,-0.68985,11.358,-1.2932e-12,-0.34493,0,0,0.11111,2.1053e-15,0,0.66667
0.50868,0.97428,4.5781,0.71142,56.911,203.5,-8.6852,2.8951,-0.19849,-11.58,-1.9851e-12,-0.099243,0,0,0.11111,-0,-0,0.66667
0.51012,0.013825,4.5911,-0.72926,-58.242,202.5,8.9283,-2.9761,-0.1069,11.904,6.5903e-13,-0.053452,0,0,0.11111,-0,-0,0.66667
0.35934,0.72806,3.234,0.34209,32.017,322.09,-2.9502,0.9834,-1.588,-3.9336,2.5768e-12,-0.79398,0,0,0.11111,-0,-0,0.66667
0.055479,0.14494,0.49931,-0.53259,-57.189,606.24,0.70915,-0.23638,-0.98887,0.94553,-1.8353e-08,-0.49444,0,0,0.11111,-6.5791e-17,0,0.66667
0.33619,0.049735,3.0257,-0.6754,-64.624,342.61,5.4496,-1.8165,-0.37539,7.2661,3.5749e-13,-0.1877,0,0,0.11111,-5.2633e-16,0,0.66667
0.94985,0.013907,8.5487,-0.72914,-7.6766,5.0629,16.622,-5.5406,-0.10918,22.162,4.8903e-07,-0.054589,0,0,0.11111,-0,-0,0.66667
0.94833,0.78205,8.535,0.42308,4.4314,3.8879,-9.6293,3.2098,-1.3633,-12.839,6.2355e-08,-0.68166,0,0,0.11111,-4.2106e-15,0,0.66667
0.42932,0.44979,3.8639,-0.075315,-6.5913,263.63,0.77602,-0.25867,-1.9772,1.0347,-6.9439e-13,-0.98858,0,0,0.11111,-0,-0,0.66667
0.74205,0.14857,6.6784,-0.52714,-25.427,63.228,9.388,-3.1293,-1.0097,12.517,5.2438e-12,-0.50483,0,0,0.11111,5.2633e-16,0,0.66667
0.55762,0.17284,5.0185,-0.49073,-36.356,168.35,6.5674,-2.1891,-1.1419,8.7565,4.0044e-12,-0.57096,0,0,0.11111,-0,-0,0.66667
0.914,0.87556,8.226,0.56334,9.871,9.2389,-12.357,4.1192,-0.87046,-16.477,8.0051e-08,-0.43523,0,0,0.11111,-4.2106e-15,0,0.66667
0.73641,0.39326,6.6277,-0.16011,-7.8255,65.036,2.8298,-0.94327,-1.9097,3.7731,1.2265e-11,-0.95487,0,0,0.11111,-0,-0,0.66667
0.39393,0.63678,3.5454,0.20517,18.609,292.7,-1.9398,0.64658,-1.8499,-2.5863,7.141e-13,-0.92493,0,0,0.11111,-0,-0,0.66667
0.060535,0.75189,0.54482,0.37783,40.492,601.24,-0.54893,0.18298,-1.4947,-0.73191,-7.5843e-08,-0.74733,0,0,0.11111,-0,-0,0.66667
0.81061,0.58738,7.2955,0.13107,4.78,35.133,-2.55,0.84998,-1.9405,-3.3999,2.0867e-10,-0.97027,0,0,0.11111,1.0527e-15,0,0.66667
0.31642,0.97422,2.8478,0.71133,69.09,360.06,-5.4019,1.8006,-0.20054,-7.2025,1.7097e-12,-0.10027,0,0,0.11111,-0,-0,0.66667
0.49421,0.68121,4.4478,0.27181,22.048,213.34,-3.2239,1.0746,-1.7356,-4.2986,6.9167e-13,-0.8678,0,0,0.11111,-7.8949e-16,0,0.66667
0.54153,0.6435,4.8738,0.21525,16.314,179.03,-2.7975,0.93251,-1.8332,-3.73,1.0241e-12,-0.91661,0,0,0.11111,-0,-0,0.66667
0.51753,0.78627,4.6578,0.42941,33.787,196.41,-5.3336,1.7779,-1.3462,-7.1114,-8.8907e-13,-0.67308,0,0,0.11111,-0,-0,0.66667
0.14619,0.13214,1.3157,-0.5518,-58.173,517.98,1.936,-0.64535,-0.91569,2.5814,3.263e-09,-0.45785,0,0,0.11111,-0,-0,0.66667
0.35934,0.096238,3.2341,-0.60564,-56.84,322.45,5.2232,-1.7411,-0.70079,6.9643,6.6711e-12,-0.3504,0,0,0.11111,-0,3.8565e-17,0.66667
0.36131,0.63708,3.2518,0.20562,19.197,320.29,-1.783,0.59433,-1.8507,-2.3773,4.9094e-13,-0.92537,0,0,0.11111,-0,-0,0.66667
0.2158,0.83074,1.9422,0.49611,50.922,451.71,-2.5694,0.85647,-1.1247,-3.4259,6.9631e-11,-0.56235,0,0,0.11111,-2.6316e-16,0,0.66667
0.036849,0.61652,0.33164,0.17478,18.754,624.48,-0.15457,0.051524,-1.8895,-0.2061,1.3113e-07,-0.94475,0,0,0.11111,-0,-0,0.66667
0.92418,0.69037,8.3176,0.28556,4.3571,6.7149,-6.3338,2.1113,-1.7117,-8.4451,5.9897e-08,-0.85586,0,0,0.11111,2.1053e-15,0,0.66667
0.35432,0.80691,3.1889,0.46037,43.311,326.55,-3.9148,1.3049,-1.2452,-5.2198,-9.9543e-13,-0.62259,0,0,0.11111,7.8949e-16,0,0.66667
0.1958,0.54138,1.7622,0.062064,6.41,470.37,-0.29165,0.097216,-1.9838,-0.38886,2.2815e-11,-0.99189,0,0,0.11111,5.2633e-16,0,0.66667
0.86409,0.83363,7.7768,0.50044,13.531,19.739,-10.378,3.4594,-1.108,-13.838,9.0883e-09,-0.55402,0,0,0.11111,1.0527e-15,0,0.66667
0.49805,0.99137,4.4825,0.73706,59.841,211.4,-8.8102,2.9367,-0.069732,-11.747,-2.3963e-12,-0.034866,0,0,0.11111,1.579e-15,-1.0521e-16,0.66667
0.81993,0.12919,7.3793,-0.55622,-19.541,32.938,10.945,-3.6485,-0.89815,14.594,-1.3832e-09,-0.44907,0,0,0.11111,-0,-0,0.66667
0.76332,0.76385,6.8699,0.39578,17.673,53.649,-7.2506,2.4169,-1.4436,-9.6675,-2.8429e-11,-0.72179,0,0,0.11111,-0,-0,0.66667
0.11672,0.11806,1.0505,-0.57291,-60.892,546.47,1.6049,-0.53498,-0.83075,2.1399,6.2569e-09,-0.41538,0,0,0.11111,1.3158e-16,0,0.66667
0.51608,0.038475,4.6447,-0.69229,-54.794,198.06,8.5746,-2.8582,-0.29953,11.433,2.2968e-12,-0.14977,0,0,0.11111,-0,-0,0.66667
0.33424,0.051297,3.0082,-0.67305,-64.493,344.31,5.3991,-1.7997,-0.387,7.1988,-1.7133e-12,-0.1935,0,0,0.11111,-0,-0,0.66667
0.68594,0.59465,6.1735,0.14198,8.0392,89.893,-2.3374,0.77913,-1.9313,-3.1165,-1.535e-12,-0.96565,0,0,0.11111,-0,-0,0.66667
0.78722,0.7192,7.085,0.3288,13.349,43.94,-6.2122,2.0707,-1.6148,-8.2829,-1.2924e-11,-0.80741,0,0,0.11111,-0,-0,0.66667
0.28471,0.056333,2.5624,-0.6655,-65.965,388.36,4.5474,-1.5158,-0.42518,6.0632,2.4882e-12,-0.21259,0,0,0.11111,2.6316e-16,0,0.66667
0.42001,0.21253,3.7801,-0.4312,-38.186,271.47,4.3466,-1.4489,-1.3406,5.7954,4.6896e-13,-0.67028,0,0,0.11111,1.0382e-15,0,0.66667
0.88235,0.1231,7.9412,-0.56535,-13.379,15.554,11.972,-3.9907,-0.86215,15.963,-1.6713e-08,-0.43108,0,0,0.11111,-1.1842e-15,0,0.66667
0.764,0.17385,6.876,-0.48922,-21.832,53.616,8.9704,-2.9901,-1.1504,11.961,3.0427e-11,-0.57521,0,0,0.11111,-9.0476e-16,0,0.66667
0.2849,0.58467,2.5641,0.127,12.531,387.7,-0.86838,0.28946,-1.9421,-1.1578,2.6448e-12,-0.97103,0,0,0.11111,2.6316e-16,0,0.66667
0.72388,0.24783,6.5149,-0.37826,-19.281,71.22,6.5715,-2.1905,-1.4906,8.762,8.8849e-12,-0.74528,0,0,0.11111,2.6316e-16,0,0.66667
0.02714,0.88026,0.24426,0.57039,61.416,634.07,-0.37153,0.12385,-0.8427,-0.49537,5.9225e-06,-0.42135,0,0,0.11111,6.5791e-17,0,0.66667
0.5633,0.13067,5.0697,-0.554,-40.7,164.65,7.4896,-2.4965,-0.91199,9.9861,3.6868e-12,-0.45599,0,0,0.11111,-0,-0,0.66667
0.041077,0.30632,0.3697,-0.29052,-31.179,620.34,0.28641,-0.095471,-1.6982,0.38188,-1.2293e-07,-0.8491,0,0,0.11111,-6.5791e-17,0,0.66667
0.12608,0.92068,1.1347,0.63102,66.959,537.44,-1.9094,0.63647,-0.58638,-2.5459,-2.3996e-08,-0.29319,0,0,0.11111,2.6316e-16,0,0.66667
0.8206,0.68309,7.3854,0.27464,9.549,31.948,-5.4088,1.8029,-1.7299,-7.2117,4.5098e-10,-0.86497,0,0,0.11111,5.2633e-16,0,0.66667
0.68161,0.36204,6.1345,-0.20694,-11.855,92.254,3.3853,-1.1284,-1.8454,4.5137,2.0239e-12,-0.92271,0,0,0.11111,-0,-0,0.66667
0.43883,0.27458,3.9495,-0.33813,-29.328,256.19,3.5611,-1.187,-1.5958,4.7482,1.7675e-13,-0.79791,0,0,0.11111,5.2633e-16,0,0.66667
0.39571,0.61688,3.5614,0.17532,15.873,291.2,-1.665,0.55501,-1.8891,-2.22,-3.4448e-12,-0.94457,0,0,0.11111,5.2633e-16,0,0.66667
0.8758,0.4865,7.8822,-0.02025,-0.49772,15.959,0.42563,-0.14188,-2.0011,0.56751,4.6263e-09,-1.0006,0,0,0.11111,-0,-0,0.66667
0.23877,0.5567,2.1489,0.085047,8.6125,430.04,-0.48735,0.16245,-1.9735,-0.64981,1.4601e-11,-0.98673,0,0,0.11111,-1.3158e-16,0,0.66667
0.39398,0.001837,3.5459,-0.74724,-68.172,293.47,7.0657,-2.3552,-0.015375,9.4209,-7.4962e-13,-0.0076877,0,0,0.11111,-0,-0,0.66667
0.14348,0.50665,1.2913,0.0099806,1.0499,520.42,-0.034368,0.011456,-2.0001,-0.045824,-1.0542e-09,-1,0,0,0.11111,-0,-0,0.66667
0.67243,0.68583,6.0518,0.27874,16.352,97.297,-4.4984,1.4995,-1.728,-5.9978,-3.0367e-12,-0.86402,0,0,0.11111,1.4474e-15,0,0.66667
0.17561,0.1644,1.5805,-0.5034,-52.529,489.75,2.1216,-0.70722,-1.0984,2.8289,1.4909e-10,-0.5492,0,0,0.11111,-0,-0,0.66667
0.99975,0.58791,8.9978,0.13187,-0.067536,0.072749,-3.1641,1.0547,-1.9423,-4.2188,3.0709e-07,-0.97113,0,0,0.11111,1.0527e-15,0,0.66667
0.96443,0.061345,8.6799,-0.65798,-4.8767,3.3388,15.23,-5.0766,-0.46068,20.307,-3.3856e-06,-0.23034,0,0,0.11111,-2.5198e-16,1.7984e-19,0.66667
0.067754,0.62595,0.60978,0.18893,20.207,594.14,-0.30721,0.1024,-1.8725,-0.40961,-2.6005e-08,-0.93627,0,0,0.11111,-0,-0,0.66667
0.070849,0.68179,0.63764,0.27268,29.164,591.12,-0.46366,0.15455,-1.7336,-0.61822,-5.5716e-08,-0.86679,0,0,0.11111,1.0774e-16,0,0.66667
0.24709,0.98977,2.2238,0.73466,74.481,422.85,-4.3566,1.4522,-0.081022,-5.8089,-2.9116e-11,-0.040511,0,0,0.11111,-5.2633e-16,0,0.66667
0.31125,0.94493,2.8013,0.66739,65.014,364.57,-4.9854,1.6618,-0.41867,-6.6472,1.8674e-12,-0.20934,0,0,0.11111,-0,-9.5363e-17,0.66667
0.79794,0.47305,7.1814,-0.040429,-1.5627,39.594,0.77423,-0.25808,-1.9972,1.0323,6.9297e-11,-0.99862,0,0,0.11111,-0,-0,0.66667
0.75286,0.039929,6.7758,-0.69011,-32.225,59.061,12.469,-4.1565,-0.30689,16.626,-4.0421e-11,-0.15345,0,0,0.11111,-0,-0,0.66667
0.1789,0.62924,1.6101,0.19387,20.162,486.46,-0.83241,0.27747,-1.8646,-1.1099,-3.3857e-10,-0.93229,0,0,0.11111,-0,-0,0.66667
0.74052,0.97561,6.6647,0.71342,34.758,64.599,-12.679,4.2264,-0.18841,-16.906,-1.8983e-11,-0.094203,0,0,0.11111,2.1053e-15,0,0.66667
0.37683,0.39631,3.3915,-0.15553,-14.325,307.04,1.4066,-0.46888,-1.9153,1.8755,-2.2006e-12,-0.95766,0,0,0.11111,-0,-0,0.66667
0.31534,0.70013,2.8381,0.30019,29.05,360.49,-2.2719,0.7573,-1.6796,-3.0292,1.6724e-12,-0.83978,0,0,0.11111,-0,-0,0.66667
0.20011,0.44566,1.801,-0.081505,-8.403,466.29,0.39144,-0.13048,-1.9765,0.52192,1.0604e-10,-0.98824,0,0,0.11111,-0,-0,0.66667
0.55685,0.91835,5.0116,0.62753,46.648,169.21,-8.3865,2.7955,-0.59768,-11.182,-6.7324e-13,-0.29884,0,0,0.11111,1.0527e-15,0,0.66667
0.50796,0.50437,4.5716,0.0065619,0.522,203,-0.079997,0.026666,-1.998,-0.10666,5.1162e-12,-0.99898,0,0,0.11111,-0,-0,0.66667
0.90452,0.70466,8.1407,0.30699,5.88,10.138,-6.6643,2.2214,-1.6662,-8.8857,3.384e-08,-0.83308,0,0,0.11111,-1.0527e-15,0,0.66667
0.16445,0.34793,1.48,-0.22811,-23.849,500.28,0.90029,-0.3001,-1.8132,1.2004,1.1411e-09,-0.90658,0,0,0.11111,-5.2633e-16,0,0.66667
0.026083,0.59446,0.23474,0.14169,15.212,635.07,-0.088696,0.029565,-1.9282,-0.11826,-1.8932e-08,-0.96408,0,0,0.11111,-0,-0,0.66667
0.13921,0.95529,1.2528,0.68293,72.259,524.8,-2.2816,0.76054,-0.34339,-3.0422,1.2927e-08,-0.1717,0,0,0.11111,-0,-0,0.66667
0.036355,0.54886,0.32719,0.073286,7.8621,624.97,-0.063943,0.021315,-1.979,-0.085258,1.469e-07,-0.98948,0,0,0.11111,-0,-0,0.66667
0.56867,0.14428,5.1181,-0.53358,-38.837,160.98,7.2824,-2.4275,-0.98533,9.7098,2.2893e-12,-0.49266,0,0,0.11111,-0,-0,0.66667
0.77158,0.8076,6.9442,0.4614,19.998,50.423,-8.5442,2.8481,-1.2415,-11.392,-7.7446e-11,-0.62073,0,0,0.11111,-6.9462e-17,0,0.66667
0.98718,0.43122,8.8846,-0.10317,-0.22488,0.36462,2.4443,-0.81477,-1.9627,3.2591,-7.3174e-07,-0.98136,0,0,0.11111,1.579e-15,0,0.66667
0.84725,0.28018,7.6252,-0.32974,-9.8934,23.841,6.7048,-2.2349,-1.6141,8.9398,-2.3724e-09,-0.80707,0,0,0.11111,-1.1842e-15,0,0.66667
0.16958,0.98056,1.5262,0.72084,75.58,495.69,-2.9337,0.9779,-0.15312,-3.9116,-1.672e-09,-0.076559,0,0,0.11111,-0,-0,0.66667
0.97796,0.71129,8.8016,0.31693,1.3403,1.1427,-7.4386,2.4795,-1.6408,-9.9182,-5.0474e-07,-0.82039,0,0,0.11111,-0,-0,0.66667
0.57851,0.90904,5.2066,0.61356,43.97,154.67,-8.5188,2.8396,-0.66582,-11.358,-2.8422e-14,-0.33291,0,0,0.11111,-0,-0,0.66667
0.81024,0.79035,7.2922,0.43552,15.989,35.821,-8.469,2.823,-1.3265,-11.292,1.1931e-10,-0.66323,0,0,0.11111,-2.1053e-15,0,0.66667
0.011419,0.15292,0.10277,-0.52062,-56.062,649.52,0.14268,-0.047558,-1.036,0.19024,2.3309e-06,-0.518,0,0,0.11111,2.4672e-17,0,0.66667
0.19796,0.603,1.7816,0.15449,15.945,468.34,-0.73399,0.24466,-1.9134,-0.97866,-1.372e-11,-0.9567,0,0,0.11111,-5.2633e-16,0,0.66667
0.92504,0.52199,8.3254,0.032981,0.4948,6.285,-0.73221,0.24407,-1.996,-0.97628,1.2681e-08,-0.99799,0,0,0.11111,-2.1053e-15,0,0.66667
0.24256,0.74135,2.183,0.36202,36.636,426.64,-2.1075,0.7025,-1.5316,-2.81,2.4436e-11,-0.7658,0,0,0.11111,-0,-0,0.66667
0.53957,0.25709,4.8561,-0.36437,-27.733,180.59,4.7185,-1.5728,-1.5257,6.2913,8.5265e-14,-0.76286,0,0,0.11111,1.0527e-15,0,0.66667
0.72603,0.70667,6.5343,0.31001,15.682,70.065,-5.4019,1.8006,-1.6556,-7.2025,-1.1532e-11,-0.82782,0,0,0.11111,-0,-0,0.66667
0.10091,0.60359,0.9082,0.15539,16.524,561.72,-0.37632,0.12544,-1.9117,-0.50177,-1.2971e-08,-0.95583,0,0,0.11111,-0,-0,0.66667
0.57273,0.81592,5.1546,0.47388,34.225,158.14,-6.5138,2.1713,-1.2005,-8.685,-2.1809e-12,-0.60023,0,0,0.11111,2.1053e-15,0,0.66667
0.21267,0.59838,1.914,0.14757,15.134,454.46,-0.75323,0.25108,-1.921,-1.0043,-3.9698e-11,-0.96048,0,0,0.11111,-5.2633e-16,0,0.66667
0.35815,0.26562,3.2233,-0.35157,-32.94,323.13,3.022,-1.0073,-1.5624,4.0293,2.5981e-12,-0.78122,0,0,0.11111,-5.2633e-16,0,0.66667
0.44382,0.0011254,3.9944,-0.74831,-64.896,253.02,7.9708,-2.6569,-0.0079376,10.628,-3.1362e-12,-0.0039688,0,0,0.11111,-0,-0,0.66667
0.74936,0.8214,6.7442,0.48211,22.665,59.854,-8.6704,2.8901,-1.1767,-11.561,-1.0506e-11,-0.58835,0,0,0.11111,-0,-0,0.66667
0.91396,0.3715,8.2257,-0.19275,-3.323,8.2213,4.2281,-1.4094,-1.8662,5.6374,-2.2586e-08,-0.93308,0,0,0.11111,5.2633e-16,0,0.66667
0.96955,0.19833,8.7259,-0.4525,-2.7634,2.0747,10.529,-3.5098,-1.2747,14.039,1.019e-06,-0.63734,0,0,0.11111,-0,-0,0.66667
0.38163,0.5754,3.4347,0.1131,10.371,302.97,-1.0359,0.3453,-1.952,-1.3812,4.4298e-13,-0.97598,0,0,0.11111,-0,-0,0.66667
0.2518,0.72976,2.2662,0.34464,34.702,418.08,-2.0827,0.69422,-1.579,-2.7769,2.4402e-11,-0.78949,0,0,0.11111,-0,-0,0.66667
0.27102,0.27498,2.4391,-0.33753,-33.619,400.44,2.1954,-0.73182,-1.5934,2.9273,-5.4781e-12,-0.7967,0,0,0.11111,-1.3158e-16,0,0.66667
0.76456,0.37618,6.8811,-0.18573,-8.2315,52.757,3.4081,-1.136,-1.881,4.5441,1.5299e-11,-0.94048,0,0,0.11111,-2.1053e-15,0,0.66667
0.84258,0.21958,7.5832,-0.42063,-13.009,25.427,8.5059,-2.8353,-1.3744,11.341,-1.4755e-09,-0.68722,0,0,0.11111,-0,-0,0.66667
0.16474,0.29683,1.4827,-0.30476,-31.872,500.03,1.205,-0.40166,-1.667,1.6067,1.2765e-09,-0.83352,0,0,0.11111,2.6316e-16,0,0.66667
0.029941,0.43297,0.26947,-0.10055,-10.792,631.28,0.072251,-0.024084,-1.9667,0.096335,-3.7686e-07,-0.98336,0,0,0.11111,-3.2895e-17,0,0.66667
0.84738,0.81486,7.6264,0.4723,14.215,24.191,-9.6051,3.2017,-1.2072,-12.807,2.4681e-09,-0.60362,0,0,0.11111,-2.1053e-15,0,0.66667
0.15971,0.19924,1.4374,-0.45114,-47.312,504.93,1.7292,-0.5764,-1.2757,2.3056,1.0372e-09,-0.63787,0,0,0.11111,-2.6316e-16,0,0.66667
0.94524,0.14806,8.5072,-0.5279,-5.9175,4.6131,11.976,-3.992,-1.0068,15.968,1.0926e-09,-0.50338,0,0,0.11111,1.0527e-15,0,0.66667
0.96751,0.35581,8.7076,-0.21629,-1.3774,1.6101,5.0222,-1.6741,-1.8357,6.6963,1.8996e-07,-0.91783,0,0,0.11111,-0,-0,0.66667
0.57819,0.83392,5.2037,0.50088,35.849,154.59,-6.9505,2.3168,-1.1119,-9.2673,1.6072e-12,-0.55596,0,0,0.11111,-5.2633e-16,0,0.66667
0.48604,0.63591,4.3743,0.20386,16.706,219.41,-2.378,0.79268,-1.8537,-3.1707,-1.7812e-12,-0.92685,0,0,0.11111,-0,-0,0.66667
0.35393,0.35613,3.1854,-0.21581,-20.272,326.65,1.8331,-0.61105,-1.8323,2.4442,2.8618e-12,-0.91616,0,0,0.11111,-0,-0,0.66667
0.6594,0.29794,5.9346,-0.30309,-18.353,104.54,4.7965,-1.5988,-1.673,6.3954,1.0991e-12,-0.83648,0,0,0.11111,-1.0527e-15,0,0.66667
0.38436,0.38127,3.4592,-0.1781,-16.295,300.7,1.6429,-0.54763,-1.8853,2.1905,1.4743e-12,-0.94266,0,0,0.11111,-0,-0,0.66667
0.4349,0.90146,3.9141,0.60219,52.611,259.77,-6.2854,2.0951,-0.7116,-8.3805,-3.4706e-12,-0.3558,0,0,0.11111,1.047e-15,0,0.66667
0.6133,0.52098,5.5197,0.031468,2.1019,131.55,-0.46319,0.1544,-1.9955,-0.61758,-7.0854e-13,-0.99777,0,0,0.11111,1.0527e-15,0,0.66667
0.034635,0.203,0.31171,-0.4455,-47.888,626.68,0.37032,-0.12344,-1.2937,0.49376,-2.368e-07,-0.64684,0,0,0.11111,-0,-0,0.66667
0.2188,0.11224,1.9692,-0.58163,-59.674,448.97,3.0543,-1.0181,-0.80096,4.0724,9.9381e-12,-0.40048,0,0,0.11111,-0,-0,0.66667
0.020192,0.93538,0.18173,0.65307,70.411,640.9,-0.31648,0.1055,-0.48317,-0.42197,1.0794e-05,-0.24158,0,0,0.11111,-4.1119e-17,0,0.66667
0.76313,0.32398,6.8682,-0.26403,-11.774,53.462,4.8357,-1.6119,-1.7526,6.4476,2.448e-11,-0.87628,0,0,0.11111,-0,-0,0.66667
0.38987,0.84046,3.5088,0.51069,46.612,296.43,-4.7784,1.5928,-1.0764,-6.3713,1.2692e-12,-0.53818,0,0,0.11111,5.2633e-16,0,0.66667
0.42267,0.73317,3.804,0.34975,30.865,269.2,-3.5479,1.1826,-1.5676,-4.7305,-1.5599e-12,-0.78381,0,0,0.11111,-0,-0,0.66667
0.54968,0.94503,4.9472,0.66754,50.23,174.24,-8.8065,2.9355,-0.41599,-11.742,8.3933e-13,-0.20799,0,0,0.11111,-0,-0,0.66667
0.38846,0.4312,3.4961,-0.1032,-9.4051,297.22,0.96218,-0.32073,-1.9634,1.2829,1.2277e-12,-0.98171,0,0,0.11111,-2.9631e-16,0,0.66667
0.81063,0.04767,7.2957,-0.67849,-25.053,36.563,13.2,-4.4001,-0.36424,17.6,-1.0504e-09,-0.18212,0,0,0.11111,-1.0527e-15,1.3124e-16,0.66667
0.4359,0.39591,3.9231,-0.15614,-13.571,258.37,1.6335,-0.54448,-1.9149,2.1779,-1.9124e-12,-0.95746,0,0,0.11111,-0,-0,0.66667
0.58016,0.32005,5.2214,-0.26993,-19.203,152.88,3.7584,-1.2528,-1.7422,5.0112,3.4994e-13,-0.87112,0,0,0.11111,-0,-0,0.66667
0.97117,0.91384,8.7405,0.62076,3.6957,2.6645,-14.469,4.8229,-0.63072,-19.292,-1.1e-05,-0.31536,0,0,0.11111,-0,-0,0.66667
0.9921,0.033589,8.9289,-0.69962,-1.1362,2.1036,16.658,-5.5527,-0.25817,22.211,-6.0839e-05,-0.12908,0,0,0.11111,-0,-0,0.66667
0.20287,0.55308,1.8259,0.079624,8.1995,463.68,-0.38769,0.12923,-1.9811,-0.51692,-6.8575e-11,-0.99057,0,0,0.11111,-0,-0,0.66667
0.44452,0.55972,4.0007,0.089585,7.7119,251.48,-0.95573,0.31858,-1.9699,-1.2743,2.8367e-12,-0.98496,0,0,0.11111,7.8949e-16,0,0.66667
0.47475,0.43021,4.2727,-0.10468,-8.6973,227.93,1.1927,-0.39757,-1.9591,1.5903,-1.2677e-12,-0.97956,0,0,0.11111,-0,-0,0.66667
0.29764,0.31278,2.6787,-0.28082,-27.501,376.29,2.006,-0.66867,-1.7238,2.6747,-2.2826e-13,-0.86192,0,0,0.11111,-1.0527e-15,0,0.66667
0.2835,0.33054,2.5515,-0.25418,-25.114,389.02,1.7295,-0.5765,-1.7709,2.306,-5.7545e-12,-0.88544,0,0,0.11111,-5.2633e-16,0,0.66667
0.83962,0.2301,7.5566,-0.40485,-12.733,26.26,8.158,-2.7193,-1.4161,10.877,-1.4313e-09,-0.70804,0,0,0.11111,-2.1053e-15,0,0.66667
0.96209,0.37044,8.6588,-0.19434,-1.4553,2.0076,4.4873,-1.4958,-1.864,5.9831,1.1406e-07,-0.93198,0,0,0.11111,-1.579e-15,0,0.66667
0.21069,0.41499,1.8962,-0.12752,-13.088,456.32,0.64479,-0.21493,-1.9398,0.85972,2.5968e-11,-0.96988,0,0,0.11111,-5.2633e-16,0,0.66667
0.89173,0.15768,8.0256,-0.51348,-11.199,13.303,10.989,-3.6631,-1.066,14.652,-3.4341e-08,-0.53302,0,0,0.11111,-0,-0,0.66667
0.39198,0.69947,3.5278,0.2992,27.202,294.4,-2.8147,0.93823,-1.6835,-3.7529,-2.7622e-13,-0.84177,0,0,0.11111,-1.0527e-15,0,0.66667
0.65143,0.76837,5.8628,0.40255,24.859,109.25,-6.2936,2.0979,-1.4221,-8.3914,-1.6938e-12,-0.71104,0,0,0.11111,1.0527e-15,0,0.66667
0.28386,0.45812,2.5547,-0.062823,-6.2018,388.63,0.42799,-0.14266,-1.9863,0.57066,-2.1654e-12,-0.99315,0,0,0.11111,-0,-0,0.66667
0.94108,0.78644,8.4697,0.42966,5.1385,4.754,-9.7043,3.2348,-1.3435,-12.939,7.6264e-08,-0.67177,0,0,0.11111,-0,-0,0.66667
0.78682,0.96331,7.0814,0.69497,28.533,45.273,-13.123,4.3745,-0.28125,-17.498,3.4973e-10,-0.14062,0,0,0.11111,-0,-0,0.66667
0.19277,0.17672,1.735,-0.48492,-50.26,473.42,2.2435,-0.74783,-1.162,2.9913,8.2061e-11,-0.58101,0,0,0.11111,-0,-0,0.66667
0.61504,0.38579,5.5354,-0.17132,-11.409,130.54,2.5288,-0.84295,-1.8935,3.3718,5.9264e-13,-0.94677,0,0,0.11111,-0,-0,0.66667
0.9688,0.42481,8.7192,-0.11279,-0.68404,1.3837,2.6225,-0.87417,-1.9586,3.4967,1.8273e-07,-0.97929,0,0,0.11111,-1.0527e-15,0,0.66667
0.28459,0.53069,2.5613,0.046028,4.5417,387.97,-0.31437,0.10479,-1.9935,-0.41916,2.408e-12,-0.99673,0,0,0.11111,-3.2895e-17,0,0.66667
0.36153,0.84654,3.2538,0.51981,48.644,320.43,-4.5103,1.5034,-1.0411,-6.0137,2.3341e-12,-0.52056,0,0,0.11111,-0,-0,0.66667
0.20361,0.49983,1.8325,-0.00025463,-0.026211,462.98,0.0012443,-0.00041476,-2.0047,0.001659,1.2664e-10,-1.0024,0,0,0.11111,-3.1251e-16,0,0.66667
0.63877,0.44604,5.7489,-0.080933,-5.1277,116.18,1.2407,-0.41358,-1.9781,1.6543,-6.2828e-13,-0.98906,0,0,0.11111,-0,-0,0.66667
0.89282,0.80222,8.0354,0.45332,9.7646,12.867,-9.7137,3.2379,-1.2702,-12.952,2.4689e-08,-0.63508,0,0,0.11111,-0,-0,0.66667
0.3417,0.99116,3.0753,0.73675,70.263,337.93,-6.0418,2.0139,-0.071206,-8.0558,-2.0672e-12,-0.035603,0,0,0.11111,1.1941e-15,1.0675e-16,0.66667
0.1244,0.22631,1.1196,-0.41054,-43.484,538.96,1.2257,-0.40856,-1.404,1.6343,8.2278e-09,-0.70202,0,0,0.11111,-2.6316e-16,0,0.66667
0.34768,0.83832,3.1291,0.50749,48.023,332.35,-4.2346,1.4115,-1.0839,-5.6461,1.8772e-12,-0.54194,0,0,0.11111,-0,-0,0.66667
0.62672,0.4387,5.6405,-0.091952,-5.9774,123.36,1.3831,-0.46103,-1.9726,1.8441,1.5776e-12,-0.98632,0,0,0.11111,-2.1053e-15,0,0.66667
0.73484,0.11031,6.6135,-0.58453,-28.907,66.686,10.309,-3.4363,-0.78821,13.745,1.5648e-11,-0.39411,0,0,0.11111,-1.0527e-15,0,0.66667
0.60653,0.35974,5.4588,-0.21039,-14.25,135.87,3.0625,-1.0208,-1.8425,4.0834,-5.2625e-14,-0.92126,0,0,0.11111,-0,-0,0.66667
0.076207,0.20659,0.68586,-0.44012,-47.089,585.91,0.80496,-0.26832,-1.3123,1.0733,1.0213e-07,-0.65617,0,0,0.11111,1.3158e-16,0,0.66667
0.93982,0.37668,8.4584,-0.18498,-2.2308,4.3453,4.1724,-1.3908,-1.8802,5.5632,2.1624e-08,-0.94009,0,0,0.11111,-0,-0,0.66667
0.18939,0.16917,1.7045,-0.49625,-51.51,476.63,2.2556,-0.75188,-1.1255,3.0075,1.0914e-10,-0.56273,0,0,0.11111,-0,-0,0.66667
0.57409,0.40738,5.1668,-0.13893,-9.9809,156.77,1.9141,-0.63805,-1.9316,2.5522,2.55e-12,-0.96581,0,0,0.11111,-0,-0,0.66667
0.90683,0.96701,8.1615,0.70051,13.388,11.143,-15.246,5.082,-0.25947,-20.328,-1.1993e-06,-0.12974,0,0,0.11111,-2.6316e-16,0,0.66667
0.97339,0.91148,8.7605,0.61722,3.3847,2.5049,-14.419,4.8063,-0.64457,-19.225,-1.3066e-05,-0.32228,0,0,0.11111,-0,-0,0.66667
0.85777,0.33699,7.7199,-0.24451,-6.8501,20.749,5.0337,-1.6779,-1.7894,6.7116,-4.1787e-09,-0.89469,0,0,0.11111,5.2633e-16,0,0.66667
0.12909,0.67561,1.1618,0.26341,27.839,534.36,-0.81609,0.27203,-1.7521,-1.0881,-8.1434e-09,-0.87606,0,0,0.11111,-1.3158e-16,0,0.66667
0.90702,0.55242,8.1632,0.078634,1.4605,9.351,-1.7117,0.57058,-1.9808,-2.2823,4.4646e-09,-0.99041,0,0,0.11111,-0,-0,0.66667
0.32751,0.93172,2.9476,0.64759,62.341,350.16,-5.0902,1.6967,-0.51242,-6.787,-3.2419e-12,-0.25621,0,0,0.11111,2.6316e-16,7.9297e-17,0.66667
0.58239,0.57344,5.2415,0.11016,7.7991,151.27,-1.5397,0.51324,-1.9556,-2.053,2.2921e-12,-0.9778,0,0,0.11111,-0,-0,0.66667
0.14046,0.33923,1.2641,-0.24115,-25.405,523.36,0.81293,-0.27098,-1.7976,1.0839,4.4619e-09,-0.89882,0,0,0.11111,-1.9737e-16,0,0.66667
0.51272,0.75428,4.6145,0.38142,30.2,199.81,-4.6936,1.5645,-1.4835,-6.2581,-1.2128e-12,-0.74173,0,0,0.11111,-0,-0,0.66667
0.46733,0.73781,4.206,0.35671,29.95,233.85,-4.0008,1.3336,-1.5493,-5.3344,1.3904e-12,-0.77466,0,0,0.11111,-0,-0,0.66667
0.005313,0.8455,0.047817,0.51825,55.811,655.52,-0.066081,0.022025,-1.0443,-0.088109,-2.3187e-06,-0.52215,0,0,0.11111,1.6448e-17,-2.9014e-16,0.66667
0.28621,0.26495,2.5759,-0.35258,-34.799,386.64,2.4219,-0.80729,-1.5561,3.2292,-1.0234e-11,-0.77806,0,0,0.11111,5.2633e-16,0,0.66667
0.14345,0.76977,1.291,0.40465,42.635,520.54,-1.3931,0.46437,-1.4179,-1.8575,-3.4645e-09,-0.70893,0,0,0.11111,1.3158e-16,0,0.66667
0.35352,0.5611,3.1817,0.091657,8.6091,326.94,-0.77767,0.25922,-1.9692,-1.0369,-1.3195e-12,-0.9846,0,0,0.11111,-6.5791e-16,0,0.66667
0.27167,0.78087,2.445,0.42131,41.975,399.91,-2.747,0.91566,-1.3681,-3.6626,1.7877e-11,-0.68404,0,0,0.11111,-5.6745e-16,0,0.66667
0.47113,0.40292,4.2401,-0.14562,-12.155,230.73,1.6465,-0.54885,-1.9261,2.1954,5.5622e-13,-0.96304,0,0,0.11111,-1.3158e-16,0,0.66667
0.77155,0.78178,6.944,0.42266,18.306,50.328,-7.8266,2.6089,-1.364,-10.435,1.9846e-12,-0.68202,0,0,0.11111,2.1053e-15,0,0.66667
0.020636,0.78947,0.18573,0.43421,46.706,640.45,-0.21505,0.071686,-1.3281,-0.28674,1.3039e-06,-0.66405,0,0,0.11111,-0,-0,0.66667
0.22758,0.69633,2.0482,0.29449,30.012,440.54,-1.6085,0.53616,-1.6893,-2.1446,2.681e-11,-0.84466,0,0,0.11111,5.2633e-16,0,0.66667
0.98353,0.72375,8.8518,0.33562,1.0275,0.91534,-7.9222,2.6407,-1.6028,-10.563,-2.2972e-07,-0.80138,0,0,0.11111,-2.1053e-15,0,0.66667
0.059609,0.94837,0.53648,0.67256,72.302,602.23,-0.96218,0.32073,-0.39169,-1.2829,4.7004e-06,-0.19585,0,0,0.11111,1.3158e-16,0,0.66667
0.59551,0.4806,5.3596,-0.029103,-2.0116,142.75,0.41595,-0.13865,-1.9983,0.5546,-9.0949e-13,-0.99914,0,0,0.11111,-0,-0,0.66667
0.99828,0.55498,8.9845,0.082467,-0.016942,0.051979,-1.9758,0.65861,-1.9775,-2.6344,6.1537e-07,-0.98876,0,0,0.11111,-1.0527e-15,0,0.66667
0.60079,0.1093,5.4071,-0.58606,-40.315,140.21,8.4503,-2.8168,-0.7761,11.267,-2.216e-12,-0.38805,0,0,0.11111,1.0527e-15,0,0.66667
0.052634,0.76507,0.4737,0.3976,42.655,609,-0.50225,0.16742,-1.4356,-0.66967,-4.0679e-08,-0.7178,0,0,0.11111,-0,-0,0.66667
0.12467,0.73391,1.1221,0.35087,37.145,538.67,-1.0499,0.34995,-1.5656,-1.3998,-1.0213e-08,-0.78279,0,0,0.11111,-0,-0,0.66667
0.89515,0.24952,8.0563,-0.37573,-7.8993,12.155,8.0719,-2.6906,-1.4981,10.763,-2.7461e-08,-0.74903,0,0,0.11111,1.3487e-15,0,0.66667
0.86842,0.58992,7.8158,0.13488,3.5053,17.832,-2.8112,0.93708,-1.9337,-3.7483,3.8065e-09,-0.96684,0,0,0.11111,2.6316e-16,0,0.66667
0.54878,0.017173,4.939,-0.72424,-54.633,175.04,9.5387,-3.1796,-0.13604,12.718,3.8476e-12,-0.068022,0,0,0.11111,-0,-0,0.66667
0.26258,0.71088,2.3632,0.31632,31.656,408.14,-1.9934,0.66448,-1.6443,-2.6579,1.6847e-11,-0.82217,0,0,0.11111,-0,-0,0.66667
0.51035,0.25884,4.5931,-0.36175,-28.731,201.52,4.4308,-1.4769,-1.533,5.9077,2.3226e-12,-0.76649,0,0,0.11111,-0,-0,0.66667
0.25377,0.88673,2.284,0.58009,58.479,416.48,-3.5331,1.1777,-0.80264,-4.7108,4.7076e-12,-0.40132,0,0,0.11111,-0,-0,0.66667
0.69013,0.83257,6.2112,0.49885,28.053,88.326,-8.2625,2.7542,-1.1155,-11.017,-3.0127e-12,-0.55773,0,0,0.11111,-0,-0,0.66667
0.60412,0.32563,5.4371,-0.26155,-17.804,137.44,3.7922,-1.2641,-1.7548,5.0562,4.6962e-13,-0.87738,0,0,0.11111,-0,-0,0.66667
0.78798,0.0058695,7.0918,-0.7412,-30.335,45.04,14.017,-4.6724,-0.044706,18.69,5.2891e-12,-0.022353,0,0,0.11111,-0,-0,0.66667
0.48764,0.90576,4.3887,0.60864,49.981,218.84,-7.1232,2.3744,-0.68393,-9.4975,-2.1538e-13,-0.34196,0,0,0.11111,-1.5461e-15,0,0.66667
0.038361,0.48819,0.34525,-0.01771,-1.8995,622.99,0.016305,-0.0054343,-1.9963,0.02174,8.5119e-07,-0.99814,0,0,0.11111,-1.1122e-16,0,0.66667
0.79002,0.70615,7.1102,0.30923,12.403,42.836,-5.8631,1.9544,-1.6574,-7.8174,1.5681e-12,-0.82871,0,0,0.11111,-1.0527e-15,0,0.66667
0.20938,0.27453,1.8844,-0.33821,-34.768,457.64,1.6995,-0.5665,-1.5914,2.266,9.3847e-12,-0.79568,0,0,0.11111,-3.9475e-16,0,0.66667
0.22664,0.40856,2.0397,-0.13716,-13.975,441.36,0.74607,-0.24869,-1.9316,0.99475,-2.668e-11,-0.96579,0,0,0.11111,-0,-0,0.66667
0.54164,0.76662,4.8747,0.39992,30.353,179.2,-5.1987,1.7329,-1.4293,-6.9316,-2.5246e-12,-0.71464,0,0,0.11111,1.0527e-15,0,0.66667
0.82259,0.0084223,7.4034,-0.73737,-25.735,32.833,14.557,-4.8524,-0.064969,19.41,1.9738e-10,-0.032485,0,0,0.11111,-0,-0,0.66667
0.94909,0.71515,8.5418,0.32272,3.3048,3.5206,-7.351,2.4503,-1.6295,-9.8013,-2.7502e-08,-0.81474,0,0,0.11111,2.6316e-16,0,0.66667
0.24077,0.50711,2.167,0.010662,1.0785,428.17,-0.061611,0.020537,-1.9976,-0.082148,5.8093e-12,-0.99878,0,0,0.11111,1.0527e-15,0,0.66667
0.8962,0.13221,8.0658,-0.55168,-11.58,12.525,11.866,-3.9553,-0.91612,15.821,6.6189e-09,-0.45806,0,0,0.11111,2.1053e-15,0,0.66667
0.91103,0.70208,8.1993,0.30312,5.418,8.9347,-6.6276,2.2092,-1.6715,-8.8368,3.6646e-08,-0.83577,0,0,0.11111,-0,-0,0.66667
0.74442,0.56573,6.6998,0.0986,4.6911,61.37,-1.7616,0.5872,-1.9643,-2.3488,-5.2724e-12,-0.98214,0,0,0.11111,-2.1053e-15,0,0.66667
0.37426,0.45901,3.3684,-0.061478,-5.674,309.19,0.55222,-0.18407,-1.9894,0.73629,-1.1474e-12,-0.99472,0,0,0.11111,-5.2633e-16,0,0.66667
0.54785,0.78507,4.9307,0.42761,32.152,174.93,-5.6224,1.8741,-1.3531,-7.4965,1.239e-13,-0.67656,0,0,0.11111,-0,-0,0.66667
0.13763,0.7112,1.2387,0.31681,33.415,526.12,-1.0465,0.34882,-1.6433,-1.3953,-5.6023e-09,-0.82167,0,0,0.11111,-0,-0,0.66667
0.57527,0.60766,5.1775,0.16149,11.579,155.99,-2.2296,0.74319,-1.9072,-2.9728,4.9738e-13,-0.9536,0,0,0.11111,1.0527e-15,0,0.66667
0.57561,0.7919,5.1805,0.43786,31.452,156.15,-6.0489,2.0163,-1.3188,-8.0652,-5.1958e-14,-0.65939,0,0,0.11111,-0,-0,0.66667
0.58347,0.96086,5.2513,0.69129,49.181,151.65,-9.6804,3.2268,-0.29918,-12.907,-3.7925e-13,-0.14959,0,0,0.11111,-0,-0,0.66667
0.92023,0.62228,8.2821,0.18341,2.9336,7.1615,-4.0508,1.3503,-1.8829,-5.401,3.0469e-08,-0.94145,0,0,0.11111,-2.6316e-16,0,0.66667
0.5331,0.60474,4.7979,0.15711,12.058,184.92,-2.0101,0.67004,-1.9135,-2.6801,1.8556e-12,-0.95673,0,0,0.11111,-1.0527e-15,0,0.66667
0.24089,0.49877,2.168,-0.0018469,-0.18681,428.06,0.010678,-0.0035593,-1.9989,0.014237,-1.1814e-11,-0.99943,0,0,0.11111,6.2778e-16,0,0.66667
0.54523,0.50459,4.9071,0.0068881,0.51874,176.35,-0.090135,0.030045,-2.002,-0.12018,3.896e-12,-1.001,0,0,0.11111,-0,-0,0.66667
0.12737,0.98434,1.1464,0.72651,77.164,536.26,-2.2209,0.74031,-0.12375,-2.9612,2.8137e-08,-0.061873,0,0,0.11111,-0,-0,0.66667
0.074781,0.44489,0.67303,-0.082665,-8.8302,587.25,0.14836,-0.049454,-1.9756,0.19781,3.0555e-08,-0.98778,0,0,0.11111,-0,-0,0.66667
0.83061,0.94063,7.4755,0.66094,22.048,29.926,-13.176,4.3919,-0.44819,-17.567,-1.4436e-08,-0.22409,0,0,0.11111,-0,-0,0.66667
0.72316,0.23692,6.5084,-0.39463,-20.165,71.602,6.849,-2.283,-1.4448,9.1321,1.1017e-11,-0.72241,0,0,0.11111,-0,-0,0.66667
0.083912,0.90251,0.75521,0.60377,64.624,578.43,-1.2159,0.40531,-0.70254,-1.6212,5.2356e-08,-0.35127,0,0,0.11111,-1.6448e-16,0,0.66667
0.55758,0.55523,5.0182,0.082841,6.1175,167.85,-1.1086,0.36952,-1.9742,-1.4781,1.1777e-12,-0.98711,0,0,0.11111,3.3015e-16,0,0.66667
0.52511,0.32076,4.7259,-0.26886,-20.894,190.72,3.3884,-1.1295,-1.7409,4.5178,1.7775e-12,-0.87045,0,0,0.11111,-1.0527e-15,0,0.66667
0.50731,0.95254,4.5658,0.67881,54.372,204.41,-8.2648,2.7549,-0.35894,-11.02,-9.7078e-13,-0.17947,0,0,0.11111,-0,-0,0.66667
0.032405,0.61453,0.29164,0.1718,18.44,628.85,-0.13361,0.044537,-1.8973,-0.17815,1.4752e-07,-0.94863,0,0,0.11111,-0,-0,0.66667
0.96037,0.12888,8.6433,-0.55668,-4.5249,3.202,12.831,-4.2769,-0.89641,17.108,-1.708e-06,-0.4482,0,0,0.11111,-0,-0,0.66667
0.92765,0.54602,8.3488,0.069027,0.99978,5.9053,-1.5368,0.51226,-1.9807,-2.0491,-3.8166e-08,-0.99037,0,0,0.11111,-0,-0,0.66667
0.96441,0.47711,8.6797,-0.03433,-0.2392,1.6746,0.7946,-0.26487,-1.9947,1.0595,-3.5793e-08,-0.99736,0,0,0.11111,-0,-0,0.66667
0.53338,0.30599,4.8004,-0.29102,-22.344,184.85,3.7253,-1.2418,-1.7002,4.9671,7.2475e-13,-0.85009,0,0,0.11111,-0,-0,0.66667
0.12664,0.59951,1.1398,0.14926,15.778,536.71,-0.45365,0.15122,-1.9228,-0.60487,-7.1388e-09,-0.96141,0,0,0.11111,-0,-0,0.66667
0.73229,0.44414,6.5906,-0.083789,-4.1483,66.88,1.4726,-0.49086,-1.9764,1.9634,4.3116e-12,-0.98819,0,0,0.11111,-0,-0,0.66667
0.94973,0.71303,8.5476,0.31954,3.2297,3.4437,-7.2835,2.4278,-1.637,-9.7114,-3.4571e-08,-0.81849,0,0,0.11111,1.0527e-15,0,0.66667
0.25927,0.054636,2.3334,-0.66805,-67.219,411.55,4.1568,-1.3856,-0.41109,5.5424,-2.641e-12,-0.20555,0,0,0.11111,-0,-0,0.66667
0.28377,0.82477,2.5539,0.48716,48.212,388.98,-3.3178,1.1059,-1.1565,-4.4237,2.8784e-12,-0.57826,0,0,0.11111,5.2633e-16,0,0.66667
0.44706,0.55404,4.0235,0.081064,6.9584,249.47,-0.86976,0.28992,-1.9746,-1.1597,2.7036e-12,-0.98728,0,0,0.11111,-0,-0,0.66667
0.15862,0.62229,1.4276,0.18343,19.212,505.86,-0.6983,0.23277,-1.882,-0.93106,-1.4348e-09,-0.94098,0,0,0.11111,2.6316e-16,0,0.66667
0.56858,0.50253,5.1172,0.0037911,0.27486,160.39,-0.051733,0.017244,-1.9987,-0.068978,-1.2559e-15,-0.99935,0,0,0.11111,-0,-0,0.66667
0.44953,0.50934,4.0458,0.014017,1.1998,247.51,-0.15123,0.05041,-1.9987,-0.20164,3.3483e-12,-0.99937,0,0,0.11111,-2.1053e-15,0,0.66667
0.88742,0.349,7.9868,-0.2265,-5.0775,13.474,4.824,-1.608,-1.8179,6.4319,-1.524e-08,-0.90894,0,0,0.11111,-0,-0,0.66667
0.21483,0.29622,1.9335,-0.30566,-31.339,452.49,1.576,-0.52533,-1.6667,2.1013,-1.3975e-11,-0.83334,0,0,0.11111,-0,-0,0.66667
0.16795,0.5515,1.5115,0.077251,8.0631,496.9,-0.31138,0.10379,-1.9778,-0.41518,-5.9672e-10,-0.9889,0,0,0.11111,-2.6316e-16,0,0.66667
0.49563,0.8242,4.4607,0.4863,39.454,212.59,-5.7847,1.9282,-1.1578,-7.7129,4.5919e-13,-0.57889,0,0,0.11111,-0,-0,0.66667
0.51663,0.25116,4.6496,-0.37326,-29.389,196.97,4.628,-1.5427,-1.5083,6.1707,1.6027e-12,-0.75417,0,0,0.11111,-0,-0,0.66667
0.4062,0.61194,3.6558,0.16791,15.049,282.51,-1.6369,0.54563,-1.9035,-2.1825,-2.2263e-12,-0.95177,0,0,0.11111,-0,-0,0.66667
0.2368,0.32077,2.1312,-0.26885,-27.271,431.93,1.5279,-0.50929,-1.7438,2.0372,-2.4567e-11,-0.87188,0,0,0.11111,5.2633e-16,0,0.66667
0.53636,0.87708,4.8273,0.56562,43.371,183.25,-7.2811,2.427,-0.86179,-9.7081,-2.716e-12,-0.4309,0,0,0.11111,-0,-0,0.66667
0.96214,0.73626,8.6593,0.35439,2.6826,2.3417,-8.1833,2.7278,-1.5509,-10.911,-1.4333e-07,-0.77543,0,0,0.11111,-0,-0,0.66667
0.25644,0.95506,2.3079,0.68259,68.804,414.17,-4.201,1.4003,-0.34081,-5.6013,1.2113e-11,-0.1704,0,0,0.11111,-0,-0,0.66667
0.28319,0.24158,2.5487,-0.38763,-38.341,389.41,2.6346,-0.87819,-1.4671,3.5128,-5.552e-12,-0.73353,0,0,0.11111,-0,-0,0.66667
0.031465,0.052704,0.28318,-0.67094,-72.312,629.83,0.50668,-0.1689,-0.40313,0.67557,-9.9041e-06,-0.20157,0,0,0.11111,-0,-0,0.66667
0.87611,0.46468,7.8849,-0.052978,-1.2992,15.893,1.114,-0.37132,-1.993,1.4853,-9.8704e-09,-0.99652,0,0,0.11111,1.0527e-15,0,0.66667
0.27438,0.46598,2.4695,-0.051032,-5.0669,397.25,0.33606,-0.11202,-1.9892,0.44808,5.1925e-12,-0.99461,0,0,0.11111,-6.5791e-16,0,0.66667
0.059762,0.85756,0.53786,0.53633,57.564,602.04,-0.76926,0.25642,-0.97726,-1.0257,1.553e-08,-0.48863,0,0,0.11111,-0,-0,0.66667
0.75205,0.16012,6.7685,-0.50983,-23.76,58.761,9.202,-3.0673,-1.0776,12.269,5.5366e-11,-0.53881,0,0,0.11111,-0,-0,0.66667
0.92919,0.20933,8.3627,-0.436,-6.2642,6.3681,9.7231,-3.241,-1.3216,12.964,-1.3579e-07,-0.66081,0,0,0.11111,-1.0527e-15,0,0.66667
0.42393,0.7859,3.8154,0.42884,37.823,268.28,-4.3632,1.4544,-1.3478,-5.8176,-5.4978e-13,-0.67388,0,0,0.11111,-0,-0,0.66667
0.32511,0.2952,2.926,-0.30719,-29.521,351.86,2.3969,-0.79896,-1.6642,3.1959,6.1862e-13,-0.8321,0,0,0.11111,-0,-0,0.66667
0.68882,0.61071,6.1994,0.16606,9.333,88.4,-2.7453,0.91511,-1.9037,-3.6604,-1.8618e-12,-0.95187,0,0,0.11111,-0,-0,0.66667
0.20706,0.41949,1.8635,-0.12076,-12.415,459.74,0.60013,-0.20004,-1.947,0.80018,1.6111e-11,-0.97352,0,0,0.11111,-0,-0,0.66667
0.55152,0.052301,4.9637,-0.67155,-50.389,172.99,8.8889,-2.963,-0.39505,11.852,4.7686e-12,-0.19753,0,0,0.11111,-5.2633e-16,0,0.66667
0.49453,0.83767,4.4508,0.50651,41.164,213.45,-6.0117,2.0039,-1.0863,-8.0156,-1.3238e-12,-0.54314,0,0,0.11111,-0,-0,0.66667
0.58736,0.97762,5.2862,0.71643,50.644,149.21,-10.099,3.3664,-0.1728,-13.466,-1.2941e-12,-0.0864,0,0,0.11111,1.0527e-15,0,0.66667
0.83524,0.090806,7.5172,-0.61379,-19.926,28.296,12.304,-4.1013,-0.6589,16.405,-6.4773e-09,-0.32945,0,0,0.11111,1.3158e-15,0,0.66667
0.68413,0.90375,6.1572,0.60562,34.672,91.801,-9.9438,3.3146,-0.69647,-13.258,4.361e-13,-0.34823,0,0,0.11111,-1.4474e-15,0,0.66667
0.88239,0.43633,7.9415,-0.095512,-2.2289,14.45,2.0227,-0.67423,-1.9663,2.6969,6.1994e-10,-0.98314,0,0,0.11111,-1.4474e-15,0,0.66667
0.27936,0.75831,2.5142,0.38746,38.415,392.89,-2.5977,0.86592,-1.4676,-3.4637,7.3197e-12,-0.7338,0,0,0.11111,-0,-0,0.66667
0.24996,0.66143,2.2496,0.24215,24.391,419.72,-1.4526,0.48421,-1.796,-1.9368,1.9362e-11,-0.89802,0,0,0.11111,-5.2633e-16,0,0.66667
0.18811,0.33757,1.693,-0.24365,-25.256,477.71,1.1,-0.36666,-1.7924,1.4667,2.6705e-10,-0.89619,0,0,0.11111,-3.9475e-16,0,0.66667
0.008355,0.78295,0.075195,0.42443,45.667,652.53,-0.085107,0.028368,-1.3581,-0.11348,-8.1286e-07,-0.67906,0,0,0.11111,3.2895e-17,0,0.66667
0.65746,0.6255,5.9171,0.18826,11.44,105.49,-2.9705,0.99016,-1.8775,-3.9606,1.4493e-12,-0.93877,0,0,0.11111,-2.1053e-15,0,0.66667
0.37182,0.28747,3.3464,-0.3188,-29.518,311.41,2.8449,-0.94829,-1.6388,3.7931,2.7831e-12,-0.8194,0,0,0.11111,-1.0527e-15,0,0.66667
0.16613,0.63802,1.4951,0.20704,21.631,498.67,-0.82546,0.27515,-1.8453,-1.1006,-1.1363e-09,-0.92267,0,0,0.11111,-2.6316e-16,0,0.66667
0.25918,0.63243,2.3326,0.19865,19.905,411.21,-1.2356,0.41188,-1.8576,-1.6475,1.4895e-11,-0.9288,0,0,0.11111,-0,-0,0.66667
0.1825,0.91907,1.6425,0.62861,65.52,483.29,-2.7534,0.91778,-0.59316,-3.6711,1.8362e-10,-0.29658,0,0,0.11111,-0,-0,0.66667
0.17807,0.60414,1.6027,0.15621,16.248,487.24,-0.66759,0.22253,-1.9109,-0.89012,-4.8718e-10,-0.95547,0,0,0.11111,-5.2633e-16,0,0.66667
0.22777,0.66862,2.0499,0.25292,25.768,440.34,-1.3826,0.46086,-1.77,-1.8435,2.8334e-11,-0.88501,0,0,0.11111,-0,-0,0.66667
0.096411,0.63322,0.86769,0.19983,21.273,566.12,-0.46238,0.15413,-1.8585,-0.61651,-2.4241e-08,-0.92925,0,0,0.11111,-0,-0,0.66667
0.54411,0.1649,4.8969,-0.50265,-38.053,177.68,6.5639,-2.188,-1.102,8.7519,1.5024e-12,-0.55099,0,0,0.11111,1.0527e-15,0,0.66667
0.8362,0.28579,7.5258,-0.32132,-10.285,27.09,6.4484,-2.1495,-1.631,8.5979,-1.3272e-09,-0.81551,0,0,0.11111,-2.1053e-15,0,0.66667
0.34664,0.87965,3.1198,0.56948,53.973,333.34,-4.7377,1.5792,-0.8476,-6.317,1.8421e-12,-0.4238,0,0,0.11111,-1.0527e-15,0,0.66667
0.9126,0.72889,8.2134,0.34334,6.0401,8.7532,-7.5199,2.5066,-1.5785,-10.027,3.9738e-08,-0.78927,0,0,0.11111,2.1053e-15,0,0.66667
0.68392,0.50132,6.1553,0.0019736,0.11229,90.908,-0.032394,0.010798,-2.0006,-0.043193,1.5887e-12,-1.0003,0,0,0.11111,-0,-0,0.66667
0.82604,0.59318,7.4343,0.13978,4.7167,29.993,-2.7711,0.92369,-1.9329,-3.6947,3.8956e-10,-0.96645,0,0,0.11111,-6.5791e-17,0,0.66667
0.92485,0.033422,8.3237,-0.69987,-10.88,8.1213,15.535,-5.1782,-0.25946,20.713,-4.5284e-06,-0.12973,0,0,0.11111,-0,-0,0.66667
0.71895,0.17543,6.4705,-0.48685,-25.238,73.852,8.4005,-2.8002,-1.1608,11.201,6.4686e-12,-0.58041,0,0,0.11111,-0,-0,0.66667
0.77043,0.47319,6.9339,-0.040215,-1.7419,50.239,0.74359,-0.24786,-1.9933,0.99145,2.4256e-11,-0.99667,0,0,0.11111,-1.8247e-15,0,0.66667
0.074018,0.61092,0.66616,0.16638,17.779,588,-0.29557,0.098522,-1.9003,-0.39409,-1.905e-08,-0.95015,0,0,0.11111,1.3158e-16,0,0.66667
0.18869,0.72992,1.6982,0.34488,35.763,477.21,-1.5618,0.52059,-1.5792,-2.0824,-2.0496e-10,-0.7896,0,0,0.11111,-0,-0,0.66667
0.31405,0.81501,2.8265,0.47252,45.833,361.8,-3.5615,1.1872,-1.2088,-4.7486,-6.033e-13,-0.6044,0,0,0.11111,-0,-0,0.66667
0.33439,0.44806,3.0095,-0.077912,-7.4287,343.58,0.62527,-0.20842,-1.9761,0.8337,7.6644e-13,-0.98804,0,0,0.11111,5.2633e-16,0,0.66667
0.4653,0.025686,4.1877,-0.71147,-60.161,236.12,7.9452,-2.6484,-0.20021,10.594,4.9427e-13,-0.1001,0,0,0.11111,5.2633e-16,7.7031e-17,0.66667
0.095259,0.88944,0.85733,0.58416,62.383,567.35,-1.3355,0.44517,-0.78823,-1.7807,-5.158e-08,-0.39412,0,0,0.11111,-0,-0,0.66667
0.34423,0.71265,3.098,0.31898,30.215,335.13,-2.6352,0.87841,-1.6419,-3.5136,7.7938e-13,-0.82096,0,0,0.11111,-0,-0,0.66667
0.073158,0.40136,0.65842,-0.14797,-15.812,588.84,0.2598,-0.086599,-1.9211,0.3464,-2.674e-09,-0.96053,0,0,0.11111,3.2895e-17,0,0.66667
0.32341,0.54665,2.9107,0.06998,6.7268,353.23,-0.54318,0.18106,-1.9809,-0.72424,7.6611e-13,-0.99043,0,0,0.11111,-5.2633e-16,0,0.66667
0.6615,0.7247,5.9535,0.33706,20.316,103.42,-5.3511,1.7837,-1.5947,-7.1348,-2.2222e-12,-0.79733,0,0,0.11111,2.1053e-15,0,0.66667
0.0029211,0.10146,0.02629,-0.59781,-64.436,657.88,0.041906,-0.013971,-0.72958,0.055874,-3.682e-06,-0.36479,0,0,0.11111,-0,-0,0.66667
0.28436,0.25204,2.5593,-0.37194,-36.758,388.33,2.5384,-0.84614,-1.509,3.3846,-7.3346e-12,-0.75451,0,0,0.11111,-0,-0,0.66667
0.072846,0.45065,0.65562,-0.074032,-7.9103,589.14,0.12943,-0.043144,-1.9785,0.17258,-1.3912e-08,-0.98924,0,0,0.11111,-1.3158e-16,0,0.66667
0.71076,0.6475,6.3969,0.22125,11.706,77.303,-3.7741,1.258,-1.8235,-5.0322,-4.5179e-12,-0.91176,0,0,0.11111,-5.2633e-16,0,0.66667
0.84127,0.39577,7.5714,-0.15634,-4.8476,25.301,3.1565,-1.0522,-1.9136,4.2087,-1.3625e-09,-0.95679,0,0,0.11111,-1.0527e-15,0,0.66667
0.97833,0.89073,8.805,0.5861,2.5804,2.0737,-13.762,4.5872,-0.77619,-18.349,-7.5433e-06,-0.38809,0,0,0.11111,-0,-0,0.66667
0.61717,0.25578,5.5545,-0.36634,-24.332,129.49,5.4262,-1.8087,-1.5207,7.2349,-1.1888e-12,-0.76037,0,0,0.11111,-0,-0,0.66667
0.2249,0.6899,2.0241,0.28486,29.066,443.04,-1.5375,0.51251,-1.7102,-2.0501,2.3876e-11,-0.85512,0,0,0.11111,5.2633e-16,0,0.66667
0.22831,0.26414,2.0548,-0.35379,-36.057,439.89,1.9386,-0.64619,-1.5525,2.5848,-3.696e-11,-0.77627,0,0,0.11111,-0,-0,0.66667
0.49353,0.036673,4.4417,-0.69499,-56.72,214.65,8.2319,-2.744,-0.28078,10.976,-1.7826e-12,-0.14039,0,0,0.11111,-0,-0,0.66667
0.93135,0.709,8.3821,0.31351,4.3385,5.718,-7.0076,2.3359,-1.6483,-9.3434,7.196e-08,-0.82416,0,0,0.11111,-1.0527e-15,0,0.66667
0.62806,0.62162,5.6525,0.18244,11.831,122.62,-2.7499,0.91664,-1.8824,-3.6666,1.6915e-12,-0.94119,0,0,0.11111,-1.3158e-15,0,0.66667
0.1814,0.49029,1.6326,-0.01456,-1.5122,484.05,0.063388,-0.021129,-1.997,0.084517,-2.6385e-10,-0.99852,0,0,0.11111,2.6316e-16,0,0.66667
0.51601,0.12173,4.6441,-0.5674,-44.821,197.79,7.0268,-2.3423,-0.85956,9.3691,1.3345e-12,-0.42978,0,0,0.11111,-5.2633e-16,0,0.66667
0.40912,0.8039,3.6821,0.45585,40.824,280.39,-4.476,1.492,-1.2614,-5.968,-6.91e-13,-0.63068,0,0,0.11111,-0,-0,0.66667
0.86907,0.3015,7.8216,-0.29776,-7.7233,17.913,6.2105,-2.0702,-1.6825,8.2807,-7.8404e-09,-0.84127,0,0,0.11111,1.0527e-15,0,0.66667
0.10442,0.9808,0.93974,0.7212,77.008,558.51,-1.8073,0.60243,-0.14886,-2.4097,-3.6129e-07,-0.074431,0,0,0.11111,-0,-0,0.66667
0.21763,0.476,1.9586,-0.035993,-3.6822,449.78,0.188,-0.062665,-1.998,0.25066,2.5978e-11,-0.99898,0,0,0.11111,-0,-0,0.66667
0.75933,0.064672,6.834,-0.65299,-29.769,56.148,11.9,-3.9667,-0.48267,15.867,-1.5046e-12,-0.24133,0,0,0.11111,-0,-0,0.66667
0.97325,0.54082,8.7592,0.061235,0.31364,1.0452,-1.4303,0.47677,-1.9853,-1.9071,9.2644e-07,-0.99267,0,0,0.11111,-0,-0,0.66667
0.80883,0.11109,7.2795,-0.58336,-21.652,36.797,11.324,-3.7747,-0.78911,15.099,-1.9727e-10,-0.39456,0,0,0.11111,-9.5785e-16,0,0.66667
0.57043,0.53734,5.1339,0.056008,4.0481,159.16,-0.76677,0.25559,-1.9867,-1.0224,1.565e-12,-0.99336,0,0,0.11111,-0,-0,0.66667
0.80961,0.67375,7.2865,0.26062,9.5639,35.646,-5.0639,1.688,-1.7584,-6.7519,1.988e-10,-0.87919,0,0,0.11111,-0,-0,0.66667
0.37864,0.82315,3.4077,0.48473,44.681,305.83,-4.4049,1.4683,-1.1639,-5.8732,2.3515e-12,-0.58193,0,0,0.11111,-1.0527e-15,0,0.66667
0.23981,0.65583,2.1583,0.23375,23.67,429.12,-1.3453,0.44844,-1.8052,-1.7938,2.224e-11,-0.9026,0,0,0.11111,2.4672e-17,0,0.66667
0.44234,0.028268,3.981,-0.7076,-61.423,254.09,7.5119,-2.504,-0.21906,10.016,-1.9997e-12,-0.10953,0,0,0.11111,-2.6316e-16,0,0.66667
0.29305,0.53837,2.6374,0.05755,5.6483,380.33,-0.40476,0.13492,-1.9877,-0.53968,6.1099e-12,-0.99384,0,0,0.11111,-1.0527e-15,0,0.66667
0.64436,0.15151,5.7992,-0.52273,-32.858,113.6,8.0838,-2.6946,-1.0283,10.778,2.7844e-12,-0.51416,0,0,0.11111,-1.3158e-15,0,0.66667
0.91612,0.28807,8.2451,-0.3179,-5.3658,8.0868,6.9897,-2.3299,-1.6389,9.3196,-4.5523e-08,-0.81945,0,0,0.11111,-2.1053e-15,0,0.66667
0.6714,0.85817,6.0426,0.53725,31.715,98.425,-8.657,2.8857,-0.97678,-11.543,-5.9774e-13,-0.48839,0,0,0.11111,-0,-0,0.66667
0.78373,0.73189,7.0536,0.34784,14.333,45.322,-6.5427,2.1809,-1.5702,-8.7236,-1.5113e-11,-0.78508,0,0,0.11111,-0,-0,0.66667
0.9199,0.35328,8.2791,-0.22009,-3.5379,7.269,4.859,-1.6197,-1.829,6.4787,-3.4474e-08,-0.91448,0,0,0.11111,-2.1053e-15,0,0.66667
0.73198,0.51299,6.5878,0.019487,0.9656,67.004,-0.34233,0.11411,-1.9991,-0.45645,4.1417e-13,-0.99955,0,0,0.11111,-2.1053e-15,0,0.66667
0.45633,0.46793,4.107,-0.048108,-4.0858,242.17,0.52688,-0.17563,-1.9928,0.7025,-2.0606e-13,-0.99641,0,0,0.11111,-3.2895e-17,0,0.66667
0.7422,0.56875,6.6798,0.10312,4.9433,62.369,-1.8369,0.61231,-1.96,-2.4492,-5.6143e-12,-0.98002,0,0,0.11111,-0,-0,0.66667
0.99059,0.28398,8.9153,-0.32403,-0.50185,0.62182,7.7036,-2.5679,-1.6253,10.272,-3.5617e-07,-0.81267,0,0,0.11111,-0,-0,0.66667
0.67386,0.21786,6.0647,-0.42322,-24.784,96.793,6.8445,-2.2815,-1.3656,9.126,2.1534e-12,-0.68279,0,0,0.11111,-1.579e-15,0,0.66667
0.72714,0.38533,6.5442,-0.17201,-8.6599,69.353,3.0018,-1.0006,-1.8923,4.0024,1.0617e-11,-0.94613,0,0,0.11111,-2.1053e-15,0,0.66667
0.13533,0.76684,1.218,0.40027,42.27,528.37,-1.3001,0.43335,-1.4283,-1.7334,-6.0452e-09,-0.71414,0,0,0.11111,-0,-0,0.66667
0.81734,0.63433,7.3561,0.20149,7.1145,32.916,-3.9525,1.3175,-1.8541,-5.2701,2.5267e-10,-0.92705,0,0,0.11111,-2.1053e-15,0,0.66667
0.92918,0.5976,8.3626,0.14641,2.0782,5.7428,-3.2649,1.0883,-1.922,-4.3532,-5.4438e-09,-0.96101,0,0,0.11111,-0,-0,0.66667
0.082941,0.033855,0.74646,-0.69922,-74.943,579.42,1.3918,-0.46395,-0.26106,1.8558,-4.2724e-07,-0.13053,0,0,0.11111,-0,-0,0.66667
0.92221,0.87325,8.2999,0.55988,8.8965,7.8769,-12.392,4.1306,-0.89008,-16.522,-4.4315e-08,-0.44504,0,0,0.11111,1.579e-15,0,0.66667
0.76001,0.14426,6.8401,-0.53361,-24.188,55.428,9.7332,-3.2444,-0.98545,12.978,1.3198e-12,-0.49272,0,0,0.11111,1.5262e-16,0,0.66667
0.25267,0.75756,2.2741,0.38634,38.895,417.31,-2.3428,0.78094,-1.4698,-3.1238,2.0066e-11,-0.73492,0,0,0.11111,-0,-0,0.66667
0.03478,0.67228,0.31302,0.25841,27.742,626.52,-0.2157,0.071901,-1.7618,-0.2876,2.1459e-07,-0.88089,0,0,0.11111,-0,-0,0.66667
0.59333,0.70625,5.34,0.30937,21.5,144.37,-4.4054,1.4685,-1.6629,-5.8739,1.6898e-12,-0.83145,0,0,0.11111,-7.0264e-16,0,0.66667
0.14,0.62224,1.26,0.18336,19.314,523.8,-0.61607,0.20536,-1.8844,-0.82143,-4.714e-09,-0.94221,0,0,0.11111,2.6316e-16,0,0.66667
0.88064,0.77223,7.9257,0.40835,9.7321,15.406,-8.6306,2.8769,-1.4052,-11.507,9.2001e-09,-0.70258,0,0,0.11111,1.0527e-15,0,0.66667
0.64348,0.1922,5.7913,-0.4617,-29.049,113.96,7.1302,-2.3767,-1.2428,9.507,5.0493e-13,-0.6214,0,0,0.11111,-0,-0,0.66667
0.041189,0.84822,0.3707,0.52233,56.159,620.26,-0.51634,0.17211,-1.0286,-0.68846,-1.2592e-06,-0.51428,0,0,0.11111,-1.3158e-16,0,0.66667
0.19441,0.39428,1.7497,-0.15858,-16.391,471.7,0.73992,-0.24664,-1.908,0.98656,7.5868e-11,-0.954,0,0,0.11111,-0,-0,0.66667
0.62451,0.53799,5.6206,0.056992,3.7215,124.69,-0.85422,0.28474,-1.992,-1.139,1.1454e-12,-0.99602,0,0,0.11111,-0,-0,0.66667
0.52665,0.45775,4.7399,-0.063379,-4.9097,189.47,0.80109,-0.26703,-1.9842,1.0681,2.6619e-12,-0.99211,0,0,0.11111,-0,-0,0.66667
0.29026,0.019888,2.6123,-0.72017,-71.193,383.44,5.0168,-1.6723,-0.15346,6.6891,-3.2299e-12,-0.076729,0,0,0.11111,-0,-0,0.66667
0.39512,0.075653,3.5561,-0.63652,-57.908,292.28,6.036,-2.012,-0.5579,8.048,3.6566e-12,-0.27895,0,0,0.11111,-1.0527e-15,0,0.66667
0.24657,0.21184,2.2191,-0.43224,-43.675,422.98,2.5578,-0.85261,-1.3356,3.4104,-2.747e-11,-0.66778,0,0,0.11111,-1.3158e-16,0,0.66667
0.99839,0.95592,8.9855,0.68388,0.1705,1.8909,-16.387,5.4622,-0.33857,-21.849,-5.5411e-05,-0.16928,0,0,0.11111,-0,-0,0.66667
0.88329,0.29313,7.9497,-0.3103,-7.2156,14.552,6.578,-2.1927,-1.655,8.7707,-1.4092e-08,-0.82751,0,0,0.11111,-0,-0,0.66667
0.74097,0.82559,6.6687,0.48839,23.622,63.596,-8.6851,2.895,-1.1494,-11.58,-8.9528e-12,-0.57468,0,0,0.11111,-0,-0,0.66667
0.24654,0.84546,2.2188,0.51818,52.404,423.09,-3.0661,1.022,-1.0459,-4.0881,6.7033e-11,-0.52296,0,0,0.11111,-0,-0,0.66667
0.088881,0.35991,0.79993,-0.21013,-22.402,573.47,0.44824,-0.14941,-1.8412,0.59765,2.6845e-08,-0.92059,0,0,0.11111,1.3158e-16,0,0.66667
0.096131,0.070874,0.86518,-0.64369,-68.777,566.53,1.4851,-0.49503,-0.5276,1.9801,4.6935e-08,-0.2638,0,0,0.11111,-0,-0,0.66667
0.88147,0.090076,7.9333,-0.61489,-14.692,15.96,13.008,-4.3361,-0.65412,17.344,4.638e-09,-0.32706,0,0,0.11111,5.2633e-16,0,0.66667
0.22391,0.4644,2.0152,-0.053407,-5.4478,443.89,0.287,-0.095668,-1.9887,0.38267,-1.0668e-11,-0.99437,0,0,0.11111,-0,-0,0.66667
0.055036,0.94558,0.49532,0.66836,71.884,606.71,-0.88281,0.29427,-0.40934,-1.1771,4.0533e-06,-0.20467,0,0,0.11111,-0,-0,0.66667
0.60875,0.47549,5.4787,-0.036769,-2.4781,134.38,0.53719,-0.17906,-1.9986,0.71626,-4.0135e-14,-0.99928,0,0,0.11111,-0,-0,0.66667
0.75404,0.80218,6.7864,0.45328,20.952,57.737,-8.2029,2.7343,-1.2684,-10.937,-6.3354e-12,-0.63422,0,0,0.11111,-0,-0,0.66667
0.90554,0.18437,8.1498,-0.47345,-9.0378,10.417,10.289,-3.4298,-1.2068,13.719,-3.1795e-08,-0.60339,0,0,0.11111,1.579e-15,-1.3205e-18,0.66667
0.48403,0.70618,4.3562,0.30927,25.426,221.03,-3.5926,1.1975,-1.6632,-4.7902,-1.2907e-12,-0.83162,0,0,0.11111,5.2633e-16,0,0.66667
0.71854,0.10451,6.4669,-0.59323,-30.86,74.375,10.23,-3.4101,-0.75238,13.64,3.3209e-12,-0.37619,0,0,0.11111,-0,-0,0.66667
0.046842,0.66656,0.42158,0.24983,26.793,614.67,-0.28086,0.093622,-1.782,-0.37449,9.2511e-08,-0.89102,0,0,0.11111,-0,-0,0.66667
0.30454,0.83813,2.7409,0.50719,49.536,370.32,-3.7071,1.2357,-1.0833,-4.9428,1.8396e-12,-0.54164,0,0,0.11111,-1.3158e-16,0,0.66667
0.087153,0.047862,0.78437,-0.67821,-72.618,575.3,1.4186,-0.47286,-0.36197,1.8914,-6.3245e-07,-0.18099,0,0,0.11111,-1.0321e-16,0,0.66667
0.40034,0.78815,3.603,0.43223,39.031,287.61,-4.1529,1.3843,-1.3339,-5.5372,-1.7808e-13,-0.66695,0,0,0.11111,-0,-0,0.66667
0.19936,0.032605,1.7942,-0.70109,-72.657,467.39,3.3544,-1.1181,-0.25276,4.4725,-5.9067e-10,-0.12638,0,0,0.11111,-0,-0,0.66667
0.49854,0.11921,4.4868,-0.57118,-46.216,210.61,6.8341,-2.278,-0.84228,9.1121,5.0182e-14,-0.42114,0,0,0.11111,-7.8949e-16,-1.6678e-16,0.66667
0.24179,0.37391,2.1761,-0.18913,-19.129,427.26,1.0975,-0.36584,-1.8715,1.4634,-2.1293e-11,-0.93577,0,0,0.11111,-1.6448e-16,0,0.66667
0.19127,0.6201,1.7215,0.18014,18.645,474.69,-0.82696,0.27565,-1.8844,-1.1026,-1.5806e-10,-0.94221,0,0,0.11111,-0,-0,0.66667
0.60179,0.17706,5.4161,-0.48441,-33.206,139.32,6.9963,-2.3321,-1.1631,9.3284,3.9968e-15,-0.58155,0,0,0.11111,-0,-0,0.66667
0.48061,0.05945,4.3255,-0.66083,-54.798,224.28,7.6223,-2.5408,-0.44743,10.163,-2.2311e-12,-0.22371,0,0,0.11111,6.5791e-16,0,0.66667
0.38153,0.7681,3.4338,0.40215,36.943,303.28,-3.6823,1.2274,-1.4224,-4.9098,1.0798e-12,-0.71122,0,0,0.11111,-0,-0,0.66667
0.41901,0.46244,3.7711,-0.056342,-4.9839,271.97,0.56659,-0.18886,-1.9892,0.75545,-3.8342e-12,-0.9946,0,0,0.11111,5.2633e-16,0,0.66667
0.94696,0.10093,8.5226,-0.5986,-6.5496,4.72,13.604,-4.5348,-0.72398,18.139,5.7792e-07,-0.36199,0,0,0.11111,-2.1053e-15,0,0.66667
0.61125,0.60044,5.5013,0.15066,10.108,132.87,-2.2102,0.73674,-1.9209,-2.947,3.5438e-13,-0.96044,0,0,0.11111,-0,-0,0.66667
0.2018,0.14639,1.8162,-0.53041,-54.797,464.92,2.5688,-0.85628,-1.0017,3.4251,1.7531e-11,-0.50086,0,0,0.11111,-2.6316e-16,0,0.66667
0.26679,0.73983,2.4011,0.35975,35.926,404.32,-2.3034,0.76781,-1.5421,-3.0712,1.1791e-11,-0.77103,0,0,0.11111,-2.6316e-16,0,0.66667
0.29971,0.4323,2.6974,-0.10155,-9.9238,374.35,0.73042,-0.24347,-1.964,0.9739,3.334e-13,-0.982,0,0,0.11111,-3.9475e-16,0,0.66667
0.71146,0.17728,6.4032,-0.48407,-25.652,77.485,8.2656,-2.7552,-1.1643,11.021,4.7082e-12,-0.58215,0,0,0.11111,1.0527e-15,0,0.66667
0.50952,0.084347,4.5857,-0.62348,-49.743,202.65,7.6242,-2.5414,-0.61568,10.166,2.9892e-12,-0.30784,0,0,0.11111,-5.2633e-16,0,0.66667
0.21262,0.44045,1.9136,-0.089324,-9.1596,454.5,0.45581,-0.15194,-1.9703,0.60774,-4.1248e-11,-0.98515,0,0,0.11111,5.2633e-16,0,0.66667
0.58056,0.6026,5.2251,0.15389,10.933,152.5,-2.1443,0.71476,-1.9165,-2.859,4.5017e-12,-0.95823,0,0,0.11111,-1.0527e-15,0,0.66667
0.87572,0.12346,7.8815,-0.5648,-14.077,17.093,11.871,-3.9569,-0.86982,15.828,-1.4901e-08,-0.43491,0,0,0.11111,-3.9475e-16,0,0.66667
0.12633,0.85927,1.137,0.5389,57.121,537.15,-1.6339,0.54463,-0.96918,-2.1785,-3.1023e-09,-0.48459,0,0,0.11111,-2.6316e-16,0,0.66667
0.99245,0.1879,8.9321,-0.46814,-0.59349,1.0214,11.151,-3.7169,-1.2196,14.868,-1.3098e-06,-0.60982,0,0,0.11111,-0,-0,0.66667
0.57331,0.26331,5.1598,-0.35504,-25.58,157.53,4.8851,-1.6284,-1.5501,6.5135,1.8714e-12,-0.77503,0,0,0.11111,-0,-0,0.66667
0.075515,0.74022,0.67964,0.36033,38.532,586.56,-0.65304,0.21768,-1.5388,-0.87072,-8.551e-08,-0.76938,0,0,0.11111,-6.5791e-17,0,0.66667
0.9247,0.52843,8.3223,0.04264,0.64264,6.3399,-0.9463,0.31543,-1.9946,-1.2617,-8.9605e-08,-0.9973,0,0,0.11111,5.2633e-16,0,0.66667
0.6613,0.52629,5.9517,0.039431,2.3732,103.24,-0.62581,0.2086,-1.9933,-0.83442,1.133e-12,-0.99666,0,0,0.11111,-0,-0,0.66667
0.25836,0.64804,2.3253,0.22205,22.263,411.97,-1.3769,0.45897,-1.8223,-1.8359,1.5638e-11,-0.91117,0,0,0.11111,2.6316e-16,0,0.66667
0.011312,0.80925,0.10181,0.46387,49.924,649.62,-0.12593,0.041977,-1.2346,-0.16791,-6.2734e-07,-0.61728,0,0,0.11111,-1.3099e-17,0,0.66667
0.82783,0.24416,7.4505,-0.38376,-12.878,29.842,7.6244,-2.5415,-1.4804,10.166,-6.1478e-10,-0.74019,0,0,0.11111,-1.0527e-15,0,0.66667
0.19681,0.63224,1.7713,0.19836,20.486,469.44,-0.93696,0.31232,-1.8581,-1.2493,-1.4456e-10,-0.92903,0,0,0.11111,-0,-0,0.66667
0.91039,0.78621,8.1935,0.42932,7.769,9.3854,-9.3804,3.1268,-1.3441,-12.507,2.4807e-08,-0.67207,0,0,0.11111,-0,-0,0.66667
0.26207,0.64751,2.3586,0.22127,22.138,408.56,-1.3917,0.4639,-1.8254,-1.8556,1.4008e-11,-0.91272,0,0,0.11111,-0,-0,0.66667
0.30754,0.49221,2.7678,-0.011683,-1.1356,367.33,0.086229,-0.028743,-1.9981,0.11497,1.8371e-12,-0.99903,0,0,0.11111,-0,-0,0.66667
0.429,0.64334,3.861,0.21501,18.832,263.95,-2.2138,0.73792,-1.833,-2.9517,1.6616e-12,-0.91648,0,0,0.11111,-0,-0,0.66667
0.84952,0.52675,7.6457,0.04013,1.1829,22.83,-0.81819,0.27273,-1.9928,-1.0909,1.9042e-09,-0.99641,0,0,0.11111,1.0527e-15,0,0.66667
0.37631,0.37417,3.3868,-0.18875,-17.395,307.5,1.7047,-0.56822,-1.8767,2.2729,3.424e-12,-0.93833,0,0,0.11111,-5.9212e-16,0,0.66667
0.66908,0.8686,6.0217,0.5529,32.834,99.736,-8.8785,2.9595,-0.91362,-11.838,-1.3767e-13,-0.45681,0,0,0.11111,-1.3015e-16,0,0.66667
0.73119,0.59031,6.5807,0.13547,6.7321,67.425,-2.3772,0.79241,-1.9353,-3.1696,-8.1621e-12,-0.96767,0,0,0.11111,-2.6316e-16,0,0.66667
0.89467,0.62265,8.052,0.18397,3.8644,11.869,-3.9503,1.3168,-1.8797,-5.267,2.0417e-08,-0.93983,0,0,0.11111,2.6316e-16,0,0.66667
0.93853,0.92277,8.4467,0.63416,8.0563,5.8914,-14.284,4.7614,-0.57232,-19.046,-9.4995e-07,-0.28616,0,0,0.11111,-0,-0,0.66667
0.87235,0.034354,7.8512,-0.69847,-17.975,18.494,14.623,-4.8745,-0.2666,19.498,3.039e-08,-0.1333,0,0,0.11111,2.1053e-15,0,0.66667
0.45255,0.87015,4.0729,0.55523,47.537,245.69,-6.0304,2.0101,-0.90761,-8.0406,2.6961e-12,-0.4538,0,0,0.11111,-5.2633e-16,0,0.66667
0.55083,0.5097,4.9575,0.014555,1.0865,172.47,-0.19242,0.064141,-1.9983,-0.25656,2.4696e-12,-0.99916,0,0,0.11111,-2.1053e-15,0,0.66667
0.57742,0.59246,5.1968,0.13869,9.906,154.56,-1.9219,0.64064,-1.9357,-2.5626,2.9823e-12,-0.96787,0,0,0.11111,-4.4085e-16,0,0.66667
0.48558,0.16027,4.3702,-0.5096,-41.9,220.17,5.9388,-1.9796,-1.0795,7.9185,-5.2212e-12,-0.53977,0,0,0.11111,1.0527e-15,0,0.66667
0.91406,0.59597,8.2265,0.14395,2.4766,8.1452,-3.158,1.0527,-1.9248,-4.2106,3.3281e-08,-0.9624,0,0,0.11111,-0,-0,0.66667
0.78635,0.18571,7.0771,-0.47144,-19.266,44.633,8.8971,-2.9657,-1.2091,11.863,-9.9106e-11,-0.60457,0,0,0.11111,5.2633e-16,0,0.66667
0.093327,0.43908,0.83995,-0.091375,-9.73,569.11,0.20467,-0.068222,-1.9748,0.27289,-8.4916e-09,-0.98741,0,0,0.11111,-0,-0,0.66667
0.99093,0.33241,8.9184,-0.25138,-0.35994,0.44574,5.9784,-1.9928,-1.7728,7.9713,-2.6907e-07,-0.88642,0,0,0.11111,-1.0527e-15,0,0.66667
0.19126,0.7397,1.7213,0.35955,37.25,474.77,-1.6504,0.55015,-1.5395,-2.2006,-1.4663e-10,-0.76977,0,0,0.11111,2.6316e-16,0,0.66667
0.26939,0.24188,2.4245,-0.38717,-38.614,401.96,2.5032,-0.83441,-1.4664,3.3376,-1.0369e-11,-0.7332,0,0,0.11111,-2.6316e-16,0,0.66667
0.15118,0.96321,1.3607,0.69481,73.267,513.28,-2.5211,0.84036,-0.28226,-3.3614,4.4031e-09,-0.14113,0,0,0.11111,1.9737e-16,0,0.66667
0.26352,0.17172,2.3717,-0.49243,-49.326,407.44,3.1143,-1.0381,-1.1386,4.1524,-3.7288e-12,-0.56929,0,0,0.11111,-5.2633e-16,0,0.66667
0.37276,0.77219,3.3549,0.40828,37.8,310.7,-3.6527,1.2176,-1.4082,-4.8702,2.1987e-12,-0.7041,0,0,0.11111,2.6316e-16,0,0.66667
0.97389,0.51343,8.765,0.02015,0.10042,0.99148,-0.47097,0.15699,-1.9966,-0.62796,-2.4956e-06,-0.9983,0,0,0.11111,-0,-0,0.66667
0.16693,0.92485,1.5024,0.63728,66.805,498.15,-2.5531,0.85104,-0.5542,-3.4041,6.6471e-09,-0.2771,0,0,0.11111,-2.6316e-16,0,0.66667
0.61018,0.0055709,5.4916,-0.74164,-50.266,134.82,10.861,-3.6203,-0.047558,14.481,1.0774e-12,-0.023779,0,0,0.11111,-0,-0,0.66667
0.44789,0.90494,4.031,0.6074,52.318,249.47,-6.5291,2.1764,-0.68759,-8.7055,1.4344e-13,-0.3438,0,0,0.11111,-6.5791e-17,0,0.66667
0.58703,0.91303,5.2832,0.61954,43.738,149.12,-8.7285,2.9095,-0.63318,-11.638,5.3202e-13,-0.31659,0,0,0.11111,-0,-0,0.66667
0.053649,0.45305,0.48284,-0.070432,-7.544,607.97,0.090687,-0.030229,-1.9797,0.12092,6.0152e-08,-0.98986,0,0,0.11111,-0,-0,0.66667
0.30933,0.17926,2.784,-0.48111,-46.823,366.01,3.5717,-1.1906,-1.1769,4.7623,2.9265e-13,-0.58847,0,0,0.11111,-2.6316e-16,0,0.66667
0.090911,0.37388,0.8182,-0.18918,-20.159,571.48,0.41276,-0.13759,-1.8741,0.55035,1.9781e-08,-0.93707,0,0,0.11111,-2.4672e-17,0,0.66667
0.46345,0.02857,4.171,-0.70715,-59.922,237.55,7.8654,-2.6218,-0.22111,10.487,1.7359e-12,-0.11056,0,0,0.11111,-0,-0,0.66667
0.89199,0.63494,8.0279,0.20241,4.3579,12.455,-4.3332,1.4444,-1.8563,-5.7776,1.8561e-08,-0.92814,0,0,0.11111,-0,-0,0.66667
0.82138,0.32526,7.3925,-0.2621,-9.0748,31.667,5.1669,-1.7223,-1.7532,6.8892,-5.0097e-10,-0.87658,0,0,0.11111,-0,-0,0.66667
0.87215,0.678,7.8494,0.267,6.7658,17.089,-5.5887,1.8629,-1.7467,-7.4517,8.7171e-09,-0.87335,0,0,0.11111,1.0527e-15,0,0.66667
0.3996,0.87241,3.5964,0.55862,50.552,288.42,-5.3573,1.7858,-0.88905,-7.1431,5.7288e-13,-0.44452,0,0,0.11111,-6.5791e-16,0,0.66667
0.50934,0.78161,4.584,0.42241,33.617,202.35,-5.1636,1.7212,-1.3647,-6.8848,2.4292e-12,-0.68235,0,0,0.11111,-2.1053e-15,0,0.66667
0.25721,0.7528,2.3149,0.3792,38.08,413.13,-2.3408,0.78027,-1.4872,-3.1211,2.1025e-11,-0.74358,0,0,0.11111,1.0527e-15,0,0.66667
0.60699,0.23631,5.4629,-0.39554,-26.813,135.86,5.762,-1.9207,-1.4442,7.6827,-5.52e-13,-0.72209,0,0,0.11111,-0,-0,0.66667
0.44631,0.86443,4.0168,0.54665,47.129,250.58,-5.8554,1.9518,-0.93502,-7.8072,3.5754e-12,-0.46751,0,0,0.11111,5.2633e-16,0,0.66667
0.49641,0.1338,4.4677,-0.5493,-44.557,212.15,6.5443,-2.1814,-0.92665,8.7257,9.1926e-14,-0.46332,0,0,0.11111,-0,-0,0.66667
0.54096,0.077607,4.8687,-0.63359,-48.297,180.2,8.226,-2.742,-0.5703,10.968,5.0475e-12,-0.28515,0,0,0.11111,-1.0527e-15,0,0.66667
0.58046,0.78111,5.2242,0.42167,30.028,152.92,-5.8743,1.9581,-1.37,-7.8324,3.606e-13,-0.68498,0,0,0.11111,-3.0428e-16,0,0.66667
0.46466,0.17761,4.1819,-0.48359,-40.786,236.11,5.3929,-1.7976,-1.1675,7.1905,-6.8479e-13,-0.58374,0,0,0.11111,5.2633e-16,0,0.66667
0.79849,0.22844,7.1864,-0.40735,-15.776,39.918,7.8063,-2.6021,-1.4117,10.408,-6.9714e-11,-0.70583,0,0,0.11111,-0,-0,0.66667
0.40923,0.14912,3.6831,-0.52633,-47.168,280.42,5.1694,-1.7231,-1.0153,6.8925,9.7522e-13,-0.50765,0,0,0.11111,2.6316e-16,0,0.66667
0.043632,0.37543,0.39269,-0.18685,-20.039,617.82,0.19566,-0.065221,-1.877,0.26088,-7.3981e-08,-0.93849,0,0,0.11111,1.3158e-16,0,0.66667
0.83341,0.74806,7.5007,0.3721,12.11,28.062,-7.4426,2.4809,-1.5069,-9.9235,8.7539e-10,-0.75347,0,0,0.11111,1.3158e-15,0,0.66667
0.48479,0.98389,4.3631,0.72583,59.94,221.29,-8.445,2.815,-0.12996,-11.26,2.915e-12,-0.064981,0,0,0.11111,-1.0527e-15,0,0.66667
0.47847,0.9387,4.3063,0.65805,54.71,225.89,-7.5566,2.5189,-0.45944,-10.075,3.6389e-12,-0.22972,0,0,0.11111,-2.1053e-15,0,0.66667
0.17683,0.54051,1.5915,0.060764,6.3221,488.41,-0.25788,0.085961,-1.9853,-0.34385,-2.7554e-10,-0.99263,0,0,0.11111,-0,-0,0.66667
0.443,0.81566,3.987,0.47349,40.935,253.07,-5.0341,1.678,-1.2018,-6.7122,-1.0085e-12,-0.60089,0,0,0.11111,-1.0527e-15,0,0.66667
0.14347,0.67351,1.2912,0.26027,27.397,520.46,-0.8962,0.29873,-1.7591,-1.1949,-4.0398e-09,-0.87953,0,0,0.11111,-0,-0,0.66667
0.041238,0.90283,0.37114,0.60425,65.024,620.22,-0.59803,0.19934,-0.7006,-0.79737,-5.0916e-06,-0.3503,0,0,0.11111,-1.6448e-17,0,0.66667
0.96316,0.75195,8.6685,0.37792,2.7872,2.3227,-8.736,2.912,-1.4913,-11.648,-1.6318e-07,-0.74563,0,0,0.11111,-0,-0,0.66667
0.26195,0.74864,2.3576,0.37295,37.351,408.76,-2.3447,0.78156,-1.506,-3.1263,1.8968e-11,-0.75298,0,0,0.11111,-7.566e-16,0,0.66667
0.1361,0.86276,1.2249,0.54413,57.528,527.7,-1.7773,0.59245,-0.94574,-2.3698,-1.2518e-09,-0.47287,0,0,0.11111,-0,-0,0.66667
0.68806,0.48984,6.1925,-0.015242,-0.85793,88.727,0.2517,-0.083899,-2.0023,0.3356,-7.8187e-14,-1.0012,0,0,0.11111,1.0527e-15,0,0.66667
0.37393,0.092253,3.3654,-0.61162,-56.699,310.02,5.4889,-1.8296,-0.67348,7.3185,1.4113e-12,-0.33674,0,0,0.11111,6.5791e-17,0,0.66667
0.62308,0.2787,5.6077,-0.33195,-21.777,125.82,4.964,-1.6547,-1.6104,6.6187,-8.1535e-13,-0.80519,0,0,0.11111,1.4474e-15,0,0.66667
0.70645,0.33904,6.358,-0.24144,-12.936,79.472,4.0935,-1.3645,-1.793,5.458,5.4587e-12,-0.89649,0,0,0.11111,-0,-0,0.66667
0.66211,0.47136,5.959,-0.042962,-2.5809,102.79,0.6827,-0.22757,-1.9923,0.91026,1.2321e-12,-0.99613,0,0,0.11111,-2.1053e-15,0,0.66667
0.22691,0.73541,2.0422,0.35312,36.013,441.2,-1.9231,0.64102,-1.5539,-2.5641,3.1588e-11,-0.77695,0,0,0.11111,2.6316e-16,0,0.66667
0.78337,0.81728,7.0504,0.47591,19.691,45.791,-8.9476,2.9825,-1.1962,-11.93,5.7421e-11,-0.59812,0,0,0.11111,-0,-0,0.66667
0.07097,0.90321,0.63873,0.60482,64.868,591.08,-1.0302,0.34339,-0.69773,-1.3736,-3.9342e-07,-0.34887,0,0,0.11111,3.2895e-17,0,0.66667
0.78814,0.58143,7.0933,0.12214,4.928,43.294,-2.3104,0.77013,-1.9444,-3.0805,1.2936e-11,-0.97218,0,0,0.11111,-1.0527e-15,0,0.66667
0.16235,0.17138,1.4611,-0.49294,-51.671,502.42,1.9206,-0.64021,-1.1336,2.5608,1.2068e-09,-0.5668,0,0,0.11111,-0,-0,0.66667
0.40501,0.55042,3.6451,0.075625,6.7841,283.45,-0.73509,0.24503,-1.9817,-0.98013,-2.0293e-12,-0.99083,0,0,0.11111,-0,-0,0.66667
0.0061978,0.37221,0.055781,-0.19169,-20.597,654.65,0.028513,-0.0095042,-1.868,0.038017,2.1258e-07,-0.93401,0,0,0.11111,-1.0501e-17,0,0.66667
0.16285,0.26133,1.4657,-0.358,-37.478,501.86,1.3992,-0.46642,-1.5418,1.8657,1.2505e-09,-0.77091,0,0,0.11111,-2.6316e-16,0,0.66667
0.67786,0.57348,6.1007,0.11022,6.3712,94.178,-1.7931,0.59771,-1.9546,-2.3908,-2.303e-12,-0.97728,0,0,0.11111,1.0527e-15,0,0.66667
0.75014,0.64889,6.7513,0.22334,10.429,58.961,-4.0208,1.3403,-1.8267,-5.3611,-1.7682e-11,-0.91336,0,0,0.11111,-5.2633e-16,0,0.66667
0.91019,0.70456,8.1917,0.30684,5.536,9.0927,-6.7029,2.2343,-1.6641,-8.9371,3.6204e-08,-0.83205,0,0,0.11111,-0,-0,0.66667
0.42023,0.48293,3.782,-0.025606,-2.2622,270.98,0.25825,-0.086082,-1.999,0.34433,-3.4088e-12,-0.99951,0,0,0.11111,1.0527e-15,0,0.66667
0.61033,0.52186,5.493,0.032795,2.2035,133.39,-0.48038,0.16013,-1.9988,-0.64051,5.6899e-13,-0.99938,0,0,0.11111,-0,-0,0.66667
0.49204,0.39577,4.4284,-0.15634,-12.71,214.86,1.8463,-0.61543,-1.9105,2.4617,2.138e-12,-0.95525,0,0,0.11111,-0,-0,0.66667
0.025408,0.65798,0.22868,0.23697,25.452,635.74,-0.14451,0.048169,-1.7993,-0.19268,2.6808e-07,-0.89967,0,0,0.11111,-6.5791e-17,0,0.66667
0.44827,0.95793,4.0345,0.6869,59.213,249.34,-7.3901,2.4634,-0.32072,-9.8534,1.0556e-12,-0.16036,0,0,0.11111,-0,-5.6257e-17,0.66667
0.68945,0.66929,6.205,0.25393,14.258,88.174,-4.2018,1.4006,-1.7717,-5.6024,-2.4833e-12,-0.88586,0,0,0.11111,-0,-0,0.66667
0.67687,0.89353,6.0919,0.59029,34.412,95.62,-9.5892,3.1964,-0.75924,-12.786,-5.4445e-13,-0.37962,0,0,0.11111,-0,-0,0.66667
0.29344,0.72719,2.6409,0.34079,33.478,380.11,-2.4,0.8,-1.5867,-3.2,5.1092e-12,-0.79336,0,0,0.11111,-0,-0,0.66667
0.87748,0.2359,7.8973,-0.39615,-9.6754,16.109,8.3427,-2.7809,-1.4423,11.124,-9.1727e-09,-0.72116,0,0,0.11111,-0,-0,0.66667
0.77122,0.94106,6.941,0.66159,28.867,51.261,-12.246,4.0819,-0.44252,-16.327,-1.6617e-10,-0.22126,0,0,0.11111,-0,-0,0.66667
0.85372,0.43231,7.6835,-0.10153,-2.9152,21.684,2.0803,-0.69344,-1.9618,2.7737,-1.1068e-09,-0.98092,0,0,0.11111,1.0527e-15,0,0.66667
0.93715,0.13402,8.4344,-0.54897,-7.0695,5.6899,12.347,-4.1158,-0.93201,16.463,-1.4428e-07,-0.46601,0,0,0.11111,-0,-1.1901e-16,0.66667
0.235,0.6695,2.115,0.25426,25.812,433.6,-1.434,0.47801,-1.773,-1.912,2.8826e-11,-0.8865,0,0,0.11111,-0,-0,0.66667
0.71728,0.81253,6.4556,0.4688,24.414,74.604,-8.0703,2.6901,-1.2219,-10.76,-5.7447e-12,-0.61094,0,0,0.11111,2.1053e-15,0,0.66667
0.043952,0.86911,0.39557,0.55367,59.534,617.55,-0.58404,0.19468,-0.91052,-0.77873,-1.5998e-06,-0.45526,0,0,0.11111,-3.2895e-17,0,0.66667
0.30362,0.79505,2.7326,0.44257,43.223,371.06,-3.225,1.075,-1.301,-4.3,-4.0012e-13,-0.65048,0,0,0.11111,5.2633e-16,0,0.66667
0.48305,0.92466,4.3474,0.63698,52.639,222.37,-7.3847,2.4616,-0.55917,-9.8462,6.7502e-13,-0.27958,0,0,0.11111,-4.5716e-17,0,0.66667
0.36442,0.80167,3.2798,0.4525,42.212,317.87,-3.9576,1.3192,-1.2702,-5.2769,2.8022e-13,-0.63509,0,0,0.11111,-0,-0,0.66667
0.19847,0.22597,1.7863,-0.41105,-42.476,467.97,1.958,-0.65265,-1.3981,2.6106,1.1468e-10,-0.69903,0,0,0.11111,5.2633e-16,0,0.66667
0.69868,0.42282,6.2882,-0.11577,-6.3338,83.265,1.9413,-0.64711,-1.9508,2.5884,2.3636e-12,-0.97541,0,0,0.11111,-0,-0,0.66667
0.9253,0.78752,8.3277,0.43128,6.5303,6.9292,-9.5776,3.1925,-1.3386,-12.77,1.1598e-07,-0.66928,0,0,0.11111,2.1053e-15,0,0.66667
0.099858,0.00096794,0.89872,-0.74855,-80.035,562.96,1.794,-0.59799,-0.0067867,2.392,-6.0452e-08,-0.0033934,0,0,0.11111,-0,-0,0.66667
0.23014,0.6117,2.0712,0.16755,17.044,438.1,-0.92542,0.30847,-1.8988,-1.2339,2.246e-11,-0.94942,0,0,0.11111,-0,-0,0.66667
0.28485,0.40123,2.5636,-0.14815,-14.619,387.76,1.0128,-0.3376,-1.9219,1.3504,-4.3446e-12,-0.96095,0,0,0.11111,-0,-0,0.66667
0.66797,0.87084,6.0118,0.55626,33.125,100.36,-8.9176,2.9725,-0.89962,-11.89,-2.0783e-13,-0.44981,0,0,0.11111,2.6316e-16,0,0.66667
0.38662,0.087595,3.4796,-0.61861,-56.708,299.34,5.7399,-1.9133,-0.6388,7.6532,4.269e-12,-0.3194,0,0,0.11111,-2.6316e-16,-5.1038e-18,0.66667
0.7656,0.041936,6.8904,-0.6871,-30.647,53.667,12.625,-4.2083,-0.32537,16.833,6.52e-11,-0.16269,0,0,0.11111,-0,-0,0.66667
0.095646,0.59141,0.86082,0.13712,14.596,566.85,-0.31475,0.10492,-1.9354,-0.41967,-2.0793e-08,-0.9677,0,0,0.11111,1.9737e-16,0,0.66667
0.46018,0.46724,4.1416,-0.049146,-4.1552,239.17,0.54279,-0.18093,-1.9901,0.72372,5.3563e-13,-0.99505,0,0,0.11111,-6.5791e-16,0,0.66667
0.29262,0.89562,2.6335,0.59343,58.474,381.13,-4.1675,1.3892,-0.74664,-5.5567,2.4429e-12,-0.37332,0,0,0.11111,-2.6316e-16,0,0.66667
0.51342,0.20598,4.6207,-0.44103,-34.908,199.41,5.4344,-1.8115,-1.3091,7.2459,2.7072e-12,-0.65454,0,0,0.11111,-1.1343e-15,0,0.66667
0.13575,0.89206,1.2217,0.58809,62.211,528.07,-1.9159,0.63864,-0.7685,-2.5546,-1.2656e-08,-0.38425,0,0,0.11111,-0,-0,0.66667
0.446,0.69126,4.014,0.28688,24.678,250.44,-3.0708,1.0236,-1.7056,-4.0944,4.6385e-13,-0.85282,0,0,0.11111,-0,-0,0.66667
0.51639,0.36523,4.6475,-0.20216,-15.902,196.94,2.5055,-0.83515,-1.8575,3.3406,1.1591e-12,-0.92876,0,0,0.11111,-5.2633e-16,0,0.66667
0.34421,0.82876,3.0979,0.49314,46.786,335.34,-4.0738,1.3579,-1.1384,-5.4317,2.4691e-13,-0.56921,0,0,0.11111,-0,-0,0.66667
0.55465,0.76869,4.9919,0.40304,29.97,170.2,-5.3651,1.7884,-1.4197,-7.1535,2.0703e-12,-0.70986,0,0,0.11111,-1.0527e-15,0,0.66667
0.71429,0.66933,6.4286,0.25399,13.304,75.615,-4.3541,1.4514,-1.7691,-5.8055,-7.466e-12,-0.88456,0,0,0.11111,1.0527e-15,0,0.66667
0.66388,0.75389,5.9749,0.38083,22.838,102.18,-6.0679,2.0226,-1.4825,-8.0905,-4.1922e-13,-0.74126,0,0,0.11111,-0,-0,0.66667
0.35567,0.59937,3.201,0.14906,13.979,325.11,-1.2724,0.42413,-1.9208,-1.6965,3.1435e-12,-0.96038,0,0,0.11111,-1.0527e-15,0,0.66667
0.076579,0.96099,0.68921,0.69149,74.182,585.63,-1.2709,0.42363,-0.30179,-1.6945,-2.92e-06,-0.15089,0,0,0.11111,-6.5791e-17,0,0.66667
0.83367,0.51761,7.503,0.026408,0.85446,27.522,-0.52837,0.17612,-1.9953,-0.70449,3.3326e-10,-0.99767,0,0,0.11111,-0,-0,0.66667
0.92624,0.11474,8.3362,-0.57789,-8.73,7.3352,12.846,-4.2821,-0.81131,17.129,-1.2266e-07,-0.40566,0,0,0.11111,-1.0527e-15,0,0.66667
0.23416,0.23332,2.1075,-0.40003,-40.667,434.47,2.2481,-0.74937,-1.4345,2.9975,-2.1876e-11,-0.71726,0,0,0.11111,-0,-0,0.66667
0.0015237,0.90798,0.013714,0.61196,65.973,659.25,-0.022373,0.0074678,-0.67133,-0.029825,1.5303e-05,-0.33567,0,0,0.11111,-0,-0,0.66667
0.47964,0.20775,4.3167,-0.43837,-36.284,224.55,5.0462,-1.6821,-1.3151,6.7282,-7.5007e-13,-0.65757,0,0,0.11111,5.2633e-16,0,0.66667
0.61534,0.84279,5.5381,0.51418,34.346,130.93,-7.5936,2.5312,-1.0591,-10.125,-1.1924e-12,-0.52953,0,0,0.11111,1.5132e-15,0,0.66667
0.65285,0.19172,5.8756,-0.46241,-28.488,108.57,7.2453,-2.4151,-1.24,9.6603,-1.1497e-12,-0.61998,0,0,0.11111,2.1053e-15,0,0.66667
0.60356,0.52104,5.432,0.031566,2.1489,137.63,-0.45725,0.15242,-1.9943,-0.60967,1.416e-12,-0.99716,0,0,0.11111,-0,-0,0.66667
0.67867,0.19472,6.108,-0.45792,-26.509,94.281,7.4585,-2.4862,-1.2523,9.9447,1.2101e-12,-0.62614,0,0,0.11111,-0,-0,0.66667
0.73325,0.6589,6.5992,0.23835,11.777,66.583,-4.1945,1.3982,-1.8012,-5.5926,-1.5389e-11,-0.90062,0,0,0.11111,2.1053e-15,0,0.66667
0.84341,0.81726,7.5907,0.47589,14.67,25.35,-9.6329,3.211,-1.1989,-12.844,1.7474e-09,-0.59943,0,0,0.11111,-0,-0,0.66667
0.57512,0.82441,5.1761,0.48662,35.007,156.58,-6.7168,2.2389,-1.1579,-8.9557,1.5454e-13,-0.57894,0,0,0.11111,-0,-0,0.66667
0.033325,0.7909,0.29993,0.43635,46.905,627.97,-0.34899,0.11633,-1.3241,-0.46532,4.3047e-07,-0.66204,0,0,0.11111,-0,-0,0.66667
0.93264,0.028532,8.3937,-0.7072,-9.8978,7.0364,15.829,-5.2765,-0.22109,21.106,-1.2454e-06,-0.11054,0,0,0.11111,-0,1.5148e-16,0.66667
0.41723,0.58885,3.7551,0.13327,11.812,273.45,-1.3345,0.44483,-1.936,-1.7793,-2.9037e-12,-0.96799,0,0,0.11111,5.2633e-16,0,0.66667
0.46721,0.33871,4.2049,-0.24194,-20.299,233.82,2.7129,-0.90429,-1.7941,3.6172,2.2073e-12,-0.89707,0,0,0.11111,-7.8949e-16,0,0.66667
0.61906,0.97474,5.5716,0.7121,47.392,129.25,-10.58,3.5267,-0.19527,-14.107,-1.2701e-13,-0.097634,0,0,0.11111,2.1053e-15,0,0.66667
0.27646,0.49105,2.4881,-0.013427,-1.3315,395.35,0.089089,-0.029696,-1.9979,0.11879,1.4198e-12,-0.99894,0,0,0.11111,2.6316e-16,0,0.66667
0.90942,0.73548,8.1848,0.35323,6.4375,9.3425,-7.7096,2.5699,-1.5559,-10.279,3.6066e-08,-0.77797,0,0,0.11111,-1.0527e-15,0,0.66667
0.6579,0.68892,5.9211,0.28338,17.216,105.35,-4.4745,1.4915,-1.7172,-5.966,-1.5219e-12,-0.85861,0,0,0.11111,2.1053e-15,0,0.66667
0.13349,0.75606,1.2014,0.38408,40.576,530.14,-1.2305,0.41017,-1.4734,-1.6407,-6.4048e-09,-0.73671,0,0,0.11111,-0,-0,0.66667
0.37351,0.26203,3.3616,-0.35696,-33.012,310.01,3.1999,-1.0666,-1.5486,4.2665,-4.1522e-13,-0.7743,0,0,0.11111,1.0527e-15,0,0.66667
0.21324,0.5171,1.9192,0.025649,2.6292,453.9,-0.13127,0.043756,-1.9955,-0.17502,1.032e-11,-0.99774,0,0,0.11111,-5.0506e-16,0,0.66667
0.44333,0.22543,3.9899,-0.41186,-35.571,252.72,4.3821,-1.4607,-1.3951,5.8428,3.4177e-12,-0.69755,0,0,0.11111,-1.0527e-15,0,0.66667
0.20627,0.73535,1.8565,0.35302,36.344,460.57,-1.7477,0.58255,-1.5565,-2.3302,-1.8905e-11,-0.77824,0,0,0.11111,2.6316e-16,0,0.66667
0.097915,0.20319,0.88123,-0.44521,-47.454,564.71,1.0462,-0.34874,-1.2939,1.395,3.3301e-08,-0.64695,0,0,0.11111,-0,-0,0.66667
0.32046,0.4094,2.8841,-0.13589,-13.093,355.86,1.0452,-0.34839,-1.9327,1.3936,-5.9575e-13,-0.96633,0,0,0.11111,-0,-0,0.66667
0.13448,0.34687,1.2104,-0.22969,-24.237,529.13,0.74136,-0.24712,-1.811,0.98848,5.6939e-09,-0.90552,0,0,0.11111,-5.2633e-16,0,0.66667
0.035025,0.019489,0.31523,-0.72077,-77.715,626.35,0.60588,-0.20196,-0.15199,0.80784,4.2531e-06,-0.075994,0,0,0.11111,-0,-0,0.66667
0.49839,0.64258,4.4855,0.21388,17.246,210.16,-2.5583,0.85275,-1.8388,-3.411,-7.6628e-13,-0.91939,0,0,0.11111,-5.2633e-16,0,0.66667
0.60463,0.69489,5.4417,0.29233,19.885,137.16,-4.2421,1.414,-1.6949,-5.6561,-2.438e-13,-0.84744,0,0,0.11111,-0,-0,0.66667
0.19647,0.84492,1.7682,0.51738,53.562,469.94,-2.4396,0.8132,-1.0471,-3.2528,-3.388e-10,-0.52354,0,0,0.11111,-0,-0,0.66667
0.35053,0.25142,3.1547,-0.37287,-35.159,329.72,3.1368,-1.0456,-1.5044,4.1824,6.6613e-16,-0.75221,0,0,0.11111,1.0527e-15,0,0.66667
0.45356,0.39422,4.0821,-0.15867,-13.522,244.38,1.7272,-0.57572,-1.9137,2.3029,-5.1459e-13,-0.95684,0,0,0.11111,-0,-0,0.66667
0.25284,0.94633,2.2755,0.66949,67.604,417.46,-4.0626,1.3542,-0.40656,-5.4167,-2.0384e-13,-0.20328,0,0,0.11111,-0,-0,0.66667
0.33803,0.19921,3.0423,-0.45119,-42.993,340.67,3.6604,-1.2201,-1.274,4.8805,8.8418e-13,-0.637,0,0,0.11111,5.2633e-16,0,0.66667
0.26085,0.77415,2.3476,0.41122,41.222,409.81,-2.5744,0.85813,-1.3975,-3.4325,1.0574e-11,-0.69874,0,0,0.11111,-2.6316e-16,0,0.66667
0.66262,0.034337,5.9635,-0.69849,-42.262,103.79,11.108,-3.7027,-0.26382,14.811,1.1688e-12,-0.13191,0,0,0.11111,-0,-0,0.66667
0.38944,0.52973,3.5049,0.04459,4.0595,296.39,-0.41676,0.13892,-1.9963,-0.55568,1.3979e-12,-0.99815,0,0,0.11111,-5.2633e-16,0,0.66667
0.46579,0.52334,4.1921,0.035004,2.9399,234.81,-0.39131,0.13044,-1.9958,-0.52174,-2.9249e-12,-0.99792,0,0,0.11111,-0,-0,0.66667
0.25898,0.74408,2.3308,0.36611,36.726,411.49,-2.2755,0.75851,-1.5215,-3.0341,1.7408e-11,-0.76073,0,0,0.11111,2.1762e-17,0,0.66667
0.57889,0.11708,5.21,-0.57438,-41.106,154.3,7.9802,-2.6601,-0.82998,10.64,1.1839e-12,-0.41499,0,0,0.11111,-0,-0,0.66667
0.41565,0.79434,3.7409,0.44151,39.277,275.03,-4.4044,1.4681,-1.3045,-5.8725,8.1135e-13,-0.65223,0,0,0.11111,-0,-0,0.66667
0.45718,0.89451,4.1147,0.59177,50.422,242.14,-6.4931,2.1644,-0.75375,-8.6575,-1.0312e-12,-0.37687,0,0,0.11111,5.2633e-16,0,0.66667
0.20956,0.98251,1.8861,0.72377,74.705,457.8,-3.6402,1.2134,-0.13491,-4.8536,-4.5532e-11,-0.067454,0,0,0.11111,-2.9981e-17,0,0.66667
0.51169,0.50405,4.6052,0.006078,0.48101,200.27,-0.074642,0.024881,-1.9997,-0.099522,4.0602e-12,-0.99983,0,0,0.11111,-0,-0,0.66667
0.42103,0.47639,3.7893,-0.035419,-3.1266,270.32,0.3579,-0.1193,-1.9985,0.47721,-1.114e-12,-0.99923,0,0,0.11111,-0,-0,0.66667
0.53816,0.18836,4.8435,-0.46746,-35.697,181.76,6.0377,-2.0126,-1.2219,8.0503,-1.5254e-12,-0.61094,0,0,0.11111,-0,-0,0.66667
0.51553,0.88346,4.6398,0.5752,45.473,198.16,-7.1167,2.3722,-0.82767,-9.4889,1.9407e-13,-0.41383,0,0,0.11111,-0,-0,0.66667
0.71232,0.1739,6.4108,-0.48915,-25.86,77.08,8.3624,-2.7875,-1.1467,11.15,6.3638e-12,-0.57336,0,0,0.11111,-1.8962e-15,0,0.66667
0.34543,0.73174,3.1089,0.34762,32.904,334.11,-2.8819,0.96062,-1.5717,-3.8425,3.2627e-12,-0.78585,0,0,0.11111,-0,-0,0.66667
0.22924,0.70296,2.0632,0.30444,31.004,438.99,-1.675,0.55833,-1.6685,-2.2333,2.4719e-11,-0.83423,0,0,0.11111,-0,-0,0.66667
0.91895,0.74021,8.2705,0.36031,5.8909,7.7239,-7.9466,2.6489,-1.5384,-10.595,5.8263e-08,-0.76922,0,0,0.11111,1.0527e-15,0,0.66667
0.39408,0.018967,3.5468,-0.72155,-65.794,293.33,6.8244,-2.2748,-0.14822,9.0992,-3.8813e-13,-0.074108,0,0,0.11111,-0,-0,0.66667
0.81515,0.54034,7.3363,0.060503,2.1575,33.537,-1.1837,0.39455,-1.9874,-1.5782,2.6754e-10,-0.9937,0,0,0.11111,-0,-0,0.66667
0.88049,0.10059,7.9244,-0.59911,-14.415,16.117,12.66,-4.2201,-0.72214,16.88,2.223e-08,-0.36107,0,0,0.11111,2.1053e-15,0,0.66667
0.65189,0.73021,5.867,0.34532,21.287,108.87,-5.4026,1.8009,-1.5747,-7.2035,-9.6279e-13,-0.78733,0,0,0.11111,1.0527e-15,0,0.66667
0.76748,0.18938,6.9073,-0.46592,-20.514,52.111,8.5821,-2.8607,-1.2305,11.443,7.494e-11,-0.61527,0,0,0.11111,-0,-0,0.66667
0.89753,0.70632,8.0778,0.30949,6.3491,11.507,-6.6666,2.2222,-1.6568,-8.8888,2.8012e-08,-0.82842,0,0,0.11111,-0,-0,0.66667
0.49849,0.80594,4.4864,0.45891,37.079,210.42,-5.4902,1.8301,-1.2533,-7.3203,-1.2488e-12,-0.62665,0,0,0.11111,2.6316e-16,0,0.66667
0.42176,0.59375,3.7958,0.14062,12.407,269.76,-1.4234,0.47447,-1.935,-1.8979,2.0195e-13,-0.96751,0,0,0.11111,-2.0219e-16,0,0.66667
0.72854,0.76544,6.5569,0.39816,20.01,69.068,-6.9618,2.3206,-1.434,-9.2824,-1.2938e-11,-0.717,0,0,0.11111,-0,-0,0.66667
0.57844,0.42862,5.206,-0.10707,-7.6331,153.86,1.4864,-0.49546,-1.9629,1.9818,-1.3023e-13,-0.98143,0,0,0.11111,-5.2633e-16,0,0.66667
0.070112,0.92544,0.63101,0.63816,68.48,591.93,-1.0738,0.35794,-0.54933,-1.4318,-5.1e-09,-0.27467,0,0,0.11111,-6.5791e-17,0,0.66667
0.80706,0.25358,7.2635,-0.36963,-13.755,36.757,7.1596,-2.3865,-1.5131,9.5461,-1.132e-10,-0.75653,0,0,0.11111,-2.1053e-15,0,0.66667
0.20204,0.24198,1.8184,-0.38703,-39.927,464.58,1.8767,-0.62557,-1.4699,2.5023,2.7081e-11,-0.73497,0,0,0.11111,1.3158e-16,0,0.66667
0.21501,0.11833,1.9351,-0.57251,-58.833,452.52,2.9543,-0.98475,-0.8342,3.939,2.0011e-10,-0.4171,0,0,0.11111,1.3158e-16,0,0.66667
0.87429,0.12618,7.8686,-0.56072,-14.124,17.419,11.766,-3.9219,-0.88624,15.688,-1.046e-08,-0.44312,0,0,0.11111,-0,-1.9383e-17,0.66667
0.81023,0.13172,7.2921,-0.55242,-20.348,36.198,10.742,-3.5807,-0.91607,14.323,-1.1825e-10,-0.45804,0,0,0.11111,-0,-0,0.66667
0.78716,0.30499,7.0844,-0.29251,-11.872,43.893,5.5261,-1.842,-1.6939,7.3681,8.0829e-12,-0.84693,0,0,0.11111,-0,-0,0.66667
0.97848,0.71176,8.8063,0.31764,1.3087,1.1164,-7.4592,2.4864,-1.6394,-9.9456,-4.8988e-07,-0.81971,0,0,0.11111,-0,-0,0.66667
0.93575,0.91383,8.4217,0.62074,8.2243,6.1885,-13.94,4.6468,-0.63164,-18.587,-2.6813e-07,-0.31582,0,0,0.11111,-0,-0,0.66667
0.12932,0.10887,1.1638,-0.5867,-62.171,534.28,1.8209,-0.60695,-0.77469,2.4278,1.0324e-08,-0.38735,0,0,0.11111,2.6316e-16,0,0.66667
0.46825,0.41579,4.2143,-0.12631,-10.579,232.93,1.4195,-0.47317,-1.9465,1.8927,1.3862e-12,-0.97327,0,0,0.11111,-0,-0,0.66667
0.30416,0.10865,2.7375,-0.58702,-57.401,370.76,4.2853,-1.4284,-0.77203,5.7137,2.9052e-12,-0.38601,0,0,0.11111,-0,-0,0.66667
0.89049,0.0028373,8.0144,-0.74574,-16.669,14.609,15.938,-5.3126,-0.027374,21.25,-1.3773e-08,-0.013687,0,0,0.11111,-4.2106e-15,0,0.66667
0.13731,0.18525,1.2358,-0.47213,-49.862,526.49,1.5559,-0.51864,-1.2081,2.0745,3.3355e-09,-0.60406,0,0,0.11111,3.2895e-17,0,0.66667
0.047972,0.52968,0.43175,0.04452,4.7712,613.54,-0.051257,0.017086,-1.9964,-0.068343,2.6442e-07,-0.99822,0,0,0.11111,-0,-0,0.66667
0.97746,0.31795,8.7971,-0.27307,-1.1763,1.069,6.4061,-2.1354,-1.7329,8.5414,3.467e-07,-0.86645,0,0,0.11111,-0,-0,0.66667
0.56486,0.76435,5.0838,0.39653,28.994,163.25,-5.3756,1.7919,-1.4414,-7.1675,5.2758e-13,-0.7207,0,0,0.11111,-0,-0,0.66667
0.28488,0.94533,2.564,0.668,66.208,388.21,-4.5673,1.5224,-0.41297,-6.0897,-3.4506e-13,-0.20649,0,0,0.11111,-0,-0,0.66667
0.33181,0.20233,2.9862,-0.44651,-42.745,346.1,3.5557,-1.1852,-1.2902,4.7409,7.9647e-13,-0.64511,0,0,0.11111,-5.2633e-16,0,0.66667
0.13838,0.077767,1.2454,-0.63335,-66.986,525.56,2.1035,-0.70116,-0.57434,2.8046,-3.1504e-08,-0.28717,0,0,0.11111,-0,-1.3151e-16,0.66667
0.99127,0.13503,8.9214,-0.54745,-0.879,1.3736,13.024,-4.3414,-0.93193,17.365,-4.3901e-06,-0.46597,0,0,0.11111,-2.1053e-15,0,0.66667
0.87071,0.91708,7.8364,0.62562,16.23,18.558,-13.074,4.3579,-0.60709,-17.432,-5.1465e-09,-0.30355,0,0,0.11111,-0,-0,0.66667
0.24165,0.65454,2.1748,0.23181,23.452,427.41,-1.3444,0.44814,-1.8076,-1.7925,1.9923e-11,-0.90378,0,0,0.11111,-3.6185e-16,0,0.66667
0.33244,0.2656,2.992,-0.3516,-33.616,345.45,2.8053,-0.93509,-1.559,3.7404,-1.45e-13,-0.7795,0,0,0.11111,-0,-0,0.66667
0.16541,0.25694,1.4887,-0.36459,-38.136,499.41,1.4474,-0.48247,-1.5253,1.9299,1.0023e-09,-0.76266,0,0,0.11111,5.2633e-16,0,0.66667
0.51303,0.97731,4.6173,0.71596,56.935,200.34,-8.8155,2.9385,-0.17793,-11.754,-6.99e-13,-0.088966,0,0,0.11111,-0,-0,0.66667
0.97972,0.097678,8.8175,-0.60348,-2.4928,2.083,14.19,-4.7299,-0.70435,18.92,7.459e-06,-0.35217,0,0,0.11111,-0,-0,0.66667
0.59628,0.15725,5.3665,-0.51412,-35.625,142.89,7.3574,-2.4525,-1.0619,9.8099,7.7272e-14,-0.53097,0,0,0.11111,-0,-0,0.66667
0.66446,0.059258,5.9802,-0.66111,-39.79,102.63,10.543,-3.5143,-0.44429,14.057,-5.2847e-13,-0.22215,0,0,0.11111,1.3158e-15,0,0.66667
0.67117,0.20017,6.0406,-0.44975,-26.524,98.315,7.2446,-2.4149,-1.2836,9.6595,1.3776e-12,-0.64178,0,0,0.11111,-0,-0,0.66667
0.19112,0.94306,1.7201,0.66458,69.07,475.15,-3.0483,1.0161,-0.42945,-4.0645,-3.4922e-10,-0.21473,0,0,0.11111,-0,-0,0.66667
0.24088,0.36424,2.168,-0.20364,-20.607,428.11,1.1773,-0.39242,-1.8501,1.5697,-1.9888e-11,-0.92507,0,0,0.11111,2.6316e-16,0,0.66667
0.50091,0.16016,4.5082,-0.50976,-41.081,208.72,6.1283,-2.0428,-1.0794,8.1711,7.4074e-13,-0.5397,0,0,0.11111,-0,-0,0.66667
0.46695,0.04271,4.2025,-0.68593,-57.863,234.79,7.6871,-2.5624,-0.32834,10.249,1.763e-13,-0.16417,0,0,0.11111,1.0527e-15,-1.2223e-16,0.66667
0.32409,0.63384,2.9168,0.20076,19.296,352.68,-1.5616,0.52053,-1.8558,-2.0821,8.0402e-13,-0.92789,0,0,0.11111,1.0527e-15,0,0.66667
0.72003,0.15895,6.4803,-0.51157,-26.446,73.4,8.8404,-2.9468,-1.0725,11.787,1.6845e-11,-0.53624,0,0,0.11111,-0,-0,0.66667
0.27597,0.20702,2.4837,-0.43946,-43.679,396.01,2.9107,-0.97022,-1.3114,3.8809,-6.0962e-12,-0.65568,0,0,0.11111,2.6316e-16,0,0.66667
0.89558,0.50801,8.0603,0.012018,0.24989,11.56,-0.25832,0.086106,-1.998,-0.34442,4.1904e-08,-0.999,0,0,0.11111,4.2106e-15,0,0.66667
0.12274,0.80724,1.1047,0.46085,48.855,540.58,-1.3576,0.45253,-1.2462,-1.8101,-7.6642e-09,-0.62308,0,0,0.11111,6.5791e-17,0,0.66667
0.92163,0.81815,8.2947,0.47722,7.5958,7.6522,-10.556,3.5186,-1.1944,-14.074,7.0646e-08,-0.59719,0,0,0.11111,-0,-0,0.66667
0.10352,0.98292,0.93165,0.72438,77.366,559.39,-1.7997,0.59988,-0.13197,-2.3995,-2.8851e-07,-0.065984,0,0,0.11111,-1.7987e-17,0,0.66667
0.19298,0.15219,1.7368,-0.52172,-54.09,473.25,2.4164,-0.80546,-1.031,3.2218,1.1442e-10,-0.51549,0,0,0.11111,-6.5791e-17,0,0.66667
0.45235,0.78545,4.0711,0.42817,36.612,245.62,-4.6483,1.5494,-1.3516,-6.1978,2.2471e-13,-0.67582,0,0,0.11111,-0,-0,0.66667
0.88235,0.31956,7.9411,-0.27066,-6.3363,14.685,5.7317,-1.9106,-1.7373,7.6423,-1.3275e-08,-0.86865,0,0,0.11111,-0,-0,0.66667
0.30753,0.56002,2.7678,0.090036,8.7525,367.34,-0.66453,0.22151,-1.9705,-0.88604,2.1321e-12,-0.98525,0,0,0.11111,-6.5791e-16,0,0.66667
0.65742,0.57882,5.9168,0.11823,7.1826,105.45,-1.8654,0.6218,-1.9523,-2.4872,-2.3825e-13,-0.97615,0,0,0.11111,1.0527e-15,0,0.66667
0.33893,0.81709,3.0504,0.47563,45.301,339.91,-3.869,1.2897,-1.1947,-5.1587,1.2317e-12,-0.59735,0,0,0.11111,-0,-0,0.66667
0.016138,0.50406,0.14525,0.0060839,0.65333,644.86,-0.0023561,0.00078054,-2.0038,-0.0031439,-7.2583e-06,-1.0019,0,0,0.11111,-0,-0,0.66667
0.62443,0.33254,5.6199,-0.25119,-16.42,124.89,3.7643,-1.2548,-1.7787,5.0191,2.9399e-13,-0.88935,0,0,0.11111,-0,-0,0.66667
0.23807,0.99076,2.1426,0.73614,74.981,431.2,-4.206,1.402,-0.072606,-5.608,-9.4325e-13,-0.036303,0,0,0.11111,2.6316e-16,0,0.66667
0.19454,0.27031,1.7508,-0.34453,-35.643,471.66,1.6086,-0.53619,-1.5754,2.1448,1.1484e-10,-0.7877,0,0,0.11111,-0,-0,0.66667
0.80885,0.463,7.2797,-0.0555,-2.0403,35.698,1.0774,-0.35913,-1.9888,1.4365,-6.0425e-11,-0.99442,0,0,0.11111,5.2633e-16,0,0.66667
0.61735,0.18407,5.5562,-0.47389,-31.508,129.6,7.0214,-2.3405,-1.1998,9.3619,-1.4966e-13,-0.59989,0,0,0.11111,2.6316e-16,0,0.66667
0.79544,0.85,7.1589,0.525,20.668,41.386,-10.022,3.3408,-1.0222,-13.363,6.8416e-11,-0.51112,0,0,0.11111,-0,-0,0.66667
0.26534,0.7397,2.3881,0.35954,35.935,405.64,-2.2897,0.76322,-1.5439,-3.0529,1.3351e-11,-0.77196,0,0,0.11111,-2.6316e-16,0,0.66667
0.047177,0.7115,0.42459,0.31725,34.034,614.34,-0.3592,0.11973,-1.646,-0.47894,6.4775e-08,-0.82298,0,0,0.11111,-3.2895e-17,0,0.66667
0.85345,0.52958,7.6811,0.044363,1.2756,21.73,-0.90868,0.30289,-1.992,-1.2116,1.7139e-09,-0.99599,0,0,0.11111,1.0527e-15,0,0.66667
0.76433,0.44983,6.879,-0.07525,-3.3357,52.767,1.3804,-0.46012,-1.9818,1.8405,3.5311e-12,-0.99088,0,0,0.11111,2.1053e-15,0,0.66667
0.0045005,0.36677,0.040505,-0.19984,-21.474,656.32,0.021585,-0.0071949,-1.8568,0.02878,2.4122e-07,-0.9284,0,0,0.11111,-0,-0,0.66667
0.69985,0.38001,6.2986,-0.17998,-9.8184,82.725,3.023,-1.0077,-1.8851,4.0307,3.1255e-12,-0.94254,0,0,0.11111,-0,-0,0.66667
0.24166,0.68772,2.1749,0.28158,28.494,427.42,-1.6331,0.54438,-1.717,-2.1775,3.022e-11,-0.8585,0,0,0.11111,-0,-0,0.66667
0.35967,0.78951,3.2371,0.43426,40.665,321.91,-3.7486,1.2495,-1.3332,-4.9982,6.7124e-13,-0.66659,0,0,0.11111,-0,-0,0.66667
0.78074,0.57833,7.0267,0.1175,4.8877,46.151,-2.2016,0.73387,-1.9539,-2.9355,-6.7235e-13,-0.97696,0,0,0.11111,-0,-0,0.66667
0.98652,0.59454,8.8786,0.14181,0.33046,0.42713,-3.3576,1.1192,-1.9307,-4.4767,-1.387e-07,-0.96537,0,0,0.11111,-4.2106e-15,0,0.66667
0.24556,0.09409,2.2101,-0.60886,-61.671,424.09,3.5884,-1.1961,-0.682,4.7845,-1.6148e-10,-0.341,0,0,0.11111,-0,-0,0.66667
0.4675,0.46054,4.2075,-0.059187,-4.9609,233.49,0.66408,-0.22136,-1.9898,0.88544,-3.4306e-14,-0.99491,0,0,0.11111,-0,-0,0.66667
0.40034,0.24305,3.603,-0.38542,-34.789,287.55,3.7031,-1.2344,-1.47,4.9375,4.3219e-12,-0.73499,0,0,0.11111,-5.2633e-16,0,0.66667
0.55826,0.97012,5.0243,0.70518,52.376,168.48,-9.4482,3.1494,-0.23193,-12.598,2.0748e-12,-0.11596,0,0,0.11111,2.1053e-15,1.4236e-16,0.66667
0.52926,0.33967,4.7634,-0.2405,-18.572,187.71,3.0549,-1.0183,-1.7962,4.0732,1.3527e-12,-0.89809,0,0,0.11111,-2.6316e-16,0,0.66667
0.65803,0.67544,5.9222,0.26316,15.98,105.26,-4.156,1.3853,-1.755,-5.5414,-3.6415e-13,-0.87751,0,0,0.11111,-0,-0,0.66667
0.49673,0.93022,4.4706,0.64534,52.402,212.13,-7.6934,2.5645,-0.51921,-10.258,-1.8421e-12,-0.2596,0,0,0.11111,-0,-0,0.66667
0.68538,0.31345,6.1685,-0.27982,-15.884,90.348,4.6028,-1.5343,-1.7238,6.1371,2.7787e-12,-0.86192,0,0,0.11111,-0,-0,0.66667
0.31286,0.26721,2.8157,-0.34919,-33.862,362.74,2.6219,-0.87398,-1.5697,3.4959,-1.3411e-12,-0.78485,0,0,0.11111,-0,-0,0.66667
0.21438,0.67299,1.9294,0.25948,26.603,452.89,-1.3351,0.44502,-1.7591,-1.7801,3.1681e-12,-0.87956,0,0,0.11111,2.6316e-16,0,0.66667
0.90718,0.53264,8.1646,0.048955,0.90754,9.3079,-1.0659,0.35529,-1.9953,-1.4211,5.0985e-08,-0.99763,0,0,0.11111,-2.1053e-15,0,0.66667
0.5576,0.59978,5.0184,0.14967,11.055,167.87,-2.0029,0.66765,-1.9191,-2.6706,-2.9288e-13,-0.95957,0,0,0.11111,-0,-0,0.66667
0.029017,0.013314,0.26116,-0.73003,-78.754,632.24,0.50841,-0.16948,-0.10567,0.67787,-9.3411e-06,-0.052837,0,0,0.11111,-0,-0,0.66667
0.12197,0.56446,1.0977,0.096696,10.232,541.24,-0.28305,0.09435,-1.9678,-0.3774,1.6745e-09,-0.98388,0,0,0.11111,-0,-0,0.66667
0.6814,0.32724,6.1326,-0.25913,-14.859,92.432,4.2378,-1.4126,-1.7588,5.6503,2.1263e-12,-0.8794,0,0,0.11111,-0,-0,0.66667
0.80871,0.53475,7.2784,0.052121,1.9173,35.747,-1.0116,0.33721,-1.9904,-1.3488,5.6627e-11,-0.99518,0,0,0.11111,-0,-0,0.66667
0.82348,0.99343,7.4113,0.74015,25.718,32.56,-14.628,4.876,-0.051099,-19.504,1.5646e-11,-0.02555,0,0,0.11111,3.6843e-15,0,0.66667
0.4331,0.96494,3.8979,0.69741,61.137,261.42,-7.2491,2.4164,-0.27012,-9.6654,-2.7165e-12,-0.13506,0,0,0.11111,2.598e-16,0,0.66667
0.58043,0.8931,5.2239,0.58965,42.097,153.34,-8.2141,2.738,-0.76431,-10.952,9.77e-15,-0.38216,0,0,0.11111,-0,-0,0.66667
0.80756,0.54538,7.2681,0.068067,2.5177,36.154,-1.3192,0.43975,-1.9817,-1.759,4.6374e-11,-0.99083,0,0,0.11111,-0,-0,0.66667
0.95758,0.17055,8.6183,-0.49418,-4.2685,3.2002,11.357,-3.7857,-1.1301,15.143,-8.3393e-07,-0.56507,0,0,0.11111,-0,-0,0.66667
0.87975,0.007039,7.9178,-0.73944,-18.039,16.949,15.613,-5.2042,-0.054678,20.817,2.9878e-08,-0.027339,0,0,0.11111,-0,-0,0.66667
0.38851,0.84028,3.4966,0.51042,46.645,297.57,-4.7593,1.5864,-1.0755,-6.3457,4.7073e-14,-0.53773,0,0,0.11111,-0,-0,0.66667
0.96148,0.032333,8.6534,-0.7015,-5.6725,3.8071,16.188,-5.3959,-0.24905,21.583,-2.2955e-05,-0.12452,0,0,0.11111,-0,-0,0.66667
0.13705,0.30939,1.2334,-0.28591,-30.156,526.67,0.9404,-0.31347,-1.7096,1.2539,5.885e-09,-0.85481,0,0,0.11111,6.5791e-17,0,0.66667
0.90874,0.8535,8.1786,0.53024,9.8208,10.035,-11.564,3.8548,-1.0009,-15.419,2.0116e-08,-0.50043,0,0,0.11111,-0,-0,0.66667
0.52131,0.26241,4.6918,-0.35639,-27.869,193.56,4.459,-1.4863,-1.5462,5.9453,-6.2172e-15,-0.77309,0,0,0.11111,-0,-0,0.66667
0.71489,0.51258,6.434,0.018864,0.98512,75.14,-0.32366,0.10789,-1.9977,-0.43154,-1.2493e-13,-0.99886,0,0,0.11111,-0,-0,0.66667
0.78467,0.85618,7.062,0.53426,22.02,45.475,-10.061,3.3538,-0.9845,-13.415,5.6152e-11,-0.49225,0,0,0.11111,-0,-0,0.66667
0.33468,0.95295,3.0121,0.67943,65.088,343.94,-5.4574,1.8191,-0.35606,-7.2766,-2.0304e-12,-0.17803,0,0,0.11111,5.2633e-16,0,0.66667
0.87769,0.17375,7.8992,-0.48937,-11.975,16.349,10.308,-3.4361,-1.1486,13.745,-1.0693e-09,-0.57429,0,0,0.11111,1.0527e-15,0,0.66667
0.25801,0.39871,2.3221,-0.15194,-15.232,412.26,0.94087,-0.31362,-1.9156,1.2545,-1.4329e-11,-0.9578,0,0,0.11111,4.1594e-16,0,0.66667
0.083575,0.99267,0.75217,0.73901,79.243,578.82,-1.4823,0.4941,-0.056522,-1.9764,8.9237e-09,-0.028261,0,0,0.11111,6.5791e-17,0,0.66667
0.75937,0.67058,6.8343,0.25587,11.567,55.034,-4.6632,1.5544,-1.7647,-6.2176,-2.1676e-11,-0.88237,0,0,0.11111,-1.0527e-15,0,0.66667
0.89508,0.6414,8.0557,0.2121,4.4406,11.824,-4.5563,1.5188,-1.8385,-6.075,2.0689e-08,-0.91925,0,0,0.11111,-0,-0,0.66667
0.92645,0.20862,8.338,-0.43707,-6.5201,6.7751,9.7181,-3.2394,-1.3194,12.957,-1.2288e-07,-0.65968,0,0,0.11111,1.0527e-15,0,0.66667
0.37407,0.017349,3.3666,-0.72398,-67.22,310.13,6.4996,-2.1665,-0.13876,8.6662,1.8869e-12,-0.06938,0,0,0.11111,-0,-1.2998e-16,0.66667
0.34146,0.90198,3.0731,0.60297,57.403,337.89,-4.9413,1.6471,-0.70875,-6.5885,8.229e-13,-0.35437,0,0,0.11111,-6.5791e-16,6.4586e-17,0.66667
0.25569,0.40847,2.3012,-0.13729,-13.78,414.4,0.84247,-0.28082,-1.932,1.1233,-1.2211e-11,-0.96598,0,0,0.11111,-0,-0,0.66667
0.47079,0.10481,4.2371,-0.59278,-49.701,231.61,6.6978,-2.2326,-0.7516,8.9304,-1.8119e-13,-0.3758,0,0,0.11111,-0,-0,0.66667
0.96717,0.76345,8.7046,0.39517,2.5894,2.0586,-9.1728,3.0576,-1.4462,-12.23,-4.4729e-07,-0.72311,0,0,0.11111,-0,-0,0.66667
0.49887,0.13493,4.4898,-0.5476,-44.274,210.32,6.5563,-2.1854,-0.93608,8.7418,1.8088e-12,-0.46804,0,0,0.11111,-1.0527e-15,0,0.66667
0.23907,0.0486,2.1517,-0.6771,-68.874,430.19,3.885,-1.295,-0.36821,5.1801,5.1661e-12,-0.1841,0,0,0.11111,-0,-0,0.66667
0.20791,0.67548,1.8712,0.26322,27.064,458.98,-1.3135,0.43782,-1.752,-1.7513,-2.18e-11,-0.87598,0,0,0.11111,2.6316e-16,0,0.66667
0.92671,0.2321,8.3404,-0.40186,-5.9615,6.6266,8.9377,-2.9792,-1.424,11.917,-1.1404e-07,-0.71202,0,0,0.11111,-0,-0,0.66667
0.68793,0.44692,6.1914,-0.079618,-4.4835,88.808,1.3145,-0.43818,-1.9808,1.7527,1.4145e-12,-0.99042,0,0,0.11111,-0,-0,0.66667
0.70478,0.51191,6.343,0.017863,0.96053,80.142,-0.30215,0.10072,-2.0003,-0.40287,-1.4382e-12,-1.0001,0,0,0.11111,2.1053e-15,0,0.66667
0.5889,0.30196,5.3001,-0.29706,-20.81,147.21,4.1984,-1.3995,-1.6846,5.5979,1.8163e-13,-0.84231,0,0,0.11111,5.2633e-16,0,0.66667
0.61873,0.89418,5.5685,0.59128,39.281,129.07,-8.7801,2.9267,-0.75452,-11.707,2.0339e-13,-0.37726,0,0,0.11111,-1.0527e-15,0,0.66667
0.045998,0.26669,0.41398,-0.34996,-37.556,615.51,0.38633,-0.12878,-1.567,0.51511,-2.6421e-08,-0.78349,0,0,0.11111,-0,-0,0.66667
0.35616,0.15751,3.2055,-0.51374,-48.286,325.03,4.3914,-1.4638,-1.0626,5.8551,3.9577e-12,-0.53128,0,0,0.11111,1.0527e-15,0,0.66667
0.079759,0.31915,0.71783,-0.27128,-28.974,582.39,0.51928,-0.17309,-1.7403,0.69237,4.7092e-08,-0.87013,0,0,0.11111,-0,-0,0.66667
0.32577,0.26516,2.9319,-0.35227,-33.847,351.31,2.7542,-0.91807,-1.5592,3.6723,-1.7155e-12,-0.77962,0,0,0.11111,-0,-0,0.66667
0.71057,0.86564,6.3951,0.54846,29.177,78.114,-9.3532,3.1177,-0.92798,-12.471,-7.2431e-12,-0.46399,0,0,0.11111,-5.2633e-16,0,0.66667
0.072478,0.94864,0.6523,0.67296,72.222,589.63,-1.1706,0.3902,-0.38764,-1.5608,-1.7381e-06,-0.19382,0,0,0.11111,1.3158e-16,0,0.66667
0.89901,0.46539,8.0911,-0.051917,-1.0452,10.877,1.1202,-0.37339,-1.9887,1.4936,1.1979e-08,-0.99437,0,0,0.11111,-0,-0,0.66667
0.35431,0.52119,3.1888,0.031781,2.9829,326.26,-0.27025,0.090082,-1.9947,-0.36033,-1.1663e-12,-0.99734,0,0,0.11111,1.0527e-15,0,0.66667
0.089774,0.16373,0.80797,-0.5044,-53.875,572.67,1.0868,-0.36226,-1.0947,1.449,-5.0938e-09,-0.54734,0,0,0.11111,2.6316e-16,0,0.66667
0.10048,0.3792,0.90429,-0.1812,-19.273,562.15,0.43696,-0.14565,-1.8815,0.58261,2.1253e-08,-0.94077,0,0,0.11111,2.6316e-16,0,0.66667
0.14697,0.39758,1.3228,-0.15364,-16.148,517.06,0.54193,-0.18064,-1.9139,0.72257,2.9168e-09,-0.95694,0,0,0.11111,-0,-0,0.66667
0.70481,0.67651,6.3432,0.26476,14.255,80.327,-4.4785,1.4928,-1.7522,-5.9714,-3.8609e-12,-0.8761,0,0,0.11111,-1.0527e-15,0,0.66667
0.94314,0.62989,8.4883,0.19483,2.2189,3.9511,-4.4102,1.4701,-1.8636,-5.8802,-3.5239e-08,-0.93179,0,0,0.11111,-0,-0,0.66667
0.76054,0.50738,6.8449,0.011072,0.49765,54.34,-0.2021,0.067365,-1.9981,-0.26946,-8.7283e-13,-0.99904,0,0,0.11111,-4.2106e-15,0,0.66667
0.39221,0.48698,3.5299,-0.019537,-1.774,294.07,0.1839,-0.0613,-2.0001,0.2452,3.2026e-12,-1.0001,0,0,0.11111,-5.2633e-16,0,0.66667
0.76781,0.75678,6.9103,0.38517,16.909,51.761,-7.0977,2.3659,-1.4737,-9.4635,-3.1585e-11,-0.73686,0,0,0.11111,-0,-0,0.66667
0.83593,0.072058,7.5234,-0.64191,-20.782,28.204,12.878,-4.2928,-0.53241,17.171,8.0239e-09,-0.26621,0,0,0.11111,-0,-0,0.66667
0.061478,0.8206,0.5533,0.4809,51.576,600.34,-0.70955,0.23652,-1.1803,-0.94607,-1.1458e-07,-0.59017,0,0,0.11111,-0,-0,0.66667
0.31055,0.99724,2.7949,0.74587,72.78,365.33,-5.559,1.853,-0.024084,-7.4121,1.1426e-12,-0.012042,0,0,0.11111,-1.0527e-15,0,0.66667
0.74228,0.9939,6.6805,0.74086,35.917,63.93,-13.198,4.3994,-0.046345,-17.597,-1.168e-11,-0.023173,0,0,0.11111,-0,-0,0.66667
0.26043,0.072377,2.3438,-0.64143,-64.476,410.45,4.0091,-1.3364,-0.53531,5.3455,1.8275e-11,-0.26766,0,0,0.11111,-5.2633e-16,0,0.66667
0.91053,0.052706,8.1948,-0.67094,-12.308,10.329,14.662,-4.8873,-0.39824,19.549,2.3123e-07,-0.19912,0,0,0.11111,-1.0527e-15,0,0.66667
0.24225,0.72889,2.1802,0.34334,34.746,426.91,-1.9962,0.66539,-1.5783,-2.6616,2.4526e-11,-0.78916,0,0,0.11111,-0,-0,0.66667
0.78725,0.76106,7.0852,0.39159,15.915,44.072,-7.3987,2.4662,-1.4525,-9.865,-2.2136e-11,-0.72625,0,0,0.11111,-0,-0,0.66667
0.39894,0.64504,3.5905,0.21756,19.64,288.54,-2.083,0.69434,-1.8291,-2.7774,1.2359e-12,-0.91455,0,0,0.11111,-0,-0,0.66667
0.88796,0.10982,7.9916,-0.58527,-13.237,14.391,12.473,-4.1576,-0.78216,16.63,7.8272e-09,-0.39108,0,0,0.11111,-0,-0,0.66667
0.28813,0.41267,2.5932,-0.131,-12.899,384.78,0.90585,-0.30195,-1.9369,1.2078,-4.3862e-12,-0.96845,0,0,0.11111,-0,-0,0.66667
0.57639,0.28541,5.1875,-0.32189,-23.061,155.43,4.4529,-1.4843,-1.6337,5.9371,1.5929e-12,-0.81687,0,0,0.11111,-0,-0,0.66667
0.015374,0.97498,0.13836,0.71246,76.887,645.64,-0.26287,0.087603,-0.19919,-0.3505,-2.972e-05,-0.099594,0,0,0.11111,-0,-0,0.66667
0.80519,0.4797,7.2467,-0.030446,-1.1386,36.981,0.58835,-0.19612,-1.9941,0.78446,-1.9295e-11,-0.99706,0,0,0.11111,-0,-0,0.66667
0.033564,0.84901,0.30208,0.52351,56.319,627.75,-0.42171,0.14057,-1.0268,-0.56228,3.6409e-07,-0.5134,0,0,0.11111,-1.3158e-16,0,0.66667
0.64091,0.62328,5.7682,0.18493,11.667,115,-2.8445,0.94817,-1.8831,-3.7927,-1.1731e-12,-0.94156,0,0,0.11111,1.4474e-15,0,0.66667
0.56365,0.89242,5.0728,0.58864,43.244,164.5,-7.9628,2.6543,-0.77008,-10.617,-1.0623e-12,-0.38504,0,0,0.11111,-0,-0,0.66667
0.92841,0.097254,8.3557,-0.60412,-8.8833,7.1305,13.461,-4.487,-0.70081,17.948,-3.9352e-07,-0.3504,0,0,0.11111,-2.1053e-15,0,0.66667
0.91911,0.48623,8.272,-0.020661,-0.33434,7.2208,0.45576,-0.15192,-1.9985,0.60768,-1.6401e-08,-0.99925,0,0,0.11111,-3.5793e-17,0,0.66667
0.24888,0.1898,2.2399,-0.4653,-46.972,420.88,2.7793,-0.92642,-1.2335,3.7057,2.9683e-12,-0.61677,0,0,0.11111,-0,-0,0.66667
0.26552,0.39479,2.3896,-0.15782,-15.755,405.37,1.0057,-0.33523,-1.9152,1.3409,-7.8435e-12,-0.9576,0,0,0.11111,2.6316e-16,0,0.66667
0.65743,0.069376,5.9168,-0.64594,-39.512,106.51,10.192,-3.3972,-0.51903,13.589,1.446e-12,-0.25952,0,0,0.11111,-0,-0,0.66667
0.28227,0.29315,2.5404,-0.31028,-30.69,390.18,2.102,-0.70066,-1.66,2.8026,-7.3321e-12,-0.83,0,0,0.11111,-0,-0,0.66667
0.17582,0.39995,1.5824,-0.15008,-15.624,489.39,0.6333,-0.2111,-1.9194,0.8444,4.9638e-10,-0.95968,0,0,0.11111,1.3158e-16,0,0.66667
0.17263,0.92572,1.5537,0.63858,66.809,492.7,-2.6457,0.8819,-0.55282,-3.5276,1.9797e-09,-0.27641,0,0,0.11111,-2.6316e-16,0,0.66667
0.027872,0.40841,0.25085,-0.13738,-14.748,633.31,0.091897,-0.030632,-1.9335,0.12253,-1.7701e-08,-0.96676,0,0,0.11111,6.5791e-17,0,0.66667
0.46709,0.0049423,4.2038,-0.74259,-62.694,234.83,8.3245,-2.7748,-0.041459,11.099,5.9659e-12,-0.02073,0,0,0.11111,-2.1053e-15,0,0.66667
0.48856,0.11444,4.3971,-0.57834,-47.415,218.08,6.7813,-2.2604,-0.8096,9.0417,-1.6072e-12,-0.4048,0,0,0.11111,-0,-0,0.66667
0.42371,0.52207,3.8134,0.033105,2.9142,268.15,-0.33665,0.11222,-1.9975,-0.44886,-1.3168e-12,-0.99874,0,0,0.11111,-0,-0,0.66667
0.98837,0.83094,8.8953,0.49641,1.0775,1.2536,-11.775,3.9251,-1.1227,-15.7,1.4029e-06,-0.56134,0,0,0.11111,1.0527e-15,0,0.66667
0.64354,0.43627,5.7918,-0.095602,-5.9942,113.4,1.4766,-0.49219,-1.9688,1.9688,-1.2236e-12,-0.98439,0,0,0.11111,-1.3158e-16,0,0.66667
0.56225,0.96832,5.0603,0.70247,51.833,165.77,-9.4792,3.1597,-0.25047,-12.639,1.1733e-12,-0.12524,0,0,0.11111,-1.1842e-15,-7.2073e-18,0.66667
0.086457,0.071829,0.77811,-0.64226,-68.745,575.96,1.3327,-0.44422,-0.5309,1.7769,3.32e-07,-0.26545,0,0,0.11111,-0,-0,0.66667
0.45235,0.17326,4.0712,-0.49011,-41.937,245.72,5.3208,-1.7736,-1.1485,7.0944,2.5162e-12,-0.57427,0,0,0.11111,-5.2633e-16,-2.731e-17,0.66667
0.069724,0.16381,0.62751,-0.50429,-54.037,592.27,0.84386,-0.28129,-1.0935,1.1251,1.8529e-07,-0.54676,0,0,0.11111,-0,-0,0.66667
0.48716,0.80888,4.3844,0.46332,37.996,218.9,-5.417,1.8057,-1.2377,-7.2227,1.1271e-12,-0.61886,0,0,0.11111,-7.8949e-16,0,0.66667
0.01559,0.68949,0.14031,0.28424,30.549,645.4,-0.10635,0.035451,-1.7178,-0.14181,4.8024e-08,-0.8589,0,0,0.11111,6.5791e-17,0,0.66667
0.14153,0.99532,1.2737,0.74299,78.627,522.61,-2.5237,0.84122,-0.040457,-3.3649,-1.0442e-08,-0.020229,0,0,0.11111,-2.6316e-16,0,0.66667
0.61893,0.79952,5.5704,0.44927,29.766,128.58,-6.6736,2.2245,-1.2799,-8.8982,-1.8749e-12,-0.63997,0,0,0.11111,1.0527e-15,0,0.66667
0.67615,0.453,6.0854,-0.070506,-4.0926,95.079,1.1441,-0.38138,-1.9809,1.5255,-1.4555e-13,-0.99045,0,0,0.11111,1.0527e-15,0,0.66667
0.60372,0.039058,5.4335,-0.69141,-47.395,138.68,10.018,-3.3394,-0.29842,13.358,-1.0232e-12,-0.14921,0,0,0.11111,-0,-0,0.66667
0.25097,0.0015909,2.2588,-0.74761,-75.654,419.29,4.5032,-1.5011,-0.016369,6.0042,1.0932e-11,-0.0081843,0,0,0.11111,-0,-0,0.66667
0.066186,0.65806,0.59567,0.23709,25.369,595.68,-0.37661,0.12554,-1.8005,-0.50215,-2.8412e-08,-0.90027,0,0,0.11111,2.6316e-16,0,0.66667
0.67727,0.69347,6.0955,0.29021,16.822,94.688,-4.7173,1.5724,-1.6991,-6.2897,-2.0863e-12,-0.84953,0,0,0.11111,-0,-0,0.66667
0.76834,0.83041,6.9151,0.49562,21.765,51.844,-9.1393,3.0464,-1.1267,-12.186,8.8018e-13,-0.56335,0,0,0.11111,1.0527e-15,0,0.66667
0.11928,0.61932,1.0735,0.17898,18.956,543.86,-0.51234,0.17078,-1.8845,-0.68312,-8.9379e-09,-0.94225,0,0,0.11111,6.5791e-17,0,0.66667
0.73956,0.43683,6.6561,-0.094753,-4.5818,63.553,1.6818,-0.5606,-1.9676,2.2424,2.1908e-12,-0.98381,0,0,0.11111,1.1732e-15,0,0.66667
0.77319,0.22674,6.9587,-0.40989,-17.636,49.634,7.6062,-2.5354,-1.4003,10.142,7.5104e-12,-0.70013,0,0,0.11111,-0,-0,0.66667
0.10997,0.99691,0.98975,0.74537,79.521,553.13,-1.9673,0.65576,-0.028569,-2.623,-1.7246e-08,-0.014285,0,0,0.11111,-6.5791e-17,0,0.66667
0.48647,0.34491,4.3782,-0.23263,-19.056,219.1,2.7161,-0.90535,-1.8098,3.6214,-1.962e-12,-0.9049,0,0,0.11111,2.1053e-15,0,0.66667
0.005725,0.5176,0.051525,0.026396,2.8353,655.11,-0.003627,0.0012114,-1.9953,-0.0048348,3.5548e-06,-0.99763,0,0,0.11111,-0,-0,0.66667
0.62591,0.6763,5.6332,0.26446,17.237,124.01,-3.9726,1.3242,-1.7538,-5.2969,1.5203e-12,-0.87692,0,0,0.11111,-1.0527e-15,0,0.66667
0.85898,0.92844,7.7309,0.64266,18.095,21.637,-13.249,4.4163,-0.53502,-17.665,-2.9016e-08,-0.26751,0,0,0.11111,-1.0527e-15,1.0837e-16,0.66667
0.86017,0.92623,7.7416,0.63934,17.858,21.308,-13.199,4.3996,-0.54932,-17.598,-3.5445e-08,-0.27466,0,0,0.11111,-1.0527e-15,0,0.66667
0.93728,0.49991,8.4355,-0.00014202,-0.0017807,4.5437,0.0031946,-0.0010645,-2.0051,0.0042597,5.3705e-07,-1.0026,0,0,0.11111,6.4969e-15,0,0.66667
0.78384,0.16209,7.0545,-0.50686,-20.947,45.706,9.5352,-3.1784,-1.0874,12.714,1.405e-10,-0.54369,0,0,0.11111,-0,-0,0.66667
0.43204,0.63106,3.8883,0.19659,17.162,261.49,-2.0384,0.67947,-1.8611,-2.7179,1.0192e-13,-0.93053,0,0,0.11111,-1.0527e-15,0,0.66667
0.77402,0.82197,6.9662,0.48296,20.746,49.502,-8.9717,2.9906,-1.1682,-11.962,-3.1133e-11,-0.5841,0,0,0.11111,2.1053e-15,0,0.66667
0.98356,0.79208,8.852,0.43813,1.3751,1.2263,-10.342,3.4474,-1.3202,-13.79,-6.3591e-07,-0.66008,0,0,0.11111,-0,-0,0.66667
0.36725,0.30389,3.3053,-0.29416,-27.339,315.27,2.5928,-0.86425,-1.6899,3.457,1.8934e-12,-0.84496,0,0,0.11111,2.6316e-16,0,0.66667
0.035895,0.38261,0.32305,-0.17608,-18.895,625.42,0.15169,-0.050563,-1.8885,0.20225,-1.3522e-07,-0.94426,0,0,0.11111,-0,-0,0.66667
0.50774,0.93897,4.5697,0.65846,52.692,204.04,-8.0238,2.6746,-0.45708,-10.698,9.2371e-13,-0.22854,0,0,0.11111,-0,-0,0.66667
0.3525,0.28517,3.1725,-0.32224,-30.324,327.96,2.7261,-0.90871,-1.6291,3.6348,1.7852e-13,-0.81454,0,0,0.11111,1.0527e-15,0,0.66667
0.17606,0.8255,1.5846,0.48825,50.932,489.31,-2.0631,0.6877,-1.1511,-2.7508,-1.9448e-10,-0.57555,0,0,0.11111,-0,-0,0.66667
0.9343,0.093621,8.4087,-0.60957,-8.2454,6.3298,13.669,-4.5562,-0.68006,18.225,-6.6755e-08,-0.34003,0,0,0.11111,2.7641e-15,-1.3266e-16,0.66667
0.11962,0.29154,1.0766,-0.31269,-33.137,543.56,0.89769,-0.29923,-1.6504,1.1969,1.232e-08,-0.82521,0,0,0.11111,-2.6316e-16,0,0.66667
0.65426,0.067241,5.8883,-0.64914,-40.002,108.31,10.193,-3.3976,-0.50348,13.591,4.885e-13,-0.25174,0,0,0.11111,-0,-0,0.66667
0.16873,0.39863,1.5186,-0.15206,-15.87,496.17,0.61577,-0.20526,-1.9178,0.82103,4.2135e-10,-0.95891,0,0,0.11111,1.3158e-16,0,0.66667
0.79644,0.5388,7.1679,0.058205,2.265,40.151,-1.1126,0.37085,-1.9915,-1.4834,-1.2739e-11,-0.99576,0,0,0.11111,-2.1053e-15,0,0.66667
0.25811,0.11011,2.3229,-0.58483,-58.82,412.5,3.6227,-1.2076,-0.78116,4.8303,-5.6579e-12,-0.39058,0,0,0.11111,-0,-0,0.66667
0.69801,0.40249,6.2821,-0.14627,-8.0183,83.633,2.4503,-0.81676,-1.9229,3.267,2.7847e-12,-0.96147,0,0,0.11111,-1.3158e-15,0,0.66667
0.62789,0.78602,5.651,0.42902,27.899,123.1,-6.4651,2.155,-1.3462,-8.6202,3.4683e-13,-0.67312,0,0,0.11111,-0,-0,0.66667
0.7158,0.76846,6.4422,0.40269,21.04,75.16,-6.9179,2.306,-1.4233,-9.2239,-6.3833e-12,-0.71163,0,0,0.11111,-1.0527e-15,0,0.66667
0.25083,0.34714,2.2575,-0.22928,-23.084,418.91,1.3803,-0.46009,-1.8166,1.8404,-1.4495e-11,-0.90831,0,0,0.11111,1.0527e-15,0,0.66667
0.50402,0.10931,4.5362,-0.58603,-47.08,206.59,7.089,-2.363,-0.77768,9.452,2.057e-12,-0.38884,0,0,0.11111,-1.0527e-15,0,0.66667
0.34213,0.071777,3.0792,-0.64233,-61.152,337.37,5.2743,-1.7581,-0.53466,7.0325,8.4377e-14,-0.26733,0,0,0.11111,-0,1.0986e-16,0.66667
0.1803,0.45204,1.6227,-0.071934,-7.4747,485.1,0.31127,-0.10376,-1.9789,0.41503,1.9759e-10,-0.98944,0,0,0.11111,-0,-0,0.66667
0.47551,0.66229,4.2796,0.24344,20.22,227.44,-2.7782,0.92606,-1.7873,-3.7043,2.323e-12,-0.89364,0,0,0.11111,-1.0527e-15,0,0.66667
0.91212,0.0070378,8.2091,-0.73944,-13.407,10.401,16.187,-5.3957,-0.054062,21.583,2.5027e-08,-0.027031,0,0,0.11111,-0,-0,0.66667
0.56794,0.72272,5.1115,0.33408,24.286,161.08,-4.5537,1.5179,-1.602,-6.0716,5.7865e-13,-0.80098,0,0,0.11111,2.1053e-15,0,0.66667
0.63089,0.86916,5.678,0.55374,35.853,121.61,-8.3843,2.7948,-0.90808,-11.179,-9.0772e-13,-0.45404,0,0,0.11111,-0,-0,0.66667
0.54925,0.27158,4.9432,-0.34263,-25.683,173.82,4.5166,-1.5055,-1.5833,6.0221,6.4304e-13,-0.79163,0,0,0.11111,-0,-0,0.66667
0.04503,0.67377,0.40527,0.26065,27.96,616.45,-0.28169,0.093898,-1.7595,-0.37559,1.0019e-07,-0.87977,0,0,0.11111,6.5791e-17,0,0.66667
0.86867,0.98423,7.818,0.72634,19.225,19.539,-15.143,5.0476,-0.12166,-20.19,1.2798e-08,-0.060828,0,0,0.11111,2.0574e-15,0,0.66667
0.12479,0.15424,1.1231,-0.51864,-54.983,538.62,1.5533,-0.51778,-1.0484,2.0711,-3.2937e-09,-0.52419,0,0,0.11111,-0,1.4686e-16,0.66667
0.73641,0.81132,6.6277,0.46697,22.917,65.604,-8.2532,2.7511,-1.227,-11.004,-2.5897e-11,-0.61348,0,0,0.11111,1.4474e-15,0,0.66667
0.45176,0.65296,4.0658,0.22943,19.601,245.85,-2.4876,0.82919,-1.8156,-3.3168,-1.1324e-14,-0.90781,0,0,0.11111,-5.2633e-16,0,0.66667
0.71027,0.3137,6.3925,-0.27946,-14.815,77.627,4.7638,-1.5879,-1.7211,6.3517,4.8863e-12,-0.86053,0,0,0.11111,2.1053e-15,0,0.66667
0.86113,0.44997,7.7502,-0.075042,-2.0513,19.667,1.5509,-0.51696,-1.9812,2.0679,-2.3979e-09,-0.99062,0,0,0.11111,-0,-0,0.66667
0.69657,0.46552,6.2691,-0.051721,-2.8455,84.316,0.86466,-0.28822,-1.989,1.1529,1.8696e-13,-0.99448,0,0,0.11111,-0,-0,0.66667
0.8539,0.69472,7.6851,0.29208,8.3993,21.89,-5.9858,1.9953,-1.695,-7.9811,3.4496e-09,-0.8475,0,0,0.11111,-0,-0,0.66667
0.48707,0.91018,4.3836,0.61527,50.568,219.28,-7.1923,2.3974,-0.65504,-9.5898,-7.4563e-13,-0.32752,0,0,0.11111,-1.0527e-15,0,0.66667
0.091798,0.17658,0.82618,-0.48514,-51.789,570.69,1.0688,-0.35627,-1.1643,1.4251,1.7832e-08,-0.58214,0,0,0.11111,-1.3158e-16,0,0.66667
0.37859,0.86533,3.4073,0.54799,50.551,305.97,-4.9791,1.6597,-0.93171,-6.6388,-3.4639e-14,-0.46585,0,0,0.11111,-5.2633e-16,0,0.66667
0.19142,0.84459,1.7228,0.51689,53.62,474.73,-2.3746,0.79153,-1.0505,-3.1661,-9.4773e-11,-0.52523,0,0,0.11111,-0,-0,0.66667
0.76352,0.74686,6.8716,0.3703,16.515,53.508,-6.7854,2.2618,-1.5143,-9.0472,-2.9951e-11,-0.75715,0,0,0.11111,1.579e-15,0,0.66667
0.69537,0.86598,6.2583,0.54896,30.471,85.763,-9.1616,3.0539,-0.92604,-12.215,-1.4015e-12,-0.46302,0,0,0.11111,5.2633e-16,0,0.66667
0.57953,0.73197,5.2158,0.34795,24.799,153.4,-4.8396,1.6132,-1.5712,-6.4528,2.0122e-12,-0.78561,0,0,0.11111,-0,-0,0.66667
0.76884,0.2495,6.9196,-0.37575,-16.429,51.318,6.9335,-2.3112,-1.4991,9.2446,3.7722e-11,-0.74955,0,0,0.11111,1.579e-15,0,0.66667
0.36936,0.33561,3.3243,-0.24659,-22.87,313.44,2.1859,-0.72864,-1.7819,2.9146,-5.5023e-13,-0.89097,0,0,0.11111,-2.6316e-16,0,0.66667
0.36918,0.26958,3.3226,-0.34564,-32.082,313.68,3.0624,-1.0208,-1.573,4.0832,1.2697e-12,-0.7865,0,0,0.11111,-0,-0,0.66667
0.70021,0.80624,6.3019,0.45936,25.119,83.041,-7.7195,2.5732,-1.2502,-10.293,-3.0065e-12,-0.62509,0,0,0.11111,-5.2633e-16,0,0.66667
0.4523,0.48638,4.0707,-0.020432,-1.7433,245.33,0.2218,-0.073933,-2.0011,0.29573,-4.6248e-12,-1.0005,0,0,0.11111,1.0527e-15,0,0.66667
0.81192,0.41743,7.3072,-0.12386,-4.4885,34.677,2.4136,-0.80452,-1.9485,3.2181,-2.1407e-10,-0.97423,0,0,0.11111,-0,-0,0.66667
0.15461,0.13783,1.3915,-0.54326,-57.118,509.88,2.0158,-0.67195,-0.95207,2.6878,1.2791e-09,-0.47603,0,0,0.11111,2.6316e-16,-4.5718e-17,0.66667
0.58986,0.062843,5.3087,-0.65574,-46.089,147.4,9.283,-3.0943,-0.47168,12.377,-8.5265e-14,-0.23584,0,0,0.11111,-0,-0,0.66667
0.37357,0.91616,3.3621,0.62424,57.898,310.35,-5.5967,1.8656,-0.61635,-7.4623,1.0747e-13,-0.30818,0,0,0.11111,-0,-1.1397e-16,0.66667
0.24708,0.90333,2.2237,0.605,61.228,422.69,-3.5876,1.1959,-0.69953,-4.7834,1.3357e-10,-0.34977,0,0,0.11111,3.2895e-16,0,0.66667
0.25433,0.54885,2.289,0.073281,7.3601,415.63,-0.4473,0.1491,-1.9795,-0.5964,9.0754e-12,-0.98974,0,0,0.11111,2.6316e-16,0,0.66667
0.74375,0.974,6.6937,0.711,34.27,63.146,-12.691,4.2304,-0.20085,-16.922,-9.778e-12,-0.10043,0,0,0.11111,-0,-0,0.66667
0.32886,0.76158,2.9598,0.39237,37.626,348.63,-3.0968,1.0323,-1.4554,-4.1291,3.2676e-12,-0.72768,0,0,0.11111,-0,-0,0.66667
0.22792,0.93173,2.0512,0.6476,66.211,440.53,-3.5424,1.1808,-0.50697,-4.7231,7.0548e-11,-0.25348,0,0,0.11111,5.297e-16,0,0.66667
0.90536,0.10871,8.1482,-0.58694,-11.298,10.886,12.753,-4.2511,-0.77752,17.004,-5.1759e-08,-0.38876,0,0,0.11111,-0,-0,0.66667
0.41629,0.82019,3.7466,0.48029,42.716,274.56,-4.7986,1.5995,-1.178,-6.3981,5.1603e-13,-0.58902,0,0,0.11111,-0,-0,0.66667
0.5344,0.68411,4.8096,0.27616,21.169,184.11,-3.5419,1.1806,-1.7295,-4.7226,1.3138e-12,-0.86473,0,0,0.11111,-1.3158e-15,0,0.66667
0.37206,0.68099,3.3485,0.27149,25.124,311.16,-2.4242,0.80808,-1.7383,-3.2323,9.2393e-13,-0.86916,0,0,0.11111,-0,-0,0.66667
0.23386,0.78922,2.1047,0.43383,44.122,434.78,-2.4349,0.81162,-1.3342,-3.2465,1.9154e-11,-0.66711,0,0,0.11111,-0,-0,0.66667
0.10234,0.046824,0.92109,-0.67976,-72.575,560.5,1.6697,-0.55656,-0.35435,2.2262,1.5924e-07,-0.17718,0,0,0.11111,1.3158e-16,0,0.66667
0.055182,0.11138,0.49664,-0.58293,-62.63,606.54,0.77201,-0.25734,-0.7891,1.0293,-5.44e-07,-0.39455,0,0,0.11111,-0,-0,0.66667
0.87287,0.84851,7.8558,0.52276,13.286,17.618,-10.951,3.6504,-1.0299,-14.602,2.4093e-09,-0.51494,0,0,0.11111,2.1053e-15,0,0.66667
0.17297,0.49719,1.5567,-0.0042215,-0.43981,492.09,0.017524,-0.0058415,-2.0032,0.023366,5.7108e-10,-1.0016,0,0,0.11111,-0,-0,0.66667
0.53895,0.14865,4.8506,-0.52702,-40.23,181.34,6.817,-2.2723,-1.0101,9.0893,3.6873e-12,-0.50506,0,0,0.11111,5.2633e-16,0,0.66667
0.97872,0.76989,8.8085,0.40483,1.6733,1.3498,-9.5092,3.1697,-1.4152,-12.679,-1.0606e-06,-0.70758,0,0,0.11111,-0,-0,0.66667
0.16733,0.61453,1.506,0.1718,17.94,497.51,-0.68993,0.22998,-1.8936,-0.91991,-8.7068e-10,-0.94682,0,0,0.11111,2.6316e-16,0,0.66667
0.59576,0.51283,5.3619,0.019248,1.3297,142.58,-0.27521,0.091738,-1.9996,-0.36695,7.172e-14,-0.9998,0,0,0.11111,2.1053e-15,0,0.66667
0.75137,0.4879,6.7623,-0.018156,-0.84325,58.279,0.3274,-0.10913,-2.0006,0.43653,5.9389e-12,-1.0003,0,0,0.11111,-0,-0,0.66667
0.079887,0.045654,0.71898,-0.68152,-73.065,582.39,1.3067,-0.43556,-0.34976,1.7422,5.0583e-07,-0.17488,0,0,0.11111,1.3158e-16,0,0.66667
0.45273,0.53329,4.0745,0.049934,4.2586,245,-0.54256,0.18085,-1.9956,-0.72341,2.274e-12,-0.9978,0,0,0.11111,-0,-0,0.66667
0.79183,0.43959,7.1264,-0.090617,-3.5984,41.88,1.7221,-0.57402,-1.9701,2.2961,-2.0284e-13,-0.98507,0,0,0.11111,-0,-0,0.66667
0.72178,0.43784,6.496,-0.093233,-4.7699,71.834,1.615,-0.53835,-1.9704,2.1534,8.3618e-12,-0.98522,0,0,0.11111,-2.1053e-15,0,0.66667
0.67856,0.73304,6.1071,0.34957,20.21,94.097,-5.6929,1.8976,-1.5629,-7.5905,-4.2011e-13,-0.78145,0,0,0.11111,-1.0527e-15,0,0.66667
0.76669,0.72132,6.9002,0.33197,14.623,52.107,-6.1085,2.0362,-1.6115,-8.1447,-2.5401e-11,-0.80575,0,0,0.11111,-2.1053e-15,0,0.66667
0.5821,0.8082,5.2389,0.4623,32.844,151.93,-6.4586,2.1529,-1.2398,-8.6115,1.815e-12,-0.6199,0,0,0.11111,-5.2633e-16,0,0.66667
0.3749,0.9999,3.3741,0.74985,69.602,309.49,-6.7468,2.2489,-0.0061385,-8.9957,6.5392e-12,-0.0030692,0,0,0.11111,1.7264e-15,1.6773e-18,0.66667
0.44709,0.66049,4.0238,0.24073,20.676,249.53,-2.5831,0.86105,-1.7924,-3.4442,4.6252e-13,-0.89621,0,0,0.11111,-1.0527e-15,0,0.66667
0.28043,0.33445,2.5238,-0.24833,-24.581,391.81,1.6713,-0.5571,-1.7835,2.2284,-6.3076e-12,-0.89177,0,0,0.11111,2.6316e-16,0,0.66667
0.33926,0.57442,3.0533,0.11163,10.605,339.34,-0.90894,0.30298,-1.9542,-1.2119,-1.8428e-12,-0.9771,0,0,0.11111,5.2633e-16,0,0.66667
0.88017,0.72153,7.9215,0.3323,7.9301,15.317,-7.0194,2.3398,-1.6065,-9.3592,1.2291e-08,-0.80327,0,0,0.11111,-2.1053e-15,0,0.66667
0.53635,0.94941,4.8271,0.67411,51.785,183.54,-8.6775,2.8925,-0.38238,-11.57,-3.5536e-12,-0.19119,0,0,0.11111,1.0527e-15,0,0.66667
0.073744,0.57596,0.6637,0.11395,12.174,588.26,-0.20167,0.067223,-1.9524,-0.26889,-4.0132e-08,-0.97619,0,0,0.11111,1.3158e-16,0,0.66667
0.67227,0.53905,6.0504,0.058574,3.433,97.183,-0.94505,0.31502,-1.9914,-1.2601,-2.0516e-12,-0.9957,0,0,0.11111,2.1053e-15,0,0.66667
0.72976,0.45935,6.5678,-0.060976,-3.0431,68.048,1.0679,-0.35598,-1.9854,1.4239,4.275e-12,-0.99269,0,0,0.11111,-5.2633e-16,0,0.66667
0.39561,0.54769,3.5605,0.071529,6.4747,291.24,-0.67914,0.22638,-1.9799,-0.90552,-2.6359e-12,-0.98995,0,0,0.11111,-0,-0,0.66667
0.34753,0.54108,3.1278,0.061626,5.816,332.12,-0.51401,0.17134,-1.9857,-0.68534,2.2971e-13,-0.99286,0,0,0.11111,-0,-0,0.66667
0.10753,0.50883,0.96779,0.013243,1.406,555.26,-0.034178,0.011393,-2.0008,-0.045571,-3.2661e-08,-1.0004,0,0,0.11111,-5.2633e-16,0,0.66667
0.54663,0.89977,4.9197,0.59965,45.285,176.16,-7.8669,2.6223,-0.72548,-10.489,-8.1002e-13,-0.36274,0,0,0.11111,-5.2633e-16,-8.6512e-17,0.66667
0.26282,0.012239,2.3654,-0.73164,-73.538,408.38,4.615,-1.5383,-0.096739,6.1533,-8.4914e-12,-0.04837,0,0,0.11111,-0,-1.254e-16,0.66667
0.91802,0.83585,8.2622,0.50377,8.394,8.3318,-11.099,3.6997,-1.097,-14.799,2.473e-08,-0.5485,0,0,0.11111,1.0527e-15,0,0.66667
0.85065,0.4232,7.6558,-0.1152,-3.3733,22.552,2.3519,-0.78397,-1.9501,3.1359,-1.2243e-09,-0.97507,0,0,0.11111,-1.0527e-15,0,0.66667
0.65361,0.49038,5.8825,-0.014427,-0.88404,107.58,0.2263,-0.075435,-1.9996,0.30174,1.4391e-14,-0.99982,0,0,0.11111,-0,-0,0.66667
0.87584,0.21553,7.8825,-0.42671,-10.565,16.585,8.9695,-2.9898,-1.3562,11.959,-7.3112e-09,-0.67808,0,0,0.11111,-0,-0,0.66667
0.96891,0.19836,8.7202,-0.45247,-2.8233,2.1196,10.522,-3.5072,-1.2758,14.029,8.6975e-07,-0.6379,0,0,0.11111,-0,-0,0.66667
0.59079,0.73037,5.3171,0.34556,24.136,146.06,-4.8997,1.6332,-1.5753,-6.5329,2.089e-12,-0.78765,0,0,0.11111,-0,-0,0.66667
0.98013,0.033586,8.8212,-0.69962,-2.9196,2.5535,16.457,-5.4858,-0.25947,21.943,2.49e-05,-0.12974,0,0,0.11111,-0,-0,0.66667
0.54926,0.30971,4.9434,-0.28544,-21.385,173.73,3.7628,-1.2543,-1.7119,5.017,1.7761e-12,-0.85594,0,0,0.11111,-5.2633e-16,0,0.66667
0.2936,0.073799,2.6424,-0.6393,-62.991,380.31,4.5047,-1.5016,-0.54641,6.0063,5.9783e-12,-0.2732,0,0,0.11111,5.2633e-16,5.3631e-17,0.66667
0.49124,0.8718,4.4211,0.55769,45.551,216.02,-6.575,2.1917,-0.89255,-8.7667,3.6993e-13,-0.44627,0,0,0.11111,-6.5791e-16,0,0.66667
0.40509,0.61358,3.6458,0.17038,15.287,283.43,-1.6564,0.55214,-1.8989,-2.2086,-2.3848e-12,-0.94946,0,0,0.11111,-0,-0,0.66667
0.59978,0.57004,5.398,0.10506,7.2049,140.05,-1.5123,0.50412,-1.9588,-2.0165,3.8962e-12,-0.97939,0,0,0.11111,-2.1053e-15,0,0.66667
0.4807,0.31034,4.3263,-0.28449,-23.483,223.53,3.2821,-1.094,-1.7126,4.3762,1.66e-12,-0.85629,0,0,0.11111,-2.6316e-16,0,0.66667
0.2867,0.94749,2.5803,0.67124,66.457,386.57,-4.6187,1.5396,-0.39608,-6.1582,-2.0695e-13,-0.19804,0,0,0.11111,-5.2633e-16,0,0.66667
0.62519,0.16494,5.6267,-0.50259,-32.902,124.9,7.5411,-2.5137,-1.1057,10.055,4.3388e-13,-0.55287,0,0,0.11111,-0,-0,0.66667
0.8054,0.1257,7.2486,-0.56145,-21.159,37.918,10.853,-3.6175,-0.87805,14.47,7.3359e-10,-0.43902,0,0,0.11111,-0,-0,0.66667
0.078748,0.48361,0.70873,-0.024585,-2.6244,583.36,0.046464,-0.015488,-2.0007,0.061952,4.1348e-08,-1.0003,0,0,0.11111,-1.3158e-16,0,0.66667
0.42362,0.43576,3.8126,-0.096361,-8.4841,268.23,0.9797,-0.32657,-1.9695,1.3063,1.3896e-12,-0.98477,0,0,0.11111,-5.9212e-16,0,0.66667
0.645,0.31715,5.805,-0.27427,-17.16,112.72,4.2458,-1.4153,-1.7319,5.661,-8.1357e-13,-0.86594,0,0,0.11111,-0,-0,0.66667
0.0072838,0.8853,0.065555,0.57796,62.279,653.59,-0.10103,0.033672,-0.80979,-0.13471,-7.2794e-06,-0.4049,0,0,0.11111,-0,-0,0.66667
0.87569,0.96509,7.8812,0.69764,17.513,17.688,-14.662,4.8873,-0.27322,-19.549,-1.0593e-07,-0.13661,0,0,0.11111,-1.0527e-15,0,0.66667
0.69402,0.26173,6.2462,-0.3574,-19.846,85.976,5.9531,-1.9844,-1.5433,7.9375,2.5224e-12,-0.77167,0,0,0.11111,1.0527e-15,0,0.66667
0.74977,0.22196,6.7479,-0.41706,-19.554,59.498,7.5048,-2.5016,-1.3861,10.006,2.6423e-11,-0.69303,0,0,0.11111,2.1053e-15,0,0.66667
0.5233,0.5541,4.7097,0.081157,6.318,191.88,-1.0193,0.33975,-1.9742,-1.359,-1.1214e-12,-0.98709,0,0,0.11111,5.2633e-16,0,0.66667
0.97547,0.29674,8.7792,-0.30489,-1.4474,1.2557,7.1379,-2.3793,-1.6668,9.5171,5.043e-07,-0.83342,0,0,0.11111,-0,-0,0.66667
0.15309,0.88948,1.3778,0.58421,61.482,511.37,-2.1464,0.71548,-0.78604,-2.8619,4.1302e-09,-0.39302,0,0,0.11111,2.6316e-16,2.8236e-17,0.66667
0.95582,0.484,8.6023,-0.023994,-0.20995,2.435,0.55042,-0.18347,-1.998,0.7339,-6.7786e-07,-0.99901,0,0,0.11111,-0,-0,0.66667
0.9956,0.87184,8.9604,0.55776,0.38368,1.3139,-13.327,4.4424,-0.89347,-17.77,1.5811e-06,-0.44674,0,0,0.11111,-1.0527e-15,0,0.66667
0.078553,0.7022,0.70698,0.30331,32.407,583.58,-0.57182,0.19061,-1.676,-0.76243,-5.6971e-08,-0.83802,0,0,0.11111,-0,-0,0.66667
0.33688,0.25567,3.032,-0.36649,-34.926,341.57,2.9632,-0.98773,-1.5205,3.9509,-8.2201e-13,-0.76023,0,0,0.11111,-0,-0,0.66667
0.99274,0.98649,8.9347,0.72974,1.1169,2.2582,-17.387,5.7955,-0.10404,-23.182,3.3611e-05,-0.05202,0,0,0.11111,1.0527e-15,0,0.66667
0.42676,0.4349,3.8408,-0.097643,-8.5688,265.7,1.0001,-0.33336,-1.9654,1.3334,2.5657e-13,-0.98272,0,0,0.11111,6.5791e-16,0,0.66667
0.82335,0.29932,7.4101,-0.30102,-10.324,31.097,5.9482,-1.9827,-1.6761,7.931,-5.4493e-10,-0.83805,0,0,0.11111,-0,-0,0.66667
0.28812,0.71248,2.593,0.31872,31.412,384.89,-2.2039,0.73463,-1.6368,-2.9385,6.6445e-12,-0.81838,0,0,0.11111,-5.2633e-16,0,0.66667
0.51209,0.28474,4.6088,-0.32289,-25.574,200.19,3.9684,-1.3228,-1.6296,5.2912,3.3225e-12,-0.81478,0,0,0.11111,-2.1053e-15,0,0.66667
0.4661,0.86649,4.1949,0.54973,46.324,235.13,-6.1496,2.0499,-0.92597,-8.1994,-2.0739e-13,-0.46299,0,0,0.11111,-0,-0,0.66667
0.33294,0.43147,2.9965,-0.1028,-9.813,344.86,0.82145,-0.27382,-1.9613,1.0953,-9.0905e-13,-0.98063,0,0,0.11111,2.6316e-16,0,0.66667
0.52708,0.20816,4.7437,-0.43776,-33.975,189.55,5.5377,-1.8459,-1.3175,7.3836,1.1662e-12,-0.65874,0,0,0.11111,-0,-0,0.66667
0.080511,0.20781,0.7246,-0.43828,-46.859,581.7,0.84688,-0.28229,-1.3176,1.1292,6.2018e-08,-0.65879,0,0,0.11111,-1.3158e-16,0,0.66667
0.2212,0.53078,1.9908,0.046176,4.7162,446.44,-0.24513,0.081711,-1.9944,-0.32684,-4.8717e-12,-0.99719,0,0,0.11111,-1.1513e-16,0,0.66667
0.33596,0.6173,3.0236,0.17594,16.76,342.24,-1.4186,0.47288,-1.8876,-1.8915,4.7511e-12,-0.9438,0,0,0.11111,-2.6316e-16,0,0.66667
0.96887,0.9425,8.7199,0.66376,4.3091,3.0362,-15.434,5.1448,-0.43795,-20.579,-9.7559e-06,-0.21898,0,0,0.11111,-0,-0,0.66667
0.44075,0.56262,3.9668,0.09393,8.1198,254.47,-0.9936,0.3312,-1.9698,-1.3248,5.4486e-12,-0.98489,0,0,0.11111,-0,-0,0.66667
0.96131,0.79919,8.6518,0.44878,3.5096,2.7037,-10.354,3.4513,-1.2812,-13.805,2.0504e-07,-0.64059,0,0,0.11111,-0,-0,0.66667
0.57362,0.43295,5.1626,-0.10057,-7.2302,157.06,1.3846,-0.46152,-1.9633,1.8461,1.7397e-13,-0.98165,0,0,0.11111,-2.6316e-16,0,0.66667
0.046616,0.072969,0.41954,-0.64055,-68.928,614.95,0.71662,-0.23887,-0.54473,0.9555,3.7107e-06,-0.27237,0,0,0.11111,1.3158e-16,0,0.66667
0.65871,0.64037,5.9284,0.21056,12.76,104.8,-3.3288,1.1096,-1.8427,-4.4384,-5.2047e-13,-0.92134,0,0,0.11111,-0,-0,0.66667
0.014774,0.088352,0.13296,-0.61747,-66.556,646.22,0.21893,-0.072971,-0.64755,0.29191,1.0114e-05,-0.32377,0,0,0.11111,1.6448e-17,0,0.66667
0.74247,0.058514,6.6822,-0.66223,-32.009,63.516,11.8,-3.9335,-0.43891,15.734,4.0039e-12,-0.21946,0,0,0.11111,1.7647e-16,0,0.66667
0.4207,0.057161,3.7863,-0.66426,-58.959,271.33,6.707,-2.2357,-0.43389,8.9426,-4.0146e-13,-0.21694,0,0,0.11111,7.8949e-16,7.4562e-17,0.66667
0.53388,0.85369,4.805,0.53053,40.811,184.91,-6.7979,2.266,-0.99958,-9.0638,-2.3102e-12,-0.49979,0,0,0.11111,-0,-0,0.66667
0.78883,0.89574,7.0995,0.59361,24.088,44.097,-11.238,3.7461,-0.74453,-14.984,-4.6085e-10,-0.37226,0,0,0.11111,1.0527e-15,0,0.66667
0.9056,0.80456,8.1504,0.45685,8.7084,10.35,-9.9292,3.3097,-1.2611,-13.239,3.1497e-08,-0.63055,0,0,0.11111,1.0527e-15,0,0.66667
0.98688,0.4475,8.8819,-0.078753,-0.17631,0.35835,1.8653,-0.62175,-1.9784,2.487,4.0397e-07,-0.98922,0,0,0.11111,-0,-0,0.66667
0.80208,0.46438,7.2187,-0.053425,-2.027,38.097,1.0284,-0.34281,-1.9887,1.3712,8.7822e-11,-0.99435,0,0,0.11111,1.579e-15,0,0.66667
0.0025426,0.083103,0.022884,-0.62534,-67.426,658.25,0.038153,-0.012727,-0.61001,0.050866,-1.4141e-05,-0.305,0,0,0.11111,-0,-5.8729e-16,0.66667
0.60009,0.70987,5.4008,0.31481,21.605,140.07,-4.5339,1.5113,-1.6454,-6.0452,-9.5479e-14,-0.82271,0,0,0.11111,5.2633e-16,0,0.66667
0.28885,0.91693,2.5996,0.62539,61.796,384.57,-4.3354,1.4451,-0.60679,-5.7805,-1.8141e-12,-0.3034,0,0,0.11111,-5.2633e-16,0,0.66667
0.70972,0.14026,6.3874,-0.53962,-28.772,78.508,9.1914,-3.0638,-0.96207,12.255,4.9969e-12,-0.48104,0,0,0.11111,1.0527e-15,0,0.66667
0.30554,0.87356,2.7499,0.56034,54.722,369.49,-4.109,1.3697,-0.88236,-5.4786,3.0158e-12,-0.44118,0,0,0.11111,-1.3158e-16,0,0.66667
0.55587,0.94912,5.0028,0.67368,50.2,170.02,-8.9875,2.9958,-0.38381,-11.983,2.4274e-12,-0.19191,0,0,0.11111,-0,-0,0.66667
0.91807,0.86761,8.2626,0.55142,9.211,8.5078,-12.15,4.0499,-0.91832,-16.2,3.507e-08,-0.45916,0,0,0.11111,-0,-0,0.66667
0.24787,0.50561,2.2308,0.0084075,0.84732,421.59,-0.050015,0.016672,-2.0012,-0.066687,1.3093e-11,-1.0006,0,0,0.11111,-0,-0,0.66667
0.11184,0.14628,1.0066,-0.53058,-56.431,551.19,1.4242,-0.47473,-0.9996,1.8989,1.1426e-08,-0.4998,0,0,0.11111,1.3158e-16,0,0.66667
0.51354,0.80635,4.6219,0.45953,36.373,199.35,-5.6637,1.8879,-1.2506,-7.5516,-1.8883e-12,-0.62529,0,0,0.11111,3.0408e-16,0,0.66667
0.91372,0.69013,8.2234,0.2852,4.9438,8.4257,-6.2543,2.0848,-1.7092,-8.339,3.8404e-08,-0.85461,0,0,0.11111,-0,-0,0.66667
0.17924,0.021707,1.6131,-0.71744,-74.959,486.48,3.0862,-1.0287,-0.1674,4.115,-7.6672e-11,-0.083701,0,0,0.11111,2.6316e-16,0,0.66667
0.25588,0.41531,2.3029,-0.12704,-12.75,414.22,0.78016,-0.26005,-1.9406,1.0402,-9.3449e-12,-0.97028,0,0,0.11111,-5.2633e-16,0,0.66667
0.033996,0.77354,0.30596,0.4103,44.094,627.31,-0.33477,0.11159,-1.4019,-0.44636,3.3767e-07,-0.70093,0,0,0.11111,-3.2895e-17,0,0.66667
0.015372,0.36256,0.13835,-0.20617,-22.149,645.62,0.076059,-0.025353,-1.8523,0.10141,2.8143e-08,-0.92617,0,0,0.11111,-1.6448e-17,0,0.66667
0.54222,0.41705,4.88,-0.12443,-9.4166,178.48,1.6192,-0.53973,-1.9434,2.1589,3.2785e-13,-0.97171,0,0,0.11111,-0,-0,0.66667
0.85536,0.16426,7.6982,-0.50362,-14.435,22.066,10.339,-3.4462,-1.0974,13.785,-1.4125e-09,-0.5487,0,0,0.11111,-0,-0,0.66667
0.44652,0.60834,4.0187,0.16251,13.962,249.93,-1.7416,0.58053,-1.9035,-2.3221,-1.2301e-13,-0.95175,0,0,0.11111,-0,-0,0.66667
0.23564,0.36975,2.1207,-0.19538,-19.823,432.98,1.1049,-0.3683,-1.8669,1.4732,-1.4288e-11,-0.93345,0,0,0.11111,-1.3158e-16,0,0.66667
0.93653,0.16722,8.4288,-0.49918,-6.4637,5.575,11.22,-3.74,-1.1165,14.96,-1.4687e-07,-0.55824,0,0,0.11111,-0,-0,0.66667
0.61921,0.32406,5.5729,-0.26391,-17.439,128.08,3.9219,-1.3073,-1.7502,5.2292,2.5757e-14,-0.87508,0,0,0.11111,1.0527e-15,0,0.66667
0.86458,0.36069,7.7812,-0.20897,-5.5863,18.899,4.336,-1.4453,-1.8427,5.7814,-5.7924e-09,-0.92136,0,0,0.11111,-0,-0,0.66667
0.12811,0.42107,1.153,-0.11839,-12.509,535.28,0.36401,-0.12134,-1.9498,0.48534,5.3187e-09,-0.97489,0,0,0.11111,-0,-0,0.66667
0.44124,0.88525,3.9711,0.57787,50.123,254.66,-6.1195,2.0398,-0.81189,-8.1594,1.6267e-12,-0.40595,0,0,0.11111,-0,-0,0.66667
0.85755,0.79179,7.718,0.43768,12.339,21.26,-9.008,3.0027,-1.3202,-12.011,3.561e-09,-0.66009,0,0,0.11111,-0,-0,0.66667
0.89819,0.44224,8.0837,-0.086644,-1.7585,11.057,1.8678,-0.62259,-1.9714,2.4903,-1.7515e-08,-0.98569,0,0,0.11111,-2.1053e-15,0,0.66667
0.87726,0.8731,7.8954,0.55965,13.782,16.707,-11.783,3.9277,-0.88824,-15.711,1.7551e-08,-0.44412,0,0,0.11111,-2.6316e-16,0,0.66667
0.62547,0.15694,5.6292,-0.51459,-33.675,124.76,7.7247,-2.5749,-1.0631,10.3,1.3287e-12,-0.53154,0,0,0.11111,-0,-0,0.66667
0.75811,0.024344,6.823,-0.71348,-32.73,56.914,12.982,-4.3272,-0.18779,17.309,-2.993e-11,-0.093894,0,0,0.11111,-1.0527e-15,0,0.66667
0.6755,0.68234,6.0795,0.27351,15.922,95.621,-4.4342,1.4781,-1.7339,-5.9123,-1.1098e-12,-0.86695,0,0,0.11111,-1.0527e-15,0,0.66667
0.84516,0.259,7.6065,-0.3615,-10.992,24.516,7.3327,-2.4442,-1.5373,9.7769,-2.1662e-09,-0.76866,0,0,0.11111,-0,-0,0.66667
0.63245,0.49056,5.692,-0.014166,-0.90972,119.91,0.21503,-0.071675,-1.9968,0.2867,-2.7756e-15,-0.9984,0,0,0.11111,-0,-0,0.66667
0.17189,0.57356,1.547,0.11033,11.501,493.14,-0.45517,0.15172,-1.9607,-0.60689,-5.8686e-10,-0.98033,0,0,0.11111,-0,-0,0.66667
0.65052,0.90597,5.8547,0.60895,37.815,110.31,-9.5072,3.1691,-0.68087,-12.676,-4.3077e-13,-0.34044,0,0,0.11111,-2.7961e-16,0,0.66667
0.45534,0.8052,4.0981,0.4578,39.024,243.32,-5.0029,1.6676,-1.2559,-6.6705,-4.7562e-13,-0.62797,0,0,0.11111,-5.2633e-16,0,0.66667
0.058851,0.69431,0.52966,0.29147,31.225,602.88,-0.41167,0.13722,-1.6976,-0.54889,-1.6727e-08,-0.8488,0,0,0.11111,-1.3158e-16,0,0.66667
0.53586,0.73053,4.8228,0.3458,26.464,183.17,-4.4473,1.4824,-1.5733,-5.9297,-9.1172e-13,-0.78664,0,0,0.11111,-0,-0,0.66667
0.43929,0.37989,3.9536,-0.18017,-15.604,255.68,1.8995,-0.63316,-1.8865,2.5327,-9.5113e-13,-0.94327,0,0,0.11111,-0,-0,0.66667
0.87473,0.45892,7.8725,-0.061626,-1.5274,16.228,1.2937,-0.43125,-1.9901,1.725,-5.3302e-09,-0.99505,0,0,0.11111,1.0527e-15,0,0.66667
0.66072,0.46659,5.9465,-0.050122,-3.0209,103.56,0.7948,-0.26493,-1.9908,1.0597,5.4012e-14,-0.99539,0,0,0.11111,-1.0527e-15,0,0.66667
0.26079,0.53682,2.3471,0.055233,5.5274,409.69,-0.3457,0.11523,-1.988,-0.46093,7.9589e-12,-0.99402,0,0,0.11111,-0,-0,0.66667
0.21677,0.18658,1.9509,-0.47012,-48.221,450.78,2.4458,-0.81525,-1.2166,3.261,8.8271e-11,-0.60829,0,0,0.11111,-3.6185e-16,0,0.66667
0.097323,0.65904,0.87591,0.23855,25.395,565.23,-0.5572,0.18573,-1.798,-0.74294,-2.7124e-08,-0.89899,0,0,0.11111,-2.6316e-16,0,0.66667
0.46914,0.55838,4.2223,0.087563,7.325,232.23,-0.98591,0.32864,-1.9768,-1.3145,-1.1761e-12,-0.98842,0,0,0.11111,5.2633e-16,0,0.66667
0.3498,0.79795,3.1482,0.44692,42.193,330.43,-3.752,1.2507,-1.2874,-5.0027,2.3268e-12,-0.6437,0,0,0.11111,-4.1425e-16,0,0.66667
0.57735,0.45172,5.1961,-0.07242,-5.1724,154.57,1.0035,-0.33449,-1.9839,1.338,-8.4399e-13,-0.99197,0,0,0.11111,-0,-0,0.66667
0.056942,0.55061,0.51248,0.075913,8.1282,604.74,-0.10374,0.034581,-1.9774,-0.13832,-2.8677e-08,-0.98869,0,0,0.11111,-6.5791e-17,0,0.66667
0.24992,0.80474,2.2493,0.45711,46.117,419.91,-2.7418,0.91392,-1.2612,-3.6557,9.9407e-12,-0.63059,0,0,0.11111,-2.6316e-16,0,0.66667
0.51229,0.63404,4.6107,0.20106,15.906,199.91,-2.472,0.824,-1.856,-3.296,6.6991e-13,-0.92799,0,0,0.11111,-1.0527e-15,0,0.66667
0.37596,0.96171,3.3836,0.69256,64.165,308.46,-6.249,2.083,-0.29742,-8.332,-3.4186e-12,-0.14871,0,0,0.11111,2.6316e-16,0,0.66667
0.6269,0.60129,5.6421,0.15194,9.8753,123.29,-2.286,0.762,-1.9194,-3.048,5.6333e-13,-0.95969,0,0,0.11111,-0,-0,0.66667
0.37322,0.20451,3.359,-0.44324,-41.033,310.36,3.9702,-1.3234,-1.3027,5.2936,7.6916e-13,-0.65133,0,0,0.11111,-0,-0,0.66667
0.46031,0.28821,4.1428,-0.31768,-26.888,239.24,3.5096,-1.1699,-1.639,4.6794,1.0727e-12,-0.81949,0,0,0.11111,-0,-0,0.66667
0.23422,0.70824,2.1079,0.31236,31.734,434.36,-1.7558,0.58528,-1.6568,-2.3411,2.8043e-11,-0.82841,0,0,0.11111,-0,-0,0.66667
0.29959,0.60307,2.6963,0.15461,15.113,374.47,-1.1117,0.37055,-1.9153,-1.4822,1.7734e-12,-0.95766,0,0,0.11111,-0,-0,0.66667
0.11528,0.094586,1.0376,-0.60812,-64.683,547.89,1.6826,-0.56085,-0.68427,2.2434,-2.5326e-08,-0.34214,0,0,0.11111,-5.2633e-16,0,0.66667
0.77244,0.28268,6.952,-0.32598,-14.046,49.745,6.0432,-2.0144,-1.6209,8.0576,2.1646e-11,-0.81046,0,0,0.11111,2.1053e-15,0,0.66667
0.79388,0.78427,7.1449,0.4264,16.859,41.663,-8.1243,2.7081,-1.3544,-10.832,7.1232e-12,-0.67719,0,0,0.11111,-0,-0,0.66667
0.043936,0.23636,0.39542,-0.39546,-42.461,617.54,0.417,-0.139,-1.4438,0.556,9.3386e-08,-0.72189,0,0,0.11111,6.5791e-17,0,0.66667
0.16096,0.63162,1.4487,0.19743,20.662,503.62,-0.76267,0.25422,-1.8603,-1.0169,-1.4592e-09,-0.93013,0,0,0.11111,-0,-0,0.66667
0.80286,0.88437,7.2257,0.57656,21.994,38.875,-11.11,3.7032,-0.81592,-14.813,3.4734e-11,-0.40796,0,0,0.11111,-0,-0,0.66667
0.91048,0.99515,8.1943,0.74272,13.711,10.708,-16.23,5.4098,-0.038073,-21.639,1.2636e-07,-0.019036,0,0,0.11111,1.579e-15,0,0.66667
0.36919,0.63703,3.3227,0.20554,19.062,313.56,-1.8212,0.60707,-1.8475,-2.4283,-4.301e-13,-0.92377,0,0,0.11111,1.0527e-15,0,0.66667
0.67531,0.033632,6.0778,-0.69955,-41.044,96.842,11.338,-3.7793,-0.26054,15.117,1.501e-13,-0.13027,0,0,0.11111,-0,-0,0.66667
0.18999,0.32843,1.7099,-0.25735,-26.658,475.93,1.1735,-0.39116,-1.7648,1.5646,2.0749e-10,-0.8824,0,0,0.11111,-0,-0,0.66667
0.87123,0.85711,7.8411,0.53567,13.787,18.067,-11.201,3.7335,-0.97881,-14.934,3.4129e-09,-0.4894,0,0,0.11111,-0,-0,0.66667
0.82471,0.78802,7.4224,0.43203,14.756,30.973,-8.5512,2.8504,-1.3362,-11.402,4.5419e-10,-0.66811,0,0,0.11111,2.1053e-15,0,0.66667
0.25001,0.37891,2.2501,-0.18163,-18.29,419.65,1.0898,-0.36328,-1.8875,1.4531,-1.631e-11,-0.94373,0,0,0.11111,-5.2633e-16,0,0.66667
0.59285,0.94613,5.3356,0.66919,46.791,145.51,-9.5215,3.1738,-0.41049,-12.695,2.8599e-13,-0.20524,0,0,0.11111,-0,-0,0.66667
0.73576,0.090402,6.6219,-0.6144,-30.316,66.368,10.849,-3.6164,-0.66058,14.466,-3.352e-11,-0.33029,0,0,0.11111,-1.3158e-15,0,0.66667
0.88384,0.16515,7.9546,-0.50228,-11.709,14.98,10.654,-3.5515,-1.1007,14.206,1.0305e-09,-0.55033,0,0,0.11111,-0,-0,0.66667
0.46773,0.82289,4.2096,0.48433,40.7,233.75,-5.4368,1.8123,-1.1684,-7.2491,-1.1768e-13,-0.58418,0,0,0.11111,-0,-0,0.66667
0.13462,0.68661,1.2116,0.27991,29.542,529.01,-0.90436,0.30145,-1.7205,-1.2058,-6.5906e-09,-0.86026,0,0,0.11111,-2.9606e-16,0,0.66667
0.1094,0.23772,0.98456,-0.39342,-41.815,553.51,1.0329,-0.34431,-1.4535,1.3772,2.1634e-08,-0.72677,0,0,0.11111,-0,-0,0.66667
0.52968,0.01156,4.7671,-0.73266,-56.908,188.44,9.3138,-3.1046,-0.092968,12.418,3.9373e-12,-0.046484,0,0,0.11111,-2.1053e-15,1.2268e-16,0.66667
0.049289,0.51906,0.4436,0.028594,3.064,612.25,-0.033825,0.011275,-1.9976,-0.045099,-3.2403e-08,-0.99878,0,0,0.11111,-0,-0,0.66667
0.6209,0.66251,5.5881,0.24377,16.051,127.02,-3.6325,1.2108,-1.788,-4.8434,2.0917e-13,-0.89402,0,0,0.11111,-0,-0,0.66667
0.033328,0.056907,0.29995,-0.66464,-71.618,628,0.53164,-0.17721,-0.43085,0.70885,-1.5249e-06,-0.21543,0,0,0.11111,-0,-0,0.66667
0.021184,0.32907,0.19065,-0.2564,-27.547,639.9,0.13036,-0.043453,-1.764,0.17381,-2.6058e-07,-0.88202,0,0,0.11111,-0,-0,0.66667
0.075209,0.42609,0.67688,-0.11087,-11.843,586.83,0.20012,-0.066706,-1.9562,0.26682,4.312e-08,-0.97812,0,0,0.11111,-0,-0,0.66667
0.36803,0.49041,3.3123,-0.01438,-1.3343,314.48,0.12702,-0.042338,-1.9968,0.16935,-1.9972e-12,-0.99841,0,0,0.11111,5.2633e-16,0,0.66667
0.38175,0.093219,3.4358,-0.61017,-56.174,303.41,5.5904,-1.8635,-0.67518,7.4539,2.8955e-12,-0.33759,0,0,0.11111,6.5791e-16,0,0.66667
0.76697,0.43912,6.9027,-0.091327,-4.0088,51.679,1.6811,-0.56036,-1.9735,2.2414,-8.5316e-12,-0.98673,0,0,0.11111,-2.1053e-15,0,0.66667
0.84595,0.37439,7.6135,-0.18842,-5.6837,23.968,3.8254,-1.2751,-1.876,5.1005,-1.4631e-09,-0.938,0,0,0.11111,-1.3158e-16,0,0.66667
0.7272,0.097796,6.5448,-0.60331,-30.576,70.295,10.529,-3.5098,-0.70407,14.039,1.2713e-11,-0.35204,0,0,0.11111,2.1053e-15,0,0.66667
0.88443,0.38569,7.9599,-0.17147,-3.9382,14.059,3.6397,-1.2132,-1.8931,4.853,-1.1387e-08,-0.94657,0,0,0.11111,-0,-0,0.66667
0.5749,0.039434,5.1741,-0.69085,-49.89,157.28,9.5321,-3.1774,-0.30293,12.709,1.7994e-12,-0.15147,0,0,0.11111,-1.0527e-15,-1.0174e-16,0.66667
0.93988,0.11588,8.459,-0.57618,-7.119,5.4568,12.997,-4.3323,-0.82032,17.329,2.7939e-07,-0.41016,0,0,0.11111,-1.0527e-15,0,0.66667
0.90679,0.31882,8.1611,-0.27176,-5.0788,9.6388,5.9144,-1.9715,-1.741,7.8858,-3.2916e-08,-0.87048,0,0,0.11111,-0,-0,0.66667
0.44844,0.65083,4.0359,0.22625,19.401,248.46,-2.435,0.81165,-1.817,-3.2466,-1.9509e-12,-0.90851,0,0,0.11111,2.6316e-16,0,0.66667
0.47973,0.64494,4.3175,0.21741,17.961,224.2,-2.5032,0.83439,-1.8304,-3.3376,-7.5273e-13,-0.91519,0,0,0.11111,-5.2633e-16,0,0.66667
0.85666,0.2846,7.7099,-0.3231,-9.1332,21.202,6.6429,-2.2143,-1.6299,8.8572,-4.0816e-09,-0.81496,0,0,0.11111,2.1053e-15,0,0.66667
0.39841,0.34605,3.5857,-0.23092,-20.859,288.99,2.208,-0.73599,-1.8089,2.944,-1.1058e-12,-0.90444,0,0,0.11111,-0,-0,0.66667
0.942,0.66282,8.478,0.24423,2.8436,4.1708,-5.5215,1.8405,-1.7869,-7.3619,5.7159e-10,-0.89346,0,0,0.11111,-0,-0,0.66667
0.29331,0.63861,2.6398,0.20792,20.411,380.14,-1.4636,0.48788,-1.8455,-1.9515,3.975e-12,-0.92275,0,0,0.11111,5.2633e-16,0,0.66667
0.25901,0.26035,2.3311,-0.35948,-36.058,411.46,2.2346,-0.74486,-1.5381,2.9794,-2.3651e-11,-0.76906,0,0,0.11111,-0,-0,0.66667
0.10893,0.16492,0.98035,-0.50262,-53.478,554.01,1.314,-0.438,-1.1052,1.752,2.6367e-08,-0.5526,0,0,0.11111,-0,-0,0.66667
0.24704,0.2299,2.2234,-0.40515,-40.918,422.52,2.4021,-0.80072,-1.4163,3.2029,-2.7585e-11,-0.70815,0,0,0.11111,-5.2633e-16,0,0.66667
0.53775,0.05872,4.8398,-0.66192,-50.729,182.52,8.5428,-2.8476,-0.44057,11.39,3.4888e-12,-0.22029,0,0,0.11111,-1.3158e-15,0,0.66667
0.98024,0.80962,8.8221,0.46443,1.7959,1.4749,-10.926,3.642,-1.2329,-14.568,-1.5465e-06,-0.61646,0,0,0.11111,-1.3158e-15,0,0.66667
0.20773,0.99949,1.8696,0.74924,77.425,459.56,-3.7353,1.2451,-0.0040197,-4.9804,-5.3584e-11,-0.0020098,0,0,0.11111,4.7698e-16,0,0.66667
0.54702,0.60911,4.9232,0.16367,12.296,175.16,-2.1487,0.71623,-1.9083,-2.8649,5.6732e-13,-0.95417,0,0,0.11111,-0,-0,0.66667
0.87839,0.96393,7.9055,0.6959,17.112,17.044,-14.671,4.8902,-0.27829,-19.561,-1.4649e-07,-0.13915,0,0,0.11111,-5.2633e-16,0,0.66667
0.58966,0.79035,5.307,0.43552,30.513,146.96,-6.1634,2.0545,-1.3246,-8.2179,3.5838e-13,-0.66231,0,0,0.11111,-0,-0,0.66667
0.83528,0.30487,7.5175,-0.29269,-9.4117,27.312,5.8675,-1.9558,-1.6931,7.8234,-1.2875e-09,-0.84656,0,0,0.11111,5.2633e-16,0,0.66667
0.23929,0.53627,2.1536,0.054402,5.5074,429.56,-0.31242,0.10414,-1.9884,-0.41656,3.45e-12,-0.9942,0,0,0.11111,-0,-0,0.66667
0.07308,0.85908,0.65772,0.53862,57.709,589,-0.9447,0.3149,-0.96654,-1.2596,-8.8285e-08,-0.48327,0,0,0.11111,-0,-0,0.66667
0.95297,0.91679,8.5767,0.62519,6.0907,4.2061,-14.299,4.7663,-0.61402,-19.065,2.8438e-06,-0.30701,0,0,0.11111,-0,1.1765e-16,0.66667
0.11233,0.57609,1.0109,0.11413,12.106,550.6,-0.30769,0.10256,-1.9535,-0.41025,-8.2676e-09,-0.97675,0,0,0.11111,-0,-0,0.66667
0.8024,0.95493,7.2216,0.68239,26.18,39.468,-13.141,4.3804,-0.34215,-17.522,-1.2008e-09,-0.17107,0,0,0.11111,-1.0527e-15,0,0.66667
0.65102,0.20137,5.8591,-0.44795,-27.707,109.58,6.999,-2.333,-1.2845,9.332,4.8184e-13,-0.64225,0,0,0.11111,-0,-0,0.66667
0.86511,0.54174,7.786,0.062611,1.6649,18.623,-1.3,0.43333,-1.9839,-1.7333,-3.3823e-10,-0.99197,0,0,0.11111,-0,-0,0.66667
0.62975,0.28445,5.6677,-0.32333,-20.918,121.79,4.8868,-1.6289,-1.6276,6.5158,-1.7453e-13,-0.81381,0,0,0.11111,-0,-0,0.66667
0.29818,0.96827,2.6836,0.7024,69.064,376.3,-5.0266,1.6755,-0.24923,-6.7021,8.562e-13,-0.12461,0,0,0.11111,-6.2501e-16,0,0.66667
0.93148,0.26834,8.3833,-0.3475,-4.8075,5.7826,7.7685,-2.5895,-1.5683,10.358,-8.9434e-08,-0.78414,0,0,0.11111,-0,-0,0.66667
0.6923,0.4791,6.2307,-0.031351,-1.7448,86.514,0.5209,-0.17363,-1.9949,0.69453,1.3289e-13,-0.99746,0,0,0.11111,-0,-0,0.66667
0.87664,0.56446,7.8897,0.096688,2.362,15.79,-2.0342,0.67808,-1.9694,-2.7123,-9.5351e-10,-0.98471,0,0,0.11111,-0,-0,0.66667
0.81549,0.062906,7.3394,-0.65564,-23.629,34.809,12.832,-4.2774,-0.47296,17.109,-6.0111e-09,-0.23648,0,0,0.11111,-0,-0,0.66667
0.136,0.45519,1.224,-0.067214,-7.0859,527.64,0.21939,-0.07313,-1.9823,0.29252,6.4693e-10,-0.99115,0,0,0.11111,2.6316e-16,0,0.66667
0.69941,0.6629,6.2947,0.24435,13.353,83.023,-4.1017,1.3672,-1.7873,-5.4689,-3.7912e-12,-0.89366,0,0,0.11111,-0,-0,0.66667
0.68101,0.63531,6.1291,0.20296,11.644,92.57,-3.3172,1.1057,-1.8512,-4.423,-1.9651e-12,-0.92558,0,0,0.11111,-0,-0,0.66667
0.7558,0.78704,6.8022,0.43056,19.77,56.921,-7.81,2.6033,-1.3392,-10.413,-3.045e-11,-0.66961,0,0,0.11111,-2.1053e-15,0,0.66667
0.79965,0.40427,7.1969,-0.14359,-5.5107,39.031,2.7557,-0.91857,-1.928,3.6743,3.3479e-11,-0.96398,0,0,0.11111,1.4474e-15,0,0.66667
0.94145,0.19147,8.473,-0.4628,-5.5147,4.8206,10.457,-3.4856,-1.2383,13.942,-8.9465e-08,-0.61914,0,0,0.11111,-0,-0,0.66667
0.065147,0.88475,0.58633,0.57712,61.928,596.77,-0.90235,0.30078,-0.8161,-1.2031,-1.0719e-07,-0.40805,0,0,0.11111,-0,-0,0.66667
0.50862,0.23227,4.5775,-0.40159,-31.985,202.85,4.9021,-1.634,-1.4239,6.5362,1.7764e-12,-0.71195,0,0,0.11111,-0,-0,0.66667
0.49966,0.59384,4.4969,0.14076,11.328,209.17,-1.688,0.56267,-1.9345,-2.2507,5.2391e-13,-0.96725,0,0,0.11111,-2.1053e-15,0,0.66667
0.70076,0.70143,6.3069,0.30215,16.46,82.425,-5.0816,1.6939,-1.6759,-6.7755,-3.6064e-12,-0.83793,0,0,0.11111,-1.0527e-15,0,0.66667
0.9956,0.22599,8.9604,-0.41102,-0.22171,0.74766,9.8212,-3.2737,-1.3983,13.095,-1.2498e-06,-0.69916,0,0,0.11111,-0,-7.7705e-17,0.66667
0.90798,0.076073,8.1718,-0.63589,-11.953,10.62,13.857,-4.619,-0.56354,18.476,-2.2292e-07,-0.28177,0,0,0.11111,-0,-0,0.66667
0.29689,0.17247,2.672,-0.49129,-48.219,377.16,3.5006,-1.1669,-1.1456,4.6674,2.0539e-13,-0.57281,0,0,0.11111,-0,-0,0.66667
0.33575,0.44506,3.0218,-0.082416,-7.85,342.39,0.66412,-0.22137,-1.9735,0.88549,-2.5276e-12,-0.98677,0,0,0.11111,-0,-0,0.66667
0.82017,0.48657,7.3815,-0.020145,-0.70038,31.843,0.39653,-0.13218,-1.9958,0.52871,1.1721e-10,-0.99791,0,0,0.11111,-2.1053e-15,0,0.66667
0.36161,0.93164,3.2545,0.64746,60.686,320.58,-5.6192,1.8731,-0.51074,-7.4922,2.6055e-12,-0.25537,0,0,0.11111,-2.6316e-16,0,0.66667
0.32537,0.59323,2.9284,0.13985,13.426,351.52,-1.0921,0.36402,-1.9321,-1.4561,9.0868e-12,-0.96603,0,0,0.11111,-6.5791e-16,0,0.66667
0.4447,0.12857,4.0023,-0.55714,-48.126,251.87,5.9463,-1.9821,-0.89464,7.9284,4.2721e-13,-0.44732,0,0,0.11111,-0,-0,0.66667
0.27712,0.74117,2.4941,0.36175,35.907,394.9,-2.406,0.80199,-1.5337,-3.208,7.188e-12,-0.76686,0,0,0.11111,-0,-0,0.66667
0.74901,0.10613,6.741,-0.59081,-27.88,60.357,10.621,-3.5402,-0.76123,14.161,1.5473e-11,-0.38062,0,0,0.11111,-2.1053e-15,1.2589e-16,0.66667
0.45268,0.27907,4.0741,-0.33139,-28.3,245.23,3.6003,-1.2001,-1.6139,4.8004,-9.2082e-13,-0.80695,0,0,0.11111,5.2633e-16,0,0.66667
0.16392,0.69707,1.4753,0.29561,30.922,500.81,-1.163,0.38766,-1.6868,-1.5506,-1.3384e-09,-0.8434,0,0,0.11111,-0,-0,0.66667
0.99046,0.051395,8.9141,-0.67291,-1.3033,2.0037,15.996,-5.3319,-0.38773,21.328,-4.4175e-05,-0.19386,0,0,0.11111,-0,-0,0.66667
0.338,0.93037,3.042,0.64555,61.657,340.98,-5.2367,1.7456,-0.51646,-6.9823,-1.3665e-12,-0.25823,0,0,0.11111,-2.6316e-16,0,0.66667
0.30176,0.57693,2.7158,0.1154,11.263,372.51,-0.83576,0.27859,-1.9508,-1.1144,8.6542e-14,-0.97541,0,0,0.11111,-0,-0,0.66667
0.22533,0.64868,2.0279,0.22302,22.745,442.61,-1.2061,0.40202,-1.821,-1.6081,2.2725e-11,-0.9105,0,0,0.11111,1.3158e-16,0,0.66667
0.42574,0.23449,3.8317,-0.39826,-35.049,266.77,4.0693,-1.3564,-1.435,5.4258,2.3119e-12,-0.71748,0,0,0.11111,-5.2633e-16,0,0.66667
0.69512,0.84104,6.2561,0.51156,28.393,85.782,-8.5344,2.8448,-1.0679,-11.379,-4.4649e-12,-0.53396,0,0,0.11111,-8.4686e-16,0,0.66667
0.60241,0.003976,5.4217,-0.74404,-51.188,139.69,10.757,-3.5857,-0.029941,14.343,9.0417e-13,-0.014971,0,0,0.11111,-0,-0,0.66667
0.18146,0.58104,1.6331,0.12157,12.628,484,-0.52943,0.17648,-1.9451,-0.70591,-2.5479e-10,-0.97254,0,0,0.11111,-2.1489e-16,0,0.66667
0.26456,0.74613,2.3811,0.36919,36.919,406.37,-2.3442,0.78139,-1.5185,-3.1256,1.5357e-11,-0.75925,0,0,0.11111,2.0991e-16,0,0.66667
0.59825,0.35817,5.3843,-0.21275,-14.639,141.1,3.0546,-1.0182,-1.8375,4.0728,-1.8274e-13,-0.91875,0,0,0.11111,-0,-0,0.66667
0.85805,0.25402,7.7224,-0.36897,-10.347,20.937,7.5982,-2.5327,-1.5187,10.131,-4.1267e-09,-0.75934,0,0,0.11111,-0,-0,0.66667
0.41292,0.66773,3.7162,0.2516,22.409,277.05,-2.4933,0.83111,-1.7724,-3.3244,8.9817e-13,-0.88621,0,0,0.11111,-0,-0,0.66667
0.21585,0.56912,1.9426,0.10368,10.617,451.46,-0.53711,0.17904,-1.9622,-0.71615,3.7871e-11,-0.98109,0,0,0.11111,-5.2633e-16,0,0.66667
0.32339,0.9004,2.9105,0.6006,57.956,353.72,-4.6615,1.5538,-0.71636,-6.2153,-2.7494e-12,-0.35818,0,0,0.11111,-7.168e-17,0,0.66667
0.69169,0.52444,6.2252,0.036663,2.0439,86.832,-0.60863,0.20288,-1.9944,-0.81151,1.9384e-13,-0.99721,0,0,0.11111,1.0527e-15,0,0.66667
0.70095,0.91847,6.3085,0.62771,34.374,83.18,-10.56,3.5199,-0.59979,-14.08,-3.1442e-13,-0.2999,0,0,0.11111,-0,-0,0.66667
0.22335,0.13333,2.0102,-0.55001,-56.289,444.69,2.9483,-0.98276,-0.92313,3.931,-8.7873e-11,-0.46156,0,0,0.11111,-0,-0,0.66667
0.3965,0.12683,3.5685,-0.55976,-50.805,290.99,5.3266,-1.7755,-0.88492,7.1021,4.1687e-12,-0.44246,0,0,0.11111,1.0527e-15,0,0.66667
0.69933,0.048643,6.294,-0.67703,-37.287,84.18,11.363,-3.7878,-0.36922,15.151,-1.0649e-12,-0.18461,0,0,0.11111,-0,1.7066e-16,0.66667
0.72057,0.2263,6.4852,-0.41056,-21.15,72.872,7.1001,-2.3667,-1.4023,9.4668,1.1743e-11,-0.70113,0,0,0.11111,-0,-0,0.66667
0.13052,0.82631,1.1746,0.48946,51.797,533.07,-1.5332,0.51106,-1.146,-2.0442,-7.3186e-09,-0.57301,0,0,0.11111,-0,-0,0.66667
0.60937,0.96806,5.4844,0.70209,47.618,135.19,-10.268,3.4227,-0.25273,-13.691,-2.5739e-12,-0.12637,0,0,0.11111,1.579e-15,0,0.66667
0.88607,0.62622,7.9746,0.18934,4.2907,13.718,-4.0264,1.3421,-1.8724,-5.3685,1.2121e-08,-0.93618,0,0,0.11111,2.1053e-15,0,0.66667
0.58236,0.70985,5.2413,0.31477,22.315,151.49,-4.3995,1.4665,-1.6466,-5.866,2.4807e-12,-0.82332,0,0,0.11111,-0,-0,0.66667
0.30721,0.081108,2.7649,-0.62834,-61.347,368.1,4.6327,-1.5442,-0.59422,6.177,-3.1086e-13,-0.29711,0,0,0.11111,-0,-0,0.66667
0.74514,0.96178,6.7063,0.69267,33.213,62.451,-12.387,4.1291,-0.29276,-16.516,-7.053e-12,-0.14638,0,0,0.11111,-1.0527e-15,7.9447e-17,0.66667
0.9777,0.55144,8.7993,0.077155,0.32302,0.78757,-1.8104,0.60347,-1.9764,-2.4139,1.4879e-07,-0.98818,0,0,0.11111,-1.0527e-15,0,0.66667
0.90462,0.7658,8.1416,0.3987,7.6551,10.352,-8.6561,2.8854,-1.4362,-11.541,3.4876e-08,-0.71809,0,0,0.11111,-0,-0,0.66667
0.8716,0.55652,7.8444,0.084787,2.1517,17,-1.7736,0.59121,-1.9744,-2.3648,3.0248e-09,-0.98722,0,0,0.11111,-1.0527e-15,0,0.66667
0.00029225,0.37539,0.0026302,-0.18692,-20.085,660.46,0.0013109,-0.00043693,-1.8807,0.0017479,6.7435e-08,-0.94037,0,0,0.11111,1.028e-18,0,0.66667
0.58262,0.84825,5.2435,0.52237,37.109,151.73,-7.3042,2.4347,-1.0291,-9.7389,8.0558e-13,-0.51454,0,0,0.11111,-0,-0,0.66667
0.26272,0.06977,2.3645,-0.64535,-64.789,408.35,4.0691,-1.3564,-0.51954,5.4254,1.0615e-11,-0.25977,0,0,0.11111,-0,1.0108e-16,0.66667
0.81301,0.72228,7.3171,0.33342,12.052,34.615,-6.5057,2.1686,-1.6088,-8.6742,2.3806e-10,-0.80438,0,0,0.11111,-0,-0,0.66667
0.52348,0.22613,4.7113,-0.4108,-32.041,192.08,5.1611,-1.7204,-1.3977,6.8815,2.002e-12,-0.69884,0,0,0.11111,-1.0527e-15,0,0.66667
0.8939,0.33131,8.0451,-0.25303,-5.3603,12.137,5.4284,-1.8095,-1.7719,7.2378,-2.0947e-08,-0.88595,0,0,0.11111,-0,-0,0.66667
0.52374,0.36309,4.7137,-0.20536,-15.985,191.63,2.5814,-0.86047,-1.8474,3.4419,2.0859e-12,-0.92369,0,0,0.11111,-0,-0,0.66667
0.89114,0.12556,8.0202,-0.56165,-12.344,13.614,12.012,-4.0041,-0.88297,16.016,1.7253e-08,-0.44148,0,0,0.11111,-0,-0,0.66667
0.44972,0.2729,4.0475,-0.34065,-29.192,247.57,3.6768,-1.2256,-1.5871,4.9024,-6.4482e-13,-0.79355,0,0,0.11111,-5.2633e-16,0,0.66667
0.5615,0.42539,5.0535,-0.11191,-8.2121,165.2,1.5081,-0.50271,-1.9578,2.0108,4.15e-13,-0.9789,0,0,0.11111,-0,-0,0.66667
0.81248,0.84382,7.3124,0.51573,18.772,35.296,-10.057,3.3522,-1.0598,-13.409,-3.4595e-10,-0.5299,0,0,0.11111,-0,-0,0.66667
0.40317,0.14155,3.6285,-0.53767,-48.477,285.43,5.2026,-1.7342,-0.97179,6.9367,2.8724e-12,-0.48589,0,0,0.11111,-5.2633e-16,0,0.66667
0.56867,0.74954,5.118,0.37432,27.189,160.66,-5.1087,1.7029,-1.501,-6.8116,-9.9876e-13,-0.75048,0,0,0.11111,1.1842e-15,0,0.66667
0.89846,0.012079,8.0862,-0.73188,-15.217,12.902,15.782,-5.2605,-0.092785,21.042,-1.1398e-07,-0.046393,0,0,0.11111,-0,-0,0.66667
0.48462,0.68094,4.3616,0.27141,22.29,220.54,-3.1567,1.0522,-1.7421,-4.209,3.0198e-13,-0.87104,0,0,0.11111,-7.8949e-16,0,0.66667
0.59059,0.70032,5.3153,0.30048,20.986,146.12,-4.2591,1.4197,-1.6786,-5.6788,9.9032e-14,-0.8393,0,0,0.11111,1.0527e-15,0,0.66667
0.93638,0.18917,8.4274,-0.46624,-6.0364,5.4762,10.478,-3.4926,-1.2305,13.97,-1.554e-07,-0.61526,0,0,0.11111,2.1053e-15,0,0.66667
0.88325,0.71393,7.9493,0.3209,7.467,14.585,-6.8024,2.2675,-1.6319,-9.0699,1.4194e-08,-0.81597,0,0,0.11111,-1.0527e-15,0,0.66667
0.75772,0.44919,6.8195,-0.076217,-3.4615,55.555,1.386,-0.46201,-1.9767,1.848,1.0439e-11,-0.98834,0,0,0.11111,-0,-0,0.66667
0.71123,0.3525,6.4011,-0.22125,-11.69,77.072,3.7766,-1.2589,-1.8235,5.0355,7.6836e-12,-0.91176,0,0,0.11111,-2.1053e-15,0,0.66667
0.8192,0.10243,7.3728,-0.59635,-21.056,33.331,11.725,-3.9082,-0.73322,15.633,2.934e-09,-0.36661,0,0,0.11111,-0,-0,0.66667
0.10608,0.27711,0.95474,-0.33433,-35.545,556.72,0.8512,-0.28373,-1.6029,1.1349,2.5227e-08,-0.80146,0,0,0.11111,-0,-0,0.66667
0.38103,0.26441,3.4293,-0.35338,-32.464,303.64,3.2316,-1.0772,-1.5536,4.3088,-4.0723e-13,-0.77678,0,0,0.11111,-5.2633e-16,0,0.66667
0.54579,0.42325,4.9121,-0.11512,-8.6638,175.99,1.508,-0.50266,-1.955,2.0106,-5.5933e-13,-0.97751,0,0,0.11111,1.0527e-15,0,0.66667
0.85851,0.27145,7.7266,-0.34283,-9.5781,20.749,7.0637,-2.3546,-1.5848,9.4183,-4.4716e-09,-0.7924,0,0,0.11111,-1.0527e-15,0,0.66667
0.1464,0.84828,1.3176,0.52243,55.056,517.76,-1.8356,0.61188,-1.0281,-2.4475,-3.8619e-10,-0.51406,0,0,0.11111,-0,-0,0.66667
0.71404,0.54564,6.4264,0.06846,3.5844,75.567,-1.1732,0.39106,-1.9816,-1.5643,-1.656e-12,-0.99081,0,0,0.11111,-1.0527e-15,0,0.66667
0.59097,0.2553,5.3187,-0.36705,-25.634,145.98,5.206,-1.7353,-1.5217,6.9413,-1.6263e-12,-0.76084,0,0,0.11111,2.1053e-15,0,0.66667
0.60872,0.12504,5.4785,-0.56243,-38.092,135.16,8.2167,-2.7389,-0.87973,10.956,-3.3689e-12,-0.43987,0,0,0.11111,2.1053e-15,7.4941e-19,0.66667
0.37262,0.0050429,3.3536,-0.74244,-69.041,311.4,6.6395,-2.2132,-0.041342,8.8527,8.975e-13,-0.020671,0,0,0.11111,-0,7.1228e-17,0.66667
0.91582,0.18974,8.2424,-0.46539,-7.9388,8.5609,10.229,-3.4097,-1.2287,13.639,-3.6884e-08,-0.61436,0,0,0.11111,2.1053e-15,0,0.66667
0.71391,0.00034991,6.4251,-0.74948,-39.689,77.223,12.841,-4.2804,-0.0026158,17.122,4.4755e-12,-0.0013079,0,0,0.11111,-0,-0,0.66667
0.6683,0.3937,6.0147,-0.15944,-9.4402,99.417,2.5573,-0.85245,-1.9088,3.4098,5.4423e-13,-0.95442,0,0,0.11111,-0,-0,0.66667
0.22147,0.53332,1.9932,0.049978,5.1039,446.18,-0.26564,0.088548,-1.9924,-0.35419,-1.0726e-12,-0.99622,0,0,0.11111,-0,-0,0.66667
0.81288,0.28447,7.3159,-0.32329,-11.691,34.638,6.3071,-2.1024,-1.6327,8.4094,-2.417e-10,-0.81633,0,0,0.11111,2.1053e-15,0,0.66667
0.49585,0.80812,4.4627,0.46219,37.476,212.38,-5.5003,1.8334,-1.24,-7.3337,-5.4179e-13,-0.62002,0,0,0.11111,5.2633e-16,0,0.66667
0.50837,0.49238,4.5753,-0.011432,-0.90891,202.7,0.13948,-0.046494,-1.9973,0.18598,-3.8219e-14,-0.99863,0,0,0.11111,-1.0527e-15,0,0.66667
0.084733,0.15079,0.7626,-0.52381,-56.009,577.6,1.0652,-0.35507,-1.0225,1.4203,1.0878e-08,-0.51127,0,0,0.11111,6.5791e-17,0,0.66667
0.43727,0.60212,3.9354,0.15318,13.295,257.28,-1.6076,0.53585,-1.9204,-2.1434,-6.0529e-13,-0.96019,0,0,0.11111,-0,-0,0.66667
0.8632,0.82505,7.7688,0.48757,13.257,19.925,-10.101,3.367,-1.1538,-13.468,6.2231e-09,-0.57688,0,0,0.11111,-0,-0,0.66667
0.68024,0.2775,6.1221,-0.33375,-19.21,93.172,5.4487,-1.8162,-1.6022,7.265,2.1907e-12,-0.8011,0,0,0.11111,-0,-0,0.66667
0.18942,0.26118,1.7048,-0.35823,-37.14,476.51,1.6286,-0.54286,-1.5448,2.1715,1.8946e-10,-0.77241,0,0,0.11111,-0,-0,0.66667
0.58407,0.23967,5.2567,-0.3905,-27.621,150.5,5.4739,-1.8246,-1.4556,7.2986,3.6682e-13,-0.72781,0,0,0.11111,-0,-0,0.66667
0.94401,0.98578,8.4961,0.72866,8.5423,5.7094,-16.509,5.5029,-0.1096,-22.012,-3.2938e-06,-0.054798,0,0,0.11111,-0,-0,0.66667
0.50746,0.85823,4.5671,0.53735,42.937,203.95,-6.5444,2.1815,-0.97061,-8.7259,5.5689e-13,-0.4853,0,0,0.11111,-1.0527e-15,0,0.66667
0.9674,0.60625,8.7066,0.15938,1.0151,1.5356,-3.7003,1.2334,-1.9115,-4.9338,-1.2185e-07,-0.95575,0,0,0.11111,-0,-0,0.66667
0.36627,0.70819,3.2964,0.31228,29.051,316.13,-2.7451,0.91502,-1.6508,-3.6601,6.0174e-13,-0.82539,0,0,0.11111,-0,-0,0.66667
0.29075,0.73922,2.6167,0.35882,35.315,382.55,-2.5039,0.83462,-1.5399,-3.3385,7.8992e-12,-0.76996,0,0,0.11111,-0,-0,0.66667
0.83985,0.49044,7.5587,-0.014336,-0.44783,25.641,0.28896,-0.096319,-1.9984,0.38528,-1.7393e-10,-0.99921,0,0,0.11111,2.1053e-15,0,0.66667
0.86973,0.26113,7.8275,-0.3583,-9.2643,17.888,7.479,-2.493,-1.5416,9.972,-7.6748e-09,-0.7708,0,0,0.11111,2.1053e-15,0,0.66667
0.20167,0.75065,1.815,0.37597,38.789,464.93,-1.8197,0.60657,-1.5006,-2.4263,-5.7168e-12,-0.75028,0,0,0.11111,-5.2633e-16,0,0.66667
0.71945,0.51063,6.4751,0.015949,0.82159,72.927,-0.27538,0.091795,-2.002,-0.36718,-1.507e-12,-1.001,0,0,0.11111,-0,-0,0.66667
0.59211,0.84253,5.329,0.51379,35.876,145.56,-7.3013,2.4338,-1.0642,-9.735,1.7248e-12,-0.53209,0,0,0.11111,-1.1842e-15,0,0.66667
0.89451,0.93034,8.0506,0.64551,13.835,13.272,-13.858,4.6193,-0.51786,-18.477,-2.8204e-07,-0.25893,0,0,0.11111,-1.0527e-15,0,0.66667
0.14945,0.91249,1.345,0.61873,65.216,514.89,-2.2192,0.73974,-0.63678,-2.959,3.5179e-09,-0.31839,0,0,0.11111,-0,-0,0.66667
0.76303,0.2317,6.8672,-0.40244,-17.992,53.788,7.3698,-2.4566,-1.4244,9.8264,2.7747e-11,-0.71218,0,0,0.11111,-0,-0,0.66667
0.68996,0.26555,6.2096,-0.35167,-19.74,88.074,5.8233,-1.9411,-1.5606,7.7645,2.4021e-12,-0.7803,0,0,0.11111,1.0527e-15,0,0.66667
0.79502,0.1713,7.1551,-0.49305,-19.43,41.438,9.4077,-3.1359,-1.1367,12.544,2.9551e-11,-0.56835,0,0,0.11111,-0,-0,0.66667
0.45329,0.7585,4.0796,0.38774,33.106,244.82,-4.2182,1.4061,-1.4693,-5.6243,-9.9698e-13,-0.73467,0,0,0.11111,-0,-0,0.66667
0.22843,0.5811,2.0559,0.12165,12.383,439.68,-0.66691,0.2223,-1.9451,-0.88922,1.5496e-11,-0.97253,0,0,0.11111,-0,-0,0.66667
0.28605,0.91735,2.5745,0.62602,61.967,387.09,-4.2978,1.4326,-0.60492,-5.7304,-3.4639e-13,-0.30246,0,0,0.11111,-0,-0,0.66667
0.3043,0.45483,2.7387,-0.06775,-6.6003,370.22,0.4948,-0.16493,-1.9809,0.65973,2.3126e-12,-0.99047,0,0,0.11111,-5.2633e-16,0,0.66667
0.84027,0.44294,7.5624,-0.085587,-2.6678,25.541,1.726,-0.57533,-1.9739,2.3013,-6.6025e-10,-0.98697,0,0,0.11111,-0,-0,0.66667
0.53716,0.36892,4.8344,-0.19662,-15.001,182.08,2.5347,-0.84491,-1.8608,3.3796,9.801e-13,-0.93041,0,0,0.11111,-0,-0,0.66667
0.56358,0.94969,5.0723,0.67454,49.636,164.79,-9.1239,3.0413,-0.3844,-12.165,-9.77e-15,-0.1922,0,0,0.11111,-0,-0,0.66667
0.28417,0.072337,2.5575,-0.64149,-63.586,388.82,4.375,-1.4583,-0.53689,5.8333,2.0437e-12,-0.26845,0,0,0.11111,-0,-0,0.66667
0.83416,0.37351,7.5074,-0.18973,-6.1293,27.49,3.7984,-1.2661,-1.871,5.0645,-1.2753e-09,-0.93549,0,0,0.11111,-1.3158e-15,0,0.66667
0.70493,0.97027,6.3444,0.7054,38.278,81.469,-11.934,3.9781,-0.23331,-15.912,-1.0667e-12,-0.11665,0,0,0.11111,-0,-0,0.66667
0.87814,0.99427,7.9033,0.7414,18.316,17.332,-15.625,5.2084,-0.04586,-20.834,-2.5323e-08,-0.02293,0,0,0.11111,1.0527e-15,0,0.66667
0.13153,0.58815,1.1837,0.13222,13.958,531.98,-0.41737,0.13912,-1.936,-0.55649,-4.0187e-09,-0.96798,0,0,0.11111,-0,-0,0.66667
0.8496,0.42671,7.6464,-0.10994,-3.2402,22.844,2.2417,-0.74722,-1.9548,2.9889,-7.6104e-10,-0.97742,0,0,0.11111,1.0527e-15,0,0.66667
0.052112,0.35642,0.46901,-0.21536,-23.081,609.49,0.26935,-0.089785,-1.8331,0.35914,-4.9903e-08,-0.91655,0,0,0.11111,-0,-0,0.66667
0.87713,0.71102,7.8942,0.31654,7.733,15.992,-6.6634,2.2211,-1.6449,-8.8846,1.0925e-08,-0.82245,0,0,0.11111,5.2633e-16,0,0.66667
0.23974,0.65169,2.1577,0.22753,23.041,429.18,-1.3092,0.43639,-1.8147,-1.7456,2.3439e-11,-0.90733,0,0,0.11111,-3.9475e-16,0,0.66667
0.88566,0.19819,7.971,-0.45272,-10.374,14.406,9.623,-3.2077,-1.2695,12.831,-1.2977e-08,-0.63477,0,0,0.11111,-0,-0,0.66667
0.37931,0.60389,3.4138,0.15584,14.322,304.94,-1.4187,0.47289,-1.9124,-1.8916,-1.7142e-13,-0.95621,0,0,0.11111,-0,-0,0.66667
0.84292,0.60335,7.5863,0.15503,4.7604,24.812,-3.1363,1.0454,-1.9173,-4.1817,1.6486e-09,-0.95865,0,0,0.11111,-0,-0,0.66667
0.53961,0.25804,4.8565,-0.36294,-27.622,180.56,4.7003,-1.5668,-1.5293,6.2671,2.4869e-13,-0.76466,0,0,0.11111,-0,-0,0.66667
0.56418,0.19308,5.0776,-0.46038,-33.728,163.84,6.2336,-2.0779,-1.2484,8.3115,5.3366e-12,-0.6242,0,0,0.11111,-2.1053e-15,0,0.66667
0.98402,0.10745,8.8562,-0.58883,-1.8843,1.8153,13.906,-4.6354,-0.77046,18.542,-2.1115e-06,-0.38523,0,0,0.11111,-0,1.2958e-16,0.66667
0.96375,0.83041,8.6737,0.49562,3.6478,2.6712,-11.464,3.8212,-1.1247,-15.285,2.9516e-07,-0.56237,0,0,0.11111,1.0527e-15,0,0.66667
0.11432,0.097176,1.0289,-0.60424,-64.281,548.82,1.6579,-0.55263,-0.70102,2.2105,-1.9125e-08,-0.35051,0,0,0.11111,-0,-0,0.66667
0.36415,0.51586,3.2773,0.023785,2.2143,317.8,-0.20787,0.069291,-1.9962,-0.27716,6.4537e-13,-0.99811,0,0,0.11111,-1.0527e-15,0,0.66667
0.25055,0.26194,2.2549,-0.35709,-35.984,419.25,2.1472,-0.71575,-1.5496,2.863,-2.2575e-11,-0.77482,0,0,0.11111,-0,-0,0.66667
0.4483,0.24406,4.0347,-0.3839,-32.964,248.75,4.1304,-1.3768,-1.4748,5.5073,2.367e-12,-0.73741,0,0,0.11111,-5.2633e-16,0,0.66667
0.12635,0.2501,1.1372,-0.37485,-39.674,537.05,1.1367,-0.37891,-1.5038,1.5156,9.4087e-09,-0.75191,0,0,0.11111,-0,-0,0.66667
0.51157,0.74802,4.6041,0.37203,29.501,200.64,-4.5677,1.5226,-1.5079,-6.0902,-1.6942e-12,-0.75397,0,0,0.11111,-1.3158e-15,0,0.66667
0.86558,0.36385,7.7902,-0.20423,-5.4209,18.634,4.2427,-1.4142,-1.8493,5.6569,-6.1475e-09,-0.92467,0,0,0.11111,-0,-0,0.66667
0.35235,0.12157,3.1712,-0.56765,-53.554,328.4,4.8003,-1.6001,-0.85264,6.4005,4.2255e-12,-0.42632,0,0,0.11111,-0,-0,0.66667
0.15564,0.32128,1.4008,-0.26808,-28.115,508.75,1.0014,-0.33379,-1.7476,1.3352,2.0872e-09,-0.87382,0,0,0.11111,-0,-0,0.66667
0.30726,0.72654,2.7654,0.33981,33.077,367.71,-2.5059,0.83529,-1.5878,-3.3411,2.9379e-12,-0.79391,0,0,0.11111,-0,-0,0.66667
0.74287,0.56136,6.6859,0.092041,4.4018,62.058,-1.641,0.547,-1.9686,-2.188,-3.6974e-12,-0.98432,0,0,0.11111,-1.3158e-15,0,0.66667
0.091276,0.13024,0.82149,-0.55464,-59.256,571.22,1.215,-0.405,-0.90728,1.62,7.7543e-08,-0.45364,0,0,0.11111,-2.6316e-16,0,0.66667
0.73558,0.53741,6.6202,0.056109,2.7484,65.35,-0.99055,0.33018,-1.9914,-1.3207,-5.4494e-12,-0.99569,0,0,0.11111,-0,-0,0.66667
0.61392,0.7415,5.5253,0.36226,24.216,131.48,-5.3375,1.7792,-1.5321,-7.1167,5.187e-13,-0.76607,0,0,0.11111,-0,-0,0.66667
0.74026,0.93412,6.6623,0.65118,31.696,64.466,-11.569,3.8564,-0.49099,-15.425,2.1299e-12,-0.24549,0,0,0.11111,2.6316e-16,0,0.66667
0.0090497,0.26556,0.081448,-0.35167,-37.817,651.84,0.076379,-0.02546,-1.5577,0.10184,4.3944e-07,-0.77884,0,0,0.11111,-0,-0,0.66667
0.72047,0.90883,6.4843,0.61324,31.733,73.519,-10.604,3.5346,-0.66532,-14.138,-1.6025e-11,-0.33266,0,0,0.11111,-0,-0,0.66667
0.32058,0.86544,2.8853,0.54817,52.968,356.11,-4.2176,1.4059,-0.92911,-5.6235,7.7849e-13,-0.46455,0,0,0.11111,2.6316e-16,0,0.66667
0.63297,0.80922,5.6967,0.46383,29.856,120.14,-7.0462,2.3487,-1.2334,-9.395,6.0529e-13,-0.61668,0,0,0.11111,-1.3916e-15,0,0.66667
0.053837,0.48802,0.48453,-0.017965,-1.9242,607.78,0.023213,-0.0077378,-1.9963,0.03095,-3.4361e-07,-0.99813,0,0,0.11111,-0,-0,0.66667
0.55643,0.78756,5.0079,0.43133,31.992,169.03,-5.7602,1.9201,-1.3367,-7.6803,-7.101e-13,-0.66833,0,0,0.11111,1.0527e-15,0,0.66667
0.9416,0.29454,8.4744,-0.30819,-3.6248,4.353,6.9645,-2.3215,-1.6611,9.286,-2.2871e-08,-0.83053,0,0,0.11111,-0,-0,0.66667
0.32009,0.57024,2.8808,0.10537,10.153,356.18,-0.80942,0.26981,-1.9582,-1.0792,4.1994e-13,-0.9791,0,0,0.11111,-0,-0,0.66667
0.52274,0.47237,4.7046,-0.041452,-3.2294,192.27,0.52005,-0.17335,-1.9922,0.69339,2.4439e-12,-0.99609,0,0,0.11111,-0,-0,0.66667
0.40771,0.63552,3.6694,0.20328,18.195,281.28,-1.9891,0.66304,-1.8548,-2.6522,-2.5093e-12,-0.92742,0,0,0.11111,1.0527e-15,0,0.66667
0.56965,0.35774,5.1269,-0.21339,-15.453,159.78,2.9173,-0.97245,-1.8354,3.8898,2.8111e-12,-0.9177,0,0,0.11111,-1.0527e-15,0,0.66667
0.068319,0.51919,0.61487,0.028778,3.0768,593.58,-0.047186,0.015729,-1.9948,-0.062915,-4.2739e-08,-0.9974,0,0,0.11111,-0,-0,0.66667
0.36188,0.86321,3.2569,0.54482,50.985,320.17,-4.7318,1.5773,-0.94499,-6.3091,1.6063e-12,-0.4725,0,0,0.11111,-0,-0,0.66667
0.52066,0.050126,4.6859,-0.67481,-53.048,194.71,8.4323,-2.8108,-0.37905,11.243,3.7916e-12,-0.18953,0,0,0.11111,-9.0256e-17,0,0.66667
0.084824,0.046696,0.76342,-0.67996,-72.836,577.57,1.3842,-0.46142,-0.35349,1.8457,-5.4019e-07,-0.17675,0,0,0.11111,-0,-0,0.66667
0.46765,0.22172,4.2088,-0.41742,-35.055,233.7,4.685,-1.5617,-1.3837,6.2466,-1.1013e-13,-0.69184,0,0,0.11111,-0,-0,0.66667
0.77223,0.17722,6.9501,-0.48416,-20.943,50.226,8.9733,-2.9911,-1.1641,11.964,3.1046e-11,-0.58206,0,0,0.11111,-0,-0,0.66667
0.443,0.71653,3.987,0.32479,28.04,252.86,-3.4532,1.1511,-1.624,-4.6043,2.2982e-13,-0.81199,0,0,0.11111,-5.2633e-16,0,0.66667
0.39093,0.36022,3.5183,-0.20967,-19.071,295.21,1.9672,-0.65572,-1.847,2.6229,-3.6871e-13,-0.92351,0,0,0.11111,-0,-0,0.66667
0.27288,0.33928,2.4559,-0.24107,-23.971,398.68,1.5788,-0.52626,-1.7915,2.1051,-1.0182e-11,-0.89575,0,0,0.11111,5.2633e-16,0,0.66667
0.051852,0.1545,0.46667,-0.51826,-55.663,609.79,0.64494,-0.21498,-1.0445,0.85992,1.2254e-07,-0.52223,0,0,0.11111,3.2895e-17,0,0.66667
0.76182,0.7215,6.8564,0.33225,14.902,54.136,-6.0748,2.0249,-1.6076,-8.0997,-2.9227e-11,-0.80382,0,0,0.11111,2.1053e-15,0,0.66667
0.48578,0.75677,4.372,0.38515,31.615,219.81,-4.4904,1.4968,-1.4748,-5.9872,7.1365e-13,-0.73739,0,0,0.11111,-0,-0,0.66667
0.16135,0.88404,1.4521,0.57606,60.458,503.44,-2.2307,0.74357,-0.81842,-2.9743,-1.2595e-09,-0.40921,0,0,0.11111,-0,-0,0.66667
0.066079,0.95797,0.59471,0.68696,73.803,595.9,-1.0894,0.36315,-0.32142,-1.4526,-1.3272e-07,-0.16071,0,0,0.11111,-6.5791e-17,0,0.66667
0.7579,0.037452,6.8211,-0.69382,-31.832,56.92,12.62,-4.2068,-0.28625,16.827,-4.1678e-11,-0.14312,0,0,0.11111,2.1053e-15,0,0.66667
0.58841,0.78504,5.2957,0.42755,30.02,147.75,-6.0379,2.0126,-1.3489,-8.0505,-7.3186e-13,-0.67445,0,0,0.11111,2.1053e-15,0,0.66667
0.55876,0.074462,5.0289,-0.63831,-47.311,167.94,8.5599,-2.8533,-0.55046,11.413,4.3023e-12,-0.27523,0,0,0.11111,-1.0527e-15,5.0126e-17,0.66667
0.20632,0.73958,1.8569,0.35938,36.999,460.52,-1.7796,0.59319,-1.5405,-2.3727,-1.4405e-11,-0.77026,0,0,0.11111,-0,-0,0.66667
0.59434,0.29369,5.3491,-0.30947,-21.467,143.72,4.4143,-1.4714,-1.6624,5.8858,1.5001e-12,-0.83121,0,0,0.11111,-1.0527e-15,0,0.66667
0.93421,0.46812,8.4079,-0.047826,-0.62946,4.9619,1.0723,-0.35743,-1.9929,1.4297,-2.0053e-08,-0.99644,0,0,0.11111,7.237e-16,0,0.66667
0.72548,0.45783,6.5293,-0.063254,-3.1993,70.06,1.1013,-0.36711,-1.9833,1.4685,3.0139e-12,-0.99164,0,0,0.11111,-0,-0,0.66667
0.5866,0.51537,5.2794,0.023059,1.62,148.5,-0.32463,0.10821,-1.9954,-0.43283,1.1306e-12,-0.9977,0,0,0.11111,-0,-0,0.66667
0.8653,0.82494,7.7877,0.48742,13.063,19.385,-10.122,3.3741,-1.153,-13.496,6.9521e-09,-0.57649,0,0,0.11111,-0,-0,0.66667
0.99657,0.72698,8.9691,0.34047,0.094193,0.51732,-8.1432,2.7144,-1.5875,-10.858,8.8529e-07,-0.79377,0,0,0.11111,-0,-9.1254e-18,0.66667
0.86511,0.50145,7.786,0.0021719,0.057746,18.611,-0.045095,0.015032,-1.9991,-0.060127,9.2997e-09,-0.99955,0,0,0.11111,-0,-0,0.66667
0.17918,0.052346,1.6126,-0.67148,-70.114,486.49,2.8876,-0.96254,-0.39432,3.8502,3.0944e-09,-0.19716,0,0,0.11111,-0,-0,0.66667
0.69466,0.17494,6.252,-0.48758,-27.084,85.95,8.129,-2.7097,-1.1521,10.839,3.622e-12,-0.57603,0,0,0.11111,-1.0527e-15,0,0.66667
0.29623,0.45335,2.6661,-0.069972,-6.8533,377.46,0.49747,-0.16582,-1.9854,0.66329,-1.7143e-12,-0.99269,0,0,0.11111,-0,-0,0.66667
0.059534,0.045189,0.5358,-0.68222,-73.35,602.3,0.97476,-0.32492,-0.34497,1.2997,-6.8333e-06,-0.17248,0,0,0.11111,-0,-0,0.66667
0.10804,0.69653,0.97239,0.29479,31.32,554.8,-0.76441,0.2548,-1.6931,-1.0192,-2.2087e-08,-0.84654,0,0,0.11111,-0,-0,0.66667
0.76279,0.29964,6.8651,-0.30054,-13.425,53.667,5.5019,-1.834,-1.6788,7.3359,2.73e-11,-0.83941,0,0,0.11111,-0,-0,0.66667
