xi,eta,X,Y,uX,uY,epsilon_X,epsilon_Y,gamma_XY,sigma_XX,sigma_YY,sigma_XY,fx,fy,dxidx,dxidy,detadx,detady,
0.41702,0.7655,0.83404,0.39825,1.5878,4.6313,-0.88574,0.29525,-1.4355,-1.181,-6.273e-11,-0.71773,0,0,0.5,-0,-0,0.66667
0.72032,0.30817,1.4406,-0.28774,-0.59521,1.602,1.1054,-0.36847,-1.706,1.4739,-1.6653e-10,-0.85302,0,0,0.5,1.7764e-15,0,0.66667
0.00011437,0.73538,0.00022875,0.35307,1.7227,9.9429,-0.00021536,7.1809e-05,-1.5564,-0.00028714,3.3563e-08,-0.77821,0,0,0.5,-0,-0,0.66667
0.30233,0.8122,0.60467,0.4683,2.1026,6.0201,-0.7551,0.2517,-1.2213,-1.0068,-3.4998e-10,-0.61063,0,0,0.5,-1.7579e-16,0,0.66667
0.14676,0.23669,0.29351,-0.39496,-1.8946,7.9948,0.30913,-0.10304,-1.4447,0.41218,-1.0747e-09,-0.72237,0,0,0.5,-0,-0,0.66667
0.092339,0.062824,0.18468,-0.65576,-3.3775,8.736,0.32295,-0.10765,-0.47219,0.43059,8.1015e-08,-0.2361,0,0,0.5,-2.9606e-16,0,0.66667
0.18626,0.62204,0.37252,0.18307,0.84206,7.4585,-0.18186,0.060619,-1.8815,-0.24247,1.1204e-10,-0.94076,0,0,0.5,-0,-0,0.66667
0.34556,0.94394,0.69112,0.66591,3.0452,5.5623,-1.2273,0.40909,-0.42346,-1.6363,-3.0177e-11,-0.21173,0,0,0.5,-0,-0,0.66667
0.39677,0.34766,0.79353,-0.22851,-0.90594,4.8286,0.48355,-0.16118,-1.8146,0.64473,6.7854e-11,-0.90732,0,0,0.5,-0,-0,0.66667
0.53882,0.43363,1.0776,-0.099561,-0.31977,3.2314,0.28611,-0.095369,-1.965,0.38147,-1.167e-11,-0.98252,0,0,0.5,-0,-0,0.66667
0.41919,0.27723,0.83839,-0.33416,-1.3128,4.5888,0.74708,-0.24903,-1.6034,0.99611,6.1723e-11,-0.80169,0,0,0.5,-2.9606e-16,0,0.66667
0.68522,0.69207,1.3704,0.28811,0.67185,1.8885,-1.0529,0.35097,-1.7052,-1.4039,1.6178e-10,-0.8526,0,0,0.5,-0,-0,0.66667
0.20445,0.18359,0.4089,-0.47461,-2.2594,7.2557,0.51752,-0.17251,-1.1996,0.69002,1.0995e-09,-0.59981,0,0,0.5,-0,-0,0.66667
0.87812,0.73211,1.7562,0.34817,0.26573,0.59197,-1.6306,0.54353,-1.5685,-2.1741,-1.0161e-09,-0.78423,0,0,0.5,-2.3685e-15,0,0.66667
0.027388,0.7503,0.054775,0.37544,1.8367,9.5782,-0.05484,0.01828,-1.4999,-0.07312,1.0786e-10,-0.74993,0,0,0.5,-0,-0,0.66667
0.67047,0.45507,1.3409,-0.067393,-0.15886,1.9675,0.24098,-0.080328,-1.9834,0.32131,-4.2371e-11,-0.99171,0,0,0.5,-1.9782e-15,0,0.66667
0.4173,0.75403,0.83461,0.38104,1.5134,4.6231,-0.84806,0.28269,-1.4841,-1.1307,-6.3738e-11,-0.74204,0,0,0.5,1.1842e-15,0,0.66667
0.55869,0.15501,1.1174,-0.51748,-1.7403,3.1552,1.5419,-0.51398,-1.0487,2.0559,-2.5403e-11,-0.52436,0,0,0.5,-1.2583e-15,0,0.66667
0.14039,0.66052,0.28077,0.24078,1.1329,8.0663,-0.18028,0.060093,-1.7944,-0.24037,1.4492e-09,-0.8972,0,0,0.5,-0,-0,0.66667
0.1981,0.29391,0.3962,-0.30913,-1.4343,7.3145,0.32661,-0.10887,-1.6596,0.43548,-1.8578e-10,-0.82982,0,0,0.5,2.9606e-16,0,0.66667
0.80074,0.44476,1.6015,-0.082854,-0.11082,0.96481,0.35384,-0.11795,-1.9755,0.47179,-3.7439e-10,-0.98774,0,0,0.5,-0,-0,0.66667
0.96826,0.8319,1.9365,0.49785,0.0034227,0.31387,-2.5709,0.85697,-1.1185,-3.4279,-1.7715e-08,-0.55923,0,0,0.5,-0,-0,0.66667
0.31342,0.90051,0.62685,0.60077,2.7638,5.9232,-1.0042,0.33475,-0.71698,-1.339,-1.7551e-10,-0.35849,0,0,0.5,1.4803e-16,0,0.66667
0.69232,0.31828,1.3846,-0.27258,-0.61897,1.8237,1.0065,-0.33549,-1.7359,1.342,-1.5522e-10,-0.86793,0,0,0.5,-0,-0,0.66667
0.87639,0.17908,1.7528,-0.48138,-0.43035,0.68701,2.25,-0.75,-1.176,3,1.1865e-09,-0.588,0,0,0.5,-0,-0,0.66667
0.89461,0.45874,1.7892,-0.061888,-0.030048,0.41598,0.29528,-0.098427,-1.986,0.39371,4.0072e-09,-0.993,0,0,0.5,1.1842e-15,0,0.66667
0.085044,0.67898,0.17009,0.26847,1.285,8.804,-0.12177,0.04059,-1.7434,-0.16236,-5.7258e-10,-0.8717,0,0,0.5,7.4015e-17,0,0.66667
0.039055,0.41442,0.07811,-0.12837,-0.6109,9.418,0.026738,-0.0089128,-1.9411,0.035651,-4.0681e-08,-0.97056,0,0,0.5,-0,-0,0.66667
0.16983,0.056519,0.33966,-0.66522,-3.3627,7.736,0.60253,-0.20084,-0.42675,0.80338,3.1553e-09,-0.21337,0,0,0.5,3.9662e-16,-3.6653e-16,0.66667
0.87814,0.85403,1.7563,0.53104,0.49372,0.71734,-2.4871,0.82903,-0.99696,-3.3161,-4.9144e-10,-0.49848,0,0,0.5,-0,-0,0.66667
0.098347,0.88562,0.19669,0.57843,2.9184,8.6494,-0.3034,0.10113,-0.80992,-0.40453,-3.2021e-09,-0.40496,0,0,0.5,-0,-0,0.66667
0.42111,0.88824,0.84222,0.58236,2.4202,4.652,-1.3079,0.43597,-0.7938,-1.7439,-2.2416e-11,-0.3969,0,0,0.5,-5.9212e-16,5.783e-16,0.66667
0.95789,0.4772,1.9158,-0.034205,0.0048659,0.13896,0.17475,-0.058249,-1.9956,0.23299,-4.3861e-08,-0.99779,0,0,0.5,2.3685e-15,0,0.66667
0.53317,0.77997,1.0663,0.41995,1.4349,3.3692,-1.1941,0.39805,-1.3739,-1.5922,2.0241e-11,-0.68695,0,0,0.5,5.9212e-16,0,0.66667
0.69188,0.39922,1.3838,-0.15117,-0.3357,1.7957,0.55782,-0.18594,-1.9186,0.74376,-9.6272e-11,-0.95932,0,0,0.5,-5.9212e-16,0,0.66667
0.31552,0.26626,0.63103,-0.35062,-1.524,5.8311,0.59,-0.19667,-1.5624,0.78667,2.1086e-10,-0.78118,0,0,0.5,-0,-0,0.66667
0.6865,0.27109,1.373,-0.34337,-0.80993,1.899,1.2572,-0.41907,-1.5806,1.6763,-2.0768e-10,-0.79028,0,0,0.5,-0,-0,0.66667
0.83463,0.64719,1.6693,0.22078,0.23963,0.78036,-0.98278,0.32759,-1.8263,-1.3104,-4.7559e-10,-0.91316,0,0,0.5,5.9212e-16,0,0.66667
0.018288,0.040255,0.036577,-0.68962,-3.6146,9.7053,0.067261,-0.022421,-0.30884,0.089681,-9.5012e-07,-0.15442,0,0,0.5,-0,-0,0.66667
0.75014,0.38441,1.5003,-0.17338,-0.30862,1.3384,0.69365,-0.23122,-1.893,0.92487,-1.0845e-10,-0.94651,0,0,0.5,-0,-0,0.66667
0.98886,0.68293,1.9777,0.27439,-0.10621,0.099056,-1.4471,0.48237,-1.7325,-1.9295,-1.0737e-08,-0.86627,0,0,0.5,-0,-0,0.66667
0.74817,0.69364,1.4963,0.29045,0.53796,1.3893,-1.159,0.38633,-1.7002,-1.5453,1.2564e-10,-0.85009,0,0,0.5,-0,-0,0.66667
0.28044,0.87009,0.56089,0.55513,2.5814,6.3137,-0.83031,0.27677,-0.90467,-1.1071,-4.7322e-10,-0.45234,0,0,0.5,-1.3e-16,-3.2849e-16,0.66667
0.78928,0.78155,1.5786,0.42232,0.68099,1.1625,-1.7778,0.59258,-1.3668,-2.3703,5.2377e-10,-0.68341,0,0,0.5,-0,-0,0.66667
0.10323,0.17645,0.20645,-0.48532,-2.3962,8.5764,0.26719,-0.089063,-1.162,0.35625,-4.7429e-09,-0.58101,0,0,0.5,-0,-0,0.66667
0.44789,0.24052,0.89579,-0.38921,-1.4935,4.2777,0.92974,-0.30991,-1.461,1.2397,3.5326e-11,-0.7305,0,0,0.5,-0,-0,0.66667
0.9086,0.94322,1.8172,0.66483,0.5355,0.70236,-3.2217,1.0739,-0.42859,-4.2956,6.4099e-08,-0.2143,0,0,0.5,-0,-0,0.66667
0.29361,0.66536,0.58723,0.24804,1.08,6.0867,-0.38842,0.12947,-1.781,-0.5179,-1.4186e-10,-0.89048,0,0,0.5,-0,-0,0.66667
0.28778,0.26459,0.57555,-0.35312,-1.567,6.1761,0.54197,-0.18066,-1.556,0.72262,2.5594e-10,-0.77799,0,0,0.5,-0,-0,0.66667
0.13003,0.17012,0.26006,-0.49481,-2.4314,8.2252,0.34315,-0.11438,-1.1288,0.45753,-3.3836e-10,-0.56442,0,0,0.5,-0,-0,0.66667
0.019367,0.14803,0.038734,-0.52795,-2.6593,9.6878,0.054532,-0.018177,-1.0088,0.07271,1.0467e-07,-0.50438,0,0,0.5,-1.8504e-17,0,0.66667
0.67884,0.90997,1.3577,0.61495,1.6508,2.1206,-2.2264,0.74214,-0.65572,-2.9686,1.2742e-10,-0.32786,0,0,0.5,2.3685e-15,0,0.66667
0.21163,0.77616,0.42326,0.41424,1.9424,7.1534,-0.46755,0.15585,-1.39,-0.62339,-4.6963e-10,-0.69499,0,0,0.5,-3.1878e-16,0,0.66667
0.26555,0.28807,0.53109,-0.3179,-1.4238,6.45,0.45022,-0.15007,-1.6409,0.6003,1.9586e-10,-0.82043,0,0,0.5,-0,-0,0.66667
0.49157,0.74725,0.98315,0.37088,1.3366,3.7907,-0.97234,0.32411,-1.5114,-1.2965,-5.4797e-12,-0.75571,0,0,0.5,-0,-0,0.66667
0.053363,0.86256,0.10673,0.54385,2.7418,9.2386,-0.15478,0.051593,-0.94778,-0.20637,-3.4125e-08,-0.47389,0,0,0.5,1.0821e-17,0,0.66667
0.57412,0.61368,1.1482,0.17051,0.51533,2.8815,-0.52211,0.17404,-1.8962,-0.69614,3.6922e-11,-0.94808,0,0,0.5,-0,-0,0.66667
0.14673,0.9395,0.29346,0.65924,3.3528,8.0315,-0.51589,0.17196,-0.45538,-0.68786,-7.8731e-09,-0.22769,0,0,0.5,5.9212e-16,0,0.66667
0.58931,0.60561,1.1786,0.15841,0.46318,2.7296,-0.49789,0.16596,-1.9103,-0.66385,4.2707e-11,-0.95513,0,0,0.5,-0,-0,0.66667
0.69976,0.10229,1.3995,-0.59657,-1.4959,1.9374,2.2264,-0.74214,-0.73438,2.9686,-2.4238e-10,-0.36719,0,0,0.5,-0,-0,0.66667
0.10233,0.98938,0.20467,0.73408,3.8561,8.6158,-0.40065,0.13355,-0.083526,-0.5342,2.2034e-08,-0.041763,0,0,0.5,1.4803e-16,0,0.66667
0.41406,0.98682,0.82811,0.73022,3.2047,4.8033,-1.6126,0.53752,-0.10345,-2.1501,-4.825e-13,-0.051724,0,0,0.5,5.9212e-16,0,0.66667
0.6944,0.90075,1.3888,0.60113,1.5347,1.9836,-2.2263,0.74208,-0.71523,-2.9683,2.069e-10,-0.35762,0,0,0.5,-8.8818e-16,0,0.66667
0.41418,0.73179,0.82836,0.34769,1.377,4.6502,-0.76803,0.25601,-1.5695,-1.024,-6.6839e-11,-0.78477,0,0,0.5,5.9212e-16,0,0.66667
0.049953,0.96362,0.099907,0.69543,3.6428,9.292,-0.18528,0.061758,-0.28066,-0.24703,-4.9199e-08,-0.14033,0,0,0.5,1.1102e-16,0,0.66667
0.5359,0.99431,1.0718,0.74146,2.809,3.5189,-2.1192,0.7064,-0.04533,-2.8256,7.7938e-14,-0.022665,0,0,0.5,2.9606e-16,0,0.66667
0.66379,0.020758,1.3276,-0.71886,-2.1105,2.3281,2.5449,-0.84832,-0.16212,3.3933,-6.1708e-12,-0.081062,0,0,0.5,-0,-0,0.66667
0.51489,0.16433,1.0298,-0.50351,-1.8121,3.5948,1.3827,-0.46089,-1.0986,1.8436,-6.0444e-12,-0.54929,0,0,0.5,-1.1842e-15,0,0.66667
0.94459,0.88471,1.8892,0.57707,0.19425,0.46873,-2.9072,0.96906,-0.81553,-3.8763,-5.1214e-08,-0.40777,0,0,0.5,-0,-0,0.66667
0.58656,0.11667,1.1731,-0.575,-1.8733,2.9159,1.7988,-0.59959,-0.82413,2.3984,-2.8529e-11,-0.41207,0,0,0.5,-0,-0,0.66667
0.9034,0.45466,1.8068,-0.068006,-0.027342,0.37374,0.32766,-0.10922,-1.983,0.43688,-5.1477e-09,-0.99151,0,0,0.5,-0,-0,0.66667
0.13747,0.83135,0.27495,0.49702,2.4381,8.128,-0.36441,0.12147,-1.1212,-0.48589,-4.6196e-10,-0.56059,0,0,0.5,-0,-0,0.66667
0.13928,0.69424,0.27855,0.29136,1.3795,8.0843,-0.21643,0.072142,-1.6983,-0.28857,5.7165e-10,-0.84913,0,0,0.5,-0,-0,0.66667
0.80739,0.69526,1.6148,0.29288,0.39898,0.97759,-1.2612,0.4204,-1.6948,-1.6816,-2.6524e-10,-0.8474,0,0,0.5,2.3685e-15,0,0.66667
0.39768,0.57866,0.79535,0.11799,0.46264,4.8043,-0.25025,0.083416,-1.9498,-0.33367,-3.8462e-11,-0.97491,0,0,0.5,5.9212e-16,0,0.66667
0.16535,0.083831,0.33071,-0.62425,-3.1264,7.7855,0.55052,-0.18351,-0.61398,0.73403,4.8807e-09,-0.30699,0,0,0.5,-1.4803e-16,0,0.66667
0.92751,0.26774,1.855,-0.34839,-0.10025,0.36016,1.7234,-0.57447,-1.5678,2.2979,4.7914e-09,-0.78391,0,0,0.5,-0,-0,0.66667
0.34777,0.76325,0.69553,0.39487,1.6848,5.4473,-0.73239,0.24413,-1.445,-0.97653,-1.6932e-10,-0.72252,0,0,0.5,-0,-0,0.66667
0.75081,0.874,1.5016,0.56101,1.1612,1.5234,-2.2465,0.74882,-0.88205,-2.9953,8.8511e-10,-0.44103,0,0,0.5,1.3323e-15,0,0.66667
0.726,0.49922,1.452,-0.0011652,-0.0022581,1.504,0.0045118,-0.0015039,-2.0009,0.0060157,-1.3395e-12,-1.0004,0,0,0.5,-0,-0,0.66667
0.88331,0.57864,1.7666,0.11796,0.071155,0.48116,-0.55571,0.18524,-1.9499,-0.74095,-9.5396e-10,-0.97493,0,0,0.5,-1.1842e-15,0,0.66667
0.62367,0.62708,1.2473,0.19062,0.5172,2.4075,-0.63406,0.21135,-1.8716,-0.84542,7.2777e-11,-0.93581,0,0,0.5,-0,-0,0.66667
0.75094,0.38512,1.5019,-0.17233,-0.30558,1.3322,0.69017,-0.23006,-1.8942,0.92023,-1.0888e-10,-0.9471,0,0,0.5,-0,-0,0.66667
0.3489,0.51957,0.6978,0.029352,0.1204,5.3856,-0.054619,0.018206,-1.9964,-0.072825,-1.6157e-11,-0.9982,0,0,0.5,-1.1842e-15,0,0.66667
0.26993,0.39182,0.53986,-0.16228,-0.71218,6.3767,0.23361,-0.077871,-1.9058,0.31149,1.129e-10,-0.95288,0,0,0.5,2.9606e-16,0,0.66667
0.89589,0.25282,1.7918,-0.37077,-0.2269,0.51607,1.7716,-0.59052,-1.5117,2.3621,1.8442e-09,-0.75586,0,0,0.5,-0,-0,0.66667
0.42809,0.5703,0.85618,0.10546,0.39906,4.4484,-0.24077,0.080258,-1.9602,-0.32103,-2.3479e-11,-0.98011,0,0,0.5,-0,-0,0.66667
0.96484,0.92833,1.9297,0.64249,0.13698,0.46668,-3.3061,1.102,-0.53198,-4.4082,3.8786e-08,-0.26599,0,0,0.5,-0,-0,0.66667
0.66344,0.16741,1.3269,-0.49889,-1.3274,2.173,1.7652,-0.58841,-1.1145,2.3537,-1.9469e-10,-0.55726,0,0,0.5,-0,-0,0.66667
0.6217,0.76088,1.2434,0.39132,1.1143,2.4905,-1.2975,0.43251,-1.4551,-1.73,1.1309e-10,-0.72755,0,0,0.5,-1.1842e-15,0,0.66667
0.11475,0.42252,0.22949,-0.11621,-0.54548,8.4021,0.071121,-0.023707,-1.9513,0.094828,-1.3549e-09,-0.97567,0,0,0.5,-1.4803e-16,0,0.66667
0.94949,0.59068,1.899,0.13602,-0.0052971,0.18548,-0.6888,0.2296,-1.9347,-0.9184,-2.4416e-08,-0.96737,0,0,0.5,2.9606e-16,0,0.66667
0.44991,0.59821,0.89982,0.14731,0.54402,4.2031,-0.35348,0.11783,-1.9231,-0.47131,-2.1591e-11,-0.96157,0,0,0.5,-0,-0,0.66667
0.57839,0.016081,1.1568,-0.72588,-2.5495,3.095,2.2392,-0.74638,-0.12621,2.9855,-5.1159e-13,-0.063103,0,0,0.5,2.3685e-15,0,0.66667
0.40814,0.79667,0.81627,0.44501,1.8098,4.7482,-0.96866,0.32289,-1.2954,-1.2915,-6.7268e-11,-0.6477,0,0,0.5,-0,-0,0.66667
0.23703,0.047652,0.47405,-0.67852,-3.3436,6.8889,0.85775,-0.28592,-0.36252,1.1437,3.5806e-10,-0.18126,0,0,0.5,-0,-0,0.66667
0.90338,0.069426,1.8068,-0.64586,-0.53612,0.70509,3.1118,-1.0373,-0.51683,4.149,-3.1017e-08,-0.25841,0,0,0.5,-0,4.3767e-16,0.66667
0.57368,0.45803,1.1474,-0.062959,-0.1888,2.8731,0.19263,-0.06421,-1.9855,0.25684,-1.4659e-11,-0.99273,0,0,0.5,-0,-0,0.66667
0.0028703,0.76336,0.0057407,0.39504,1.9404,9.9061,-0.0060474,0.0020158,-1.4446,-0.0080633,-1.8031e-08,-0.72231,0,0,0.5,4.6259e-18,0,0.66667
0.61714,0.86404,1.2343,0.54606,1.6534,2.6123,-1.7973,0.59911,-0.93927,-2.3964,6.7342e-11,-0.46964,0,0,0.5,-5.9212e-16,0,0.66667
0.32664,0.70793,0.65329,0.31189,1.3355,5.6869,-0.54335,0.18112,-1.6538,-0.72446,-1.6727e-10,-0.82691,0,0,0.5,-0,-0,0.66667
0.52706,0.94802,1.0541,0.67203,2.5112,3.5613,-1.889,0.62968,-0.39382,-2.5187,1.0237e-12,-0.19691,0,0,0.5,-0,-0,0.66667
0.88594,0.046994,1.7719,-0.67951,-0.70855,0.82027,3.2107,-1.0702,-0.35766,4.2809,-1.3608e-08,-0.17883,0,0,0.5,-0,-0,0.66667
0.35727,0.87399,0.71454,0.56098,2.4659,5.3834,-1.0689,0.35631,-0.88205,-1.4252,-1.0007e-10,-0.44102,0,0,0.5,8.8818e-16,-5.5442e-16,0.66667
0.90854,0.80798,1.8171,0.46198,0.26287,0.51802,-2.2385,0.74617,-1.2415,-2.9847,3.8214e-10,-0.62076,0,0,0.5,-0,-0,0.66667
0.62336,0.040489,1.2467,-0.68927,-2.1852,2.6536,2.2915,-0.76384,-0.3106,3.0554,-7.6485e-12,-0.1553,0,0,0.5,-1.1842e-15,0,0.66667
0.015821,0.82076,0.031642,0.48114,2.4003,9.7341,-0.040598,0.013533,-1.1769,-0.054131,3.2948e-08,-0.58846,0,0,0.5,-0,-0,0.66667
0.92944,0.52135,1.8589,0.032029,0.0046115,0.25263,-0.15877,0.052922,-1.9959,-0.21169,6.8166e-08,-0.99795,0,0,0.5,-0,-0,0.66667
0.6909,0.64605,1.3818,0.21908,0.4938,1.8194,-0.80726,0.26909,-1.829,-1.0763,1.2432e-10,-0.91449,0,0,0.5,-0,-0,0.66667
0.99732,0.52553,1.9946,0.038299,-0.021186,0.0089601,-0.20371,0.067909,-1.995,-0.27162,6.5639e-06,-0.99749,0,0,0.5,1.1842e-15,0,0.66667
0.17234,0.77014,0.34468,0.40521,1.9296,7.6612,-0.37245,0.12415,-1.4159,-0.4966,1.4633e-10,-0.70797,0,0,0.5,-0,-0,0.66667
0.13714,0.44245,0.27427,-0.086328,-0.40207,8.1032,0.063139,-0.021046,-1.9737,0.084186,3.8338e-09,-0.98686,0,0,0.5,2.9606e-16,0,0.66667
0.9326,0.1066,1.8652,-0.5901,-0.27884,0.52701,2.9351,-0.97835,-0.76132,3.9134,9.9614e-09,-0.38066,0,0,0.5,-0,-0,0.66667
0.69682,0.7649,1.3936,0.39735,0.92347,1.8382,-1.4767,0.49223,-1.438,-1.9689,2.8292e-10,-0.71899,0,0,0.5,1.1842e-15,0,0.66667
0.066,0.68562,0.132,0.27842,1.3384,9.059,-0.098006,0.032669,-1.7251,-0.13067,3.5422e-09,-0.86256,0,0,0.5,9.2519e-17,0,0.66667
0.75546,0.78652,1.5109,0.42977,0.81557,1.4027,-1.7316,0.57721,-1.3434,-2.3088,5.6662e-10,-0.67168,0,0,0.5,-0,-0,0.66667
0.75388,0.82434,1.5078,0.48651,0.95569,1.4491,-1.9561,0.65204,-1.1579,-2.6082,8.0358e-10,-0.57896,0,0,0.5,-0,-0,0.66667
0.92302,0.66459,1.846,0.24688,0.066492,0.32968,-1.2153,0.40512,-1.7832,-1.6205,-1.1485e-08,-0.89161,0,0,0.5,-0,-0,0.66667
0.71152,0.45153,1.423,-0.072711,-0.14945,1.623,0.27592,-0.091975,-1.9805,0.3679,-6.5139e-11,-0.99027,0,0,0.5,-0,-0,0.66667
0.12427,0.41282,0.24854,-0.13077,-0.6127,8.2755,0.08667,-0.02889,-1.9394,0.11556,3.2355e-09,-0.96968,0,0,0.5,-0,-0,0.66667
0.01988,0.41813,0.03976,-0.12281,-0.58501,9.6764,0.013019,-0.0043402,-1.9459,0.017358,-8.0203e-07,-0.97293,0,0,0.5,-0,-0,0.66667
0.026211,0.61218,0.052422,0.16828,0.80364,9.5913,-0.023524,0.007841,-1.8987,-0.031365,-3.348e-07,-0.94937,0,0,0.5,-3.7007e-17,0,0.66667
0.028306,0.29358,0.056613,-0.30963,-1.5002,9.5648,0.046744,-0.015581,-1.6587,0.062325,-2.2768e-09,-0.82933,0,0,0.5,-0,-0,0.66667
0.24621,0.89366,0.49242,0.59049,2.8275,6.75,-0.77539,0.25846,-0.75971,-1.0339,-8.1972e-10,-0.37986,0,0,0.5,-0,-0,0.66667
0.86003,0.69778,1.7201,0.29667,0.26596,0.6631,-1.3608,0.45359,-1.6869,-1.8144,-7.898e-10,-0.84343,0,0,0.5,-0,-0,0.66667
0.53883,0.42705,1.0777,-0.10943,-0.35169,3.2322,0.31447,-0.10482,-1.9569,0.41929,-1.2682e-11,-0.97847,0,0,0.5,5.9212e-16,0,0.66667
0.55282,0.46517,1.1056,-0.052249,-0.16316,3.0834,0.15405,-0.05135,-1.9906,0.2054,-8.5918e-12,-0.99532,0,0,0.5,-5.9212e-16,0,0.66667
0.84203,0.49463,1.6841,-0.008057,-0.0077995,0.69979,0.036183,-0.012061,-2,0.048244,3.8808e-10,-1,0,0,0.5,-3.5527e-15,0,0.66667
0.12417,0.052057,0.24835,-0.67191,-3.4509,8.3247,0.44498,-0.14833,-0.39455,0.59331,1.4883e-08,-0.19727,0,0,0.5,1.4803e-16,0,0.66667
0.27918,0.28218,0.55837,-0.32673,-1.4523,6.2793,0.4865,-0.16217,-1.6214,0.64867,2.159e-10,-0.81072,0,0,0.5,1.1842e-15,0,0.66667
0.58576,0.087677,1.1715,-0.61848,-2.0514,2.9505,1.9322,-0.64406,-0.63988,2.5762,-1.5938e-11,-0.31994,0,0,0.5,5.9212e-16,0,0.66667
0.9696,0.42581,1.9392,-0.11128,0.027947,0.10658,0.57546,-0.19182,-1.9557,0.76729,8.6091e-07,-0.97783,0,0,0.5,-1.1842e-15,0,0.66667
0.56103,0.82255,1.1221,0.48383,1.6035,3.1151,-1.4477,0.48257,-1.1674,-1.9303,3.2487e-11,-0.58371,0,0,0.5,1.1842e-15,0,0.66667
0.018647,0.95834,0.037295,0.68752,3.6014,9.7006,-0.068372,0.022792,-0.319,-0.091162,1.3851e-06,-0.1595,0,0,0.5,-0,-0,0.66667
0.80063,0.53649,1.6013,0.054737,0.073035,0.9628,-0.23373,0.07791,-1.9895,-0.31164,2.5641e-10,-0.99476,0,0,0.5,-0,-0,0.66667
0.23297,0.36165,0.46595,-0.20753,-0.93495,6.8532,0.25786,-0.085953,-1.8464,0.34381,6.129e-11,-0.92322,0,0,0.5,-2.9606e-16,0,0.66667
0.80711,0.7965,1.6142,0.44475,0.65863,1.0598,-1.9144,0.63815,-1.2961,-2.5526,6.9604e-10,-0.64803,0,0,0.5,-1.1842e-15,0,0.66667
0.38786,0.95404,0.77572,0.68106,3.0162,5.0757,-1.4088,0.46961,-0.35026,-1.8784,-8.0033e-12,-0.17513,0,0,0.5,-5.9212e-16,-5.901e-16,0.66667
0.86354,0.49395,1.7271,-0.0090723,-0.0070077,0.57628,0.041783,-0.013928,-1.9997,0.05571,-6.1579e-09,-0.99987,0,0,0.5,-5.9212e-16,0,0.66667
0.74712,0.21536,1.4942,-0.42696,-0.8377,1.4622,1.7013,-0.56709,-1.3523,2.2684,-5.2276e-10,-0.67617,0,0,0.5,-1.2591e-15,0,0.66667
0.55624,0.57963,1.1125,0.11945,0.37204,3.0542,-0.35436,0.11812,-1.9486,-0.47247,2.0128e-11,-0.97431,0,0,0.5,-1.1842e-15,0,0.66667
0.13646,0.13934,0.27291,-0.54099,-2.6802,8.1468,0.39371,-0.13124,-0.95879,0.52495,2.4603e-09,-0.47939,0,0,0.5,-0,-0,0.66667
0.059918,0.79638,0.11984,0.44457,2.1943,9.1468,-0.14207,0.047355,-1.2967,-0.18942,-1.2329e-09,-0.64837,0,0,0.5,-0,-0,0.66667
0.12134,0.67439,0.24269,0.26159,1.2406,8.32,-0.16929,0.056431,-1.7562,-0.22572,8.9112e-10,-0.87808,0,0,0.5,-0,-0,0.66667
0.044552,0.78309,0.089104,0.42464,2.0919,9.3504,-0.1009,0.033633,-1.3597,-0.13453,-1.5038e-08,-0.67985,0,0,0.5,-0,-0,0.66667
0.10749,0.66305,0.21499,0.24457,1.1618,8.5034,-0.14021,0.046738,-1.7874,-0.18695,4.5233e-09,-0.89369,0,0,0.5,-0,-0,0.66667
0.22571,0.069303,0.45142,-0.64604,-3.1728,7.022,0.7777,-0.25923,-0.51587,1.0369,8.3638e-10,-0.25794,0,0,0.5,-0,-0,0.66667
0.71299,0.38368,1.426,-0.17448,-0.36124,1.6271,0.66347,-0.22116,-1.8914,0.88463,-1.1147e-10,-0.94572,0,0,0.5,-0,-0,0.66667
0.55972,0.083583,1.1194,-0.62462,-2.176,3.2058,1.8646,-0.62153,-0.61244,2.4861,-7.9724e-12,-0.30622,0,0,0.5,-0,-7.8938e-16,0.66667
0.012556,0.90984,0.025112,0.61475,3.1605,9.7792,-0.041169,0.013723,-0.65673,-0.054892,-7.7723e-07,-0.32837,0,0,0.5,-0,-7.0462e-16,0.66667
0.071974,0.96087,0.14395,0.69131,3.6073,9.0047,-0.26537,0.088456,-0.30051,-0.35383,-1.4836e-07,-0.15026,0,0,0.5,-0,-0,0.66667
0.96728,0.87002,1.9346,0.55503,0.044114,0.36888,-2.8633,0.95442,-0.90503,-3.8177,1.8221e-07,-0.45251,0,0,0.5,-1.1842e-15,0,0.66667
0.5681,0.29118,1.1362,-0.31323,-0.98056,2.9765,0.94904,-0.31635,-1.6507,1.2654,-4.9163e-11,-0.82537,0,0,0.5,-1.1842e-15,0,0.66667
0.20329,0.30427,0.40659,-0.29359,-1.3561,7.2454,0.31832,-0.10611,-1.6935,0.42443,-1.583e-10,-0.84677,0,0,0.5,-0,-0,0.66667
0.25233,0.6315,0.50465,0.19724,0.87788,6.6039,-0.26544,0.088479,-1.8617,-0.35392,-1.0085e-10,-0.93087,0,0,0.5,-0,-0,0.66667
0.74383,0.86372,1.4877,0.54558,1.15,1.5629,-2.1644,0.72145,-0.94113,-2.8858,7.6055e-10,-0.47056,0,0,0.5,-1.1842e-15,0,0.66667
0.19543,0.70603,0.39086,0.30905,1.4356,7.3493,-0.32212,0.10737,-1.6598,-0.42949,2.1259e-10,-0.82989,0,0,0.5,-2.9606e-16,0,0.66667
0.58136,0.27133,1.1627,-0.34301,-1.0529,2.8555,1.0635,-0.35451,-1.5813,1.4181,-6.2284e-11,-0.79066,0,0,0.5,-0,-0,0.66667
0.97002,0.50071,1.94,0.0010632,-0.00028643,0.094433,-0.0055005,0.0018294,-2.0011,-0.0073361,-6.1159e-06,-1.0006,0,0,0.5,-0,-0,0.66667
0.84683,0.79527,1.6937,0.4429,0.49994,0.81912,-2.0003,0.66677,-1.302,-2.6671,-2.6109e-10,-0.651,0,0,0.5,-0,-0,0.66667
0.23985,0.60418,0.4797,0.15627,0.6983,6.7608,-0.1999,0.066634,-1.9127,-0.26654,-1.2406e-10,-0.95635,0,0,0.5,-0,-0,0.66667
0.49377,0.38588,0.98754,-0.17118,-0.59572,3.7195,0.45079,-0.15026,-1.8953,0.60105,2.9163e-12,-0.94765,0,0,0.5,-0,-0,0.66667
0.61996,0.74546,1.2399,0.36819,1.0459,2.497,-1.2174,0.4058,-1.5182,-1.6232,1.0969e-10,-0.75911,0,0,0.5,-1.4803e-15,0,0.66667
0.82898,0.13694,1.658,-0.54459,-0.75832,0.99728,2.4078,-0.80259,-0.94516,3.2104,-3.0207e-09,-0.47258,0,0,0.5,-0,-0,0.66667
0.15679,0.99325,0.31358,0.73987,3.8374,7.9178,-0.61869,0.20623,-0.053822,-0.82492,-5.8984e-10,-0.026911,0,0,0.5,4.4409e-16,0,0.66667
0.018576,0.083942,0.037152,-0.62409,-3.2153,9.7001,0.061833,-0.02061,-0.61485,0.082444,7.1824e-07,-0.30743,0,0,0.5,-1.8504e-17,0,0.66667
0.070022,0.79263,0.14004,0.43894,2.1612,9.0124,-0.16392,0.054641,-1.3144,-0.21856,7.4965e-09,-0.65721,0,0,0.5,-0,-0,0.66667
0.48635,0.22987,0.97269,-0.4052,-1.4825,3.8588,1.051,-0.35034,-1.4159,1.4014,8.2895e-12,-0.70793,0,0,0.5,-0,-0,0.66667
0.60633,0.37903,1.2127,-0.18145,-0.51231,2.5693,0.58676,-0.19559,-1.8833,0.78234,-5.8624e-11,-0.94166,0,0,0.5,-0,-0,0.66667
0.56885,0.14636,1.1377,-0.53046,-1.759,3.0617,1.6093,-0.53645,-0.99908,2.1458,-2.9033e-11,-0.49954,0,0,0.5,-0,-0,0.66667
0.31736,0.37352,0.63472,-0.18972,-0.80633,5.7839,0.32112,-0.10704,-1.8728,0.42815,1.0807e-10,-0.9364,0,0,0.5,7.0314e-16,0,0.66667
0.98862,0.025421,1.9772,-0.71187,-0.044792,0.47895,3.7534,-1.2511,-0.19826,5.0045,-3.2037e-06,-0.099131,0,0,0.5,-1.1842e-15,0,0.66667
0.57975,0.7844,1.1595,0.4266,1.3421,2.9045,-1.319,0.43967,-1.3536,-1.7587,5.7166e-11,-0.67678,0,0,0.5,2.3685e-15,0,0.66667
0.38014,0.34034,0.76028,-0.2395,-0.96727,5.0272,0.48556,-0.16185,-1.7965,0.64742,8.4036e-11,-0.89823,0,0,0.5,-8.8818e-16,0,0.66667
0.55095,0.34642,1.1019,-0.23037,-0.734,3.1273,0.67692,-0.22564,-1.8119,0.90256,-3.0855e-11,-0.90594,0,0,0.5,-2.3685e-15,0,0.66667
0.74533,0.65726,1.4907,0.23588,0.43518,1.3915,-0.93767,0.31256,-1.803,-1.2502,9.3917e-11,-0.90152,0,0,0.5,-0,-0,0.66667
0.66923,0.98039,1.3385,0.72058,2.0895,2.2844,-2.5719,0.85731,-0.15341,-3.4292,6.4881e-12,-0.076707,0,0,0.5,-0,-0,0.66667
0.26492,0.49757,0.52984,-0.0036445,-0.015944,6.4341,0.0051494,-0.0017165,-2.0008,0.0068658,7.6012e-12,-1.0004,0,0,0.5,-7.4015e-17,0,0.66667
0.066335,0.40013,0.13267,-0.1498,-0.71153,9.0513,0.052998,-0.017666,-1.9202,0.070664,-7.0045e-09,-0.96012,0,0,0.5,3.7007e-17,0,0.66667
0.37008,0.11586,0.74017,-0.57621,-2.5145,5.2378,1.1373,-0.3791,-0.81917,1.5164,6.8236e-11,-0.40958,0,0,0.5,-0,-0,0.66667
0.62972,0.21454,1.2594,-0.4282,-1.2098,2.4337,1.4381,-0.47937,-1.3484,1.9175,-1.2661e-10,-0.67418,0,0,0.5,-5.9212e-16,0,0.66667
0.21017,0.31647,0.42035,-0.2753,-1.2645,7.1543,0.30859,-0.10286,-1.7308,0.41145,-1.1673e-10,-0.8654,0,0,0.5,-0,-0,0.66667
0.75276,0.78244,1.5055,0.42366,0.81091,1.4189,-1.7009,0.56696,-1.3627,-2.2678,5.2921e-10,-0.68137,0,0,0.5,-0,-0,0.66667
0.066536,0.79272,0.13307,0.43907,2.163,9.0587,-0.15581,0.051937,-1.3141,-0.20775,8.7211e-09,-0.65703,0,0,0.5,1.4803e-16,0,0.66667
0.26032,0.77512,0.52063,0.41268,1.884,6.5323,-0.57295,0.19098,-1.3944,-0.76393,-4.4844e-10,-0.69722,0,0,0.5,2.9606e-16,0,0.66667
0.80475,0.67466,1.6095,0.262,0.35819,0.98245,-1.1245,0.37483,-1.7553,-1.4993,-2.3596e-10,-0.87766,0,0,0.5,-0,-0,0.66667
0.19343,0.05046,0.38687,-0.67431,-3.3864,7.437,0.69565,-0.23188,-0.38274,0.92754,1.3672e-09,-0.19137,0,0,0.5,-0,-0,0.66667
0.63946,0.055376,1.2789,-0.66694,-2.0211,2.4943,2.2746,-0.75819,-0.41854,3.0327,-2.0797e-11,-0.20927,0,0,0.5,-0,-4.1685e-16,0.66667
0.52467,0.41447,1.0493,-0.1283,-0.42324,3.3826,0.359,-0.11967,-1.9412,0.47867,-9.2057e-12,-0.97059,0,0,0.5,-1.1842e-15,0,0.66667
0.92481,0.049945,1.8496,-0.67508,-0.44635,0.64648,3.3297,-1.1099,-0.37912,4.4396,-2.346e-08,-0.18956,0,0,0.5,-0,-0,0.66667
0.2633,0.1957,0.52659,-0.45646,-2.098,6.5036,0.64098,-0.21366,-1.2591,0.85464,5.6771e-10,-0.62953,0,0,0.5,-0,-0,0.66667
0.065961,0.014927,0.13192,-0.72761,-3.8387,9.086,0.25597,-0.085322,-0.11706,0.34129,-7.4495e-09,-0.058532,0,0,0.5,-0,-0,0.66667
0.73507,0.81244,1.4701,0.46866,0.98233,1.5767,-1.8373,0.61243,-1.2203,-2.4497,5.9382e-10,-0.61017,0,0,0.5,-1.4248e-15,0,0.66667
0.77218,0.33477,1.5444,-0.24785,-0.40489,1.1992,1.0207,-0.34024,-1.7812,1.3609,-8.5706e-12,-0.89061,0,0,0.5,-5.9212e-16,0,0.66667
0.90782,0.26441,1.8156,-0.35339,-0.1711,0.44982,1.711,-0.57033,-1.5555,2.2813,1.0152e-09,-0.77775,0,0,0.5,-0,-0,0.66667
0.93197,0.019914,1.8639,-0.72013,-0.47198,0.67059,3.5794,-1.1931,-0.15562,4.7726,2.8052e-08,-0.077809,0,0,0.5,-0,-0,0.66667
0.013952,0.031277,0.027903,-0.70308,-3.6994,9.7622,0.052319,-0.017435,-0.2436,0.069761,7.5896e-06,-0.1218,0,0,0.5,-0,-0,0.66667
0.23436,0.086751,0.46872,-0.61987,-3.0098,6.9064,0.7748,-0.25827,-0.63397,1.0331,9.1499e-10,-0.31698,0,0,0.5,-4.4409e-16,4.1166e-16,0.66667
0.61678,0.47309,1.2336,-0.040361,-0.1099,2.4531,0.13277,-0.044255,-1.9944,0.17702,-1.6086e-11,-0.99721,0,0,0.5,-0,-0,0.66667
0.94902,0.076726,1.898,-0.63491,-0.23154,0.51176,3.2136,-1.0712,-0.56612,4.2847,-8.7193e-08,-0.28306,0,0,0.5,-0,1.7572e-16,0.66667
0.95018,0.57818,1.9004,0.11728,-0.0059639,0.17882,-0.59431,0.1981,-1.9505,-0.79241,-1.9638e-07,-0.97527,0,0,0.5,-1.1842e-15,0,0.66667
0.55665,0.69103,1.1133,0.28655,0.91194,3.0835,-0.8507,0.28357,-1.7084,-1.1343,3.8851e-11,-0.85421,0,0,0.5,-0,-0,0.66667
0.91561,0.67466,1.8312,0.26199,0.091714,0.36881,-1.2794,0.42645,-1.7553,-1.7058,3.9295e-09,-0.87767,0,0,0.5,-1.1842e-15,0,0.66667
0.64157,0.022684,1.2831,-0.71597,-2.2098,2.5146,2.4498,-0.81661,-0.17728,3.2665,-3.4843e-12,-0.088638,0,0,0.5,-0,-0,0.66667
0.39001,0.92783,0.78002,0.64175,2.8018,5.033,-1.3349,0.44496,-0.53551,-1.7798,-1.8352e-11,-0.26776,0,0,0.5,-5.9212e-16,-5.06e-16,0.66667
0.48599,0.037084,0.97198,-0.69437,-2.7708,4,1.7998,-0.59993,-0.28587,2.3997,1.4555e-13,-0.14294,0,0,0.5,-0,-0,0.66667
0.60431,0.18248,1.2086,-0.47628,-1.4467,2.6928,1.535,-0.51168,-1.1936,2.0467,-7.6458e-11,-0.5968,0,0,0.5,9.4994e-16,0,0.66667
0.54955,0.60082,1.0991,0.15123,0.47835,3.1268,-0.44325,0.14775,-1.9187,-0.591,2.1685e-11,-0.95933,0,0,0.5,-0,-0,0.66667
0.92618,0.76435,1.8524,0.39653,0.13405,0.39529,-1.9587,0.6529,-1.4403,-2.6116,6.5572e-10,-0.72017,0,0,0.5,-0,-0,0.66667
0.91873,0.23191,1.8375,-0.40214,-0.16729,0.43086,1.9705,-0.65682,-1.4245,2.6273,4.6869e-09,-0.71224,0,0,0.5,-0,-0,0.66667
0.39488,0.80231,0.78975,0.45346,1.8735,4.9047,-0.95499,0.31833,-1.2685,-1.2733,-8.2438e-11,-0.63424,0,0,0.5,5.9212e-16,0,0.66667
0.96326,0.9542,1.9265,0.6813,0.19261,0.51575,-3.5001,1.1667,-0.34896,-4.6668,6.8021e-09,-0.17448,0,0,0.5,-0,-0,0.66667
0.17396,0.49282,0.34791,-0.010764,-0.049387,7.6148,0.0099862,-0.0033287,-1.9996,0.013315,3.3761e-10,-0.99979,0,0,0.5,-0,-0,0.66667
0.12633,0.56279,0.25266,0.094185,0.44023,8.2472,-0.063458,0.021153,-1.9697,-0.08461,1.0681e-09,-0.98483,0,0,0.5,-0,-0,0.66667
0.13508,0.38654,0.27016,-0.17019,-0.79695,8.1331,0.12261,-0.040869,-1.8965,0.16348,-3.72e-10,-0.94824,0,0,0.5,-0,-0,0.66667
0.50566,0.27933,1.0113,-0.331,-1.1585,3.627,0.89267,-0.29756,-1.6111,1.1902,-3.7488e-12,-0.80555,0,0,0.5,-0,-0,0.66667
0.021525,0.19526,0.04305,-0.45711,-2.2692,9.6579,0.052476,-0.017492,-1.2568,0.069968,7.5164e-08,-0.62842,0,0,0.5,7.4015e-17,0,0.66667
0.94797,0.55603,1.8959,0.084049,-0.0029752,0.18174,-0.42494,0.14165,-1.9748,-0.56659,-2.1704e-08,-0.98741,0,0,0.5,-0,-0,0.66667
0.82712,0.79877,1.6542,0.44815,0.58692,0.93794,-1.9769,0.65898,-1.2855,-2.6359,4.7192e-10,-0.64275,0,0,0.5,1.1842e-15,0,0.66667
0.015019,0.87567,0.030038,0.56351,2.8615,9.7459,-0.045137,0.015046,-0.87213,-0.060183,-1.3742e-07,-0.43606,0,0,0.5,-3.7007e-17,0,0.66667
0.1762,0.039335,0.35239,-0.691,-3.51,7.66,0.64934,-0.21645,-0.30209,0.86579,1.4966e-09,-0.15104,0,0,0.5,-0,-0,0.66667
0.33206,0.4427,0.66413,-0.085955,-0.3584,5.594,0.15223,-0.050742,-1.9739,0.20297,5.2339e-11,-0.98695,0,0,0.5,-0,-0,0.66667
0.131,0.50089,0.26199,0.0013316,0.006202,8.184,-0.00093035,0.00031011,-2.0009,-0.0012405,-3.5552e-09,-1.0004,0,0,0.5,-0,-0,0.66667
0.80949,0.9747,1.619,0.71206,1.2682,1.2672,-3.0742,1.0247,-0.19734,-4.0989,4.6165e-10,-0.098672,0,0,0.5,-0,-0,0.66667
0.34474,0.29184,0.68947,-0.31224,-1.3168,5.466,0.57408,-0.19136,-1.6531,0.76544,1.4499e-10,-0.82655,0,0,0.5,-0,-0,0.66667
0.94011,0.84743,1.8802,0.52114,0.16574,0.43414,-2.6129,0.87098,-1.0348,-3.4839,-6.4298e-08,-0.51741,0,0,0.5,2.3685e-15,0,0.66667
0.58201,0.85033,1.164,0.52549,1.6972,2.9311,-1.6312,0.54372,-1.0182,-2.1749,3.9407e-11,-0.50908,0,0,0.5,-1.1842e-15,0,0.66667
0.87883,0.39457,1.7577,-0.15814,-0.10386,0.51312,0.74123,-0.24708,-1.9106,0.98831,-1.2579e-09,-0.9553,0,0,0.5,-0,-0,0.66667
0.84473,0.6288,1.6895,0.1932,0.18991,0.71178,-0.87042,0.29014,-1.8678,-1.1606,-8.4916e-10,-0.93392,0,0,0.5,-0,-0,0.66667
0.90539,0.41505,1.8108,-0.12742,-0.050326,0.37358,0.6153,-0.2051,-1.9422,0.8204,-1.0412e-08,-0.97109,0,0,0.5,-0,-0,0.66667
0.45988,0.91288,0.91976,0.61932,2.4896,4.2387,-1.519,0.50634,-0.63611,-2.0254,-5.0425e-12,-0.31806,0,0,0.5,-0,-0,0.66667
0.54635,0.89228,1.0927,0.58842,2.0695,3.3168,-1.7146,0.57152,-0.76857,-2.2861,9.6001e-12,-0.38428,0,0,0.5,-0,-0,0.66667
0.7986,0.060767,1.5972,-0.65885,-1.1851,1.2824,2.8062,-0.93539,-0.45747,3.7416,-1.3909e-09,-0.22873,0,0,0.5,1.6283e-15,0,0.66667
0.28572,0.024953,0.57144,-0.71257,-3.4497,6.2991,1.0858,-0.36195,-0.19464,1.4478,2.6343e-11,-0.097318,0,0,0.5,-0,-0,0.66667
0.49025,0.70925,0.98051,0.31387,1.1206,3.7879,-0.82068,0.27356,-1.6493,-1.0942,-6.4277e-12,-0.82466,0,0,0.5,-5.9212e-16,0,0.66667
0.59911,0.031142,1.1982,-0.70329,-2.355,2.8844,2.2472,-0.74906,-0.24242,2.9962,-1.2785e-12,-0.12121,0,0,0.5,-1.4988e-15,0,0.66667
0.015533,0.94002,0.031067,0.66003,3.4325,9.7408,-0.054676,0.018227,-0.4519,-0.0729,2.2008e-06,-0.22595,0,0,0.5,-0,-0,0.66667
0.59348,0.86699,1.187,0.55048,1.7537,2.8355,-1.7424,0.5808,-0.92259,-2.3232,4.1029e-11,-0.4613,0,0,0.5,-0,4.9051e-16,0.66667
0.43368,0.57866,0.86735,0.118,0.44383,4.3852,-0.27292,0.090972,-1.9499,-0.36389,-2.3832e-11,-0.97495,0,0,0.5,5.9212e-16,0,0.66667
0.80736,0.82224,1.6147,0.48336,0.7327,1.0839,-2.0813,0.69377,-1.1689,-2.7751,1.2939e-09,-0.58445,0,0,0.5,-0,-0,0.66667
0.31524,0.61723,0.63049,0.17584,0.74769,5.8087,-0.29564,0.098548,-1.89,-0.39419,-1.0305e-10,-0.94498,0,0,0.5,-0,-0,0.66667
0.89289,0.51368,1.7858,0.020517,0.010225,0.42182,-0.097701,0.032567,-1.998,-0.13027,2.1808e-08,-0.99901,0,0,0.5,-0,-0,0.66667
0.57786,0.70046,1.1557,0.30069,0.92096,2.8759,-0.92669,0.3089,-1.6782,-1.2356,5.6895e-11,-0.8391,0,0,0.5,-0,-0,0.66667
0.18401,0.33289,0.36802,-0.25067,-1.1618,7.4927,0.24601,-0.082002,-1.7762,0.32801,-3.0192e-10,-0.88808,0,0,0.5,-2.9606e-16,0,0.66667
0.78793,0.74957,1.5759,0.37435,0.59306,1.1448,-1.5731,0.52438,-1.5027,-2.0975,1.7534e-10,-0.75134,0,0,0.5,-1.4063e-15,0,0.66667
0.61203,0.16101,1.2241,-0.50849,-1.5358,2.6378,1.6598,-0.55326,-1.081,2.2131,-7.6732e-11,-0.54048,0,0,0.5,-0,-0,0.66667
0.053909,0.075316,0.10782,-0.63703,-3.2841,9.2367,0.18316,-0.061052,-0.55653,0.24421,1.2971e-07,-0.27826,0,0,0.5,-0,-0,0.66667
0.42019,0.076161,0.84039,-0.63576,-2.6877,4.6866,1.4248,-0.47492,-0.56243,1.8997,1.051e-11,-0.28122,0,0,0.5,5.9212e-16,-5.8276e-16,0.66667
0.67907,0.014685,1.3581,-0.72797,-2.0676,2.2103,2.6365,-0.87883,-0.11509,3.5153,-6.3864e-12,-0.057543,0,0,0.5,-0,-0,0.66667
0.9186,0.96902,1.8372,0.70354,0.53671,0.70354,-3.4468,1.1489,-0.24121,-4.5957,8.0401e-08,-0.1206,0,0,0.5,-0,2.0623e-17,0.66667
0.00040202,0.73607,0.00080405,0.3541,1.728,9.9391,-0.00075924,0.0002531,-1.5538,-0.0010123,3.0247e-08,-0.7769,0,0,0.5,-5.7824e-19,0,0.66667
0.97676,0.16819,1.9535,-0.49772,0.040519,0.28664,2.5928,-0.86426,-1.1186,3.4571,1.3827e-07,-0.55932,0,0,0.5,-0,-0,0.66667
0.37658,0.33489,0.75316,-0.24766,-1.0048,5.071,0.49741,-0.1658,-1.7818,0.66321,8.9211e-11,-0.89088,0,0,0.5,2.9606e-16,0,0.66667
0.97378,0.62236,1.9476,0.18354,-0.049997,0.1107,-0.95322,0.31774,-1.8808,-1.271,-5.2638e-07,-0.94038,0,0,0.5,2.9606e-16,0,0.66667
0.60472,0.84913,1.2094,0.5237,1.6151,2.7144,-1.689,0.563,-1.025,-2.252,6.1869e-11,-0.51249,0,0,0.5,-2.3685e-15,0,0.66667
0.82885,0.61039,1.6577,0.16559,0.18455,0.79978,-0.73198,0.24399,-1.9021,-0.97598,7.2213e-11,-0.95105,0,0,0.5,-0,-0,0.66667
0.57471,0.63837,1.1494,0.20755,0.62951,2.8828,-0.63616,0.21205,-1.8463,-0.84822,4.3445e-11,-0.92315,0,0,0.5,-0,-0,0.66667
0.62808,0.19138,1.2562,-0.46293,-1.3279,2.466,1.5507,-0.5169,-1.2384,2.0676,-1.1817e-10,-0.61921,0,0,0.5,-0,-0,0.66667
0.28558,0.93256,0.57115,0.64883,3.083,6.2788,-0.98822,0.32941,-0.50334,-1.3176,-1.7595e-10,-0.25167,0,0,0.5,2.9606e-16,0,0.66667
0.58683,0.65822,1.1737,0.23733,0.70528,2.7701,-0.74279,0.2476,-1.8004,-0.99038,5.6986e-11,-0.90018,0,0,0.5,-2.3685e-15,0,0.66667
0.75002,0.052986,1.5,-0.67052,-1.4859,1.619,2.6822,-0.89405,-0.40134,3.5762,-3.0113e-10,-0.20067,0,0,0.5,5.9212e-16,0,0.66667
0.85831,0.94407,1.7166,0.66611,0.85332,0.94398,-3.0492,1.0164,-0.42253,-4.0656,7.2601e-09,-0.21127,0,0,0.5,-0,-0,0.66667
0.75508,0.10195,1.5102,-0.59707,-1.2412,1.5208,2.4045,-0.80148,-0.73223,3.2059,-8.1908e-10,-0.36611,0,0,0.5,-0,-0,0.66667
0.69806,0.58231,1.3961,0.12346,0.26755,1.7396,-0.45966,0.15322,-1.9453,-0.61287,8.6514e-11,-0.97264,0,0,0.5,-0,-0,0.66667
0.86448,0.19316,1.729,-0.46025,-0.45287,0.7338,2.122,-0.70734,-1.2469,2.8294,1.7229e-09,-0.62344,0,0,0.5,2.3685e-15,0,0.66667
0.32268,0.015682,0.64536,-0.72648,-3.4449,5.8591,1.2502,-0.41675,-0.12284,1.667,6.4281e-12,-0.061421,0,0,0.5,1.1842e-15,0,0.66667
0.67079,0.14898,1.3416,-0.52653,-1.3889,2.1273,1.8837,-0.6279,-1.0143,2.5116,-2.0612e-10,-0.50716,0,0,0.5,-5.9212e-16,7.7152e-16,0.66667
0.45087,0.66329,0.90175,0.24493,0.9131,4.2076,-0.58898,0.19633,-1.7867,-0.7853,-3.0744e-11,-0.89335,0,0,0.5,-0,-0,0.66667
0.3821,0.65826,0.76421,0.23738,0.95659,5.0036,-0.48376,0.16125,-1.8003,-0.64501,-8.1903e-11,-0.90013,0,0,0.5,-0,-0,0.66667
0.41081,0.60289,0.82162,0.15434,0.598,4.6537,-0.33816,0.11272,-1.915,-0.45088,-4.1798e-11,-0.95749,0,0,0.5,-0,-0,0.66667
0.40148,0.65624,0.80296,0.23436,0.92509,4.7742,-0.50182,0.16727,-1.8058,-0.66909,-6.568e-11,-0.90289,0,0,0.5,2.6599e-16,0,0.66667
0.31738,0.90403,0.63477,0.60605,2.784,5.8771,-1.0259,0.34196,-0.69469,-1.3678,-1.5245e-10,-0.34734,0,0,0.5,1.4803e-16,0,0.66667
0.62192,0.25607,1.2438,-0.3659,-1.034,2.4778,1.2137,-0.40455,-1.5241,1.6182,-1.1221e-10,-0.76203,0,0,0.5,-0,-0,0.66667
0.43025,0.91629,0.86049,0.62444,2.6021,4.5684,-1.4329,0.47762,-0.61314,-1.9105,-1.0182e-11,-0.30657,0,0,0.5,1.1842e-15,0,0.66667
0.9738,0.26277,1.9476,-0.35584,0.06271,0.19109,1.8481,-0.61603,-1.5492,2.4641,-4.9666e-09,-0.7746,0,0,0.5,-2.3685e-15,0,0.66667
0.6778,0.52651,1.3556,0.039763,0.091517,1.9023,-0.14374,0.047914,-1.9945,-0.19166,2.7725e-11,-0.99727,0,0,0.5,-0,-0,0.66667
0.19857,0.55568,0.39714,0.083525,0.37979,7.2928,-0.088456,0.029485,-1.9751,-0.11794,-3.8285e-10,-0.98756,0,0,0.5,-2.9606e-16,0,0.66667
0.4267,0.66776,0.8534,0.25163,0.96743,4.4842,-0.57265,0.19088,-1.7744,-0.76354,-4.8452e-11,-0.88718,0,0,0.5,-0,-0,0.66667
0.34335,0.20883,0.68669,-0.43675,-1.8864,5.5114,0.79977,-0.26659,-1.3216,1.0664,1.8612e-10,-0.6608,0,0,0.5,-0,-0,0.66667
0.79764,0.69944,1.5953,0.29916,0.43365,1.0441,-1.2726,0.42421,-1.6815,-1.6968,-1.5829e-10,-0.84074,0,0,0.5,-0,-0,0.66667
0.88,0.89083,1.76,0.58625,0.57236,0.75631,-2.7515,0.91716,-0.77735,-3.6686,6.214e-09,-0.38868,0,0,0.5,-0,-0,0.66667
0.90384,0.68531,1.8077,0.27797,0.13153,0.42999,-1.3399,0.44665,-1.726,-1.7866,-3.1132e-09,-0.86301,0,0,0.5,-2.9606e-16,0,0.66667
0.66272,0.6735,1.3254,0.26025,0.64487,2.0725,-0.91986,0.30662,-1.7585,-1.2265,1.2871e-10,-0.87926,0,0,0.5,-0,-0,0.66667
0.27021,0.57254,0.54042,0.1088,0.47578,6.3696,-0.1568,0.052266,-1.9575,-0.20906,-1.032e-10,-0.97875,0,0,0.5,-0,-0,0.66667
0.25237,0.90755,0.50473,0.61133,2.9331,6.6785,-0.82282,0.27427,-0.67211,-1.0971,-6.4454e-10,-0.33606,0,0,0.5,5.9212e-16,0,0.66667
0.8549,0.60397,1.7098,0.15596,0.13683,0.64332,-0.71108,0.23703,-1.9131,-0.94811,1.5698e-10,-0.95655,0,0,0.5,-0,-0,0.66667
0.52771,0.4464,1.0554,-0.080401,-0.26303,3.3459,0.22629,-0.075429,-1.9768,0.30171,-6.7681e-12,-0.98838,0,0,0.5,1.1842e-15,0,0.66667
0.80216,0.39913,1.6043,-0.1513,-0.20303,0.96683,0.64728,-0.21576,-1.9185,0.86304,-1.4251e-10,-0.95924,0,0,0.5,-5.9212e-16,0,0.66667
0.57249,0.070747,1.145,-0.64388,-2.2098,3.0939,1.9659,-0.65531,-0.52566,2.6213,-7.5098e-12,-0.26283,0,0,0.5,1.1842e-15,0,0.66667
0.73314,0.94816,1.4663,0.67224,1.5811,1.7426,-2.6285,0.87617,-0.39297,-3.5047,1.8661e-10,-0.19648,0,0,0.5,-0,5.3227e-16,0.66667
0.51901,0.096499,1.038,-0.60525,-2.2353,3.6039,1.6754,-0.55846,-0.69808,2.2338,-2.7233e-12,-0.34904,0,0,0.5,1.1842e-15,0,0.66667
0.77088,0.68874,1.5418,0.28311,0.47101,1.2213,-1.164,0.38798,-1.7158,-1.5519,1.9001e-11,-0.85792,0,0,0.5,-2.3685e-15,0,0.66667
0.56886,0.32867,1.1377,-0.257,-0.79479,2.9528,0.7797,-0.2599,-1.7645,1.0396,-4.5661e-11,-0.88225,0,0,0.5,1.1842e-15,0,0.66667
0.46571,0.26073,0.93142,-0.3589,-1.3376,4.0698,0.89143,-0.29714,-1.5416,1.1886,2.2944e-11,-0.77081,0,0,0.5,-0,-0,0.66667
0.34269,0.83409,0.68538,0.50114,2.197,5.5377,-0.91591,0.3053,-1.1069,-1.2212,-1.749e-10,-0.55344,0,0,0.5,-0,-0,0.66667
0.068209,0.32015,0.13642,-0.26978,-1.2951,9.0292,0.09814,-0.032713,-1.741,0.13085,-2.1821e-09,-0.87051,0,0,0.5,-0,-0,0.66667
0.37792,0.6022,0.75585,0.1533,0.61511,5.0423,-0.30898,0.10299,-1.9163,-0.41198,-5.9545e-11,-0.95813,0,0,0.5,-0,-0,0.66667
0.079626,0.7934,0.15925,0.44011,2.164,8.885,-0.1869,0.0623,-1.3109,-0.2492,1.357e-09,-0.65547,0,0,0.5,-0,-0,0.66667
0.98282,0.91129,1.9656,0.61694,-0.0042717,0.38432,-3.2338,1.0779,-0.64703,-4.3117,4.7609e-07,-0.32352,0,0,0.5,-0,3.2041e-16,0.66667
0.18161,0.26992,0.36323,-0.34513,-1.6213,7.5332,0.33429,-0.11143,-1.576,0.44572,-2.9463e-10,-0.78798,0,0,0.5,2.9606e-16,0,0.66667
0.81186,0.75257,1.6237,0.37885,0.52417,0.99053,-1.6404,0.5468,-1.4905,-2.1872,-6.7927e-11,-0.74523,0,0,0.5,-0,-0,0.66667
0.87496,0.75787,1.7499,0.3868,0.31801,0.63045,-1.805,0.60166,-1.4681,-2.4067,-1.5323e-09,-0.73405,0,0,0.5,-0,-0,0.66667
0.68841,0.50119,1.3768,0.0017857,0.0039668,1.8109,-0.0065561,0.0021854,-2.001,-0.0087415,1.5356e-12,-1.0005,0,0,0.5,-4.737e-15,0,0.66667
0.56949,0.1455,1.139,-0.53175,-1.7619,3.0561,1.6151,-0.53836,-0.99415,2.1534,-2.9168e-11,-0.49707,0,0,0.5,5.9212e-16,0,0.66667
0.16097,0.39547,0.32194,-0.15679,-0.7271,7.7897,0.13461,-0.04487,-1.9121,0.17948,1.3454e-11,-0.95606,0,0,0.5,-1.4803e-16,0,0.66667
0.46688,0.13774,0.93376,-0.54339,-2.1158,4.1259,1.3531,-0.45102,-0.94971,1.8041,1.0308e-11,-0.47486,0,0,0.5,1.1842e-15,0,0.66667
0.34517,0.58735,0.69034,0.13102,0.54144,5.4361,-0.2412,0.080401,-1.9391,-0.3216,-6.8369e-11,-0.96955,0,0,0.5,5.9212e-16,0,0.66667
0.22504,0.22191,0.45008,-0.41714,-1.944,6.9817,0.50065,-0.16688,-1.3817,0.66754,5.2636e-10,-0.69087,0,0,0.5,-5.9212e-16,0,0.66667
0.59251,0.67916,1.185,0.26873,0.79345,2.7232,-0.84922,0.28307,-1.7431,-1.1323,6.6355e-11,-0.87157,0,0,0.5,-0,-0,0.66667
0.31227,0.47161,0.62454,-0.042588,-0.18023,5.8376,0.070928,-0.023643,-1.9943,0.09457,3.275e-11,-0.99716,0,0,0.5,1.1842e-15,0,0.66667
0.91631,0.91367,1.8326,0.6205,0.41656,0.62337,-3.0324,1.0108,-0.63084,-4.0432,1.0004e-08,-0.31542,0,0,0.5,-0,-0,0.66667
0.90964,0.17183,1.8193,-0.49225,-0.28959,0.53643,2.3881,-0.79604,-1.1379,3.1841,1.0419e-08,-0.56893,0,0,0.5,-1.1842e-15,0,0.66667
0.25712,0.53442,0.51424,0.051628,0.22717,6.5344,-0.070797,0.023599,-1.9909,-0.094396,-7.7582e-11,-0.99547,0,0,0.5,5.9212e-16,0,0.66667
0.11089,0.86258,0.22178,0.54387,2.7146,8.4814,-0.32166,0.10722,-0.94788,-0.42888,7.3027e-10,-0.47394,0,0,0.5,-0,-0,0.66667
0.19296,0.99456,0.38593,0.74184,3.7998,7.4594,-0.76345,0.25448,-0.043355,-1.0179,5.328e-11,-0.021677,0,0,0.5,-8.8818e-16,0,0.66667
0.49958,0.71834,0.99917,0.32751,1.1561,3.691,-0.87262,0.29087,-1.6199,-1.1635,-3.0392e-13,-0.80993,0,0,0.5,6.6613e-16,0,0.66667
0.72859,0.25635,1.4572,-0.36547,-0.75193,1.5702,1.4202,-0.47338,-1.525,1.8935,-2.9585e-10,-0.76251,0,0,0.5,-2.3685e-15,0,0.66667
0.20819,0.34881,0.41639,-0.22678,-1.0369,7.1754,0.25181,-0.083937,-1.8173,0.33575,-8.0444e-11,-0.90864,0,0,0.5,-0,-0,0.66667
0.24803,0.42095,0.49607,-0.11857,-0.52604,6.6533,0.15685,-0.052284,-1.9495,0.20914,1.3134e-10,-0.97476,0,0,0.5,-0,-0,0.66667
0.85167,0.62289,1.7033,0.18434,0.16899,0.66906,-0.8373,0.2791,-1.8798,-1.1164,-8.9183e-10,-0.93989,0,0,0.5,5.9212e-16,0,0.66667
0.41585,0.92533,0.8317,0.63799,2.7113,4.7366,-1.415,0.47166,-0.55221,-1.8866,-1.1204e-11,-0.27611,0,0,0.5,5.9212e-16,0,0.66667
0.61669,0.80406,1.2334,0.45609,1.3397,2.5671,-1.5001,0.50002,-1.2601,-2.0001,9.9099e-11,-0.63004,0,0,0.5,-0,-0,0.66667
0.23367,0.01841,0.46733,-0.72239,-3.6119,6.9437,0.90025,-0.30008,-0.14421,1.2003,8.5603e-11,-0.072106,0,0,0.5,-0,-0,0.66667
0.10197,0.34928,0.20393,-0.22608,-1.0734,8.5763,0.12295,-0.040984,-1.8183,0.16393,-3.543e-09,-0.90915,0,0,0.5,-0,-0,0.66667
0.51586,0.46645,1.0317,-0.05032,-0.16773,3.4696,0.13844,-0.046147,-1.9919,0.18459,-2.4666e-12,-0.99593,0,0,0.5,5.9212e-16,0,0.66667
0.47714,0.213,0.95428,-0.43049,-1.6049,3.9679,1.0955,-0.36517,-1.3411,1.4607,1.3188e-11,-0.67054,0,0,0.5,2.9606e-16,0,0.66667
0.15267,0.02292,0.30534,-0.71562,-3.6903,7.9655,0.58269,-0.19423,-0.17895,0.77692,1.7399e-09,-0.089475,0,0,0.5,-0,-0,0.66667
0.62181,0.75101,1.2436,0.37651,1.0674,2.4832,-1.2486,0.41621,-1.4969,-1.6648,1.1346e-10,-0.74844,0,0,0.5,-2.3685e-15,0,0.66667
0.54401,0.69071,1.088,0.28607,0.93158,3.2123,-0.83,0.27667,-1.7096,-1.1067,2.9474e-11,-0.85478,0,0,0.5,-0,-0,0.66667
0.65414,0.1128,1.3083,-0.58081,-1.6365,2.3049,2.0263,-0.67542,-0.80017,2.7017,-1.0717e-10,-0.40008,0,0,0.5,-0,-0,0.66667
0.14455,0.12956,0.28909,-0.55567,-2.7554,8.0435,0.42837,-0.14279,-0.90243,0.57116,4.1347e-09,-0.45122,0,0,0.5,-0,-0,0.66667
0.75153,0.27947,1.5031,-0.3308,-0.61239,1.3811,1.3259,-0.44197,-1.6118,1.7679,-1.8662e-10,-0.8059,0,0,0.5,1.4803e-16,0,0.66667
0.22205,0.25541,0.4441,-0.36688,-1.6974,7.0123,0.43448,-0.14483,-1.5216,0.57931,2.1352e-10,-0.76079,0,0,0.5,-0,-0,0.66667
0.51935,0.46352,1.0387,-0.05472,-0.18137,3.4326,0.15157,-0.050523,-1.9895,0.20209,-3.2458e-12,-0.99476,0,0,0.5,-5.9212e-16,0,0.66667
0.7853,0.42123,1.5706,-0.11816,-0.17434,1.0746,0.49488,-0.16496,-1.9498,0.65984,-2.1183e-10,-0.97488,0,0,0.5,-0,-0,0.66667
0.02233,0.58435,0.044661,0.12653,0.60278,9.6433,-0.015067,0.0050227,-1.9427,-0.02009,3.4212e-07,-0.97134,0,0,0.5,-0,-0,0.66667
0.32436,0.65355,0.64872,0.23033,0.9775,5.7022,-0.39846,0.13282,-1.812,-0.53127,-1.2289e-10,-0.90598,0,0,0.5,6.6613e-16,0,0.66667
0.87292,0.19874,1.7458,-0.45189,-0.40572,0.68346,2.1038,-0.70128,-1.2736,2.8051,2.0221e-09,-0.63678,0,0,0.5,-0,-0,0.66667
0.84471,0.51017,1.6894,0.015252,0.014405,0.68407,-0.068714,0.022905,-1.999,-0.091618,-5.5092e-10,-0.99948,0,0,0.5,-0,-0,0.66667
0.53844,0.56601,1.0769,0.099019,0.31824,3.2352,-0.28435,0.094784,-1.9655,-0.37914,1.1443e-11,-0.98274,0,0,0.5,-1.1842e-15,0,0.66667
0.86661,0.38999,1.7332,-0.16502,-0.12753,0.58027,0.76269,-0.25423,-1.9025,1.0169,8.9855e-10,-0.95125,0,0,0.5,-0,-0,0.66667
0.94981,0.8486,1.8996,0.52291,0.11618,0.39949,-2.6488,0.88295,-1.028,-3.5318,9.2745e-09,-0.51402,0,0,0.5,-2.3685e-15,0,0.66667
0.82641,0.60697,1.6528,0.16046,0.18201,0.81359,-0.70721,0.23574,-1.908,-0.94295,1.1377e-10,-0.95401,0,0,0.5,-0,-0,0.66667
0.85412,0.52038,1.7082,0.030564,0.026296,0.63002,-0.13923,0.04641,-1.9962,-0.18564,9.2954e-10,-0.9981,0,0,0.5,-0,-0,0.66667
0.098743,0.73637,0.19749,0.35456,1.712,8.6259,-0.18672,0.062241,-1.5524,-0.24896,2.6232e-09,-0.7762,0,0,0.5,-1.4803e-16,0,0.66667
0.6513,0.435,1.3026,-0.097499,-0.2435,2.1397,0.33868,-0.11289,-1.9668,0.45157,-5.1491e-11,-0.98339,0,0,0.5,1.6283e-15,0,0.66667
0.70352,0.62066,1.407,0.18099,0.38811,1.7055,-0.67911,0.22637,-1.884,-0.90547,1.1155e-10,-0.94202,0,0,0.5,-0,-0,0.66667
0.61024,0.35589,1.2205,-0.21617,-0.60794,2.5395,0.70354,-0.23451,-1.8335,0.93806,-7.0174e-11,-0.91676,0,0,0.5,-0,-0,0.66667
0.79962,0.88475,1.5992,0.57712,0.97266,1.2042,-2.4612,0.8204,-0.81544,-3.2816,2.2379e-09,-0.40772,0,0,0.5,-0,-0,0.66667
0.034571,0.93998,0.069142,0.65997,3.4288,9.4913,-0.12169,0.040562,-0.45197,-0.16225,-4.6016e-07,-0.22599,0,0,0.5,-0,-0,0.66667
0.77024,0.15509,1.5405,-0.51737,-0.9641,1.3542,2.1253,-0.70844,-1.0491,2.8337,-1.1865e-09,-0.52457,0,0,0.5,-0,-0,0.66667
0.73173,0.61159,1.4635,0.16738,0.32195,1.4774,-0.65321,0.21774,-1.8999,-0.87095,1.1295e-10,-0.94994,0,0,0.5,-1.1842e-15,0,0.66667
0.2597,0.55495,0.5194,0.08243,0.36248,6.5024,-0.11417,0.038057,-1.9756,-0.15223,-1.028e-10,-0.98782,0,0,0.5,-0,-0,0.66667
0.25707,0.081222,0.51414,-0.62817,-3.0194,6.6246,0.86124,-0.28708,-0.59639,1.1483,4.7863e-10,-0.2982,0,0,0.5,-0,-0,0.66667
0.6323,0.95857,1.2646,0.68785,2.1381,2.5731,-2.3196,0.77321,-0.31724,-3.0929,1.025e-11,-0.15862,0,0,0.5,-0,-0,0.66667
0.3453,0.50138,0.69059,0.0020751,0.0085351,5.4293,-0.0038215,0.0012738,-2.0009,-0.0050953,-1.296e-12,-1.0005,0,0,0.5,-0,-0,0.66667
0.79659,0.49989,1.5932,-0.00016278,-0.00022213,0.98775,0.00069157,-0.00023052,-2.0013,0.0009221,-9.229e-11,-1.0007,0,0,0.5,1.8966e-15,0,0.66667
0.44615,0.54442,0.89229,0.066626,0.24605,4.239,-0.15853,0.052844,-1.9836,-0.21138,-1.1127e-11,-0.99179,0,0,0.5,-0,-0,0.66667
0.78275,0.6879,1.5655,0.28185,0.44101,1.1378,-1.1766,0.39221,-1.7187,-1.5689,-7.2068e-11,-0.85935,0,0,0.5,-0,-0,0.66667
0.99047,0.67713,1.9809,0.2657,-0.10866,0.090114,-1.4036,0.46785,-1.7485,-1.8714,1.4645e-08,-0.87426,0,0,0.5,1.1842e-15,0,0.66667
0.30025,0.3487,0.6005,-0.22695,-0.98102,6.0011,0.36342,-0.12114,-1.8171,0.48456,1.2932e-10,-0.90855,0,0,0.5,-0,-0,0.66667
0.14301,0.21311,0.28601,-0.43034,-2.0798,8.0478,0.32822,-0.10941,-1.3417,0.43762,-8.643e-10,-0.67086,0,0,0.5,-2.2204e-16,0,0.66667
0.90131,0.60768,1.8026,0.16153,0.071796,0.401,-0.77646,0.25882,-1.9066,-1.0353,-7.1128e-09,-0.95331,0,0,0.5,-0,-0,0.66667
0.54156,0.77411,1.0831,0.41117,1.382,3.2795,-1.1876,0.39587,-1.3987,-1.5835,2.6333e-11,-0.69937,0,0,0.5,8.8818e-16,0,0.66667
0.97474,0.61732,1.9495,0.17598,-0.050182,0.10515,-0.91486,0.30495,-1.8897,-1.2198,-5.3188e-08,-0.94483,0,0,0.5,-0,-0,0.66667
0.6366,0.46662,1.2732,-0.050077,-0.12976,2.269,0.17002,-0.056674,-1.9918,0.2267,-2.4053e-11,-0.99588,0,0,0.5,-1.6283e-15,0,0.66667
0.99391,0.27526,1.9878,-0.3371,0.1351,0.11804,1.7869,-0.59565,-1.5959,2.3826,2.5641e-10,-0.79797,0,0,0.5,5.9212e-16,0,0.66667
0.54607,0.10574,1.0921,-0.59139,-2.0831,3.3212,1.7224,-0.57412,-0.75614,2.2965,-9.1986e-12,-0.37807,0,0,0.5,1.1842e-15,0,0.66667
0.52643,0.39061,1.0529,-0.16408,-0.54145,3.369,0.46067,-0.15356,-1.9036,0.61423,-1.2145e-11,-0.95182,0,0,0.5,-1.1842e-15,0,0.66667
0.13543,0.69224,0.27086,0.28837,1.3664,8.135,-0.20828,0.069427,-1.7045,-0.27771,3.2238e-10,-0.85226,0,0,0.5,2.9606e-16,0,0.66667
0.35571,0.048348,0.71141,-0.67748,-3.0833,5.4476,1.2852,-0.42841,-0.36752,1.7137,1.8776e-11,-0.18376,0,0,0.5,-5.9212e-16,-7.6412e-16,0.66667
0.026219,0.56508,0.052437,0.09762,0.4643,9.5908,-0.013651,0.0045521,-1.9667,-0.018201,2.5168e-06,-0.98334,0,0,0.5,-0,-0,0.66667
0.1604,0.055937,0.32079,-0.6661,-3.379,7.857,0.5698,-0.18993,-0.42243,0.75974,4.476e-09,-0.21122,0,0,0.5,1.4803e-16,0,0.66667
0.74564,0.14103,1.4913,-0.53846,-1.123,1.5445,2.1413,-0.71377,-0.96849,2.8551,-7.8775e-10,-0.48424,0,0,0.5,-1.1842e-15,0,0.66667
0.0304,0.50571,0.060799,0.0085664,0.040644,9.5342,-0.0013885,0.00046571,-2,-0.0018499,4.3083e-06,-1,0,0,0.5,-0,-0,0.66667
0.36654,0.95013,0.73309,0.67519,3.0425,5.3197,-1.3199,0.43997,-0.37849,-1.7599,-1.5501e-11,-0.18924,0,0,0.5,-5.9212e-16,0,0.66667
0.86235,0.0080939,1.7247,-0.73786,-0.99502,1.0002,3.3935,-1.1312,-0.064071,4.5247,3.2508e-09,-0.032036,0,0,0.5,4.737e-15,0,0.66667
0.69268,0.3833,1.3854,-0.17505,-0.3891,1.7938,0.64667,-0.21556,-1.8908,0.86222,-1.0591e-10,-0.94539,0,0,0.5,-0,-0,0.66667
0.69094,0.14015,1.3819,-0.53977,-1.3527,1.9685,1.9891,-0.66302,-0.9635,2.6521,-2.8284e-10,-0.48175,0,0,0.5,-0,-0,0.66667
0.18864,0.91449,0.37727,0.62174,3.0845,7.4865,-0.62551,0.2085,-0.62551,-0.83401,-2.7484e-09,-0.31276,0,0,0.5,5.9212e-16,0,0.66667
0.4419,0.37747,0.88381,-0.18379,-0.68802,4.2988,0.43316,-0.14439,-1.8805,0.57754,3.0229e-11,-0.94025,0,0,0.5,-0,-0,0.66667
0.58158,0.72005,1.1632,0.33007,1.0097,2.8489,-1.0238,0.34127,-1.6135,-1.3651,6.2493e-11,-0.80674,0,0,0.5,-0,-0,0.66667
0.98975,0.53793,1.9795,0.056899,-0.026817,0.032999,-0.30035,0.10011,-1.9884,-0.40047,-2.7767e-06,-0.9942,0,0,0.5,-0,-0,0.66667
0.20391,0.43516,0.40781,-0.097265,-0.44139,7.2236,0.10578,-0.035259,-1.9672,0.14103,3.5184e-10,-0.98359,0,0,0.5,1.1102e-16,0,0.66667
0.24773,0.10903,0.49547,-0.58645,-2.8028,6.7298,0.77484,-0.25828,-0.77665,1.0331,8.093e-10,-0.38832,0,0,0.5,-0,-0,0.66667
0.26217,0.87064,0.52435,0.55596,2.6152,6.5412,-0.77738,0.25913,-0.90131,-1.0365,-6.7734e-10,-0.45066,0,0,0.5,-1.4803e-16,0,0.66667
0.75017,0.16266,1.5003,-0.50601,-1.0192,1.4889,2.0245,-0.67484,-1.0898,2.6993,-8.293e-10,-0.54492,0,0,0.5,-0,-0,0.66667
0.45698,0.75884,0.91395,0.38826,1.4725,4.1758,-0.94628,0.31543,-1.4637,-1.2617,-2.8551e-11,-0.73187,0,0,0.5,-0,-0,0.66667
0.056929,0.63569,0.11386,0.20353,0.97198,9.1786,-0.061796,0.020599,-1.8522,-0.082395,6.6815e-08,-0.92612,0,0,0.5,-0,-0,0.66667
0.50852,0.45822,1.017,-0.062668,-0.2115,3.5488,0.16996,-0.056654,-1.9855,0.22661,-1.6369e-12,-0.99277,0,0,0.5,-0,-0,0.66667
0.21196,0.051528,0.42392,-0.67271,-3.3499,7.2021,0.76047,-0.25349,-0.39046,1.014,8.2431e-10,-0.19523,0,0,0.5,2.9606e-16,0,0.66667
0.7986,0.30729,1.5972,-0.28906,-0.41486,1.0335,1.2312,-0.41039,-1.7032,1.6416,1.7658e-10,-0.85159,0,0,0.5,1.7764e-15,0,0.66667
0.29733,0.52923,0.59466,0.043851,0.18771,6.0244,-0.069537,0.023179,-1.9941,-0.092716,-3.9433e-11,-0.99703,0,0,0.5,-2.9606e-16,0,0.66667
0.027606,0.46876,0.055212,-0.046866,-0.22253,9.5719,0.0068992,-0.0022971,-1.9933,0.0092002,3.8876e-06,-0.99665,0,0,0.5,-0,-0,0.66667
0.59343,0.62718,1.1869,0.19077,0.55505,2.6954,-0.60378,0.20126,-1.8715,-0.80504,5.2702e-11,-0.93575,0,0,0.5,-0,-0,0.66667
0.84384,0.30896,1.6877,-0.28656,-0.29729,0.75062,1.2897,-0.42988,-1.7087,1.7195,8.9455e-10,-0.85435,0,0,0.5,-5.9212e-16,0,0.66667
0.38102,0.89776,0.76203,0.59664,2.5923,5.118,-1.2124,0.40414,-0.73399,-1.6166,-4.3803e-11,-0.367,0,0,0.5,2.9606e-16,0,0.66667
0.74986,0.95443,1.4997,0.68164,1.5221,1.6302,-2.726,0.90868,-0.34762,-3.6347,2.3051e-10,-0.17381,0,0,0.5,1.1842e-15,0,0.66667
0.51114,0.4202,1.0223,-0.11969,-0.40354,3.5254,0.32629,-0.10876,-1.9485,0.43506,-3.9144e-12,-0.97423,0,0,0.5,-0,-0,0.66667
0.54095,0.70737,1.0819,0.31106,1.0233,3.251,-0.89743,0.29914,-1.6554,-1.1966,2.7812e-11,-0.82772,0,0,0.5,-5.9212e-16,0,0.66667
0.95943,0.57324,1.9189,0.10986,-0.016141,0.14254,-0.56213,0.18738,-1.9566,-0.74951,9.3151e-08,-0.9783,0,0,0.5,-0,-0,0.66667
0.80396,0.57202,1.6079,0.10803,0.14204,0.94693,-0.4632,0.1544,-1.9581,-0.6176,3.6842e-10,-0.97905,0,0,0.5,-0,-0,0.66667
0.032323,0.24778,0.064646,-0.37832,-1.8511,9.5123,0.065219,-0.02174,-1.4919,0.086959,3.8196e-09,-0.74596,0,0,0.5,-0,-0,0.66667
0.70939,0.71073,1.4188,0.3161,0.68586,1.7,-1.1959,0.39864,-1.6445,-1.5946,2.0232e-10,-0.82224,0,0,0.5,1.1842e-15,0,0.66667
0.465,0.32335,0.93,-0.26497,-0.97234,4.0534,0.65713,-0.21904,-1.7499,0.87617,2.2293e-11,-0.87497,0,0,0.5,-0,-0,0.66667
0.94755,0.90312,1.8951,0.60468,0.20599,0.4854,-3.0558,1.0186,-0.7004,-4.0744,-1.9844e-07,-0.3502,0,0,0.5,2.8053e-16,0,0.66667
0.22143,0.92424,0.44287,0.63635,3.1235,7.0734,-0.75152,0.25051,-0.55969,-1.002,-1.0524e-09,-0.27984,0,0,0.5,-0,-0,0.66667
0.26707,0.027346,0.53414,-0.70898,-3.4675,6.526,1.0099,-0.33662,-0.21328,1.3465,4.5316e-11,-0.10664,0,0,0.5,2.9606e-16,0,0.66667
0.081474,0.59929,0.16295,0.14893,0.70556,8.8481,-0.064714,0.021571,-1.9213,-0.086285,6.0373e-09,-0.96064,0,0,0.5,-0,-0,0.66667
0.42862,0.26328,0.85724,-0.35508,-1.3852,4.4861,0.8117,-0.27057,-1.5511,1.0823,5.2792e-11,-0.77554,0,0,0.5,-0,-0,0.66667
0.10902,0.46135,0.21804,-0.057968,-0.27187,8.4776,0.033704,-0.011235,-1.9881,0.044939,-1.1259e-09,-0.99407,0,0,0.5,1.4803e-16,0,0.66667
0.63379,0.33156,1.2676,-0.25267,-0.6756,2.3295,0.85406,-0.28469,-1.7724,1.1388,-9.9987e-11,-0.88621,0,0,0.5,5.9212e-16,0,0.66667
0.80296,0.89313,1.6059,0.58969,0.98593,1.1934,-2.5253,0.84178,-0.76299,-3.3671,2.4112e-09,-0.3815,0,0,0.5,-1.1842e-15,0,0.66667
0.6968,0.209,1.3936,-0.4365,-1.0293,1.8586,1.6222,-0.54072,-1.3221,2.1629,-3.2038e-10,-0.66106,0,0,0.5,5.9212e-16,0,0.66667
0.76621,0.18089,1.5324,-0.47867,-0.88865,1.356,1.956,-0.65202,-1.1855,2.6081,-9.0009e-10,-0.59276,0,0,0.5,-0,-0,0.66667
0.34245,0.071596,0.68491,-0.64261,-2.9256,5.5898,1.1737,-0.39122,-0.53161,1.5649,5.238e-11,-0.2658,0,0,0.5,5.9212e-16,0,0.66667
0.84585,0.9988,1.6917,0.74821,1.1333,1.0981,-3.3753,1.1251,-0.010505,-4.5004,1.0197e-09,-0.0052524,0,0,0.5,1.3323e-15,0,0.66667
0.42877,0.20554,0.85754,-0.44169,-1.7543,4.5107,1.01,-0.33668,-1.3057,1.3467,4.6716e-11,-0.65285,0,0,0.5,-0,-0,0.66667
0.82401,0.509,1.648,0.013498,0.015233,0.80976,-0.05932,0.019773,-1.9991,-0.079093,1.8069e-10,-0.99953,0,0,0.5,-0,-0,0.66667
0.6265,0.23424,1.253,-0.39864,-1.1248,2.4495,1.332,-0.444,-1.4345,1.776,-1.2099e-10,-0.71725,0,0,0.5,-0,-0,0.66667
0.14342,0.33686,0.28685,-0.2447,-1.1507,8.0264,0.18718,-0.062393,-1.7871,0.24957,-8.6741e-10,-0.89354,0,0,0.5,-1.4803e-16,0,0.66667
0.078387,0.42365,0.15677,-0.11453,-0.54183,8.8888,0.047881,-0.01596,-1.953,0.063842,-1.7283e-08,-0.9765,0,0,0.5,-0,-0,0.66667
0.018333,0.35307,0.036665,-0.2204,-1.0576,9.6978,0.021549,-0.0071831,-1.827,0.028732,-1.4963e-07,-0.91351,0,0,0.5,-0,-0,0.66667
0.066725,0.97154,0.13345,0.70731,3.7099,9.0744,-0.25171,0.083902,-0.22175,-0.33561,-1.7335e-08,-0.11088,0,0,0.5,-0,-0,0.66667
0.45858,0.0013703,0.91717,-0.74794,-3.1478,4.3245,1.8293,-0.60977,-0.011721,2.4391,-7.7605e-14,-0.0058606,0,0,0.5,2.3685e-15,0,0.66667
0.11334,0.96778,0.22668,0.70167,3.6431,8.4691,-0.42416,0.14139,-0.25034,-0.56554,-1.4327e-08,-0.12517,0,0,0.5,2.1279e-16,0,0.66667
0.027783,0.34728,0.055567,-0.22908,-1.0997,9.5707,0.033944,-0.011315,-1.8139,0.045259,1.7859e-07,-0.90693,0,0,0.5,-0,-0,0.66667
0.75486,0.18688,1.5097,-0.46968,-0.91106,1.4312,1.8909,-0.6303,-1.2166,2.5212,-7.5908e-10,-0.6083,0,0,0.5,1.2212e-15,0,0.66667
0.39485,0.25428,0.7897,-0.36858,-1.4962,4.8805,0.77618,-0.25873,-1.5173,1.0349,8.9693e-11,-0.75863,0,0,0.5,-0,-0,0.66667
0.74694,0.36221,1.4939,-0.20668,-0.37589,1.3708,0.82334,-0.27445,-1.8476,1.0978,-9.9251e-11,-0.92381,0,0,0.5,-0,-0,0.66667
0.4524,0.14295,0.90481,-0.53558,-2.1187,4.2816,1.2923,-0.43075,-0.97973,1.723,1.6965e-11,-0.48986,0,0,0.5,-0,-0,0.66667
0.45009,0.72696,0.90017,0.34044,1.2902,4.2388,-0.81722,0.27241,-1.5877,-1.0896,-3.4897e-11,-0.79387,0,0,0.5,-0,-0,0.66667
0.47807,0.38599,0.95615,-0.17101,-0.60903,3.8914,0.43602,-0.14534,-1.8955,0.58136,1.0383e-11,-0.94775,0,0,0.5,-0,-0,0.66667
0.474,0.36327,0.94801,-0.2051,-0.7374,3.9418,0.5185,-0.17283,-1.8499,0.69133,1.4138e-11,-0.92495,0,0,0.5,-0,-0,0.66667
0.80316,0.22394,1.6063,-0.4141,-0.61595,1.0663,1.7738,-0.59127,-1.3904,2.3651,-3.675e-10,-0.6952,0,0,0.5,-2.3685e-15,0,0.66667
0.40239,0.26003,0.80479,-0.35996,-1.4473,4.7902,0.7725,-0.2575,-1.5389,1.03,7.9981e-11,-0.76947,0,0,0.5,-0,-0,0.66667
0.90469,0.54607,1.8094,0.069107,0.026941,0.36772,-0.33344,0.11115,-1.9826,-0.44459,5.7173e-09,-0.99128,0,0,0.5,1.1842e-15,0,0.66667
0.037061,0.36103,0.074122,-0.20845,-0.998,9.4457,0.041202,-0.013734,-1.8449,0.054936,5.139e-08,-0.92244,0,0,0.5,-7.4015e-17,0,0.66667
0.77387,0.022193,1.5477,-0.71671,-1.497,1.4983,2.9581,-0.98603,-0.17323,3.9441,-1.365e-10,-0.086614,0,0,0.5,-0,-0,0.66667
0.12564,0.30208,0.25128,-0.29688,-1.4123,8.2652,0.19893,-0.066311,-1.6864,0.26524,-1.1095e-09,-0.84321,0,0,0.5,-1.4803e-16,0,0.66667
0.61851,0.73591,1.237,0.35386,1.0048,2.5047,-1.1673,0.3891,-1.5541,-1.5564,1.0573e-10,-0.77706,0,0,0.5,-7.3247e-16,0,0.66667
0.010364,0.67108,0.020729,0.25662,1.2363,9.8051,-0.014185,0.0047282,-1.7652,-0.018913,-4.1397e-08,-0.88261,0,0,0.5,-0,-0,0.66667
0.53863,0.61673,1.0773,0.1751,0.56636,3.2433,-0.503,0.16767,-1.8907,-0.67066,1.8842e-11,-0.94535,0,0,0.5,5.9212e-16,0,0.66667
0.003018,0.17081,0.0060359,-0.49378,-2.4703,9.9044,0.0079478,-0.0026492,-1.1325,0.010597,4.0352e-08,-0.56627,0,0,0.5,-0,1.1788e-15,0.66667
0.95119,0.70633,1.9024,0.30949,0.0073979,0.24426,-1.5701,0.52335,-1.659,-2.0934,-1.0604e-08,-0.82951,0,0,0.5,-0,-0,0.66667
0.9054,0.10992,1.8108,-0.58512,-0.42891,0.63601,2.8254,-0.94181,-0.78228,3.7672,-3.1477e-09,-0.39114,0,0,0.5,-1.1842e-15,5.914e-16,0.66667
0.79597,0.86274,1.5919,0.54411,0.91303,1.2014,-2.3098,0.76994,-0.94702,-3.0798,1.9338e-09,-0.47351,0,0,0.5,1.1842e-15,-6.5581e-16,0.66667
0.91527,0.80119,1.8305,0.45178,0.22308,0.48052,-2.2053,0.73511,-1.2738,-2.9404,-8.9229e-10,-0.63688,0,0,0.5,-0,-0,0.66667
0.14556,0.38076,0.29112,-0.17885,-0.83529,7.9945,0.13885,-0.046282,-1.8863,0.18513,-3.7026e-10,-0.94315,0,0,0.5,-0,-0,0.66667
0.15773,0.45044,0.31546,-0.074336,-0.34366,7.8298,0.062533,-0.020844,-1.9799,0.083378,9.2011e-10,-0.98997,0,0,0.5,2.9606e-16,0,0.66667
0.18763,0.90376,0.37526,0.60564,2.9934,7.4961,-0.60606,0.20202,-0.69667,-0.80809,-3.0514e-09,-0.34834,0,0,0.5,-3.3307e-16,0,0.66667
0.6225,0.46076,1.245,-0.058862,-0.15815,2.4003,0.19542,-0.06514,-1.9876,0.26056,-2.4528e-11,-0.99378,0,0,0.5,-0,-0,0.66667
0.90581,0.9188,1.8116,0.62819,0.49206,0.67627,-3.0348,1.0116,-0.59655,-4.0464,8.4785e-09,-0.29828,0,0,0.5,-0,-0,0.66667
0.98996,0.98044,1.9799,0.72066,0.044582,0.48654,-3.8049,1.2683,-0.15287,-5.0732,1.1723e-06,-0.076433,0,0,0.5,-0,-0,0.66667
0.71112,0.40281,1.4222,-0.14579,-0.3025,1.6363,0.55291,-0.1843,-1.9248,0.73722,-1.0373e-10,-0.9624,0,0,0.5,1.4803e-15,0,0.66667
0.7318,0.74508,1.4636,0.36762,0.74774,1.5465,-1.4348,0.47827,-1.5198,-1.9131,3.0266e-10,-0.75988,0,0,0.5,2.9606e-16,0,0.66667
0.90929,0.85251,1.8186,0.52876,0.33326,0.56809,-2.5643,0.85476,-1.0057,-3.419,-1.4517e-08,-0.50283,0,0,0.5,-0,-0,0.66667
0.40087,0.68436,0.80175,0.27654,1.0985,4.7889,-0.59125,0.19708,-1.7285,-0.78833,-7.3644e-11,-0.86426,0,0,0.5,-0,-0,0.66667
0.24985,0.15918,0.4997,-0.51123,-2.3967,6.685,0.68123,-0.22708,-1.0715,0.90831,8.4781e-10,-0.53575,0,0,0.5,-0,-4.863e-16,0.66667
0.17343,0.79035,0.34686,0.43553,2.0846,7.6509,-0.40285,0.13428,-1.3254,-0.53713,-2.833e-10,-0.66269,0,0,0.5,-0,-0,0.66667
0.11946,0.97041,0.23891,0.70561,3.6623,8.3907,-0.44955,0.14985,-0.23043,-0.5994,-3.314e-09,-0.11522,0,0,0.5,-2.9606e-16,0,0.66667
0.81261,0.84334,1.6252,0.51501,0.7742,1.0737,-2.232,0.744,-1.0582,-2.976,1.907e-09,-0.5291,0,0,0.5,5.181e-16,0,0.66667
0.14679,0.13326,0.29358,-0.55011,-2.7224,8.0135,0.43067,-0.14356,-0.92374,0.57423,4.0089e-09,-0.46187,0,0,0.5,-0,-0,0.66667
0.2643,0.72521,0.52859,0.33782,1.5187,6.4689,-0.47618,0.15873,-1.5944,-0.63491,-2.3317e-10,-0.79719,0,0,0.5,-5.9212e-16,0,0.66667
0.81909,0.31561,1.6382,-0.27658,-0.34606,0.89633,1.2083,-0.40275,-1.7284,1.611,4.5071e-10,-0.86422,0,0,0.5,2.3685e-15,0,0.66667
0.31059,0.5345,0.62117,0.051749,0.21932,5.8588,-0.08572,0.028573,-1.9911,-0.11429,-3.9763e-11,-0.99553,0,0,0.5,-0,-0,0.66667
0.98242,0.3513,1.9648,-0.22306,0.077136,0.096542,1.1687,-0.38957,-1.8231,1.5583,1.0532e-07,-0.91153,0,0,0.5,-2.3685e-15,0,0.66667
0.26664,0.95957,0.53328,0.68936,3.3528,6.5249,-0.98032,0.32677,-0.3102,-1.3071,-1.1526e-10,-0.1551,0,0,0.5,2.9606e-16,0,0.66667
0.53365,0.017028,1.0673,-0.72446,-2.7351,3.5294,2.0619,-0.6873,-0.1334,2.7492,-1.4699e-13,-0.0667,0,0,0.5,-0,-0,0.66667
0.31447,0.73063,0.62893,0.34595,1.5037,5.8432,-0.58021,0.1934,-1.5741,-0.77362,-2.0861e-10,-0.78703,0,0,0.5,-0,-0,0.66667
0.91077,0.55158,1.8215,0.07737,0.025704,0.34005,-0.37582,0.12527,-1.9783,-0.50109,-3.9777e-12,-0.98913,0,0,0.5,1.1842e-15,0,0.66667
0.36656,0.39116,0.73311,-0.16327,-0.66303,5.1797,0.31918,-0.10639,-1.9045,0.42558,6.9411e-11,-0.95227,0,0,0.5,-4.3409e-16,0,0.66667
0.43359,0.8565,0.86718,0.53476,2.1625,4.491,-1.2366,0.41221,-0.9827,-1.6488,-2.6608e-11,-0.49135,0,0,0.5,-0,-0,0.66667
0.51229,0.034253,1.0246,-0.69862,-2.6942,3.7288,1.9088,-0.63626,-0.26518,2.5451,-1.3933e-13,-0.13259,0,0,0.5,-0,2.1121e-16,0.66667
0.93889,0.72753,1.8778,0.34129,0.057816,0.30939,-1.709,0.56966,-1.5857,-2.2786,5.4759e-09,-0.79286,0,0,0.5,2.3685e-15,0,0.66667
0.030949,0.36445,0.061898,-0.20332,-0.97345,9.5279,0.033561,-0.011187,-1.8528,0.044747,-1.8973e-07,-0.92641,0,0,0.5,-0,-0,0.66667
0.71688,0.31476,1.4338,-0.27786,-0.58049,1.6257,1.0623,-0.35411,-1.7263,1.4165,-1.5768e-10,-0.86313,0,0,0.5,-2.3685e-15,0,0.66667
0.89102,0.85273,1.782,0.52909,0.42649,0.65257,-2.5143,0.83809,-1.0046,-3.3524,-3.3842e-11,-0.5023,0,0,0.5,-0,-0,0.66667
0.027287,0.27446,0.054574,-0.33831,-1.6458,9.5789,0.049234,-0.016411,-1.593,0.065646,1.5043e-08,-0.79651,0,0,0.5,-0,-0,0.66667
0.52205,0.92251,1.0441,0.63376,2.3532,3.589,-1.7646,0.58819,-0.57123,-2.3528,2.0173e-12,-0.28561,0,0,0.5,1.1842e-15,0,0.66667
0.32599,0.33953,0.65198,-0.2407,-1.0214,5.6835,0.41848,-0.13949,-1.7944,0.55798,1.271e-10,-0.8972,0,0,0.5,-7.4015e-16,0,0.66667
0.85949,0.25559,1.719,-0.36662,-0.34812,0.70153,1.6806,-0.56018,-1.5224,2.2407,1.0851e-09,-0.76122,0,0,0.5,-0,-0,0.66667
0.55852,0.69003,1.117,0.28504,0.90375,3.0643,-0.84908,0.28303,-1.7117,-1.1321,4.0214e-11,-0.85586,0,0,0.5,-0,-0,0.66667
0.69023,0.86982,1.3805,0.55472,1.4025,1.9844,-2.0421,0.68068,-0.90612,-2.7227,2.6441e-10,-0.45306,0,0,0.5,-5.9212e-16,0,0.66667
0.45285,0.65775,0.90571,0.23663,0.87891,4.1837,-0.57151,0.1905,-1.8019,-0.76201,-2.8994e-11,-0.90097,0,0,0.5,1.1842e-15,0,0.66667
0.62831,0.027557,1.2566,-0.70866,-2.2432,2.6247,2.3747,-0.79157,-0.21481,3.1663,-2.8366e-12,-0.1074,0,0,0.5,1.1842e-15,0,0.66667
0.2901,0.20927,0.58019,-0.4361,-1.9617,6.164,0.67472,-0.22491,-1.3234,0.89963,3.7659e-10,-0.6617,0,0,0.5,2.9606e-16,0,0.66667
0.0093486,0.28707,0.018697,-0.31939,-1.5507,9.8191,0.015924,-0.0053081,-1.6373,0.021233,4.1892e-09,-0.81865,0,0,0.5,-0,-0,0.66667
0.57676,0.2741,1.1535,-0.33885,-1.0487,2.8993,1.0423,-0.34744,-1.5918,1.3897,-5.7901e-11,-0.7959,0,0,0.5,-0,-0,0.66667
0.31144,0.92233,0.62289,0.6335,2.9451,5.9585,-1.0523,0.35076,-0.57263,-1.403,-1.2475e-10,-0.28632,0,0,0.5,-5.9212e-16,5.9161e-16,0.66667
0.51727,0.83517,1.0345,0.50275,1.8024,3.5696,-1.387,0.46232,-1.1012,-1.8493,7.0308e-12,-0.55059,0,0,0.5,5.9212e-16,0,0.66667
0.91641,0.69139,1.8328,0.28708,0.10235,0.37645,-1.4031,0.46771,-1.7073,-1.8708,-4.5816e-09,-0.85364,0,0,0.5,2.3685e-15,0,0.66667
0.42647,0.36825,0.85295,-0.19762,-0.755,4.4776,0.44949,-0.14983,-1.8611,0.59933,4.1223e-11,-0.93054,0,0,0.5,-2.9606e-16,0,0.66667
0.2474,0.070582,0.49479,-0.64413,-3.1265,6.7497,0.84989,-0.2833,-0.52466,1.1332,4.9219e-10,-0.26233,0,0,0.5,5.9212e-16,-4.9371e-16,0.66667
0.37129,0.12777,0.74259,-0.55835,-2.4222,5.2169,1.1057,-0.36855,-0.89211,1.4742,7.7113e-11,-0.44606,0,0,0.5,-0,-0,0.66667
0.93186,0.72999,1.8637,0.34499,0.083535,0.34004,-1.7146,0.57152,-1.5763,-2.2861,-5.0691e-09,-0.78815,0,0,0.5,-0,-0,0.66667
0.93687,0.75732,1.8737,0.38599,0.086192,0.34456,-1.9286,0.64288,-1.4704,-2.5715,1.3321e-09,-0.73518,0,0,0.5,-0,-0,0.66667
0.84433,0.12589,1.6887,-0.56116,-0.71519,0.92248,2.527,-0.84232,-0.88147,3.3693,-4.725e-09,-0.44073,0,0,0.5,-0,-0,0.66667
0.92021,0.14392,1.8404,-0.53411,-0.28291,0.52553,2.6213,-0.87377,-0.98528,3.4951,5.1076e-09,-0.49264,0,0,0.5,-0,-9.2116e-17,0.66667
0.2279,0.25044,0.4558,-0.37434,-1.7288,6.9383,0.455,-0.15167,-1.5027,0.60667,2.7148e-10,-0.75135,0,0,0.5,-0,-0,0.66667
0.087482,0.79664,0.17496,0.44496,2.1868,8.7812,-0.20761,0.069202,-1.2954,-0.27681,1.8967e-09,-0.64769,0,0,0.5,-0,-0,0.66667
0.22731,0.21676,0.45462,-0.42486,-1.9805,6.954,0.51506,-0.17169,-1.3588,0.68675,5.7696e-10,-0.67942,0,0,0.5,-3.3307e-16,0,0.66667
0.31438,0.036855,0.62875,-0.69472,-3.2814,5.9457,1.1648,-0.38827,-0.28418,1.5531,2.6227e-11,-0.14209,0,0,0.5,-0,-0,0.66667
0.17477,0.82128,0.34953,0.48193,2.3267,7.6402,-0.4492,0.14973,-1.174,-0.59893,-1.1579e-09,-0.58699,0,0,0.5,-0,-0,0.66667
0.60709,0.98884,1.2142,0.73326,2.4505,2.8344,-2.3742,0.7914,-0.087892,-3.1656,6.0374e-13,-0.043946,0,0,0.5,-0,5.4372e-16,0.66667
0.41359,0.46434,0.82717,-0.053489,-0.20543,4.6136,0.11799,-0.039329,-1.99,0.15731,1.4954e-11,-0.99502,0,0,0.5,-8.8818e-16,0,0.66667
0.81635,0.66144,1.6327,0.24216,0.30428,0.90062,-1.0544,0.35145,-1.7917,-1.4058,-2.6898e-10,-0.89583,0,0,0.5,-0,-0,0.66667
0.18513,0.28239,0.37026,-0.32641,-1.5269,7.4853,0.32229,-0.10743,-1.6221,0.42972,-3.1797e-10,-0.81106,0,0,0.5,-0,-0,0.66667
0.70188,0.46054,1.4038,-0.059197,-0.12586,1.7007,0.22159,-0.073865,-1.9875,0.29546,-4.9992e-11,-0.99374,0,0,0.5,-5.9212e-16,0,0.66667
0.24036,0.46871,0.48071,-0.046935,-0.20859,6.7495,0.060166,-0.020055,-1.9932,0.080221,1.0597e-10,-0.9966,0,0,0.5,-3.03e-16,0,0.66667
0.57422,0.32472,1.1484,-0.26292,-0.80536,2.901,0.80519,-0.2684,-1.7537,1.0736,-5.0391e-11,-0.87685,0,0,0.5,-1.1842e-15,0,0.66667
0.34899,0.81063,0.69798,0.46594,2.0155,5.4516,-0.86724,0.28908,-1.2288,-1.1563,-1.7027e-10,-0.61439,0,0,0.5,8.1416e-16,0,0.66667
0.056964,0.93735,0.11393,0.65602,3.3975,9.1979,-0.1993,0.066435,-0.47086,-0.26574,-3.609e-07,-0.23543,0,0,0.5,-3.5851e-17,0,0.66667
0.22881,0.50881,0.45763,0.013219,0.059098,6.8981,-0.016132,0.0053773,-1.9991,-0.021509,-4.9636e-11,-0.99953,0,0,0.5,-0,-0,0.66667
0.6641,0.47164,1.3282,-0.042542,-0.10209,2.0215,0.15068,-0.050226,-1.994,0.2009,-2.6272e-11,-0.99701,0,0,0.5,-0,-0,0.66667
0.49725,0.51585,0.9945,0.023772,0.081581,3.669,-0.063042,0.021014,-1.9974,-0.084056,-2.6962e-13,-0.99872,0,0,0.5,-0,-0,0.66667
0.51902,0.75746,1.038,0.3862,1.3393,3.5036,-1.069,0.35634,-1.4696,-1.4254,1.2075e-11,-0.7348,0,0,0.5,-0,-0,0.66667
0.17472,0.54071,0.34944,0.06106,0.28032,7.6053,-0.056898,0.018966,-1.9865,-0.075864,-6.3454e-10,-0.99323,0,0,0.5,-2.9606e-16,0,0.66667
0.57072,0.46964,1.1414,-0.045534,-0.13729,2.9018,0.1386,-0.046199,-1.9935,0.1848,-1.0294e-11,-0.99673,0,0,0.5,-0,-0,0.66667
0.99675,0.161,1.9935,-0.50851,0.14268,0.23841,2.7032,-0.90107,-1.0809,3.6043,-7.7911e-08,-0.54044,0,0,0.5,-0,-0,0.66667
0.81684,0.28888,1.6337,-0.31667,-0.41025,0.92779,1.3796,-0.45986,-1.6433,1.8394,3.616e-10,-0.82164,0,0,0.5,-0,-0,0.66667
0.59437,0.87103,1.1887,0.55654,1.7737,2.8306,-1.7642,0.58808,-0.89926,-2.3523,3.9589e-11,-0.44963,0,0,0.5,1.4803e-15,0,0.66667
0.97599,0.78684,1.952,0.43026,-0.059515,0.23473,-2.2396,0.74654,-1.3418,-2.9861,-7.429e-10,-0.67091,0,0,0.5,-2.3685e-15,0,0.66667
0.90156,0.92953,1.8031,0.64429,0.54473,0.71154,-3.098,1.0327,-0.52384,-4.1306,2.2952e-08,-0.26192,0,0,0.5,5.9212e-16,0,0.66667
0.59561,0.018087,1.1912,-0.72287,-2.4577,2.9316,2.2962,-0.76542,-0.14163,3.0617,-9.0217e-13,-0.070817,0,0,0.5,-0,-0,0.66667
0.032426,0.49057,0.064853,-0.014143,-0.0671,9.5068,0.0024457,-0.00081618,-1.9991,0.0032605,-1.402e-06,-0.99956,0,0,0.5,3.7007e-17,0,0.66667
0.093577,0.53087,0.18715,0.046298,0.21786,8.6842,-0.023106,0.007702,-1.9936,-0.030808,-7.1027e-08,-0.99682,0,0,0.5,-0,-0,0.66667
0.065372,0.033657,0.13074,-0.69951,-3.6617,9.0914,0.24388,-0.081295,-0.26087,0.32518,-2.799e-08,-0.13044,0,0,0.5,-0,-0,0.66667
0.45173,0.72381,0.90347,0.33571,1.2685,4.2191,-0.8088,0.2696,-1.5996,-1.0784,-3.3694e-11,-0.79981,0,0,0.5,-0,-0,0.66667
0.37543,0.69553,0.75087,0.29329,1.1988,5.0929,-0.58726,0.19575,-1.6942,-0.78301,-1.0237e-10,-0.84709,0,0,0.5,-0,-0,0.66667
0.97535,0.64852,1.9507,0.22279,-0.06063,0.1193,-1.1589,0.3863,-1.8233,-1.5452,5.9781e-09,-0.91165,0,0,0.5,-0,-0,0.66667
0.16798,0.89582,0.33597,0.59373,2.9479,7.7462,-0.53193,0.17731,-0.74622,-0.70923,-4.5753e-09,-0.37311,0,0,0.5,1.4803e-16,0,0.66667
0.97279,0.56419,1.9456,0.09629,-0.027676,0.092944,-0.49957,0.16652,-1.9678,-0.66609,-2.6224e-06,-0.9839,0,0,0.5,-2.3685e-15,0,0.66667
0.76747,0.86915,1.5349,0.55372,1.0668,1.4,-2.2665,0.7555,-0.91003,-3.022,1.2058e-09,-0.45501,0,0,0.5,-0,-0,0.66667
0.82424,0.22624,1.6485,-0.41063,-0.53447,0.93174,1.8051,-0.60171,-1.4003,2.4068,2.4925e-11,-0.70017,0,0,0.5,-2.3685e-15,0,0.66667
0.63262,0.8604,1.2652,0.54059,1.5778,2.4686,-1.8239,0.60798,-0.96025,-2.4319,9.3817e-11,-0.48012,0,0,0.5,-1.9334e-15,0,0.66667
0.66873,0.36484,1.3375,-0.20274,-0.48811,2.0043,0.7231,-0.24103,-1.8535,0.96413,-1.0679e-10,-0.92675,0,0,0.5,5.9212e-16,0,0.66667
0.47688,0.74241,0.95376,0.36361,1.336,3.9482,-0.9248,0.30827,-1.5297,-1.2331,-1.5192e-11,-0.76484,0,0,0.5,-5.9212e-16,0,0.66667
0.013136,0.46859,0.026273,-0.047109,-0.22383,9.7671,0.0032986,-0.001106,-1.9932,0.0043949,-9.7307e-06,-0.99662,0,0,0.5,5.4933e-18,0,0.66667
0.35301,0.94008,0.70601,0.66012,2.9952,5.472,-1.2428,0.41427,-0.45114,-1.6571,-2.7749e-11,-0.22557,0,0,0.5,-1.1842e-15,0,0.66667
0.49207,0.4744,0.98414,-0.038396,-0.13286,3.7258,0.10077,-0.033589,-1.9948,0.13435,9.0102e-13,-0.99739,0,0,0.5,-0,-0,0.66667
0.73009,0.85606,1.4602,0.53409,1.1766,1.657,-2.0796,0.69322,-0.98524,-2.7729,5.9533e-10,-0.49262,0,0,0.5,-0,-0,0.66667
0.46863,0.0050218,0.93726,-0.74247,-3.0815,4.2135,1.8557,-0.61856,-0.040397,2.4742,-4.7407e-14,-0.020198,0,0,0.5,-0,-3.1945e-16,0.66667
0.4574,0.88319,0.91481,0.57479,2.2858,4.2441,-1.4022,0.4674,-0.82509,-1.8696,-1.0125e-11,-0.41254,0,0,0.5,-0,-0,0.66667
0.13766,0.26484,0.27533,-0.35274,-1.6854,8.1105,0.25899,-0.086328,-1.557,0.34531,-1.2539e-09,-0.77852,0,0,0.5,-0,-0,0.66667
0.010889,0.68672,0.021777,0.28008,1.353,9.7982,-0.016265,0.0054218,-1.722,-0.021687,4.226e-08,-0.861,0,0,0.5,1.8504e-17,0,0.66667
0.75828,0.83746,1.5166,0.50619,0.98662,1.4306,-2.0471,0.68236,-1.0889,-2.7295,9.3595e-10,-0.54446,0,0,0.5,5.9212e-16,0,0.66667
0.31995,0.86043,0.63991,0.54065,2.4368,5.8247,-0.92257,0.30752,-0.96003,-1.2301,-2.2935e-10,-0.48002,0,0,0.5,-0,-0,0.66667
0.98438,0.31945,1.9688,-0.27082,0.092615,0.11101,1.4218,-0.47394,-1.7394,1.8958,-3.8952e-08,-0.8697,0,0,0.5,-0,-0,0.66667
0.22023,0.4353,0.44047,-0.097057,-0.43686,7.0111,0.114,-0.038,-1.9673,0.152,2.2198e-10,-0.98365,0,0,0.5,-0,-0,0.66667
0.33871,0.50907,0.67742,0.013607,0.056308,5.5101,-0.024581,0.0081937,-1.999,-0.032775,-8.1677e-12,-0.9995,0,0,0.5,-1.1842e-15,0,0.66667
0.5239,0.61367,1.0478,0.17051,0.56548,3.3966,-0.47643,0.15881,-1.8961,-0.63524,1.1261e-11,-0.94804,0,0,0.5,5.9212e-16,0,0.66667
0.75489,0.0091619,1.5098,-0.73626,-1.6734,1.6467,2.9642,-0.98808,-0.072283,3.9523,-2.3888e-11,-0.036142,0,0,0.5,-0,-0,0.66667
0.46386,0.37444,0.92772,-0.18835,-0.68544,4.0519,0.46595,-0.15532,-1.8748,0.62127,1.878e-11,-0.93741,0,0,0.5,-7.4015e-16,0,0.66667
0.12482,0.28014,0.24965,-0.32978,-1.5763,8.2783,0.21954,-0.073181,-1.6144,0.29272,-5.9232e-10,-0.80721,0,0,0.5,2.2204e-16,0,0.66667
0.3125,0.29996,0.625,-0.30006,-1.297,5.8592,0.5001,-0.1667,-1.6796,0.6668,1.7299e-10,-0.83979,0,0,0.5,-0,-0,0.66667
0.50452,0.52287,1.009,0.034305,0.11642,3.5906,-0.092306,0.030769,-1.9956,-0.12307,4.3111e-13,-0.99778,0,0,0.5,-0,-0,0.66667
0.67385,0.31868,1.3477,-0.27198,-0.65412,1.9797,0.97746,-0.32582,-1.7371,1.3033,-1.435e-10,-0.86856,0,0,0.5,-0,-0,0.66667
0.77015,0.54256,1.5403,0.063843,0.10156,1.1744,-0.26223,0.087411,-1.985,-0.34964,1.4341e-10,-0.99251,0,0,0.5,1.1842e-15,0,0.66667
0.13034,0.17934,0.26067,-0.48099,-2.3565,8.2196,0.33435,-0.11145,-1.1772,0.44579,-9.7468e-10,-0.58859,0,0,0.5,-1.4803e-16,0,0.66667
0.022915,0.35841,0.04583,-0.21238,-1.0182,9.6361,0.025956,-0.0086522,-1.839,0.034608,-2.7334e-07,-0.91948,0,0,0.5,-0,-0,0.66667
0.51908,0.0024929,1.0382,-0.74626,-2.9033,3.6911,2.066,-0.68866,-0.020523,2.7546,5.8398e-14,-0.010262,0,0,0.5,-0,-0,0.66667
0.80999,0.020865,1.62,-0.7187,-1.284,1.271,3.1048,-1.0349,-0.1631,4.1397,-4.0221e-10,-0.08155,0,0,0.5,-0,-5.2553e-16,0.66667
0.012604,0.45379,0.025208,-0.069322,-0.32957,9.7744,0.0046641,-0.0015554,-1.9824,0.0062185,-1.0506e-06,-0.99118,0,0,0.5,-1.8504e-17,0,0.66667
0.67247,0.055898,1.3449,-0.66615,-1.8641,2.2126,2.3892,-0.79639,-0.42236,3.1855,-4.6136e-11,-0.21118,0,0,0.5,-5.9212e-16,0,0.66667
0.68681,0.435,1.3736,-0.097497,-0.21879,1.8302,0.35713,-0.11904,-1.967,0.47617,-6.8101e-11,-0.9835,0,0,0.5,1.4803e-15,0,0.66667
0.44925,0.28739,0.89849,-0.31891,-1.2052,4.2426,0.7641,-0.2547,-1.6384,1.0188,3.5365e-11,-0.81921,0,0,0.5,-1.1842e-15,0,0.66667
0.91479,0.19753,1.8296,-0.4537,-0.22701,0.48406,2.2136,-0.73785,-1.2676,2.9514,5.9715e-10,-0.63382,0,0,0.5,2.3685e-15,0,0.66667
0.64436,0.4203,1.2887,-0.11955,-0.3049,2.205,0.41084,-0.13695,-1.9486,0.54779,-5.7932e-11,-0.97431,0,0,0.5,-0,-0,0.66667
0.0052398,0.20711,0.01048,-0.43934,-2.1747,9.8746,0.012278,-0.0040925,-1.3132,0.01637,4.7176e-09,-0.65659,0,0,0.5,-0,-0,0.66667
0.48443,0.57285,0.96886,0.10927,0.38362,3.814,-0.28231,0.094104,-1.9574,-0.37641,-5.0396e-12,-0.97869,0,0,0.5,-0,-0,0.66667
0.85932,0.14044,1.7186,-0.53934,-0.60049,0.822,2.4718,-0.82393,-0.96538,3.2957,-2.9623e-09,-0.48269,0,0,0.5,1.1842e-15,7.366e-16,0.66667
0.8304,0.016633,1.6608,-0.72505,-1.1728,1.158,3.2111,-1.0704,-0.13034,4.2815,-5.0561e-10,-0.06517,0,0,0.5,-2.3685e-15,0,0.66667
0.64915,0.8039,1.2983,0.45585,1.239,2.2734,-1.5782,0.52607,-1.2608,-2.1043,1.6549e-10,-0.63042,0,0,0.5,-5.9212e-16,0,0.66667
0.6737,0.39339,1.3474,-0.15991,-0.37673,1.952,0.57458,-0.19153,-1.9086,0.7661,-9.0811e-11,-0.95432,0,0,0.5,-1.1842e-15,0,0.66667
0.5785,0.24869,1.157,-0.37697,-1.1733,2.8961,1.1631,-0.38769,-1.4958,1.5508,-5.9843e-11,-0.74789,0,0,0.5,-7.4015e-17,0,0.66667
0.27412,0.80773,0.54824,0.46159,2.1096,6.369,-0.67483,0.22494,-1.2426,-0.89978,-5.0803e-10,-0.62129,0,0,0.5,3.1034e-16,0,0.66667
0.56053,0.71072,1.1211,0.31608,1.0045,3.0533,-0.94492,0.31497,-1.6447,-1.2599,4.3032e-11,-0.82234,0,0,0.5,-0,-0,0.66667
0.67173,0.62115,1.3435,0.18173,0.43211,1.9735,-0.65106,0.21702,-1.8832,-0.86808,9.924e-11,-0.94159,0,0,0.5,-0,-0,0.66667
0.35243,0.34464,0.70486,-0.23303,-0.96566,5.3593,0.43801,-0.146,-1.8078,0.58402,1.0479e-10,-0.90388,0,0,0.5,-0,-0,0.66667
0.85583,0.65273,1.7117,0.2291,0.20576,0.65947,-1.0457,0.34857,-1.8138,-1.3943,-9.789e-10,-0.90691,0,0,0.5,-4.2683e-17,0,0.66667
0.19504,0.51527,0.39007,0.0229,0.10414,7.3379,-0.023821,0.0079403,-1.9975,-0.031761,-1.968e-10,-0.99873,0,0,0.5,-5.9212e-16,0,0.66667
0.74732,0.86961,1.4946,0.55441,1.1588,1.5438,-2.2097,0.73657,-0.90733,-2.9463,8.1836e-10,-0.45366,0,0,0.5,-5.9212e-16,0,0.66667
0.2896,0.35335,0.57921,-0.21998,-0.95754,6.1336,0.33977,-0.11326,-1.8275,0.45302,1.2649e-10,-0.91376,0,0,0.5,-0,-0,0.66667
0.7738,0.19872,1.5476,-0.45191,-0.79916,1.286,1.865,-0.62167,-1.2733,2.4867,-7.8135e-10,-0.63666,0,0,0.5,-0,-0,0.66667
0.42774,0.59783,0.85547,0.14674,0.55712,4.4564,-0.33476,0.11159,-1.9237,-0.44635,-3.1838e-11,-0.96186,0,0,0.5,1.1842e-15,0,0.66667
0.8077,0.9076,1.6154,0.6114,1.0139,1.1824,-2.6338,0.87792,-0.67169,-3.5117,2.7428e-09,-0.33584,0,0,0.5,2.3685e-15,0,0.66667
0.35353,0.62332,0.70707,0.18498,0.7619,5.3396,-0.34878,0.11626,-1.879,-0.46503,-8.5843e-11,-0.93952,0,0,0.5,-7.6183e-16,0,0.66667
0.21369,0.80105,0.42739,0.45158,2.1305,7.133,-0.51466,0.17155,-1.2744,-0.68622,-8.3121e-10,-0.63721,0,0,0.5,-0,-0,0.66667
0.76728,0.81803,1.5346,0.47705,0.88069,1.3474,-1.9522,0.65072,-1.1911,-2.6029,9.0198e-10,-0.59554,0,0,0.5,-0,-0,0.66667
0.30864,0.73296,0.61728,0.34943,1.5265,5.9158,-0.5752,0.19173,-1.5653,-0.76693,-2.2126e-10,-0.78263,0,0,0.5,-0,-0,0.66667
0.73325,0.037188,1.4665,-0.69422,-1.6539,1.7614,2.7148,-0.90495,-0.28665,3.6198,-9.224e-11,-0.14333,0,0,0.5,2.3685e-15,0,0.66667
0.74447,0.1909,1.4889,-0.46365,-0.93519,1.5034,1.841,-0.61365,-1.236,2.4546,-6.482e-10,-0.61802,0,0,0.5,-2.3685e-15,0,0.66667
0.2214,0.1725,0.44279,-0.49125,-2.3279,7.0417,0.58005,-0.19335,-1.1414,0.77341,1.1244e-09,-0.57072,0,0,0.5,-0,-0,0.66667
0.21411,0.83309,0.42822,0.49963,2.3804,7.1363,-0.57054,0.19018,-1.112,-0.76072,-1.2982e-09,-0.55599,0,0,0.5,-0,-0,0.66667
0.19895,0.49478,0.3979,-0.0078289,-0.03553,7.2867,0.0083069,-0.002769,-1.9999,0.011076,1.6157e-10,-0.99997,0,0,0.5,-8.8818e-16,0,0.66667
0.14252,0.78951,0.28504,0.43426,2.1006,8.0546,-0.33008,0.11003,-1.3294,-0.44011,8.1694e-10,-0.66468,0,0,0.5,-0,-0,0.66667
0.37708,0.70695,0.75417,0.31042,1.2701,5.0768,-0.62429,0.2081,-1.657,-0.83239,-1.0438e-10,-0.82849,0,0,0.5,-0,-0,0.66667
0.026628,0.82468,0.053256,0.48703,2.4313,9.5906,-0.069165,0.023055,-1.1561,-0.09222,2.9873e-08,-0.57805,0,0,0.5,-0,-0,0.66667
0.11092,0.24085,0.22184,-0.38873,-1.8819,8.4668,0.22996,-0.076654,-1.4625,0.30662,-2.5061e-09,-0.73127,0,0,0.5,-0,-0,0.66667
0.67456,0.57903,1.3491,0.11854,0.27711,1.9376,-0.42647,0.14216,-1.9495,-0.56862,7.1927e-11,-0.97475,0,0,0.5,-1.1842e-15,0,0.66667
0.79978,0.57762,1.5996,0.11643,0.15748,0.97601,-0.49662,0.16554,-1.9513,-0.66216,2.8891e-10,-0.97563,0,0,0.5,-0,-0,0.66667
0.08053,0.70157,0.16106,0.30235,1.4544,8.8657,-0.12986,0.043285,-1.6745,-0.17314,2.8512e-09,-0.83723,0,0,0.5,1.4803e-16,0,0.66667
0.2317,0.60343,0.4634,0.15515,0.6964,6.8656,-0.19172,0.063908,-1.9141,-0.25563,-1.2634e-10,-0.95706,0,0,0.5,-0,-0,0.66667
0.20763,0.26797,0.41525,-0.34804,-1.6169,7.1957,0.3854,-0.12847,-1.5687,0.51387,3.145e-11,-0.78436,0,0,0.5,2.9606e-16,0,0.66667
0.91733,0.93397,1.8347,0.65096,0.45661,0.65063,-3.1848,1.0616,-0.49374,-4.2464,4.4844e-08,-0.24687,0,0,0.5,-1.1842e-15,0,0.66667
0.71131,0.24993,1.4226,-0.3751,-0.82424,1.7103,1.423,-0.47433,-1.5008,1.8973,-2.8818e-10,-0.75038,0,0,0.5,-1.7579e-15,0,0.66667
0.55388,0.3859,1.1078,-0.17115,-0.53814,3.0856,0.50559,-0.16853,-1.8953,0.67412,-2.63e-11,-0.94766,0,0,0.5,-0,-0,0.66667
0.30452,0.53411,0.60904,0.051171,0.21789,5.9346,-0.083107,0.027702,-1.9912,-0.11081,-4.181e-11,-0.99558,0,0,0.5,-0,-0,0.66667
0.83485,0.80735,1.6697,0.46103,0.57776,0.90054,-2.0527,0.68425,-1.2444,-2.737,3.8928e-10,-0.62219,0,0,0.5,1.1842e-15,0,0.66667
0.43531,0.59396,0.87061,0.14094,0.52994,4.3688,-0.32722,0.10907,-1.9305,-0.43629,-2.7451e-11,-0.96526,0,0,0.5,1.1842e-15,0,0.66667
0.92346,0.7841,1.8469,0.42615,0.16629,0.42684,-2.0988,0.69961,-1.355,-2.7985,1.8898e-09,-0.67748,0,0,0.5,2.3685e-15,0,0.66667
0.70605,0.022107,1.4121,-0.71684,-1.8811,1.9867,2.6993,-0.89978,-0.17269,3.5991,-1.9235e-11,-0.086346,0,0,0.5,-0,-0,0.66667
0.47803,0.36938,0.95606,-0.19593,-0.69966,3.8957,0.49951,-0.1665,-1.8635,0.66602,1.1577e-11,-0.93177,0,0,0.5,-8.8818e-16,0,0.66667
0.12621,0.48856,0.25242,-0.017157,-0.080041,8.2478,0.011549,-0.0038496,-1.9986,0.015398,-1.1684e-09,-0.99932,0,0,0.5,-0,-0,0.66667
0.97604,0.25886,1.9521,-0.36171,0.070593,0.18746,1.8829,-0.62764,-1.5344,2.5106,-5.7481e-09,-0.76722,0,0,0.5,-0,-0,0.66667
0.15983,0.51478,0.31967,0.022177,0.10233,7.8013,-0.018905,0.0063016,-1.9977,-0.025206,-5.528e-10,-0.99884,0,0,0.5,-0,-0,0.66667
0.2026,0.38323,0.4052,-0.17515,-0.7992,7.2444,0.18926,-0.063086,-1.8909,0.25235,7.6121e-11,-0.94546,0,0,0.5,-0,-0,0.66667
0.43118,0.93483,0.86236,0.65225,2.7392,4.5716,-1.4999,0.49998,-0.48787,-1.9999,-5.2456e-12,-0.24394,0,0,0.5,-1.4803e-16,0,0.66667
0.4042,0.52781,0.8084,0.041718,0.16189,4.7231,-0.089932,0.029977,-1.9944,-0.11991,-1.3256e-11,-0.99718,0,0,0.5,-0,-0,0.66667
0.14675,0.44714,0.2935,-0.079294,-0.36806,7.9754,0.062061,-0.020687,-1.9772,0.082749,1.5287e-09,-0.98862,0,0,0.5,-0,-0,0.66667
0.72932,0.58857,1.4586,0.13285,0.25661,1.4894,-0.51676,0.17225,-1.9374,-0.68901,1.1029e-10,-0.96869,0,0,0.5,-1.6028e-16,0,0.66667
0.18875,0.61402,0.37749,0.17103,0.78507,7.4252,-0.17216,0.057387,-1.8957,-0.22955,-2.6701e-11,-0.94785,0,0,0.5,-2.9606e-16,0,0.66667
0.6439,0.80578,1.2878,0.45867,1.2645,2.3215,-1.5751,0.52504,-1.252,-2.1001,1.5248e-10,-0.62599,0,0,0.5,-0,-0,0.66667
0.75431,0.53135,1.5086,0.047021,0.08077,1.2888,-0.18916,0.063054,-1.9932,-0.25222,9.6875e-11,-0.99661,0,0,0.5,2.3685e-15,0,0.66667
0.21073,0.55585,0.42146,0.083768,0.37867,7.1341,-0.094147,0.031382,-1.9749,-0.12553,-2.5806e-10,-0.98747,0,0,0.5,1.4803e-16,0,0.66667
0.60095,0.4743,1.2019,-0.038552,-0.10893,2.604,0.12356,-0.041188,-1.9948,0.16475,-1.2941e-11,-0.99738,0,0,0.5,-0,-0,0.66667
0.74893,0.92472,1.4979,0.63708,1.3885,1.5977,-2.5447,0.84822,-0.55654,-3.3929,4.9621e-10,-0.27827,0,0,0.5,-2.0711e-15,0,0.66667
0.63822,0.64505,1.2764,0.21758,0.57151,2.2797,-0.74059,0.24686,-1.8313,-0.98746,9.1856e-11,-0.91565,0,0,0.5,5.9212e-16,0,0.66667
0.59713,0.87531,1.1943,0.56297,1.7885,2.8085,-1.7929,0.59762,-0.8742,-2.3905,3.9502e-11,-0.4371,0,0,0.5,-2.3685e-15,0,0.66667
0.29548,0.69398,0.59096,0.29098,1.2722,6.0694,-0.45855,0.15285,-1.6991,-0.6114,-1.7373e-10,-0.84954,0,0,0.5,-5.9212e-16,0,0.66667
0.73161,0.43917,1.4632,-0.091241,-0.17372,1.4655,0.35601,-0.11867,-1.9712,0.47468,-1.0052e-10,-0.98561,0,0,0.5,2.3685e-15,0,0.66667
0.94531,0.6355,1.8906,0.20324,0.0054693,0.22099,-1.0247,0.34156,-1.8526,-1.3662,-6.8397e-08,-0.92632,0,0,0.5,-0,-0,0.66667
0.42556,0.15536,0.85112,-0.51696,-2.0995,4.5745,1.1733,-0.39111,-1.0507,1.5644,3.5777e-11,-0.52535,0,0,0.5,-2.9606e-16,0,0.66667
0.78218,0.19467,1.5644,-0.458,-0.78068,1.2323,1.9106,-0.63686,-1.2543,2.5475,-8.7519e-10,-0.62713,0,0,0.5,-0,-0,0.66667
0.056141,0.68805,0.11228,0.28208,1.3584,9.1911,-0.084459,0.028153,-1.718,-0.11261,3.4953e-08,-0.85901,0,0,0.5,-1.4803e-16,0,0.66667
0.83527,0.028677,1.6705,-0.70698,-1.094,1.1114,3.1495,-1.0498,-0.22336,4.1993,-1.5024e-09,-0.11168,0,0,0.5,-5.9212e-16,0,0.66667
0.19225,0.70737,0.3845,0.31106,1.4474,7.3909,-0.31894,0.10631,-1.6555,-0.42525,2.4642e-10,-0.82774,0,0,0.5,-0,-0,0.66667
0.3951,0.6846,0.79019,0.2769,1.1067,4.8569,-0.58347,0.19449,-1.7279,-0.77796,-7.9153e-11,-0.86395,0,0,0.5,1.4803e-16,0,0.66667
0.30008,0.27699,0.60016,-0.33451,-1.4671,6.0193,0.53536,-0.17845,-1.6025,0.71381,2.1579e-10,-0.80124,0,0,0.5,1.4803e-16,0,0.66667
0.080104,0.11302,0.16021,-0.58048,-2.9402,8.8889,0.24799,-0.082664,-0.80154,0.33065,-2.7947e-08,-0.40077,0,0,0.5,-0,-0,0.66667
0.90463,0.21641,1.8093,-0.42539,-0.24378,0.50965,2.0524,-0.68412,-1.3574,2.7365,5.0673e-09,-0.67868,0,0,0.5,-1.4803e-15,0,0.66667
0.37015,0.67058,0.74031,0.25588,1.0458,5.1492,-0.50514,0.16838,-1.7666,-0.67352,-9.7385e-11,-0.8833,0,0,0.5,-5.9212e-16,0,0.66667
0.5307,0.84534,1.0614,0.51801,1.8266,3.438,-1.4662,0.48872,-1.0469,-1.9549,1.1648e-11,-0.52346,0,0,0.5,2.3685e-15,6.4767e-16,0.66667
0.49412,0.10752,0.98823,-0.58872,-2.2414,3.855,1.5514,-0.51715,-0.76705,2.0686,1.024e-12,-0.38352,0,0,0.5,-0,-0,0.66667
0.13216,0.061087,0.26432,-0.65837,-3.3619,8.2194,0.46406,-0.15469,-0.45958,0.61874,1.103e-08,-0.22979,0,0,0.5,1.2953e-16,0,0.66667
0.20645,0.38428,0.41291,-0.17358,-0.79048,7.1941,0.19113,-0.063709,-1.8926,0.25484,7.911e-11,-0.94629,0,0,0.5,-5.9212e-16,0,0.66667
0.076189,0.5681,0.15238,0.10216,0.48319,8.9182,-0.041511,0.013837,-1.9631,-0.055348,-5.8397e-08,-0.98155,0,0,0.5,2.9606e-16,0,0.66667
0.50792,0.63661,1.0158,0.20492,0.70033,3.5724,-0.5551,0.18503,-1.8501,-0.74014,4.2336e-12,-0.92507,0,0,0.5,-0,-0,0.66667
0.26155,0.1988,0.5231,-0.4518,-2.0769,6.5246,0.63023,-0.21008,-1.2737,0.84031,5.643e-10,-0.63687,0,0,0.5,-5.9212e-16,0,0.66667
0.35706,0.84156,0.71412,0.51235,2.2247,5.3693,-0.97567,0.32522,-1.0674,-1.3009,-1.3204e-10,-0.53371,0,0,0.5,2.5374e-16,0,0.66667
0.10807,0.13021,0.21613,-0.55468,-2.7772,8.5196,0.31969,-0.10656,-0.90636,0.42625,-6.5931e-09,-0.45318,0,0,0.5,-0,-0,0.66667
0.78755,0.93291,1.5751,0.64937,1.2204,1.3445,-2.7275,0.90918,-0.50087,-3.6367,1.1599e-09,-0.25043,0,0,0.5,2.9606e-16,0,0.66667
0.10658,0.87107,0.21317,0.5566,2.789,8.5392,-0.3164,0.10547,-0.89888,-0.42187,9.0154e-09,-0.44944,0,0,0.5,-7.4015e-17,0,0.66667
0.98571,0.9298,1.9714,0.6447,-0.00061078,0.40683,-3.3892,1.1297,-0.52218,-4.519,-6.4565e-07,-0.26109,0,0,0.5,-1.1842e-15,-6.724e-16,0.66667
0.17716,0.15703,0.35432,-0.51445,-2.4987,7.6142,0.48608,-0.16203,-1.0599,0.64811,2.0226e-09,-0.52995,0,0,0.5,-0,-0,0.66667
0.57241,0.75599,1.1448,0.38399,1.2117,2.9588,-1.1723,0.39075,-1.4757,-1.563,5.326e-11,-0.73787,0,0,0.5,-0,-0,0.66667
0.044845,0.56263,0.089691,0.093952,0.44612,9.3397,-0.022471,0.0074901,-1.9698,-0.029962,-4.0064e-07,-0.9849,0,0,0.5,-0,-0,0.66667
0.78712,0.43913,1.5742,-0.0913,-0.13279,1.0581,0.38327,-0.12776,-1.9711,0.51103,-2.5113e-10,-0.98554,0,0,0.5,-0,-0,0.66667
0.18961,0.30387,0.37921,-0.29419,-1.3674,7.4236,0.29749,-0.099165,-1.6921,0.39666,-3.0741e-10,-0.84606,0,0,0.5,-2.9606e-16,0,0.66667
0.5279,0.5253,1.0558,0.037957,0.12394,3.3415,-0.10687,0.035623,-1.995,-0.14249,3.2083e-12,-0.99748,0,0,0.5,-0,-0,0.66667
0.74008,0.36621,1.4802,-0.20069,-0.37541,1.4211,0.79213,-0.26404,-1.8565,1.0562,-1.0825e-10,-0.92824,0,0,0.5,-5.9212e-16,0,0.66667
0.14993,0.60239,0.29986,0.15358,0.71485,7.9355,-0.12281,0.040936,-1.9158,-0.16374,-5.3981e-10,-0.95791,0,0,0.5,-0,-0,0.66667
0.55109,0.45316,1.1022,-0.070264,-0.22031,3.1023,0.20651,-0.068838,-1.9818,0.27535,-1.1051e-11,-0.99092,0,0,0.5,-0,-0,0.66667
0.21662,0.72246,0.43323,0.33368,1.54,7.0777,-0.3855,0.1285,-1.6046,-0.514,-3.9808e-11,-0.8023,0,0,0.5,-0,-0,0.66667
0.7592,0.24977,1.5184,-0.37534,-0.68391,1.3462,1.5198,-0.50659,-1.5001,2.0264,-3.1333e-10,-0.75004,0,0,0.5,1.5173e-15,0,0.66667
0.72292,0.084038,1.4458,-0.62394,-1.4765,1.7785,2.4056,-0.80188,-0.61545,3.2075,-3.1356e-10,-0.30772,0,0,0.5,5.9212e-16,0,0.66667
0.17655,0.20822,0.3531,-0.43766,-2.0931,7.6107,0.4121,-0.13737,-1.3185,0.54947,3.8653e-10,-0.65924,0,0,0.5,1.4803e-16,0,0.66667
0.86197,0.89903,1.7239,0.59854,0.69367,0.85947,-2.7516,0.9172,-0.72618,-3.6688,9.0856e-09,-0.36309,0,0,0.5,-0,-0,0.66667
0.019775,0.62664,0.03955,0.18996,0.909,9.6781,-0.020035,0.0066785,-1.8725,-0.026713,5.2316e-07,-0.93623,0,0,0.5,-0,-0,0.66667
0.86024,0.54363,1.7205,0.065447,0.052861,0.59792,-0.30027,0.10009,-1.9844,-0.40036,1.5324e-09,-0.99221,0,0,0.5,-0,-0,0.66667
0.5589,0.92791,1.1178,0.64186,2.2538,3.2247,-1.9133,0.63776,-0.53482,-2.551,5.6123e-12,-0.26741,0,0,0.5,-0,-0,0.66667
0.40322,0.88194,0.80644,0.57292,2.4196,4.8517,-1.2321,0.41069,-0.83293,-1.6427,-3.5979e-11,-0.41646,0,0,0.5,-0,-0,0.66667
0.75875,0.73783,1.5175,0.35675,0.64629,1.3403,-1.4436,0.48121,-1.5469,-1.9249,2.5537e-10,-0.77345,0,0,0.5,2.857e-16,0,0.66667
0.71693,0.2611,1.4339,-0.35836,-0.76757,1.6579,1.3702,-0.45674,-1.5431,1.827,-2.6992e-10,-0.77153,0,0,0.5,-0,-0,0.66667
0.98733,0.60358,1.9747,0.15537,-0.065875,0.058797,-0.81812,0.27271,-1.9139,-1.0908,-1.8269e-07,-0.95693,0,0,0.5,-0,-0,0.66667
0.27809,0.4976,0.55617,-0.0035968,-0.015598,6.2668,0.0053345,-0.0017782,-2.0006,0.0071126,3.7246e-12,-1.0003,0,0,0.5,1.4803e-16,0,0.66667
0.0037937,0.97111,0.0075873,0.70667,3.7226,9.8949,-0.014301,0.0047778,-0.2251,-0.019062,1.6361e-05,-0.11255,0,0,0.5,-9.2519e-18,0,0.66667
0.9339,0.071572,1.8678,-0.64264,-0.33848,0.57569,3.2009,-1.067,-0.53131,4.2678,-1.1182e-08,-0.26566,0,0,0.5,-0,-0,0.66667
0.8579,0.74205,1.7158,0.36307,0.34907,0.70834,-1.6612,0.55374,-1.5313,-2.2149,-1.0145e-09,-0.76563,0,0,0.5,5.9212e-16,0,0.66667
0.72885,0.92647,1.4577,0.63971,1.4977,1.7467,-2.4867,0.82889,-0.54448,-3.3156,2.9213e-10,-0.27224,0,0,0.5,-0,-0,0.66667
0.51669,0.65174,1.0334,0.2276,0.76928,3.4834,-0.6272,0.20907,-1.8162,-0.83627,9.6937e-12,-0.90812,0,0,0.5,5.9212e-16,0,0.66667
0.70696,0.93042,1.4139,0.64563,1.6249,1.9188,-2.4343,0.81144,-0.51782,-3.2457,1.5592e-10,-0.25891,0,0,0.5,-0,-0,0.66667
0.78053,0.45537,1.5611,-0.06695,-0.10079,1.1011,0.2787,-0.092901,-1.9837,0.3716,-1.9296e-10,-0.99184,0,0,0.5,-0,-0,0.66667
0.37488,0.11087,0.74975,-0.58369,-2.5413,5.1845,1.167,-0.389,-0.78828,1.556,5.7674e-11,-0.39414,0,0,0.5,-5.9212e-16,0,0.66667
0.77032,0.95794,1.5406,0.68691,1.425,1.4934,-2.8221,0.94069,-0.32188,-3.7628,3.4673e-10,-0.16094,0,0,0.5,1.1842e-15,0,0.66667
0.75062,0.10449,1.5012,-0.59326,-1.2518,1.5496,2.375,-0.79167,-0.74837,3.1667,-7.5814e-10,-0.37418,0,0,0.5,1.1842e-15,0,0.66667
0.61321,0.0099463,1.2264,-0.73508,-2.4294,2.7805,2.4041,-0.80135,-0.078411,3.2054,-6.3105e-13,-0.039206,0,0,0.5,-0,-0,0.66667
0.40187,0.45435,0.80373,-0.068473,-0.2666,4.7517,0.14676,-0.048919,-1.9827,0.19568,2.1816e-11,-0.99136,0,0,0.5,-0,-0,0.66667
0.69731,0.15606,1.3946,-0.51591,-1.2551,1.9013,1.9186,-0.63955,-1.0547,2.5582,-3.4648e-10,-0.52733,0,0,0.5,-1.6838e-15,0,0.66667
0.0031129,0.95616,0.0062257,0.68424,3.5823,9.9037,-0.01136,0.0037976,-0.33483,-0.015142,1.6305e-05,-0.16742,0,0,0.5,4.6259e-18,-2.2791e-15,0.66667
0.7749,0.028189,1.5498,-0.70772,-1.4628,1.4827,2.9248,-0.97495,-0.21959,3.8998,-1.6557e-10,-0.1098,0,0,0.5,-1.3329e-16,0,0.66667
0.89642,0.93699,1.7928,0.65549,0.59644,0.74635,-3.1338,1.0446,-0.47324,-4.1784,1.2512e-08,-0.23662,0,0,0.5,1.6653e-15,0,0.66667
0.23932,0.059047,0.47863,-0.66143,-3.2398,6.8555,0.84422,-0.28141,-0.44488,1.1256,4.6895e-10,-0.22244,0,0,0.5,-2.9606e-16,0,0.66667
0.12077,0.26721,0.24153,-0.34919,-1.6756,8.3334,0.22491,-0.07497,-1.5659,0.29988,-9.5386e-10,-0.78293,0,0,0.5,1.4803e-16,0,0.66667
0.22028,0.67864,0.44057,0.26796,1.2234,7.0227,-0.31482,0.10494,-1.7445,-0.41975,3.8773e-11,-0.87227,0,0,0.5,2.9606e-16,0,0.66667
0.3021,0.87235,0.60419,0.55852,2.5618,6.0479,-0.89988,0.29996,-0.89139,-1.1998,-3.0417e-10,-0.44569,0,0,0.5,-1.4803e-16,0,0.66667
0.88303,0.092388,1.7661,-0.61142,-0.59862,0.7651,2.8795,-0.95982,-0.67156,3.8393,-8.5202e-09,-0.33578,0,0,0.5,2.7874e-16,0,0.66667
0.54317,0.68644,1.0863,0.27965,0.91101,3.2192,-0.81013,0.27004,-1.7228,-1.0802,2.8683e-11,-0.86141,0,0,0.5,1.5543e-15,0,0.66667
0.28671,0.99719,0.57342,0.74578,3.6457,6.2994,-1.1404,0.38013,-0.022921,-1.5205,6.6179e-12,-0.01146,0,0,0.5,-1.4803e-16,0,0.66667
0.13835,0.8377,0.27671,0.50655,2.4892,8.1176,-0.37378,0.12459,-1.0878,-0.49838,-1.1792e-09,-0.54389,0,0,0.5,-0,-0,0.66667
0.29014,0.36219,0.58029,-0.20672,-0.89827,6.1254,0.31989,-0.10663,-1.8474,0.42652,1.22e-10,-0.92372,0,0,0.5,-0,-0,0.66667
0.61387,0.33942,1.2277,-0.24087,-0.67453,2.5113,0.78862,-0.26287,-1.794,1.0515,-7.933e-11,-0.89699,0,0,0.5,-5.9212e-16,0,0.66667
0.32414,0.4495,0.64828,-0.075744,-0.3178,5.6913,0.13094,-0.043647,-1.9791,0.17459,4.9352e-11,-0.98955,0,0,0.5,-5.9212e-16,0,0.66667
0.45736,0.033987,0.91472,-0.69902,-2.8947,4.3089,1.7051,-0.56836,-0.26321,2.2734,4.3165e-13,-0.1316,0,0,0.5,-0,-0,0.66667
0.44412,0.15561,0.88823,-0.51659,-2.0533,4.3657,1.2236,-0.40787,-1.052,1.6315,2.3878e-11,-0.52602,0,0,0.5,-7.0314e-16,0,0.66667
0.82814,0.28565,1.6563,-0.32153,-0.3857,0.86007,1.4201,-0.47337,-1.633,1.8935,5.8157e-10,-0.81648,0,0,0.5,-0,-0,0.66667
0.42635,0.15942,0.8527,-0.51088,-2.0697,4.5632,1.1617,-0.38722,-1.0725,1.5489,3.6507e-11,-0.53624,0,0,0.5,-0,-0,0.66667
0.3457,0.86473,0.6914,0.54709,2.4198,5.5164,-1.0087,0.33623,-0.9355,-1.3449,-1.3654e-10,-0.46775,0,0,0.5,-0,-0,0.66667
0.67497,0.57287,1.3499,0.1093,0.25495,1.9329,-0.39347,0.13116,-1.9572,-0.52463,6.7589e-11,-0.97858,0,0,0.5,-0,-0,0.66667
0.22148,0.31745,0.44296,-0.27382,-1.2503,7.0078,0.32345,-0.10782,-1.7337,0.43127,-3.3488e-11,-0.86683,0,0,0.5,-0,-0,0.66667
0.46725,0.58764,0.93449,0.13146,0.47374,4.0065,-0.3276,0.1092,-1.9387,-0.4368,-1.2637e-11,-0.96936,0,0,0.5,-0,-0,0.66667
0.31477,0.54619,0.62953,0.06929,0.29286,5.8073,-0.11632,0.038774,-1.9824,-0.15509,-4.922e-11,-0.99121,0,0,0.5,-0,-0,0.66667
0.62686,0.25406,1.2537,-0.36891,-1.0312,2.4335,1.2333,-0.41111,-1.5166,1.6444,-1.2006e-10,-0.75828,0,0,0.5,-2.3685e-15,0,0.66667
0.87736,0.98126,1.7547,0.72189,0.85545,0.90776,-3.3779,1.126,-0.14668,-4.5038,7.2185e-09,-0.073342,0,0,0.5,-0,-0,0.66667
0.44769,0.45122,0.89538,-0.073165,-0.26973,4.2218,0.17469,-0.058231,-1.9803,0.23292,1.1758e-11,-0.99017,0,0,0.5,-0,-0,0.66667
0.78446,0.28997,1.5689,-0.31505,-0.49493,1.1399,1.3181,-0.43937,-1.6469,1.7575,1.3382e-11,-0.82343,0,0,0.5,-0,-0,0.66667
0.45697,0.6921,0.91393,0.28815,1.0726,4.1484,-0.70226,0.23409,-1.705,-0.93635,-2.8878e-11,-0.85252,0,0,0.5,-0,-0,0.66667
0.65623,0.76542,1.3125,0.39813,1.0422,2.1826,-1.3934,0.46447,-1.4361,-1.8579,1.7892e-10,-0.71804,0,0,0.5,-1.1842e-15,0,0.66667
0.13184,0.51895,0.26368,0.028423,0.1324,8.1728,-0.019985,0.0066618,-1.9965,-0.026647,-2.8969e-09,-0.99827,0,0,0.5,-0,-0,0.66667
0.43298,0.21785,0.86596,-0.42323,-1.6658,4.4567,0.97733,-0.32578,-1.364,1.3031,4.556e-11,-0.68201,0,0,0.5,1.1102e-16,0,0.66667
0.90931,0.84675,1.8186,0.52012,0.32283,0.56068,-2.5224,0.8408,-1.0387,-3.3632,-2.1736e-08,-0.51935,0,0,0.5,2.3685e-15,0,0.66667
0.60548,0.86881,1.211,0.55322,1.7217,2.7244,-1.7865,0.59549,-0.91185,-2.382,5.0848e-11,-0.45592,0,0,0.5,-5.2966e-16,0,0.66667
0.76677,0.66496,1.5335,0.24743,0.41514,1.2376,-1.0119,0.33729,-1.7822,-1.3492,3.2434e-11,-0.89111,0,0,0.5,2.3685e-15,0,0.66667
0.5047,0.22736,1.0094,-0.40896,-1.4579,3.6631,1.1008,-0.36693,-1.4051,1.4677,-2.8586e-12,-0.70254,0,0,0.5,-0,-0,0.66667
0.49806,0.10606,0.99611,-0.59092,-2.2391,3.8146,1.5696,-0.52322,-0.75805,2.0929,2.8977e-13,-0.37903,0,0,0.5,1.1842e-15,0,0.66667
0.8429,0.17196,1.6858,-0.49206,-0.59632,0.876,2.2121,-0.73735,-1.1387,2.9494,-1.15e-09,-0.56934,0,0,0.5,1.1842e-15,1.4647e-16,0.66667
0.067807,0.71147,0.13561,0.31721,1.5321,9.0362,-0.11471,0.038238,-1.6421,-0.15295,-2.6221e-09,-0.82104,0,0,0.5,7.4015e-17,0,0.66667
0.57327,0.028099,1.1465,-0.70785,-2.4894,3.1305,2.1642,-0.72141,-0.21893,2.8856,-6.6147e-13,-0.10947,0,0,0.5,5.9212e-16,6.9347e-16,0.66667
0.94276,0.023751,1.8855,-0.71437,-0.38501,0.62411,3.5919,-1.1973,-0.18531,4.7892,2.4718e-08,-0.092657,0,0,0.5,-0,-0,0.66667
0.51786,0.7344,1.0357,0.3516,1.2123,3.504,-0.97108,0.32369,-1.56,-1.2948,1.1709e-11,-0.77998,0,0,0.5,1.1842e-15,0,0.66667
0.19447,0.63393,0.38893,0.2009,0.92216,7.3523,-0.20836,0.069455,-1.8561,-0.27782,5.6342e-11,-0.92807,0,0,0.5,-0,-0,0.66667
0.84794,0.077065,1.6959,-0.6344,-0.84547,0.96832,2.869,-0.95633,-0.56841,3.8253,-6.6735e-09,-0.2842,0,0,0.5,-0,-0,0.66667
0.25164,0.59101,0.50328,0.13651,0.60496,6.6081,-0.18321,0.061069,-1.9344,-0.24428,-1.2892e-10,-0.96721,0,0,0.5,3.7007e-16,0,0.66667
0.70073,0.79246,1.4015,0.4387,1.0225,1.8279,-1.6395,0.5465,-1.3153,-2.186,3.3882e-10,-0.65767,0,0,0.5,1.1842e-15,0,0.66667
0.54026,0.24544,1.0805,-0.38183,-1.277,3.2816,1.1002,-0.36674,-1.4818,1.467,-2.6855e-11,-0.7409,0,0,0.5,-2.9606e-16,0,0.66667
0.94884,0.28583,1.8977,-0.32125,-0.017826,0.25945,1.6257,-0.54189,-1.6333,2.1676,1.7321e-09,-0.81665,0,0,0.5,-2.3685e-15,0,0.66667
0.62434,0.13077,1.2487,-0.55385,-1.6556,2.5514,1.8442,-0.61474,-0.9096,2.4589,-7.3337e-11,-0.4548,0,0,0.5,-0,3.7653e-16,0.66667
0.83798,0.34362,1.676,-0.23457,-0.24911,0.76494,1.0484,-0.34945,-1.8054,1.3978,6.4844e-10,-0.90269,0,0,0.5,-1.4895e-15,0,0.66667
0.0079329,0.37144,0.015866,-0.19284,-0.92336,9.8376,0.008159,-0.0027196,-1.8681,0.010879,8.9278e-08,-0.93406,0,0,0.5,-9.2519e-18,0,0.66667
0.98934,0.94382,1.9787,0.66573,-0.0070726,0.42117,-3.5127,1.1709,-0.42414,-4.6836,-1.7838e-06,-0.21207,0,0,0.5,-2.3685e-15,0,0.66667
0.077715,0.74187,0.15543,0.3628,1.7611,8.9061,-0.15037,0.050124,-1.532,-0.2005,-4.166e-10,-0.76601,0,0,0.5,-0,-0,0.66667
0.32213,0.38509,0.64426,-0.17236,-0.72865,5.7231,0.29613,-0.098709,-1.8939,0.39483,9.826e-11,-0.94696,0,0,0.5,5.9212e-16,0,0.66667
0.94615,0.91218,1.8923,0.61827,0.22999,0.50443,-3.1199,1.04,-0.64084,-4.1599,-9.9846e-08,-0.32042,0,0,0.5,2.3685e-15,0,0.66667
0.0089391,0.8855,0.017878,0.57825,2.947,9.8264,-0.027568,0.0091893,-0.81063,-0.036757,1.068e-07,-0.40531,0,0,0.5,-0,-0,0.66667
0.82273,0.98629,1.6455,0.72943,1.234,1.2068,-3.2007,1.0669,-0.10757,-4.2676,4.5565e-10,-0.053784,0,0,0.5,-0,-0,0.66667
0.86121,0.52822,1.7224,0.042337,0.033713,0.59056,-0.19446,0.06482,-1.9943,-0.25928,-2.3075e-10,-0.99713,0,0,0.5,-0,-0,0.66667
0.43983,0.29252,0.87966,-0.31121,-1.1884,4.3471,0.73003,-0.24334,-1.6552,0.97338,4.2505e-11,-0.82762,0,0,0.5,-0,-0,0.66667
0.25575,0.1184,0.51149,-0.57241,-2.7137,6.6258,0.78075,-0.26025,-0.83494,1.041,7.3245e-10,-0.41747,0,0,0.5,1.4803e-16,0,0.66667
0.80269,0.11417,1.6054,-0.57874,-0.96129,1.186,2.4776,-0.82586,-0.80862,3.3034,-2.3769e-09,-0.40431,0,0,0.5,-0,-0,0.66667
0.47786,0.73687,0.95572,0.3553,1.3015,3.9349,-0.90553,0.30184,-1.5505,-1.2074,-1.4621e-11,-0.77526,0,0,0.5,-0,-0,0.66667
0.13434,0.28461,0.26868,-0.32308,-1.5385,8.152,0.23148,-0.077159,-1.6293,0.30864,-1.2782e-09,-0.81463,0,0,0.5,2.9606e-16,0,0.66667
0.92785,0.61403,1.8557,0.17105,0.032306,0.28275,-0.84643,0.28214,-1.8955,-1.1286,-6.3693e-10,-0.94773,0,0,0.5,1.1842e-15,0,0.66667
0.89597,0.088964,1.7919,-0.61655,-0.53197,0.70893,2.9462,-0.98207,-0.64857,3.9283,-2.158e-08,-0.32429,0,0,0.5,-5.9212e-16,0,0.66667
0.49155,0.9408,0.98309,0.66119,2.5884,3.9219,-1.7334,0.57779,-0.44598,-2.3112,-3.1974e-13,-0.22299,0,0,0.5,-1.1842e-15,0,0.66667
0.8567,0.39533,1.7134,-0.15701,-0.13521,0.63335,0.71738,-0.23913,-1.912,0.9565,3.7357e-11,-0.95598,0,0,0.5,-1.1842e-15,0,0.66667
0.41858,0.024395,0.83716,-0.71341,-3.0986,4.7438,1.5926,-0.53087,-0.19037,2.1235,7.4485e-13,-0.095184,0,0,0.5,-0,-4.0558e-16,0.66667
0.68346,0.50365,1.3669,0.0054717,0.012355,1.8528,-0.019945,0.0066484,-2.0003,-0.026594,4.1864e-12,-1.0001,0,0,0.5,-4.737e-15,0,0.66667
0.39799,0.069734,0.79598,-0.6454,-2.7992,4.9431,1.3699,-0.45665,-0.51878,1.8266,1.4112e-11,-0.25939,0,0,0.5,-0,-0,0.66667
0.50574,0.81307,1.0115,0.46961,1.6974,3.676,-1.2667,0.42222,-1.2168,-1.6889,2.7857e-12,-0.60841,0,0,0.5,-0,-0,0.66667
0.18955,0.90487,0.3791,0.6073,3.0006,7.4719,-0.61395,0.20465,-0.68957,-0.8186,-2.9428e-09,-0.34478,0,0,0.5,-0,-0,0.66667
0.96499,0.28151,1.93,-0.32774,0.034421,0.20426,1.6868,-0.56225,-1.6191,2.249,7.2645e-09,-0.80957,0,0,0.5,-0,-0,0.66667
0.29422,0.28752,0.58843,-0.31873,-1.4004,6.0897,0.50013,-0.16671,-1.6389,0.66684,2.0319e-10,-0.81944,0,0,0.5,5.9212e-16,0,0.66667
0.10346,0.97723,0.20692,0.71585,3.7398,8.5988,-0.395,0.13167,-0.17768,-0.52666,-1.439e-08,-0.088839,0,0,0.5,-0,-0,0.66667
0.14432,0.60866,0.28863,0.16299,0.76058,8.0103,-0.12545,0.041816,-1.905,-0.16727,-4.6743e-11,-0.95248,0,0,0.5,2.9606e-16,0,0.66667
0.014092,0.54121,0.028185,0.061819,0.29382,9.7543,-0.00465,0.0015522,-1.9862,-0.0061989,3.2454e-06,-0.99308,0,0,0.5,3.7007e-17,0,0.66667
0.71595,0.49463,1.4319,-0.0080557,-0.016238,1.584,0.03076,-0.010253,-2,0.041013,-8.5644e-12,-0.99998,0,0,0.5,-0,-0,0.66667
0.5645,0.11561,1.129,-0.57659,-1.9576,3.1301,1.7359,-0.57863,-0.81773,2.3145,-1.7376e-11,-0.40886,0,0,0.5,-0,-0,0.66667
0.79458,0.78363,1.5892,0.42544,0.66814,1.1292,-1.8029,0.60097,-1.3572,-2.4039,5.337e-10,-0.67858,0,0,0.5,-0,-0,0.66667
0.50708,0.74487,1.0142,0.36731,1.2924,3.6233,-0.99336,0.33112,-1.5204,-1.3245,4.5561e-12,-0.7602,0,0,0.5,2.9606e-16,0,0.66667
0.79182,0.4285,1.5836,-0.10726,-0.15209,1.0281,0.45295,-0.15098,-1.9588,0.60393,-2.622e-10,-0.97938,0,0,0.5,-1.1842e-15,0,0.66667
0.69576,0.66349,1.3915,0.24523,0.547,1.7864,-0.90998,0.30333,-1.786,-1.2133,1.3924e-10,-0.893,0,0,0.5,-0,-0,0.66667
0.77785,0.79587,1.5557,0.44381,0.76661,1.253,-1.8412,0.61372,-1.2991,-2.4549,7.3193e-10,-0.64955,0,0,0.5,-0,-0,0.66667
0.40648,0.29458,0.81297,-0.30813,-1.2224,4.73,0.668,-0.22267,-1.6621,0.89067,7.2165e-11,-0.83104,0,0,0.5,-5.9212e-16,0,0.66667
0.64777,0.74779,1.2955,0.37168,0.98695,2.2455,-1.2841,0.42803,-1.5094,-1.7121,1.5578e-10,-0.7547,0,0,0.5,-1.7764e-15,0,0.66667
0.17979,0.85284,0.35959,0.52925,2.5765,7.5827,-0.5075,0.16917,-1.0037,-0.67667,-2.3601e-09,-0.50184,0,0,0.5,-0,-0,0.66667
0.32182,0.45699,0.64364,-0.064517,-0.27109,5.7196,0.11074,-0.036912,-1.9846,0.14765,4.3292e-11,-0.99232,0,0,0.5,-8.5052e-17,0,0.66667
0.1726,0.44045,0.34521,-0.08932,-0.41082,7.6338,0.082224,-0.027408,-1.9723,0.10963,9.2992e-10,-0.98617,0,0,0.5,5.9212e-16,0,0.66667
0.40864,0.25108,0.81727,-0.37338,-1.495,4.7211,0.81375,-0.27125,-1.5053,1.085,7.3454e-11,-0.75263,0,0,0.5,1.1842e-15,0,0.66667
0.24142,0.51032,0.48284,0.015473,0.068689,6.7354,-0.019923,0.0066411,-1.9987,-0.026564,-3.0775e-11,-0.99934,0,0,0.5,-0,-0,0.66667
0.40692,0.045262,0.81384,-0.68211,-2.9667,4.8589,1.4803,-0.49345,-0.34532,1.9738,4.8329e-12,-0.17266,0,0,0.5,-0,-0,0.66667
0.97522,0.49627,1.9504,-0.0055942,0.0018072,0.076723,0.029098,-0.0096957,-2.0002,0.038799,5.4862e-06,-1.0001,0,0,0.5,3.8488e-15,0,0.66667
0.32032,0.7315,0.64064,0.34725,1.5028,5.7713,-0.59322,0.19774,-1.5707,-0.79097,-2.0024e-10,-0.78533,0,0,0.5,-0,-0,0.66667
0.98249,0.52178,1.965,0.032676,-0.012971,0.053791,-0.17123,0.057075,-1.996,-0.2283,-1.8026e-06,-0.99798,0,0,0.5,-0,-0,0.66667
0.63631,0.70967,1.2726,0.3145,0.84702,2.3263,-1.0673,0.35577,-1.648,-1.4231,1.2164e-10,-0.824,0,0,0.5,-0,-0,0.66667
0.37509,0.51326,0.75018,0.019893,0.079572,5.0685,-0.039796,0.013265,-1.9983,-0.053062,-8.6676e-12,-0.99914,0,0,0.5,-0,-0,0.66667
0.85748,0.30267,1.715,-0.29599,-0.27212,0.67693,1.3536,-0.45122,-1.6882,1.8049,9.2208e-10,-0.84412,0,0,0.5,1.1842e-15,0,0.66667
0.61959,0.36798,1.2392,-0.19803,-0.54325,2.4473,0.65438,-0.21813,-1.8604,0.87251,-7.2039e-11,-0.93022,0,0,0.5,-5.9212e-16,0,0.66667
0.25203,0.2038,0.50407,-0.4443,-2.0509,6.6431,0.59721,-0.19907,-1.2976,0.79629,5.9504e-10,-0.64882,0,0,0.5,-0,-0,0.66667
0.79286,0.30441,1.5857,-0.29338,-0.43615,1.0737,1.2406,-0.41353,-1.6938,1.6541,1.2521e-10,-0.84688,0,0,0.5,-0,-0,0.66667
0.43294,0.94668,0.86588,0.67002,2.8247,4.5611,-1.5471,0.51569,-0.40351,-2.0628,-3.4998e-12,-0.20175,0,0,0.5,-0,-0,0.66667
0.35751,0.30176,0.71502,-0.29737,-1.2371,5.3086,0.567,-0.189,-1.6853,0.756,1.2363e-10,-0.84263,0,0,0.5,-0,-0,0.66667
0.33028,0.38914,0.66055,-0.16629,-0.6979,5.6219,0.29291,-0.097638,-1.9012,0.39055,9.1437e-11,-0.95059,0,0,0.5,-0,-0,0.66667
0.69737,0.1887,1.3947,-0.46695,-1.1124,1.871,1.7367,-0.5789,-1.2256,2.3156,-3.471e-10,-0.61278,0,0,0.5,-0,-0,0.66667
0.26865,0.31974,0.5373,-0.27039,-1.2008,6.4041,0.38742,-0.12914,-1.74,0.51656,1.4002e-10,-0.86999,0,0,0.5,-0,-0,0.66667
0.80828,0.67173,1.6166,0.2576,0.34376,0.95791,-1.1105,0.37015,-1.7635,-1.4806,-2.6966e-10,-0.88173,0,0,0.5,-0,-0,0.66667
0.29529,0.40241,0.59058,-0.14639,-0.63053,6.0552,0.23055,-0.07685,-1.9243,0.3074,1.0079e-10,-0.96215,0,0,0.5,7.4015e-16,0,0.66667
0.54412,0.35964,1.0882,-0.21055,-0.67731,3.193,0.611,-0.20367,-1.8418,0.81467,-2.4856e-11,-0.92092,0,0,0.5,-0,-0,0.66667
0.48792,0.019674,0.97584,-0.72049,-2.8954,3.9956,1.8749,-0.62496,-0.15383,2.4999,1.2434e-14,-0.076913,0,0,0.5,1.1842e-15,0,0.66667
0.85536,0.75373,1.7107,0.38059,0.37989,0.73236,-1.7362,0.57874,-1.4854,-2.315,-1.1166e-09,-0.74269,0,0,0.5,2.3685e-15,0,0.66667
0.88839,0.49995,1.7768,-7.2455e-05,-3.9099e-05,0.44417,0.0003433,-0.00011445,-2.0012,0.00045772,-1.9754e-08,-1.0006,0,0,0.5,-1.5358e-15,0,0.66667
0.18438,0.37194,0.36877,-0.19209,-0.88493,7.4836,0.1889,-0.062965,-1.8694,0.25186,-1.8379e-10,-0.93468,0,0,0.5,-1.4803e-16,0,0.66667
0.58535,0.020792,1.1707,-0.71881,-2.486,3.0242,2.244,-0.74801,-0.16239,2.992,-8.1601e-13,-0.081196,0,0,0.5,-0,-0,0.66667
0.89821,0.97006,1.7964,0.70509,0.67884,0.79212,-3.3777,1.1259,-0.23313,-4.5035,3.3477e-08,-0.11656,0,0,0.5,-2.3685e-15,0,0.66667
0.44612,0.35913,0.89223,-0.21131,-0.7892,4.2553,0.50276,-0.16759,-1.8406,0.67035,3.0758e-11,-0.92028,0,0,0.5,-5.9212e-16,0,0.66667
0.92187,0.49659,1.8437,-0.0051189,-0.0011095,0.28481,0.025168,-0.0083895,-2.0006,0.033557,-2.6709e-07,-1.0003,0,0,0.5,-2.3685e-15,0,0.66667
0.27899,0.61758,0.55798,0.17637,0.77025,6.263,-0.26243,0.087478,-1.8894,-0.34991,-1.1277e-10,-0.94468,0,0,0.5,2.9606e-16,0,0.66667
0.60883,0.34111,1.2177,-0.23833,-0.67493,2.5584,0.77387,-0.25796,-1.7988,1.0318,-7.4654e-11,-0.89941,0,0,0.5,-5.9212e-16,0,0.66667
0.68245,0.94513,1.3649,0.6677,1.8217,2.1319,-2.4303,0.81008,-0.41467,-3.2403,5.7509e-11,-0.20734,0,0,0.5,2.3685e-15,0,0.66667
0.22821,0.027929,0.45641,-0.70811,-3.535,7.0076,0.86183,-0.28728,-0.21759,1.1491,1.5161e-10,-0.10879,0,0,0.5,-2.9606e-16,0,0.66667
0.013768,0.77805,0.027535,0.41707,2.0559,9.7607,-0.030624,0.010208,-1.3821,-0.040832,2.7566e-08,-0.69105,0,0,0.5,2.313e-17,0,0.66667
0.41672,0.85534,0.83345,0.53301,2.1952,4.6812,-1.1846,0.39488,-0.98935,-1.5795,-3.8315e-11,-0.49467,0,0,0.5,-0,-0,0.66667
0.93848,0.86094,1.877,0.5414,0.19309,0.45836,-2.7099,0.90328,-0.95739,-3.6131,-9.8074e-09,-0.4787,0,0,0.5,-0,-0,0.66667
0.34303,0.36286,0.68606,-0.20571,-0.85707,5.47,0.37635,-0.12545,-1.8492,0.5018,1.0074e-10,-0.9246,0,0,0.5,-0,-0,0.66667
0.77974,0.63537,1.5595,0.20306,0.31475,1.1321,-0.84444,0.28148,-1.8531,-1.1259,3.0845e-11,-0.92656,0,0,0.5,-0,-0,0.66667
0.17474,0.41445,0.34947,-0.12832,-0.59083,7.607,0.11959,-0.039862,-1.9413,0.15945,3.2324e-10,-0.97065,0,0,0.5,-0,-0,0.66667
0.34195,0.60786,0.68391,0.16178,0.67196,5.4782,-0.29505,0.09835,-1.9065,-0.3934,-8.3202e-11,-0.95323,0,0,0.5,-0,-0,0.66667
0.1446,0.66219,0.2892,0.24329,1.1434,8.0107,-0.18762,0.062541,-1.7896,-0.25017,7.6063e-10,-0.8948,0,0,0.5,-0,-0,0.66667
0.71677,0.78186,1.4335,0.42279,0.92816,1.6913,-1.6162,0.53875,-1.3655,-2.155,3.8943e-10,-0.68276,0,0,0.5,-0,-0,0.66667
0.69931,0.22224,1.3986,-0.41665,-0.9674,1.8276,1.5539,-0.51798,-1.3832,2.0719,-3.1392e-10,-0.69161,0,0,0.5,2.3685e-15,0,0.66667
0.6885,0.74969,1.377,0.37453,0.88664,1.896,-1.3753,0.45843,-1.5025,-1.8337,2.4035e-10,-0.75123,0,0,0.5,-1.8504e-17,0,0.66667
0.2534,0.1817,0.50679,-0.47745,-2.2172,6.6328,0.64525,-0.21508,-1.1896,0.86033,7.0559e-10,-0.59479,0,0,0.5,1.4803e-16,0,0.66667
0.69236,0.64782,1.3847,0.22173,0.49764,1.8079,-0.81874,0.27291,-1.8249,-1.0917,1.2592e-10,-0.91247,0,0,0.5,5.9212e-16,0,0.66667
0.2273,0.64085,0.4546,0.21128,0.95513,6.9267,-0.25612,0.085374,-1.8406,-0.3415,-4.2095e-11,-0.92031,0,0,0.5,-2.6917e-16,0,0.66667
0.42465,0.073921,0.8493,-0.63912,-2.6919,4.6381,1.4475,-0.48249,-0.54723,1.93,8.8629e-12,-0.27362,0,0,0.5,-0,-0,0.66667
0.37192,0.44403,0.74384,-0.083958,-0.33748,5.1087,0.16654,-0.055512,-1.975,0.22205,3.6368e-11,-0.98748,0,0,0.5,-0,-0,0.66667
0.35531,0.85665,0.71062,0.53498,2.3397,5.3977,-1.0138,0.33793,-0.98183,-1.3517,-1.2167e-10,-0.49092,0,0,0.5,-0,-0,0.66667
0.057655,0.8131,0.11531,0.46965,2.3299,9.1781,-0.14441,0.048138,-1.2167,-0.19255,-2.8308e-08,-0.60834,0,0,0.5,-1.4803e-16,0,0.66667
0.63165,0.2477,1.2633,-0.37845,-1.0485,2.3937,1.2749,-0.42497,-1.4913,1.6999,-1.2887e-10,-0.74567,0,0,0.5,-5.9212e-16,0,0.66667
0.70732,0.67901,1.4146,0.26851,0.57906,1.6992,-1.0129,0.33764,-1.7434,-1.3506,1.5539e-10,-0.8717,0,0,0.5,-5.9212e-16,0,0.66667
0.61359,0.30847,1.2272,-0.2873,-0.81236,2.5274,0.94017,-0.31339,-1.7069,1.2536,-8.9525e-11,-0.85343,0,0,0.5,-5.9212e-16,0,0.66667
0.64831,0.033284,1.2966,-0.70007,-2.1118,2.4435,2.4206,-0.80687,-0.25803,3.2275,-7.1267e-12,-0.12901,0,0,0.5,2.3685e-15,0,0.66667
0.16994,0.43088,0.33988,-0.10368,-0.47768,7.6693,0.093974,-0.031325,-1.9618,0.1253,8.9868e-10,-0.98092,0,0,0.5,-4.7405e-17,0,0.66667
0.14945,0.55898,0.29889,0.088468,0.41041,7.9398,-0.070513,0.023504,-1.9725,-0.094017,-7.0058e-10,-0.98626,0,0,0.5,-1.778e-16,0,0.66667
0.51418,0.30033,1.0284,-0.2995,-1.0282,3.5274,0.82132,-0.27377,-1.6807,1.0951,-9.3165e-12,-0.84034,0,0,0.5,5.9212e-16,0,0.66667
0.87533,0.54355,1.7507,0.065318,0.043629,0.51543,-0.30493,0.10164,-1.9845,-0.40658,4.5119e-09,-0.99226,0,0,0.5,-0,-0,0.66667
0.18395,0.46484,0.36791,-0.052738,-0.24113,7.4837,0.05174,-0.017247,-1.9905,0.068987,6.2615e-10,-0.99525,0,0,0.5,-4.4409e-16,0,0.66667
0.46284,0.77951,0.92568,0.41926,1.5889,4.121,-1.0349,0.34498,-1.3757,-1.3799,-2.2923e-11,-0.68784,0,0,0.5,8.1416e-16,0,0.66667
0.42893,0.70663,0.85786,0.30994,1.199,4.4711,-0.70904,0.23635,-1.6578,-0.94539,-5.1588e-11,-0.82892,0,0,0.5,5.9212e-16,0,0.66667
0.49729,0.85799,0.99458,0.53699,2.003,3.7958,-1.4242,0.47473,-0.97422,-1.8989,-8.3111e-13,-0.48711,0,0,0.5,-0,-0,0.66667
0.16151,0.44092,0.32302,-0.088626,-0.40937,7.7802,0.076342,-0.025447,-1.9725,0.10179,1.0208e-09,-0.98624,0,0,0.5,-0,-0,0.66667
0.34244,0.70226,0.68488,0.30339,1.2803,5.4923,-0.5541,0.1847,-1.6723,-0.7388,-1.4383e-10,-0.83614,0,0,0.5,-0,-0,0.66667
0.26188,0.69858,0.52376,0.29787,1.3333,6.4936,-0.41603,0.13868,-1.6841,-0.55471,-1.6226e-10,-0.84204,0,0,0.5,-0,-0,0.66667
0.84453,0.44797,1.6891,-0.078039,-0.074332,0.68955,0.3515,-0.11717,-1.9781,0.46867,-8.3712e-10,-0.98906,0,0,0.5,-0,-0,0.66667
0.80033,0.99014,1.6007,0.7352,1.3928,1.3472,-3.1382,1.0461,-0.077792,-4.1842,4.6129e-11,-0.038896,0,0,0.5,-0,-0,0.66667
0.42664,0.4639,0.85328,-0.054156,-0.20483,4.462,0.12323,-0.041076,-1.9898,0.1643,1.2586e-11,-0.99488,0,0,0.5,8.8818e-16,0,0.66667
0.60702,0.010805,1.214,-0.73379,-2.4532,2.8355,2.3756,-0.79186,-0.085148,3.1675,-5.913e-13,-0.042574,0,0,0.5,-0,5.3577e-16,0.66667
0.14547,0.5616,0.29093,0.092399,0.42929,7.9927,-0.071685,0.023895,-1.9705,-0.095579,-1.4647e-09,-0.98527,0,0,0.5,-5.5511e-17,0,0.66667
0.50961,0.58758,1.0192,0.13137,0.4444,3.5431,-0.35705,0.11902,-1.9386,-0.47607,3.6164e-12,-0.9693,0,0,0.5,-0,-0,0.66667
0.29695,0.43294,0.59389,-0.10059,-0.43154,6.0314,0.1593,-0.053102,-1.9645,0.21241,7.9115e-11,-0.98226,0,0,0.5,1.4803e-16,0,0.66667
0.85965,0.31459,1.7193,-0.27812,-0.24721,0.65704,1.2751,-0.42503,-1.7259,1.7001,3.6113e-10,-0.86295,0,0,0.5,-0,-0,0.66667
0.6716,0.41055,1.3432,-0.13418,-0.31708,1.9657,0.4806,-0.1602,-1.9365,0.6408,-7.8394e-11,-0.96826,0,0,0.5,-0,-0,0.66667
0.63347,0.15335,1.2669,-0.51997,-1.5028,2.4486,1.7567,-0.58558,-1.0391,2.3423,-1.0755e-10,-0.51957,0,0,0.5,-1.4408e-15,0,0.66667
0.12475,0.44549,0.2495,-0.081772,-0.3822,8.2679,0.054406,-0.018135,-1.9763,0.072541,-5.3135e-10,-0.98813,0,0,0.5,-0,-0,0.66667
0.47059,0.32321,0.94118,-0.26519,-0.96578,3.9915,0.66557,-0.22186,-1.7496,0.88743,1.8671e-11,-0.87482,0,0,0.5,-0,-0,0.66667
0.98657,0.73172,1.9731,0.34759,-0.10976,0.14591,-1.8289,0.60964,-1.57,-2.4385,2.2942e-08,-0.78498,0,0,0.5,-0,-0,0.66667
0.9483,0.38557,1.8966,-0.17165,0.0026668,0.19934,0.86812,-0.28937,-1.8948,1.1575,-6.556e-08,-0.9474,0,0,0.5,-2.3685e-15,0,0.66667
0.64509,0.87411,1.2902,0.56117,1.6034,2.3708,-1.9307,0.64356,-0.88121,-2.5742,1.0456e-10,-0.4406,0,0,0.5,1.7023e-15,0,0.66667
0.15172,0.86373,0.30345,0.54559,2.693,7.9487,-0.44149,0.14716,-0.94113,-0.58866,-3.7315e-09,-0.47056,0,0,0.5,1.4803e-16,0,0.66667
0.63913,0.73845,1.2783,0.35768,0.96719,2.3172,-1.2192,0.4064,-1.5448,-1.6256,1.3689e-10,-0.77239,0,0,0.5,-0,-0,0.66667
0.56566,0.97989,1.1313,0.71983,2.5776,3.2121,-2.1716,0.72388,-0.15725,-2.8955,4.7695e-13,-0.078623,0,0,0.5,-0,-0,0.66667
0.46867,0.55926,0.93733,0.088886,0.31882,3.9868,-0.22218,0.074059,-1.9726,-0.29623,-8.4363e-12,-0.98631,0,0,0.5,-2.9606e-16,0,0.66667
0.42804,0.5768,0.85607,0.1152,0.4362,4.4498,-0.26298,0.08766,-1.9522,-0.35064,-2.5447e-11,-0.97608,0,0,0.5,-5.9212e-16,0,0.66667
0.59927,0.50969,1.1985,0.014532,0.041193,2.6196,-0.046446,0.015482,-1.9988,-0.061928,4.7456e-12,-0.99942,0,0,0.5,-0,-0,0.66667
0.84997,0.52678,1.6999,0.040168,0.0361,0.65439,-0.18209,0.060696,-1.9945,-0.24278,2.0246e-09,-0.99723,0,0,0.5,1.1842e-15,0,0.66667
0.75112,0.24786,1.5022,-0.37821,-0.71457,1.4065,1.5151,-0.50503,-1.4922,2.0201,-3.3524e-10,-0.74612,0,0,0.5,-2.9606e-16,0,0.66667
0.57936,0.55503,1.1587,0.082548,0.24492,2.818,-0.25507,0.085023,-1.9758,-0.34009,2.0736e-11,-0.98789,0,0,0.5,-5.9212e-16,0,0.66667
0.9247,0.55605,1.8494,0.08407,0.01656,0.2781,-0.41461,0.1382,-1.9749,-0.55282,6.9595e-08,-0.98746,0,0,0.5,-5.9212e-16,0,0.66667
0.06474,0.071573,0.12948,-0.64264,-3.3134,9.0952,0.22189,-0.073964,-0.53139,0.29585,3.5924e-08,-0.2657,0,0,0.5,1.4803e-16,0,0.66667
0.99135,0.18605,1.9827,-0.47093,0.12312,0.22074,2.4899,-0.82996,-1.2122,3.3199,-4.9896e-08,-0.6061,0,0,0.5,1.4803e-16,0,0.66667
0.052995,0.087282,0.10599,-0.61908,-3.1774,9.2476,0.17497,-0.058325,-0.63724,0.2333,-6.7653e-08,-0.31862,0,0,0.5,-0,-0,0.66667
0.1995,0.6076,0.39899,0.1614,0.73673,7.2841,-0.17172,0.057241,-1.9068,-0.22896,-1.1198e-10,-0.95341,0,0,0.5,-0,-0,0.66667
0.42275,0.48425,0.84551,-0.023632,-0.08974,4.5061,0.053283,-0.017761,-1.9976,0.071044,5.8483e-12,-0.9988,0,0,0.5,-0,-0,0.66667
0.10751,0.1584,0.21502,-0.5124,-2.5419,8.5226,0.2938,-0.097934,-1.0672,0.39174,5.8631e-10,-0.53362,0,0,0.5,-0,-0,0.66667
0.62367,0.27271,1.2473,-0.34093,-0.95326,2.4519,1.134,-0.37801,-1.5866,1.512,-1.1111e-10,-0.79331,0,0,0.5,5.9212e-16,0,0.66667
0.047993,0.073561,0.095985,-0.63966,-3.3019,9.3144,0.16373,-0.054576,-0.5449,0.2183,-2.1492e-08,-0.27245,0,0,0.5,-7.4015e-17,0,0.66667
0.28462,0.58312,0.56925,0.12468,0.54038,6.1879,-0.18926,0.063088,-1.9443,-0.25235,-9.7509e-11,-0.97216,0,0,0.5,-2.9606e-16,0,0.66667
0.061037,0.52665,0.12207,0.039981,0.18919,9.1213,-0.013015,0.004338,-1.9947,-0.017353,-3.5692e-07,-0.99735,0,0,0.5,-7.4015e-17,0,0.66667
0.70352,0.70154,1.407,0.30231,0.66662,1.7421,-1.1343,0.3781,-1.6747,-1.5124,1.8514e-10,-0.83735,0,0,0.5,-1.1842e-15,0,0.66667
0.66846,0.56295,1.3369,0.094426,0.22437,1.9876,-0.33664,0.11221,-1.9693,-0.44885,5.7605e-11,-0.98467,0,0,0.5,-2.3685e-15,0,0.66667
0.37858,0.6871,0.75716,0.28065,1.1415,5.053,-0.56666,0.18889,-1.721,-0.75555,-9.628e-11,-0.86049,0,0,0.5,5.9212e-16,0,0.66667
0.18819,0.02023,0.37639,-0.71965,-3.6689,7.5142,0.72232,-0.24077,-0.15831,0.96309,4.1337e-10,-0.079154,0,0,0.5,5.9212e-16,0,0.66667
0.747,0.50918,1.494,0.013767,0.02442,1.3421,-0.05485,0.018283,-1.9991,-0.073133,2.3245e-11,-0.99953,0,0,0.5,-0,-0,0.66667
0.34038,0.80899,0.68076,0.46348,2.0184,5.5545,-0.84138,0.28046,-1.2367,-1.1218,-1.9486e-10,-0.61834,0,0,0.5,1.4803e-16,0,0.66667
0.7953,0.52375,1.5906,0.035631,0.049104,0.99733,-0.15113,0.050378,-1.9955,-0.20151,1.8399e-10,-0.99774,0,0,0.5,-0,-0,0.66667
0.4879,0.56509,0.9758,0.097637,0.34078,3.7749,-0.25406,0.084688,-1.9667,-0.33875,-3.5366e-12,-0.98336,0,0,0.5,-0,-0,0.66667
0.52567,0.96997,1.0513,0.70495,2.6729,3.5966,-1.9764,0.65879,-0.23385,-2.6352,1.4599e-13,-0.11692,0,0,0.5,-0,-0,0.66667
0.028491,0.57824,0.056982,0.11736,0.55862,9.5602,-0.017833,0.0059447,-1.9505,-0.023777,6.6732e-07,-0.97524,0,0,0.5,-0,-0,0.66667
0.64423,0.66446,1.2885,0.2467,0.64131,2.2328,-0.84763,0.28254,-1.7834,-1.1302,1.0719e-10,-0.89171,0,0,0.5,-0,-0,0.66667
0.35066,0.41714,0.70131,-0.12428,-0.51084,5.3687,0.23243,-0.077477,-1.9446,0.30991,6.2375e-11,-0.97228,0,0,0.5,-0,-0,0.66667
0.22921,0.98754,0.45841,0.73131,3.6744,7.002,-0.89398,0.29799,-0.09785,-1.192,-5.7265e-11,-0.048925,0,0,0.5,-2.9606e-16,0,0.66667
0.43388,0.23147,0.86777,-0.40279,-1.5766,4.44,0.93208,-0.31069,-1.4226,1.2428,4.6121e-11,-0.71131,0,0,0.5,-0,-0,0.66667
0.38247,0.74851,0.76493,0.37277,1.5336,5.0273,-0.76039,0.25346,-1.5066,-1.0139,-1.0684e-10,-0.75332,0,0,0.5,7.4015e-16,0,0.66667
0.46979,0.99139,0.93958,0.73708,3.0488,4.1978,-1.8468,0.61559,-0.068228,-2.4624,-1.7764e-15,-0.034114,0,0,0.5,-1.7764e-15,0,0.66667
0.97948,0.35597,1.959,-0.21605,0.068772,0.10323,1.1286,-0.37621,-1.8335,1.5048,2.1826e-07,-0.91674,0,0,0.5,-0,-0,0.66667
0.36438,0.42522,0.72876,-0.11217,-0.45485,5.2014,0.21799,-0.072663,-1.9547,0.29065,5.0783e-11,-0.97735,0,0,0.5,5.9212e-16,0,0.66667
0.77441,0.93138,1.5488,0.64707,1.2849,1.4294,-2.6725,0.89084,-0.51126,-3.5633,8.2847e-10,-0.25563,0,0,0.5,-5.9212e-16,0,0.66667
0.55277,0.45897,1.1055,-0.061552,-0.1923,3.0845,0.18146,-0.060487,-1.9861,0.24195,-1.0066e-11,-0.99305,0,0,0.5,5.9212e-16,0,0.66667
0.88913,0.82647,1.7783,0.48971,0.38315,0.62993,-2.3222,0.77407,-1.1469,-3.0963,-4.6007e-09,-0.57344,0,0,0.5,-0,-0,0.66667
0.35495,0.74497,0.70991,0.36746,1.55,5.3542,-0.69563,0.23188,-1.5201,-0.92751,-1.496e-10,-0.76004,0,0,0.5,-0,-0,0.66667
0.24552,0.12662,0.49104,-0.56008,-2.6625,6.751,0.73338,-0.24446,-0.88543,0.97784,9.4806e-10,-0.44272,0,0,0.5,5.9212e-16,0,0.66667
0.91102,0.49408,1.822,-0.0088781,-0.0028683,0.33412,0.043137,-0.014379,-1.9998,0.057515,1.0395e-07,-0.99988,0,0,0.5,1.7764e-15,0,0.66667
0.043534,0.66162,0.087069,0.24243,1.1639,9.3593,-0.056287,0.018763,-1.7912,-0.07505,8.4365e-08,-0.8956,0,0,0.5,-0,-0,0.66667
0.95075,0.70915,1.9015,0.31372,0.0097604,0.24815,-1.5908,0.53026,-1.6498,-2.1211,-1.0143e-08,-0.82489,0,0,0.5,1.1842e-15,0,0.66667
0.55641,0.5027,1.1128,0.0040521,0.012554,3.0454,-0.012025,0.0040082,-2.0004,-0.016033,7.2728e-13,-1.0002,0,0,0.5,-0,-0,0.66667
0.37636,0.60035,0.75273,0.15052,0.60479,5.0607,-0.30213,0.10071,-1.9196,-0.40284,-5.9507e-11,-0.95978,0,0,0.5,-0,-0,0.66667
0.99505,0.896,1.9901,0.594,-0.097879,0.32636,-3.1523,1.0508,-0.74505,-4.2031,-5.4562e-07,-0.37252,0,0,0.5,-1.1842e-15,5.221e-16,0.66667
0.058363,0.50854,0.11673,0.012815,0.060634,9.1573,-0.0039885,0.00133,-1.9992,-0.0053178,6.7232e-07,-0.99958,0,0,0.5,-0,-0,0.66667
0.51671,0.80625,1.0334,0.45937,1.6284,3.5563,-1.2659,0.42197,-1.2499,-1.6879,8.6235e-12,-0.62494,0,0,0.5,-5.9212e-16,0,0.66667
0.031097,0.74523,0.062194,0.36785,1.797,9.5285,-0.061008,0.020336,-1.5193,-0.081344,4.0811e-09,-0.75967,0,0,0.5,-0,-0,0.66667
0.57118,0.0011151,1.1424,-0.74833,-2.6871,3.1804,2.2796,-0.75987,-0.0097105,3.0395,3.5061e-13,-0.0048552,0,0,0.5,-4.737e-15,0,0.66667
0.18047,0.69963,0.36094,0.29944,1.3982,7.5434,-0.28821,0.096071,-1.6806,-0.38429,4.4122e-10,-0.8403,0,0,0.5,-2.9606e-16,0,0.66667
0.63096,0.3873,1.2619,-0.16904,-0.44905,2.3356,0.56885,-0.18962,-1.8978,0.75847,-6.9999e-11,-0.94891,0,0,0.5,-0,-0,0.66667
0.98092,0.77526,1.9618,0.41289,-0.084638,0.20655,-2.1601,0.72002,-1.3939,-2.8801,-2.0901e-08,-0.69697,0,0,0.5,-0,-0,0.66667
0.8749,0.21868,1.7498,-0.42198,-0.35962,0.65289,1.969,-0.65634,-1.3682,2.6253,2.6027e-09,-0.68411,0,0,0.5,-1.6977e-15,0,0.66667
0.45184,0.39203,0.90367,-0.16195,-0.59733,4.1832,0.39027,-0.13009,-1.9063,0.52035,2.2271e-11,-0.95315,0,0,0.5,-0,-0,0.66667
0.70846,0.7781,1.4169,0.41715,0.94008,1.7541,-1.5762,0.5254,-1.3817,-2.1016,3.4774e-10,-0.69086,0,0,0.5,-1.4803e-15,0,0.66667
0.77747,0.31181,1.5549,-0.28228,-0.45415,1.1746,1.1705,-0.39016,-1.7177,1.5606,2.7283e-11,-0.85883,0,0,0.5,1.2583e-15,0,0.66667
0.49484,0.46284,0.98969,-0.055739,-0.19214,3.6963,0.1471,-0.049035,-1.989,0.19614,8.5489e-13,-0.99449,0,0,0.5,-2.9606e-16,0,0.66667
0.52853,0.82472,1.0571,0.48708,1.7078,3.4457,-1.373,0.45767,-1.156,-1.8307,1.3156e-11,-0.578,0,0,0.5,-0,-0,0.66667
0.15078,0.95618,0.30157,0.68427,3.4996,7.9838,-0.55028,0.18343,-0.33462,-0.7337,-3.9099e-09,-0.16731,0,0,0.5,-0,-0,0.66667
0.3694,0.86627,0.7388,0.5494,2.3818,5.2359,-1.0824,0.3608,-0.92646,-1.4432,-8.5205e-11,-0.46323,0,0,0.5,-5.9212e-16,0,0.66667
0.14222,0.52989,0.28444,0.044832,0.20821,8.0349,-0.034005,0.011335,-1.9938,-0.045341,-8.0495e-10,-0.9969,0,0,0.5,2.9606e-16,0,0.66667
0.72689,0.79734,1.4538,0.44601,0.95369,1.6255,-1.7291,0.57635,-1.292,-2.3054,4.7904e-10,-0.64602,0,0,0.5,-1.1842e-15,0,0.66667
0.47701,0.11649,0.95403,-0.57526,-2.2318,4.031,1.4635,-0.48783,-0.82307,1.9513,5.0265e-12,-0.41153,0,0,0.5,5.9212e-16,0,0.66667
0.44888,0.48481,0.89776,-0.02278,-0.083735,4.2064,0.054535,-0.018178,-1.9975,0.072713,3.5952e-12,-0.99877,0,0,0.5,-0,-0,0.66667
0.886,0.36503,1.772,-0.20246,-0.12266,0.48865,0.9567,-0.3189,-1.8539,1.2756,2.7937e-09,-0.92693,0,0,0.5,1.1842e-15,0,0.66667
0.52762,0.20483,1.0552,-0.44276,-1.5358,3.4358,1.2459,-0.41531,-1.3024,1.6612,-1.5466e-11,-0.6512,0,0,0.5,5.9212e-16,0,0.66667
0.40909,0.21943,0.81818,-0.42085,-1.7007,4.7295,0.91822,-0.30607,-1.3713,1.2243,7.0168e-11,-0.68564,0,0,0.5,-1.1842e-15,0,0.66667
0.26889,0.11081,0.53778,-0.58378,-2.7542,6.465,0.8372,-0.27907,-0.7877,1.1163,5.2131e-10,-0.39385,0,0,0.5,-0,-0,0.66667
0.072012,0.5675,0.14402,0.10124,0.47918,8.9743,-0.038884,0.012961,-1.9637,-0.051846,-6.7002e-08,-0.98184,0,0,0.5,-0,-0,0.66667
0.41814,0.52188,0.83627,0.032816,0.12532,4.5599,-0.073181,0.024394,-1.9959,-0.097575,-8.7597e-12,-0.99793,0,0,0.5,-0,-0,0.66667
0.025753,0.45813,0.051507,-0.062798,-0.29832,9.5969,0.0086268,-0.002874,-1.9855,0.011503,2.343e-06,-0.99275,0,0,0.5,-0,-0,0.66667
0.29115,0.94646,0.58231,0.66969,3.1897,6.2177,-1.0399,0.34663,-0.40506,-1.3865,-1.0615e-10,-0.20253,0,0,0.5,-0,-0,0.66667
0.50351,0.52561,1.007,0.03842,0.13061,3.6016,-0.10317,0.034391,-1.9949,-0.13756,3.7931e-13,-0.99744,0,0,0.5,-5.9212e-16,0,0.66667
0.96593,0.65248,1.9319,0.22872,-0.039311,0.15368,-1.1783,0.39277,-1.8144,-1.5711,6.0203e-08,-0.90722,0,0,0.5,5.8203e-16,0,0.66667
0.10938,0.024019,0.21877,-0.71397,-3.7232,8.522,0.41651,-0.13884,-0.18768,0.55535,1.7683e-08,-0.093839,0,0,0.5,-1.4803e-16,0,0.66667
0.67304,0.12264,1.3461,-0.56604,-1.5092,2.1341,2.0318,-0.67727,-0.8616,2.7091,-1.7741e-10,-0.4308,0,0,0.5,2.9606e-16,0,0.66667
0.49993,0.27832,0.99986,-0.33252,-1.1744,3.6888,0.8866,-0.29553,-1.6076,1.1821,1.4211e-14,-0.80382,0,0,0.5,1.4801e-16,0,0.66667
0.7771,0.67419,1.5542,0.26129,0.41808,1.1693,-1.0829,0.36097,-1.7567,-1.4439,-1.8107e-11,-0.87835,0,0,0.5,-0,-0,0.66667
0.14361,0.50882,0.28721,0.013232,0.061395,8.0163,-0.010134,0.0033782,-1.9991,-0.013513,-1.162e-09,-0.99957,0,0,0.5,-0,-0,0.66667
0.083203,0.96121,0.16641,0.69181,3.6039,8.8587,-0.30699,0.10233,-0.29814,-0.40932,-2.2719e-08,-0.14907,0,0,0.5,4.9266e-17,0,0.66667
0.39922,0.32228,0.79844,-0.26658,-1.0593,4.8064,0.5676,-0.1892,-1.7469,0.7568,7.3216e-11,-0.87344,0,0,0.5,-0,-0,0.66667
0.79696,0.33682,1.5939,-0.24477,-0.34871,1.0277,1.0404,-0.34679,-1.7872,1.3872,1.5517e-10,-0.89358,0,0,0.5,-1.1842e-15,0,0.66667
0.19168,0.28407,0.38335,-0.32389,-1.5103,7.3997,0.33111,-0.11037,-1.6275,0.44148,-2.4928e-10,-0.81377,0,0,0.5,5.9212e-16,0,0.66667
0.76778,0.65575,1.5356,0.23363,0.38846,1.2259,-0.95668,0.31889,-1.807,-1.2756,2.2535e-11,-0.90351,0,0,0.5,2.9606e-16,0,0.66667
0.2903,0.98991,0.5806,0.73486,3.5718,6.2518,-1.1378,0.37925,-0.079471,-1.517,-7.6152e-12,-0.039736,0,0,0.5,5.9212e-16,0,0.66667
0.21689,0.72754,0.43378,0.34131,1.5768,7.0751,-0.39481,0.1316,-1.5856,-0.52641,-7.6093e-11,-0.79282,0,0,0.5,5.9212e-16,0,0.66667
0.016716,0.41989,0.033431,-0.12016,-0.5724,9.719,0.01071,-0.0035705,-1.9483,0.014279,-8.4265e-07,-0.97413,0,0,0.5,-0,-0,0.66667
0.39866,0.24323,0.79732,-0.38515,-1.5623,4.8404,0.81891,-0.27297,-1.4724,1.0919,8.4678e-11,-0.73621,0,0,0.5,5.9212e-16,0,0.66667
0.38108,0.80404,0.76216,0.45606,1.9114,5.0671,-0.92691,0.30897,-1.2602,-1.2359,-1.0283e-10,-0.63009,0,0,0.5,-2.9606e-16,0,0.66667
0.65934,0.70888,1.3187,0.31331,0.7937,2.12,-1.1018,0.36726,-1.6506,-1.469,1.5067e-10,-0.82532,0,0,0.5,5.9212e-16,0,0.66667
0.070918,0.10029,0.14184,-0.59956,-3.0553,9.011,0.22677,-0.075591,-0.72177,0.30236,2.4683e-08,-0.36089,0,0,0.5,1.4803e-16,0,0.66667
0.1526,0.82149,0.30521,0.48223,2.347,7.9285,-0.39248,0.13083,-1.1729,-0.52331,-6.6801e-10,-0.58645,0,0,0.5,-0,-0,0.66667
0.016576,0.39518,0.033152,-0.15723,-0.75066,9.7211,0.013901,-0.0046332,-1.9118,0.018534,4.6911e-07,-0.95591,0,0,0.5,-0,-0,0.66667
0.1138,0.9323,0.22759,0.64844,3.3181,8.456,-0.39355,0.13118,-0.5051,-0.52473,-2.0874e-08,-0.25255,0,0,0.5,1.4803e-16,0,0.66667
0.65179,0.87058,1.3036,0.55587,1.559,2.3088,-1.9323,0.6441,-0.90164,-2.5764,1.2352e-10,-0.45082,0,0,0.5,-5.9212e-16,0,0.66667
0.40266,0.8907,0.80531,0.58605,2.4857,4.8636,-1.2585,0.41951,-0.77826,-1.678,-3.1771e-11,-0.38913,0,0,0.5,-0,-0,0.66667
0.32103,0.24001,0.64205,-0.38998,-1.6996,5.7716,0.6677,-0.22257,-1.4588,0.89026,2.2912e-10,-0.7294,0,0,0.5,-0,-0,0.66667
0.55791,0.011784,1.1158,-0.73232,-2.6701,3.296,2.1791,-0.72635,-0.092642,2.9054,-1.7986e-13,-0.046321,0,0,0.5,-2.3685e-15,0,0.66667
0.99346,0.25567,1.9869,-0.36649,0.13725,0.13759,1.9418,-0.64728,-1.5225,2.5891,-3.1944e-09,-0.76123,0,0,0.5,-0,-0,0.66667
0.83449,0.64213,1.669,0.2132,0.23093,0.77876,-0.94885,0.31628,-1.8377,-1.2651,-3.5563e-10,-0.91887,0,0,0.5,-1.1842e-15,0,0.66667
0.69962,0.47152,1.3992,-0.042723,-0.09149,1.7183,0.15941,-0.053138,-1.9941,0.21255,-3.7073e-11,-0.99704,0,0,0.5,-0,-0,0.66667
0.91826,0.45531,1.8365,-0.067028,-0.017265,0.3046,0.32826,-0.10942,-1.9835,0.43768,-3.5756e-08,-0.99174,0,0,0.5,-0,-0,0.66667
0.039729,0.58536,0.079457,0.12804,0.60929,9.4089,-0.02713,0.0090433,-1.9414,-0.036173,7.0583e-08,-0.9707,0,0,0.5,-3.7007e-17,0,0.66667
0.070333,0.43132,0.14067,-0.10302,-0.48774,8.9968,0.038643,-0.012881,-1.9622,0.051524,4.3791e-08,-0.98111,0,0,0.5,7.8653e-17,0,0.66667
0.47401,0.72245,0.94801,0.33368,1.2236,3.9709,-0.84355,0.28118,-1.6045,-1.1247,-1.7471e-11,-0.80224,0,0,0.5,-1.1842e-15,0,0.66667
0.34917,0.38147,0.69833,-0.1778,-0.73476,5.3919,0.3311,-0.11037,-1.8875,0.44147,8.557e-11,-0.94377,0,0,0.5,-0,-0,0.66667
0.93725,0.73267,1.8745,0.34901,0.066763,0.32038,-1.7446,0.58153,-1.5666,-2.3261,-1.2608e-09,-0.78328,0,0,0.5,-0,-0,0.66667
0.48956,0.74759,0.97913,0.37139,1.3425,3.8125,-0.96969,0.32323,-1.5102,-1.2929,-6.7679e-12,-0.75509,0,0,0.5,-2.9606e-16,0,0.66667
0.53965,0.95875,1.0793,0.68813,2.5377,3.4451,-1.9805,0.66017,-0.31591,-2.6407,9.5179e-13,-0.15796,0,0,0.5,5.9212e-16,0,0.66667
0.89526,0.38722,1.7905,-0.16917,-0.085446,0.43247,0.80776,-0.26925,-1.8977,1.077,1.5777e-09,-0.94885,0,0,0.5,-0,-0,0.66667
0.44664,0.48058,0.89327,-0.029131,-0.10741,4.232,0.069393,-0.023131,-1.9964,0.092524,4.8229e-12,-0.99821,0,0,0.5,-0,-0,0.66667
0.87703,0.93144,1.7541,0.64717,0.70023,0.82958,-3.0271,1.009,-0.51099,-4.0362,1.9142e-08,-0.2555,0,0,0.5,-5.9212e-16,0,0.66667
0.25358,0.91663,0.50716,0.62495,3.0073,6.6671,-0.8452,0.28173,-0.61095,-1.1269,-5.4153e-10,-0.30547,0,0,0.5,-0,-0,0.66667
0.27381,0.97812,0.54762,0.71719,3.5024,6.4462,-1.0473,0.34911,-0.17077,-1.3964,-3.3882e-11,-0.085387,0,0,0.5,-5.9212e-16,0,0.66667
0.32836,0.54779,0.65672,0.071681,0.29965,5.6389,-0.12553,0.041844,-1.9814,-0.16738,-4.5417e-11,-0.99068,0,0,0.5,-5.9212e-16,0,0.66667
0.54756,0.32738,1.0951,-0.25893,-0.83386,3.1687,0.75615,-0.25205,-1.7612,1.0082,-3.055e-11,-0.88061,0,0,0.5,-0,-0,0.66667
0.22013,0.20872,0.44026,-0.43692,-2.0489,7.048,0.51295,-0.17098,-1.321,0.68393,6.7653e-10,-0.66051,0,0,0.5,2.9606e-16,0,0.66667
0.67143,0.24719,1.3429,-0.37921,-0.94605,2.0422,1.358,-0.45265,-1.4895,1.8106,-2.0601e-10,-0.74473,0,0,0.5,-1.4803e-16,0,0.66667
0.14279,0.63638,0.28559,0.20457,0.95831,8.0324,-0.15579,0.05193,-1.8508,-0.20772,7.6617e-10,-0.92541,0,0,0.5,-0,-0,0.66667
0.0941,0.72147,0.1882,0.33221,1.6003,8.6863,-0.16672,0.055575,-1.6084,-0.2223,-8.475e-10,-0.80419,0,0,0.5,-2.9606e-16,0,0.66667
0.87019,0.14565,1.7404,-0.53152,-0.53386,0.75827,2.4668,-0.82227,-0.99505,3.2891,-1.0166e-09,-0.49753,0,0,0.5,1.1842e-15,0,0.66667
0.23687,0.47229,0.47374,-0.04157,-0.1851,6.7943,0.052516,-0.017505,-1.9944,0.070021,9.8296e-11,-0.99718,0,0,0.5,-0,-0,0.66667
0.386,0.6026,0.77201,0.15389,0.61248,4.946,-0.31682,0.10561,-1.9155,-0.42243,-5.5187e-11,-0.95774,0,0,0.5,-0,-0,0.66667
0.57154,0.018526,1.1431,-0.72221,-2.5629,3.1574,2.2015,-0.73382,-0.14485,2.9353,-5.0937e-13,-0.072424,0,0,0.5,-0,-0,0.66667
0.5258,0.25784,1.0516,-0.36324,-1.2395,3.4246,1.0186,-0.33954,-1.5306,1.3582,-1.7068e-11,-0.76532,0,0,0.5,-0,-0,0.66667
0.076024,0.90391,0.15205,0.60587,3.0899,8.9445,-0.24566,0.081886,-0.69556,-0.32754,-5.0898e-08,-0.34778,0,0,0.5,-2.0354e-16,0,0.66667
0.87413,0.35793,1.7483,-0.2131,-0.15384,0.55384,0.99349,-0.33116,-1.8381,1.3247,5.3311e-10,-0.91906,0,0,0.5,1.1842e-15,0,0.66667
0.95114,0.77545,1.9023,0.41317,0.042225,0.30783,-2.0959,0.69863,-1.3932,-2.7945,-2.8233e-09,-0.6966,0,0,0.5,-0,-0,0.66667
0.81251,0.63958,1.625,0.20937,0.26686,0.91442,-0.90729,0.30243,-1.8438,-1.2097,-1.5091e-10,-0.92189,0,0,0.5,1.1842e-15,0,0.66667
0.2838,0.19715,0.5676,-0.45428,-2.0599,6.2465,0.6876,-0.2292,-1.266,0.9168,4.344e-10,-0.63299,0,0,0.5,-0,-0,0.66667
0.52785,0.54238,1.0557,0.063566,0.20774,3.3433,-0.17895,0.05965,-1.9852,-0.2386,5.3384e-12,-0.9926,0,0,0.5,-1.1842e-15,0,0.66667
0.33942,0.6917,0.67883,0.28755,1.2138,5.5263,-0.52053,0.17351,-1.7063,-0.69405,-1.3961e-10,-0.85315,0,0,0.5,-0,-0,0.66667
0.55467,0.71557,1.1093,0.32335,1.0404,3.1147,-0.95655,0.31885,-1.6286,-1.2754,3.8614e-11,-0.81432,0,0,0.5,-8.8818e-16,0,0.66667
0.9744,0.85768,1.9488,0.53653,-0.0081966,0.32878,-2.7882,0.92941,-0.97586,-3.7176,1.9166e-07,-0.48793,0,0,0.5,-0,-0,0.66667
0.3117,0.86391,0.62341,0.54586,2.4787,5.9267,-0.90745,0.30248,-0.9403,-1.2099,-2.6358e-10,-0.47015,0,0,0.5,2.9606e-16,0,0.66667
0.6688,0.99836,1.3376,0.74754,2.2007,2.3115,-2.6664,0.8888,-0.013926,-3.5552,-3.0984e-12,-0.0069632,0,0,0.5,3.9968e-15,1.1793e-16,0.66667
0.32597,0.8812,0.65193,0.5718,2.5859,5.7618,-0.99408,0.33136,-0.83759,-1.3254,-1.7304e-10,-0.41879,0,0,0.5,-0,-0,0.66667
0.77448,0.34938,1.549,-0.22594,-0.36239,1.1759,0.93324,-0.31108,-1.8185,1.2443,-1.065e-11,-0.90926,0,0,0.5,2.3685e-15,0,0.66667
0.32581,0.25011,0.65162,-0.37483,-1.6228,5.7097,0.65132,-0.21711,-1.5016,0.86843,2.0985e-10,-0.75081,0,0,0.5,-0,-0,0.66667
0.88983,0.0015812,1.7797,-0.74763,-0.82744,0.87898,3.5481,-1.1827,-0.013594,4.7307,2.2417e-08,-0.0067972,0,0,0.5,-0,-0,0.66667
0.75171,0.21483,1.5034,-0.42776,-0.82389,1.4289,1.7149,-0.57164,-1.3499,2.2866,-5.4348e-10,-0.67495,0,0,0.5,1.4803e-15,0,0.66667
0.76263,0.35341,1.5253,-0.21989,-0.37343,1.2588,0.89437,-0.29812,-1.8278,1.1925,-5.8831e-11,-0.91389,0,0,0.5,-0,-0,0.66667
0.46948,0.0077026,0.93896,-0.73845,-3.0572,4.202,1.849,-0.61633,-0.061175,2.4653,-2.8866e-14,-0.030587,0,0,0.5,-0,-0,0.66667
0.21076,0.13624,0.42153,-0.54563,-2.631,7.1882,0.61333,-0.20444,-0.94091,0.81778,1.7402e-09,-0.47046,0,0,0.5,-0,-0,0.66667
0.041475,0.36969,0.08295,-0.19546,-0.93439,9.3862,0.043236,-0.014412,-1.8643,0.057648,1.5954e-07,-0.93213,0,0,0.5,7.4015e-17,0,0.66667
0.32183,0.35233,0.64366,-0.22151,-0.94108,5.7323,0.3802,-0.12673,-1.8252,0.50693,1.2024e-10,-0.91261,0,0,0.5,-0,-0,0.66667
0.037113,0.12597,0.074225,-0.56104,-2.844,9.454,0.11105,-0.037016,-0.88167,0.14807,-6.039e-08,-0.44084,0,0,0.5,-0,-0,0.66667
0.69386,0.87005,1.3877,0.55508,1.3887,1.9551,-2.0541,0.68471,-0.90461,-2.7388,2.8331e-10,-0.4523,0,0,0.5,1.4803e-15,0,0.66667
0.67035,0.64044,1.3407,0.21066,0.50544,1.9922,-0.75314,0.25105,-1.8418,-1.0042,1.1112e-10,-0.92088,0,0,0.5,-0,-0,0.66667
0.43047,0.45787,0.86094,-0.063189,-0.23796,4.4182,0.14507,-0.048357,-1.9853,0.19343,1.3766e-11,-0.99264,0,0,0.5,5.9212e-16,0,0.66667
0.76779,0.47758,1.5356,-0.033629,-0.054052,1.1893,0.13771,-0.045902,-1.9958,0.18361,-8.7536e-11,-0.9979,0,0,0.5,-0,-0,0.66667
0.53601,0.77891,1.072,0.41837,1.4221,3.3393,-1.196,0.39867,-1.3783,-1.5947,2.2186e-11,-0.68913,0,0,0.5,2.9606e-16,0,0.66667
0.03986,0.82285,0.07972,0.48428,2.414,9.4149,-0.10295,0.034317,-1.1657,-0.13727,-5.3254e-09,-0.58283,0,0,0.5,-0,-0,0.66667
0.13479,0.60328,0.26959,0.15491,0.72468,8.1363,-0.11137,0.037122,-1.9143,-0.14849,1.429e-09,-0.95714,0,0,0.5,-2.9606e-16,0,0.66667
0.19342,0.20712,0.38683,-0.43933,-2.0871,7.3922,0.45319,-0.15106,-1.3132,0.60425,6.2585e-10,-0.6566,0,0,0.5,-0,-0,0.66667
0.33566,0.62815,0.67133,0.19223,0.80493,5.5585,-0.34413,0.11471,-1.869,-0.45884,-9.9837e-11,-0.93451,0,0,0.5,-0,-0,0.66667
0.052313,0.9368,0.10463,0.6552,3.3943,9.2587,-0.1828,0.060934,-0.47455,-0.24374,-1.354e-07,-0.23727,0,0,0.5,-8.3267e-17,0,0.66667
0.60512,0.9105,1.2102,0.61575,1.9644,2.7671,-1.9872,0.6624,-0.65222,-2.6496,2.5196e-11,-0.32611,0,0,0.5,-0,-0,0.66667
0.51206,0.50377,1.0241,0.0056572,0.018956,3.509,-0.01545,0.0051499,-2.0003,-0.0206,1.3576e-13,-1.0001,0,0,0.5,-0,-0,0.66667
0.61746,0.51516,1.2349,0.022739,0.061785,2.446,-0.074882,0.024961,-1.9975,-0.099843,9.0903e-12,-0.99874,0,0,0.5,-0,-0,0.66667
0.43236,0.26311,0.86471,-0.35534,-1.3801,4.4435,0.81938,-0.27313,-1.5505,1.0925,4.9421e-11,-0.77523,0,0,0.5,-1.1842e-15,0,0.66667
0.8477,0.69687,1.6954,0.29531,0.29764,0.73208,-1.3351,0.44503,-1.6896,-1.7801,-9.7426e-10,-0.84481,0,0,0.5,2.3685e-15,0,0.66667
0.45406,0.85927,0.90812,0.53891,2.1296,4.2647,-1.3051,0.43502,-0.96696,-1.7401,-1.5839e-11,-0.48348,0,0,0.5,5.9212e-16,0,0.66667
0.015404,0.99473,0.030807,0.7421,3.9479,9.7441,-0.060965,0.020334,-0.042312,-0.08128,1.8723e-05,-0.021156,0,0,0.5,3.7007e-17,0,0.66667
0.87307,0.17672,1.7461,-0.48492,-0.45026,0.70671,2.258,-0.75266,-1.1636,3.0106,9.2242e-10,-0.58179,0,0,0.5,-0,-0,0.66667
0.6562,0.87387,1.3124,0.56081,1.5588,2.2738,-1.9627,0.65423,-0.88286,-2.6169,1.3115e-10,-0.44143,0,0,0.5,1.3323e-15,8.3082e-17,0.66667
0.823,0.49634,1.646,-0.0054941,-0.0062458,0.81596,0.024116,-0.0080386,-2.0003,0.032154,-2.5297e-11,-1.0001,0,0,0.5,-2.9606e-16,0,0.66667
0.95178,0.1885,1.9036,-0.46724,-0.06778,0.34574,2.3718,-0.7906,-1.2248,3.1624,1.5805e-08,-0.6124,0,0,0.5,-2.3685e-15,0,0.66667
0.050912,0.22251,0.10182,-0.41624,-2.0462,9.2654,0.11302,-0.037674,-1.3844,0.1507,-6.4657e-09,-0.69218,0,0,0.5,-0,-0,0.66667
0.23507,0.51309,0.47014,0.019633,0.087476,6.8172,-0.024614,0.0082047,-1.9983,-0.032819,-5.1916e-11,-0.99913,0,0,0.5,-1.1842e-15,0,0.66667
0.063343,0.78115,0.12669,0.42172,2.0719,9.1002,-0.14247,0.047491,-1.3689,-0.18996,8.1892e-09,-0.68445,0,0,0.5,-2.8334e-17,0,0.66667
0.42166,0.10358,0.84332,-0.59463,-2.4787,4.6511,1.3372,-0.44574,-0.74267,1.783,1.8987e-11,-0.37133,0,0,0.5,-0,-0,0.66667
0.86383,0.76362,1.7277,0.39542,0.3687,0.69469,-1.8218,0.60725,-1.4435,-2.429,-1.2105e-09,-0.72173,0,0,0.5,-0,-0,0.66667
0.081624,0.43592,0.16325,-0.096121,-0.45408,8.8451,0.041844,-0.013948,-1.968,0.055792,-1.9885e-09,-0.98398,0,0,0.5,2.0354e-16,0,0.66667
0.47311,0.50473,0.94622,0.0070975,0.025236,3.934,-0.017909,0.0059696,-2,-0.023878,-6.1994e-13,-1,0,0,0.5,-0,-0,0.66667
0.12554,0.2188,0.25109,-0.4218,-2.0459,8.2765,0.28242,-0.09414,-1.3687,0.37656,-2.5066e-09,-0.68436,0,0,0.5,-0,-0,0.66667
0.77289,0.97313,1.5458,0.7097,1.4808,1.4981,-2.9254,0.97514,-0.20936,-3.9006,1.5301e-10,-0.10468,0,0,0.5,-0,-0,0.66667
0.84142,0.33555,1.6828,-0.24667,-0.25583,0.74887,1.1069,-0.36898,-1.7835,1.4759,6.264e-10,-0.89176,0,0,0.5,5.9212e-16,0,0.66667
0.043291,0.60541,0.086582,0.15811,0.75355,9.3613,-0.036506,0.012169,-1.9106,-0.048675,7.957e-08,-0.95532,0,0,0.5,-7.4015e-17,0,0.66667
0.48644,0.0021087,0.97288,-0.74684,-3.037,4.0279,1.9376,-0.64585,-0.017611,2.5834,-1.1946e-13,-0.0088054,0,0,0.5,-0,-0,0.66667
0.23941,0.54655,0.47882,0.069826,0.31068,6.7622,-0.089157,0.029719,-1.982,-0.11888,-1.277e-10,-0.99101,0,0,0.5,-0,-0,0.66667
0.95247,0.93191,1.9049,0.64786,0.22471,0.51373,-3.291,1.097,-0.50794,-4.3881,-1.9458e-07,-0.25397,0,0,0.5,5.9212e-16,-3.4798e-16,0.66667
0.94389,0.47782,1.8878,-0.033265,1.1881e-05,0.19285,0.16746,-0.05582,-1.9957,0.22328,-3.8724e-08,-0.99785,0,0,0.5,-0,-0,0.66667
0.61393,0.085434,1.2279,-0.62185,-1.9531,2.6901,2.0361,-0.67871,-0.62484,2.7148,-2.829e-11,-0.31242,0,0,0.5,-0,-0,0.66667
0.97349,0.61607,1.947,0.1741,-0.047499,0.10878,-0.90393,0.30131,-1.8919,-1.2052,4.3148e-09,-0.94596,0,0,0.5,1.1842e-15,0,0.66667
0.34486,0.62972,0.68972,0.19458,0.80846,5.4462,-0.35788,0.11929,-1.8658,-0.47717,-9.5134e-11,-0.93289,0,0,0.5,1.1842e-15,0,0.66667
0.89785,0.7549,1.7957,0.38236,0.23026,0.51361,-1.8309,0.61031,-1.4803,-2.4412,-1.5305e-09,-0.74016,0,0,0.5,-0,-0,0.66667
0.43459,0.35308,0.86919,-0.22038,-0.83591,4.388,0.5108,-0.17027,-1.827,0.68107,3.9167e-11,-0.91352,0,0,0.5,-1.1842e-15,0,0.66667
0.23581,0.77529,0.47163,0.41293,1.912,6.8433,-0.51934,0.17311,-1.3939,-0.69245,-5.0081e-10,-0.69696,0,0,0.5,1.4803e-16,0,0.66667
0.94083,0.010293,1.8817,-0.73456,-0.43246,0.65551,3.6858,-1.2286,-0.081123,4.9145,-6.5677e-07,-0.040562,0,0,0.5,-0,-0,0.66667
0.68422,0.89072,1.3684,0.58607,1.5293,2.0553,-2.1387,0.71289,-0.77816,-2.8516,1.9029e-10,-0.38908,0,0,0.5,-0,-0,0.66667
0.064912,0.063489,0.12982,-0.65477,-3.3865,9.0938,0.22668,-0.075559,-0.47664,0.30224,1.2589e-07,-0.23832,0,0,0.5,-0,-0,0.66667
0.87042,0.46582,1.7408,-0.051275,-0.036503,0.54052,0.23803,-0.079344,-1.9912,0.31737,-3.2353e-09,-0.99558,0,0,0.5,2.9606e-16,0,0.66667
0.70138,0.054154,1.4028,-0.66877,-1.7322,1.9814,2.5017,-0.83389,-0.40966,3.3355,-8.9417e-11,-0.20483,0,0,0.5,-5.9212e-16,0,0.66667
0.60493,0.14859,1.2099,-0.52712,-1.627,2.7144,1.7006,-0.56688,-1.0119,2.2675,-6.0768e-11,-0.50594,0,0,0.5,-5.9212e-16,0,0.66667
0.73237,0.14282,1.4647,-0.53576,-1.1717,1.641,2.0927,-0.69757,-0.97894,2.7903,-6.2034e-10,-0.48947,0,0,0.5,-0,-1.093e-16,0.66667
0.25344,0.051839,0.50688,-0.67224,-3.2779,6.6827,0.90865,-0.30288,-0.39281,1.2115,2.6582e-10,-0.19641,0,0,0.5,-0,-0,0.66667
0.60049,0.24438,1.201,-0.38344,-1.1424,2.6862,1.228,-0.40933,-1.4773,1.6373,-8.3779e-11,-0.73864,0,0,0.5,-5.9212e-16,0,0.66667
0.81462,0.36459,1.6292,-0.20311,-0.25461,0.89904,0.88244,-0.29415,-1.853,1.1766,1.7372e-10,-0.9265,0,0,0.5,1.1842e-15,0,0.66667
0.054114,0.45881,0.10823,-0.061791,-0.29278,9.2147,0.017834,-0.0059443,-1.986,0.023778,3.5351e-07,-0.99299,0,0,0.5,-7.4015e-17,0,0.66667
0.13051,0.63453,0.26102,0.2018,0.94872,8.1952,-0.14046,0.046821,-1.8548,-0.18728,4.2344e-10,-0.92741,0,0,0.5,-0,-0,0.66667
0.84245,4.7129e-05,1.6849,-0.74993,-1.1609,1.1184,3.3695,-1.1232,-0.0016234,4.4926,2.1768e-10,-0.00081172,0,0,0.5,-0,-0,0.66667
0.61835,0.66994,1.2367,0.25492,0.70821,2.4731,-0.84068,0.28023,-1.7683,-1.1209,8.654e-11,-0.88415,0,0,0.5,-0,-0,0.66667
0.53129,0.086083,1.0626,-0.62087,-2.2627,3.4873,1.7593,-0.58642,-0.62947,2.3457,-3.6809e-12,-0.31474,0,0,0.5,-5.9212e-16,0,0.66667
0.24829,0.026404,0.49658,-0.71039,-3.5126,6.7583,0.94072,-0.31357,-0.20599,1.2543,7.617e-11,-0.10299,0,0,0.5,-0,-0,0.66667
0.29508,0.72698,0.59016,0.34047,1.5,6.0826,-0.53581,0.1786,-1.5877,-0.71442,-2.2903e-10,-0.79387,0,0,0.5,-0,-0,0.66667
0.87269,0.29859,1.7454,-0.30212,-0.23653,0.59708,1.4062,-0.46872,-1.675,1.8749,8.1031e-10,-0.83748,0,0,0.5,1.1842e-15,0,0.66667
0.42167,0.72729,0.84333,0.34093,1.3372,4.5621,-0.76672,0.25557,-1.5867,-1.0223,-5.9459e-11,-0.79335,0,0,0.5,-0,-0,0.66667
0.06443,0.31593,0.12886,-0.2761,-1.3272,9.08,0.094876,-0.031625,-1.7295,0.1265,-1.2104e-08,-0.86475,0,0,0.5,1.4803e-16,0,0.66667
0.89699,0.62131,1.794,0.18196,0.089753,0.42758,-0.87048,0.29016,-1.8826,-1.1606,4.6176e-09,-0.9413,0,0,0.5,1.4803e-15,0,0.66667
0.20338,0.3474,0.40676,-0.2289,-1.0492,7.2382,0.24828,-0.082761,-1.8143,0.33104,-1.3544e-10,-0.90717,0,0,0.5,-5.9212e-16,0,0.66667
0.82623,0.25483,1.6525,-0.36776,-0.4595,0.89512,1.6205,-0.54018,-1.5195,2.1607,3.7127e-10,-0.75973,0,0,0.5,-0,-0,0.66667
0.88177,0.8011,1.7635,0.45164,0.36799,0.63809,-2.124,0.70799,-1.2742,-2.832,-1.7973e-09,-0.63709,0,0,0.5,-1.1842e-15,0,0.66667
0.48675,0.55523,0.9735,0.082852,0.28945,3.7863,-0.21508,0.071694,-1.9756,-0.28678,-3.3286e-12,-0.98778,0,0,0.5,-0,-0,0.66667
0.59846,0.63226,1.1969,0.19839,0.57148,2.6482,-0.63322,0.21107,-1.8599,-0.8443,5.7545e-11,-0.92996,0,0,0.5,-0,-0,0.66667
0.52727,0.58199,1.0545,0.12298,0.40375,3.3546,-0.34584,0.11528,-1.9457,-0.46112,9.7607e-12,-0.97286,0,0,0.5,-5.9212e-16,0,0.66667
0.62482,0.66038,1.2496,0.24058,0.65626,2.4088,-0.80169,0.26723,-1.7948,-1.0689,8.8565e-11,-0.89739,0,0,0.5,-0,-0,0.66667
0.85504,0.62513,1.7101,0.18769,0.16654,0.6508,-0.8559,0.2853,-1.8758,-1.1412,-6.2385e-10,-0.93791,0,0,0.5,-0,-0,0.66667
0.28214,0.20789,0.56428,-0.43816,-1.9825,6.2636,0.65932,-0.21977,-1.3171,0.8791,4.1736e-10,-0.65856,0,0,0.5,-0,-0,0.66667
0.88376,0.97,1.7675,0.705,0.77547,0.85835,-3.3229,1.1076,-0.23359,-4.4305,7.5358e-09,-0.1168,0,0,0.5,-0,-0,0.66667
0.56769,0.21751,1.1354,-0.42374,-1.3633,3.0217,1.2829,-0.42765,-1.3624,1.7106,-4.6161e-11,-0.68119,0,0,0.5,2.2204e-16,0,0.66667
0.1151,0.30608,0.23021,-0.29087,-1.3866,8.4046,0.17856,-0.059521,-1.6991,0.23808,-1.8119e-09,-0.84956,0,0,0.5,2.2204e-16,0,0.66667
0.227,0.74964,0.454,0.37446,1.7302,6.9498,-0.45335,0.15112,-1.5024,-0.60447,-2.6801e-10,-0.75119,0,0,0.5,9.2519e-18,0,0.66667
0.59598,0.053452,1.192,-0.66982,-2.2244,2.889,2.1291,-0.70969,-0.40455,2.8388,-7.1174e-12,-0.20227,0,0,0.5,-5.9212e-16,0,0.66667
0.23945,0.71111,0.47889,0.31667,1.4403,6.7821,-0.4044,0.1348,-1.6433,-0.53921,-1.2995e-10,-0.82163,0,0,0.5,2.9606e-16,0,0.66667
0.13142,0.67167,0.26283,0.25751,1.2171,8.1861,-0.18048,0.060161,-1.7636,-0.24064,1.3472e-09,-0.88178,0,0,0.5,-2.9606e-16,0,0.66667
0.16185,0.013474,0.3237,-0.72979,-3.7676,7.8512,0.62994,-0.20998,-0.10572,0.83993,4.7921e-10,-0.05286,0,0,0.5,-0,-0,0.66667
0.84487,0.75115,1.6897,0.37672,0.4107,0.78952,-1.6975,0.56583,-1.4964,-2.2633,-8.0511e-10,-0.74821,0,0,0.5,-0,-0,0.66667
0.60218,0.8277,1.2044,0.49155,1.5074,2.7207,-1.5787,0.52623,-1.1402,-2.1049,6.9021e-11,-0.57012,0,0,0.5,1.1842e-15,0,0.66667
0.96357,0.47857,1.9271,-0.032143,0.0064477,0.1181,0.16519,-0.055062,-1.9959,0.22025,-4.376e-07,-0.99796,0,0,0.5,-0,-0,0.66667
0.34568,0.0014392,0.69136,-0.74784,-3.5094,5.5965,1.3787,-0.45958,-0.012412,1.8383,-2.3074e-12,-0.0062062,0,0,0.5,-0,-0,0.66667
0.59563,0.10487,1.1913,-0.59269,-1.9098,2.8408,1.8828,-0.62759,-0.75065,2.5104,-2.8264e-11,-0.37533,0,0,0.5,-0,-0,0.66667
0.59899,0.77424,1.198,0.41136,1.239,2.7123,-1.3141,0.43804,-1.3982,-1.7522,8.0361e-11,-0.69911,0,0,0.5,-5.9212e-16,0,0.66667
0.6157,0.73944,1.2314,0.35916,1.0279,2.5329,-1.1794,0.39313,-1.5409,-1.5725,1.0254e-10,-0.77043,0,0,0.5,5.9212e-16,0,0.66667
0.059177,0.51101,0.11835,0.016521,0.078168,9.1463,-0.0052141,0.0017384,-1.9986,-0.0069519,5.2311e-07,-0.9993,0,0,0.5,-0,-0,0.66667
0.75032,0.86068,1.5006,0.54102,1.1096,1.5123,-2.165,0.72167,-0.9589,-2.8867,8.6149e-10,-0.47945,0,0,0.5,-0,-0,0.66667
0.94821,0.24959,1.8964,-0.37562,-0.037977,0.29377,1.8995,-0.63318,-1.4993,2.5327,3.2452e-10,-0.74967,0,0,0.5,4.0708e-16,0,0.66667
0.53468,0.14703,1.0694,-0.52945,-1.8615,3.403,1.5098,-0.50326,-1.003,2.0131,-1.2327e-11,-0.50152,0,0,0.5,-0,-0,0.66667
0.19256,0.040148,0.38511,-0.68978,-3.4804,7.4518,0.70838,-0.23613,-0.30797,0.9445,9.3678e-10,-0.15399,0,0,0.5,-0,-0,0.66667
0.75293,0.76307,1.5059,0.39461,0.74504,1.4018,-1.5846,0.5282,-1.4458,-2.1128,4.0618e-10,-0.72292,0,0,0.5,-0,-0,0.66667
0.007319,0.80168,0.014638,0.45253,2.2455,9.847,-0.017664,0.005888,-1.2714,-0.023552,-2.7561e-08,-0.63569,0,0,0.5,-9.2519e-18,0,0.66667
0.32826,0.30168,0.65651,-0.29748,-1.2694,5.6646,0.5208,-0.1736,-1.6852,0.6944,1.5641e-10,-0.84258,0,0,0.5,-2.9606e-16,0,0.66667
0.91761,0.15324,1.8352,-0.52014,-0.28082,0.52454,2.5455,-0.84851,-1.0386,3.394,1.0474e-08,-0.51928,0,0,0.5,-5.9212e-16,0,0.66667
0.58837,0.44391,1.1767,-0.084142,-0.24495,2.7294,0.26404,-0.088012,-1.9748,0.35205,-2.3817e-11,-0.98739,0,0,0.5,-0,-0,0.66667
0.85519,0.79561,1.7104,0.44341,0.46707,0.77263,-2.0224,0.67413,-1.3003,-2.6965,-5.8409e-10,-0.65017,0,0,0.5,-0,-0,0.66667
0.60467,0.0044579,1.2093,-0.74331,-2.5072,2.8644,2.3971,-0.79904,-0.035751,3.1962,1.7542e-13,-0.017875,0,0,0.5,-0,-0,0.66667
0.82258,0.77852,1.6452,0.41779,0.55244,0.94623,-1.8329,0.61095,-1.3799,-2.4438,6.8426e-11,-0.68995,0,0,0.5,-5.9212e-16,0,0.66667
0.87948,0.58716,1.759,0.13073,0.083994,0.50352,-0.61322,0.20441,-1.9392,-0.81763,3.1207e-09,-0.96959,0,0,0.5,-1.1842e-15,0,0.66667
0.32099,0.4595,0.64197,-0.060748,-0.2554,5.7298,0.104,-0.034665,-1.9865,0.13866,4.1331e-11,-0.99324,0,0,0.5,-2.9606e-16,0,0.66667
0.12295,0.54798,0.24591,0.071976,0.33647,8.2917,-0.047199,0.015733,-1.9811,-0.062931,-3.1508e-09,-0.99054,0,0,0.5,-0,-0,0.66667
0.7213,0.26492,1.4426,-0.35262,-0.74196,1.6209,1.3565,-0.45217,-1.5574,1.8087,-2.644e-10,-0.77868,0,0,0.5,-0,-0,0.66667
0.44035,0.10761,0.88069,-0.58859,-2.3986,4.439,1.3823,-0.46077,-0.7677,1.8431,1.3413e-11,-0.38385,0,0,0.5,-5.9212e-16,0,0.66667
0.12674,0.14001,0.25347,-0.53999,-2.682,8.2736,0.36499,-0.12166,-0.96277,0.48665,1.4304e-09,-0.48139,0,0,0.5,-0,-0,0.66667
0.58982,0.35391,1.1796,-0.21914,-0.64522,2.7366,0.68934,-0.22978,-1.8289,0.91912,-5.5818e-11,-0.91444,0,0,0.5,1.1842e-15,0,0.66667
0.036068,0.35701,0.072137,-0.21448,-1.0275,9.4592,0.041259,-0.013753,-1.8358,0.055012,3.9199e-08,-0.91792,0,0,0.5,-0,-0,0.66667
0.20018,0.077774,0.40036,-0.63334,-3.1365,7.3419,0.67618,-0.22539,-0.57325,0.90157,1.8675e-09,-0.28662,0,0,0.5,-0,-0,0.66667
0.7883,0.20315,1.5766,-0.44528,-0.73088,1.1831,1.8721,-0.62403,-1.2943,2.4961,-7.7031e-10,-0.64717,0,0,0.5,1.1842e-15,0,0.66667
0.012097,0.52124,0.024194,0.031855,0.15132,9.7812,-0.0020494,0.00068347,-1.996,-0.0027323,5.0611e-07,-0.99802,0,0,0.5,-0,-0,0.66667
0.30335,0.88383,0.60669,0.57574,2.6501,6.0379,-0.93146,0.31049,-0.82107,-1.2419,-2.6684e-10,-0.41054,0,0,0.5,-0,-0,0.66667
0.021376,0.11118,0.042752,-0.58323,-2.9747,9.6624,0.066491,-0.022164,-0.78992,0.088654,-5.2848e-07,-0.39496,0,0,0.5,-0,-0,0.66667
0.99748,0.9641,1.995,0.69615,-0.037565,0.43688,-3.7035,1.2345,-0.27721,-4.9379,-3.0739e-05,-0.13861,0,0,0.5,1.7764e-15,-9.0016e-16,0.66667
0.58203,0.92291,1.1641,0.63436,2.1318,2.9963,-1.9692,0.65639,-0.5686,-2.6255,1.1446e-11,-0.2843,0,0,0.5,-0,-0,0.66667
0.29338,0.39278,0.58675,-0.16083,-0.69441,6.0804,0.25164,-0.08388,-1.9075,0.33552,1.059e-10,-0.95374,0,0,0.5,-5.9212e-16,0,0.66667
0.92895,0.99435,1.8579,0.74152,0.5323,0.70791,-3.6738,1.2246,-0.044976,-4.8984,-3.049e-07,-0.022488,0,0,0.5,-1.7764e-15,0,0.66667
0.50712,0.12298,1.0142,-0.56553,-2.0982,3.7062,1.5295,-0.50985,-0.86348,2.0394,-1.7236e-12,-0.43174,0,0,0.5,5.9212e-16,0,0.66667
0.45469,0.27625,0.90938,-0.33562,-1.2633,4.1859,0.81389,-0.2713,-1.5998,1.0852,3.1397e-11,-0.79991,0,0,0.5,-2.9606e-16,0,0.66667
0.58787,0.89535,1.1757,0.59303,1.9401,2.9143,-1.8593,0.61978,-0.74906,-2.4791,2.3865e-11,-0.37453,0,0,0.5,5.9212e-16,0,0.66667
0.26414,0.19676,0.52828,-0.45486,-2.0889,6.4927,0.64078,-0.21359,-1.2642,0.85437,5.5736e-10,-0.63209,0,0,0.5,-0,-0,0.66667
0.30529,0.47737,0.61058,-0.033952,-0.14444,5.9245,0.055282,-0.018427,-1.9956,0.073709,2.7821e-11,-0.99778,0,0,0.5,-0,-0,0.66667
0.37165,0.14856,0.74331,-0.52715,-2.2676,5.2014,1.0449,-0.3483,-1.0118,1.3932,9.393e-11,-0.5059,0,0,0.5,5.1612e-16,0,0.66667
0.24445,0.53233,0.4889,0.04849,0.21499,6.6968,-0.063218,0.021073,-1.9925,-0.08429,-9.9997e-11,-0.99624,0,0,0.5,-0,-0,0.66667
0.58455,0.081756,1.1691,-0.62737,-2.0928,2.9677,1.9559,-0.65196,-0.6,2.6078,-1.3683e-11,-0.3,0,0,0.5,-5.9212e-16,0,0.66667
0.69585,0.40395,1.3917,-0.14408,-0.3154,1.7613,0.5347,-0.17823,-1.9268,0.71294,-9.5635e-11,-0.96338,0,0,0.5,-4.4409e-16,0,0.66667
0.071947,0.83129,0.14389,0.49693,2.474,8.9903,-0.19068,0.063561,-1.1214,-0.25424,-2.6671e-09,-0.5607,0,0,0.5,-0,-0,0.66667
0.97108,0.77531,1.9422,0.41296,-0.04232,0.23797,-2.1388,0.71293,-1.3938,-2.8517,-2.9031e-09,-0.69689,0,0,0.5,1.7764e-15,0,0.66667
0.75307,0.23297,1.5061,-0.40054,-0.75773,1.4039,1.6087,-0.53624,-1.429,2.145,-4.3185e-10,-0.71451,0,0,0.5,-0,-0,0.66667
0.80616,0.609,1.6123,0.1635,0.21444,0.94324,-0.70296,0.23432,-1.9043,-0.93728,9.5503e-11,-0.95215,0,0,0.5,1.1842e-15,0,0.66667
0.75164,0.13543,1.5033,-0.54686,-1.1194,1.507,2.1922,-0.73074,-0.93642,2.9229,-8.846e-10,-0.46821,0,0,0.5,-0,-0,0.66667
0.080061,0.91817,0.16012,0.62725,3.2139,8.8934,-0.26783,0.089277,-0.60068,-0.35711,-3.1852e-08,-0.30034,0,0,0.5,-1.4803e-16,0,0.66667
0.4817,0.97358,0.96339,0.71038,2.867,4.055,-1.825,0.60833,-0.20602,-2.4333,-8.5265e-14,-0.10301,0,0,0.5,-0,-0,0.66667
0.44567,0.80946,0.89135,0.46419,1.8169,4.328,-1.1033,0.36778,-1.2343,-1.4711,-3.0596e-11,-0.61716,0,0,0.5,2.9606e-16,0,0.66667
0.67247,0.38704,1.3449,-0.16944,-0.40122,1.9645,0.60769,-0.20256,-1.8976,0.81025,-9.4287e-11,-0.94881,0,0,0.5,1.1842e-15,0,0.66667
0.44874,0.41832,0.89747,-0.12252,-0.45229,4.2138,0.29322,-0.097739,-1.9461,0.39096,1.869e-11,-0.97305,0,0,0.5,-0,-0,0.66667
0.70431,0.46385,1.4086,-0.054218,-0.11425,1.6803,0.20366,-0.067887,-1.9899,0.27155,-4.7721e-11,-0.99495,0,0,0.5,-1.4803e-15,0,0.66667
0.68165,0.037122,1.3633,-0.69432,-1.9246,2.1604,2.5242,-0.84138,-0.28596,3.3655,-2.4756e-11,-0.14298,0,0,0.5,-0,-0,0.66667
0.69715,0.34295,1.3943,-0.23557,-0.5219,1.772,0.87588,-0.29196,-1.8036,1.1678,-1.3292e-10,-0.90178,0,0,0.5,-1.4803e-15,0,0.66667
0.6186,0.92771,1.2372,0.64156,2.0119,2.6613,-2.1167,0.70555,-0.53609,-2.8222,2.2455e-11,-0.26804,0,0,0.5,-0,-0,0.66667
0.15098,0.015788,0.30196,-0.72632,-3.7591,7.9892,0.58485,-0.19495,-0.12367,0.7798,1.9958e-09,-0.061833,0,0,0.5,-0,-0,0.66667
0.7608,0.8971,1.5216,0.59565,1.2097,1.4793,-2.4169,0.80564,-0.73814,-3.2226,9.3893e-10,-0.36907,0,0,0.5,-0,-0,0.66667
0.78105,0.38766,1.5621,-0.16851,-0.25714,1.1141,0.70193,-0.23398,-1.8987,0.93591,-9.8731e-11,-0.94937,0,0,0.5,-0,-0,0.66667
0.9041,0.31027,1.8082,-0.2846,-0.13504,0.43176,1.3723,-0.45743,-1.7128,1.8297,2.4733e-09,-0.85638,0,0,0.5,-1.2126e-15,0,0.66667
0.23377,0.61386,0.46754,0.17079,0.76664,6.84,-0.21293,0.070978,-1.896,-0.28391,-1.0684e-10,-0.94801,0,0,0.5,-2.9606e-16,0,0.66667
0.17668,0.77235,0.35336,0.40853,1.9432,7.6051,-0.38495,0.12832,-1.4063,-0.51326,2.3348e-11,-0.70314,0,0,0.5,-0,-0,0.66667
0.3911,0.11183,0.7822,-0.58226,-2.4954,4.9952,1.2145,-0.40484,-0.79422,1.6194,4.2033e-11,-0.39711,0,0,0.5,-5.9212e-16,0,0.66667
0.32056,0.8923,0.64113,0.58845,2.684,5.8326,-1.0061,0.33536,-0.76813,-1.3414,-1.6833e-10,-0.38407,0,0,0.5,5.9212e-16,0,0.66667
0.81548,0.81432,1.631,0.47148,0.67603,1.0248,-2.0506,0.68353,-1.2104,-2.7341,1.0711e-09,-0.6052,0,0,0.5,-0,-0,0.66667
0.61353,0.76502,1.2271,0.39753,1.1554,2.5691,-1.3008,0.43359,-1.4375,-1.7344,1.0064e-10,-0.71876,0,0,0.5,-0,-0,0.66667
0.76,0.24454,1.52,-0.38319,-0.69807,1.3444,1.5532,-0.51774,-1.478,2.071,-3.5106e-10,-0.73899,0,0,0.5,-1.1842e-15,0,0.66667
0.42767,0.26015,0.85533,-0.35978,-1.4063,4.4983,0.82061,-0.27354,-1.5393,1.0941,5.3672e-11,-0.76966,0,0,0.5,-0,-0,0.66667
0.099441,0.071717,0.19888,-0.64242,-3.2926,8.642,0.34071,-0.11357,-0.53222,0.45428,1.93e-08,-0.26611,0,0,0.5,-0,-0,0.66667
0.11504,0.106,0.23007,-0.59099,-2.9796,8.4326,0.36259,-0.12086,-0.75756,0.48345,5.9945e-09,-0.37878,0,0,0.5,-0,-0,0.66667
0.37341,0.33423,0.74681,-0.24865,-1.0121,5.1091,0.49519,-0.16506,-1.78,0.66025,9.2303e-11,-0.88998,0,0,0.5,5.9212e-16,0,0.66667
0.19385,0.43896,0.3877,-0.091567,-0.41739,7.3548,0.094667,-0.031556,-1.9709,0.12622,4.4897e-10,-0.98546,0,0,0.5,-0,-0,0.66667
0.82075,0.95153,1.6415,0.67729,1.106,1.1648,-2.9647,0.98824,-0.36833,-3.9529,1.9613e-09,-0.18416,0,0,0.5,1.1842e-15,0,0.66667
0.59964,0.34772,1.1993,-0.22842,-0.65933,2.6438,0.73051,-0.2435,-1.8148,0.97401,-6.5097e-11,-0.90739,0,0,0.5,-0,-0,0.66667
0.68885,0.57627,1.3777,0.1144,0.25544,1.8152,-0.42029,0.1401,-1.953,-0.56039,7.7109e-11,-0.97652,0,0,0.5,1.1842e-15,0,0.66667
0.49111,0.068886,0.98222,-0.64667,-2.5203,3.9182,1.6938,-0.5646,-0.51305,2.2584,5.3946e-13,-0.25652,0,0,0.5,-0,-0,0.66667
0.088174,0.35836,0.17635,-0.21246,-1.0103,8.7601,0.09991,-0.033303,-1.8389,0.13321,-6.1193e-09,-0.91943,0,0,0.5,-1.4803e-16,0,0.66667
0.23508,0.11986,0.47016,-0.57021,-2.7327,6.885,0.7149,-0.2383,-0.84431,0.9532,1.1379e-09,-0.42215,0,0,0.5,-0,-0,0.66667
0.4616,0.87241,0.9232,0.55861,2.1994,4.1906,-1.3752,0.45841,-0.89102,-1.8336,-1.0547e-11,-0.44551,0,0,0.5,7.4015e-16,0,0.66667
0.19859,0.47505,0.39718,-0.037432,-0.16999,7.2916,0.039646,-0.013215,-1.995,0.052861,2.164e-10,-0.9975,0,0,0.5,-0,-0,0.66667
0.025476,0.73998,0.050952,0.35997,1.757,9.6035,-0.04891,0.016303,-1.5389,-0.065213,-4.2757e-09,-0.76943,0,0,0.5,-0,-0,0.66667
0.7294,0.12544,1.4588,-0.56185,-1.2585,1.682,2.1857,-0.72855,-0.87859,2.9142,-5.7135e-10,-0.4393,0,0,0.5,-2.3685e-15,0,0.66667
0.72492,0.70086,1.4498,0.30128,0.61505,1.571,-1.1648,0.38828,-1.6766,-1.5531,1.8264e-10,-0.83831,0,0,0.5,1.1842e-15,0,0.66667
0.33039,0.98305,0.66078,0.72458,3.4144,5.7666,-1.2768,0.42559,-0.13278,-1.7024,-5.6679e-12,-0.066391,0,0,0.5,1.1842e-15,0,0.66667
0.84349,0.23808,1.687,-0.39288,-0.43825,0.8068,1.7674,-0.58914,-1.4509,2.3566,6.2606e-10,-0.72545,0,0,0.5,1.1842e-15,0,0.66667
0.42844,0.54071,0.85688,0.061058,0.23048,4.4415,-0.13952,0.046506,-1.9863,-0.18603,-1.3832e-11,-0.99317,0,0,0.5,-0,-0,0.66667
0.86469,0.079441,1.7294,-0.63084,-0.74127,0.87576,2.9092,-0.96974,-0.58441,3.8789,-9.8171e-09,-0.2922,0,0,0.5,-1.024e-15,0,0.66667
0.65707,0.87765,1.3141,0.56648,1.5749,2.2701,-1.9851,0.66171,-0.85979,-2.6468,1.2812e-10,-0.4299,0,0,0.5,2.3685e-15,0,0.66667
0.58104,0.022094,1.1621,-0.71686,-2.4964,3.0633,2.2214,-0.74048,-0.17259,2.9619,-7.3141e-13,-0.086294,0,0,0.5,-0,-0,0.66667
0.20073,0.024963,0.40145,-0.71255,-3.6067,7.354,0.76282,-0.25427,-0.19481,1.0171,3.4412e-10,-0.097405,0,0,0.5,-2.9606e-16,3.8062e-16,0.66667
0.52955,0.26288,1.0591,-0.35567,-1.2042,3.3831,1.0045,-0.33484,-1.5498,1.3393,-1.9741e-11,-0.77489,0,0,0.5,-0,-0,0.66667
0.89443,0.022617,1.7889,-0.71607,-0.72684,0.82147,3.4159,-1.1386,-0.17659,4.5545,-1.4479e-08,-0.088295,0,0,0.5,-0,-0,0.66667
0.30499,0.11459,0.60999,-0.57811,-2.6596,6.0185,0.94038,-0.31346,-0.81119,1.2538,2.5322e-10,-0.40559,0,0,0.5,-0,-0,0.66667
0.87095,0.42729,1.7419,-0.10906,-0.078165,0.54487,0.50659,-0.16886,-1.9573,0.67545,-1.8823e-09,-0.97866,0,0,0.5,-0,-0,0.66667
0.90875,0.95096,1.8175,0.67643,0.55478,0.71428,-3.2784,1.0928,-0.37261,-4.3712,3.4105e-08,-0.18631,0,0,0.5,-0,-0,0.66667
0.32984,0.76248,0.65969,0.39373,1.705,5.6646,-0.69263,0.23088,-1.4484,-0.92351,-2.0974e-10,-0.7242,0,0,0.5,-0,-0,0.66667
0.68307,0.48428,1.3661,-0.023585,-0.053353,1.8565,0.085923,-0.028641,-1.9974,0.11456,-1.7221e-11,-0.9987,0,0,0.5,-1.1842e-15,0,0.66667
0.89922,0.37635,1.7984,-0.18548,-0.087761,0.41773,0.88952,-0.29651,-1.8784,1.186,-3.485e-09,-0.93922,0,0,0.5,-0,-0,0.66667
0.075697,0.28745,0.15139,-0.31883,-1.5383,8.9309,0.12872,-0.042905,-1.6387,0.17162,-4.6252e-09,-0.81934,0,0,0.5,-1.4803e-16,0,0.66667
0.87859,0.41294,1.7572,-0.13059,-0.084991,0.50819,0.61191,-0.20397,-1.9393,0.81588,-3.292e-09,-0.96967,0,0,0.5,-2.3685e-15,0,0.66667
0.19084,0.084586,0.38168,-0.62312,-3.0897,7.4587,0.63422,-0.21141,-0.61917,0.84563,2.5774e-09,-0.30959,0,0,0.5,-1.4803e-16,0,0.66667
0.84977,0.55921,1.6995,0.088809,0.080549,0.66029,-0.40249,0.13416,-1.9724,-0.53666,5.8153e-10,-0.98618,0,0,0.5,5.4764e-16,0,0.66667
0.66712,0.96114,1.3342,0.69171,1.987,2.2777,-2.4611,0.82037,-0.2986,-3.2815,1.9803e-11,-0.1493,0,0,0.5,-5.9212e-16,-3.3893e-16,0.66667
0.34434,0.78821,0.68868,0.43231,1.8639,5.4982,-0.79392,0.26464,-1.3356,-1.0586,-1.8374e-10,-0.66781,0,0,0.5,-0,-0,0.66667
0.15138,0.33955,0.30275,-0.24068,-1.1283,7.921,0.19431,-0.064769,-1.7943,0.25908,-3.2992e-10,-0.89716,0,0,0.5,-2.8044e-16,0,0.66667
0.63537,0.43423,1.2707,-0.098659,-0.2572,2.2844,0.33432,-0.11144,-1.9658,0.44576,-4.5404e-11,-0.98291,0,0,0.5,1.4803e-15,0,0.66667
0.84779,0.51011,1.6956,0.01517,0.013906,0.66603,-0.068593,0.022864,-1.9988,-0.091457,-9.3885e-10,-0.9994,0,0,0.5,-0,-0,0.66667
0.82185,0.74238,1.6437,0.36357,0.4671,0.91975,-1.5936,0.5312,-1.5298,-2.1248,-2.951e-10,-0.7649,0,0,0.5,-5.9212e-16,0,0.66667
0.62824,0.097251,1.2565,-0.60412,-1.8266,2.5486,2.0242,-0.67473,-0.70281,2.6989,-4.8149e-11,-0.35141,0,0,0.5,-0,-0,0.66667
0.9563,0.45302,1.9126,-0.070471,0.0086149,0.1481,0.35942,-0.11981,-1.9818,0.47923,9.4491e-08,-0.99089,0,0,0.5,1.1842e-15,0,0.66667
0.58992,0.12933,1.1798,-0.55601,-1.7873,2.8725,1.7493,-0.58312,-0.90111,2.3325,-3.637e-11,-0.45056,0,0,0.5,-2.3685e-15,0,0.66667
0.19783,0.60633,0.39567,0.15949,0.7285,7.3057,-0.16828,0.056094,-1.909,-0.22438,-1.1535e-10,-0.95449,0,0,0.5,-2.9606e-16,0,0.66667
0.42933,0.40048,0.85866,-0.14928,-0.56579,4.4384,0.34183,-0.11394,-1.9208,0.45577,3.1377e-11,-0.96038,0,0,0.5,-2.9606e-16,0,0.66667
0.33675,0.38567,0.67349,-0.17149,-0.71612,5.5429,0.308,-0.10267,-1.8949,0.41067,9.0141e-11,-0.94746,0,0,0.5,-0,-0,0.66667
0.99195,0.13328,1.9839,-0.55008,0.10119,0.29031,2.9101,-0.97005,-0.92382,3.8802,-1.233e-07,-0.46191,0,0,0.5,2.3685e-15,0,0.66667
0.38024,0.51084,0.76047,0.016259,0.064692,5.0068,-0.032971,0.01099,-1.9986,-0.043962,-6.8049e-12,-0.99929,0,0,0.5,1.1842e-15,0,0.66667
0.9927,0.34129,1.9854,-0.23806,0.10641,0.071255,1.2604,-0.42013,-1.799,1.6805,1.4384e-08,-0.89951,0,0,0.5,1.7742e-15,0,0.66667
0.5188,0.32209,1.0376,-0.26686,-0.90422,3.4699,0.73839,-0.24613,-1.7465,0.98453,-1.1885e-11,-0.87324,0,0,0.5,-0,-0,0.66667
0.17228,0.28716,0.34456,-0.31926,-1.4997,7.6525,0.29335,-0.097782,-1.6379,0.39113,-5.6927e-10,-0.81893,0,0,0.5,-0,-0,0.66667
0.074574,0.84822,0.14915,0.52233,2.6134,8.9573,-0.20775,0.069248,-1.0302,-0.27699,-7.5131e-09,-0.51512,0,0,0.5,2.9606e-16,0,0.66667
0.37031,0.054253,0.74061,-0.66862,-2.9969,5.273,1.3205,-0.44017,-0.41023,1.7607,1.6084e-11,-0.20512,0,0,0.5,2.9606e-16,4.1235e-17,0.66667
0.12342,0.93093,0.24684,0.6464,3.298,8.3308,-0.42548,0.14183,-0.51447,-0.56731,-1.8389e-08,-0.25723,0,0,0.5,-7.4015e-17,0,0.66667
0.63452,0.92656,1.269,0.63985,1.937,2.5177,-2.1653,0.72177,-0.54383,-2.8871,3.3153e-11,-0.27192,0,0,0.5,-0,-0,0.66667
0.41392,0.58092,0.82784,0.12138,0.46748,4.6141,-0.26794,0.089315,-1.947,-0.35726,-3.2468e-11,-0.9735,0,0,0.5,-0,-0,0.66667
0.99092,0.82789,1.9818,0.49184,-0.11608,0.23969,-2.5993,0.86643,-1.1392,-3.4657,-3.1265e-08,-0.56962,0,0,0.5,-0,-0,0.66667
0.92996,0.67625,1.8599,0.26437,0.055554,0.30734,-1.3112,0.43708,-1.7509,-1.7483,-3.8069e-09,-0.87547,0,0,0.5,-0,-0,0.66667
0.14924,0.067946,0.29847,-0.64808,-3.2837,7.9973,0.51582,-0.17194,-0.50669,0.68777,7.6937e-09,-0.25334,0,0,0.5,-0,-0,0.66667
0.39488,0.58693,0.78976,0.13039,0.51323,4.8384,-0.27461,0.091536,-1.9395,-0.36615,-4.3528e-11,-0.96974,0,0,0.5,-2.9606e-16,0,0.66667
0.46158,0.1635,0.92316,-0.50475,-1.9574,4.1673,1.2426,-0.41419,-1.094,1.6568,1.6366e-11,-0.54698,0,0,0.5,-1.1842e-15,0,0.66667
0.56095,0.38273,1.1219,-0.17591,-0.54601,3.0147,0.52628,-0.17543,-1.8899,0.7017,-3.0678e-11,-0.94497,0,0,0.5,-1.1842e-15,0,0.66667
0.78036,0.11102,1.5607,-0.58348,-1.0825,1.3353,2.4284,-0.80947,-0.78912,3.2379,-1.503e-09,-0.39456,0,0,0.5,-0,-0,0.66667
0.48719,0.051525,0.97439,-0.67271,-2.6595,3.9745,1.748,-0.58265,-0.39057,2.3306,3.8647e-13,-0.19528,0,0,0.5,5.9212e-16,0,0.66667
0.41999,0.21967,0.83999,-0.42049,-1.6788,4.604,0.94188,-0.31396,-1.3724,1.2558,5.8241e-11,-0.68618,0,0,0.5,-0,-0,0.66667
0.262,0.083535,0.524,-0.6247,-2.9914,6.5623,0.87291,-0.29097,-0.61208,1.1639,4.4363e-10,-0.30604,0,0,0.5,2.9606e-16,0,0.66667
0.91081,0.91739,1.8216,0.62609,0.45839,0.65241,-3.0413,1.0138,-0.60577,-4.0551,1.021e-08,-0.30289,0,0,0.5,-0,-0,0.66667
0.022272,0.87417,0.044543,0.56126,2.8478,9.6501,-0.066666,0.022222,-0.88083,-0.088889,-6.5534e-07,-0.44042,0,0,0.5,1.09e-17,0,0.66667
0.82112,0.83692,1.6422,0.50538,0.7171,1.0142,-2.2132,0.73774,-1.0917,-2.951,1.7753e-09,-0.54587,0,0,0.5,-5.9212e-16,0,0.66667
0.18847,0.50194,0.37694,0.0029144,0.013288,7.4239,-0.0029294,0.00097647,-2.0009,-0.0039059,1.1284e-10,-1.0004,0,0,0.5,-0,-0,0.66667
0.68576,0.925,1.3715,0.63749,1.6979,2.0811,-2.3316,0.77718,-0.55461,-3.1087,1.0985e-10,-0.27731,0,0,0.5,-0,5.6849e-16,0.66667
0.35521,0.42421,0.71042,-0.11368,-0.465,5.3126,0.21536,-0.071786,-1.9535,0.28715,5.5539e-11,-0.97674,0,0,0.5,5.9212e-16,0,0.66667
0.97421,0.21512,1.9484,-0.42733,0.052327,0.23823,2.2203,-0.7401,-1.3511,2.9604,7.9944e-09,-0.67554,0,0,0.5,1.4803e-15,0,0.66667
0.12277,0.34332,0.24554,-0.23502,-1.1109,8.2996,0.15389,-0.051296,-1.8047,0.20518,1.8187e-09,-0.90236,0,0,0.5,7.4015e-17,0,0.66667
0.18757,0.44768,0.37514,-0.078484,-0.35858,7.4367,0.078514,-0.026171,-1.9779,0.10468,4.2503e-10,-0.98897,0,0,0.5,-0,-0,0.66667
0.88944,0.40668,1.7789,-0.13999,-0.077145,0.45431,0.66405,-0.22135,-1.9315,0.8854,8.9684e-09,-0.96575,0,0,0.5,-0,-0,0.66667
0.58341,0.68299,1.1668,0.27449,0.82699,2.8136,-0.85406,0.28469,-1.7323,-1.1387,5.9332e-11,-0.86617,0,0,0.5,8.8818e-16,0,0.66667
0.30925,0.49185,0.61849,-0.012222,-0.051819,5.8748,0.020158,-0.0067195,-1.9993,0.026878,9.5198e-12,-0.99965,0,0,0.5,5.9212e-16,0,0.66667
0.00076439,0.73394,0.0015288,0.3509,1.7116,9.9342,-0.0014305,0.00047686,-1.5618,-0.0019074,3.1605e-08,-0.78089,0,0,0.5,-1.1565e-18,0,0.66667
0.2276,0.98982,0.4552,0.73473,3.6983,7.023,-0.89185,0.29728,-0.080151,-1.1891,-3.9429e-11,-0.040076,0,0,0.5,-2.653e-17,0,0.66667
0.1454,0.13307,0.29081,-0.5504,-2.7253,8.0316,0.42683,-0.14228,-0.92264,0.56911,3.925e-09,-0.46132,0,0,0.5,-0,-0,0.66667
0.20343,0.76535,0.40687,0.39803,1.8682,7.2567,-0.43186,0.14395,-1.4363,-0.57581,-2.8778e-10,-0.71816,0,0,0.5,-0,-0,0.66667
0.89632,0.42788,1.7926,-0.10818,-0.051638,0.41377,0.51715,-0.17238,-1.958,0.68953,-1.0654e-08,-0.97899,0,0,0.5,-0,-0,0.66667
0.87309,0.6111,1.7462,0.16664,0.11886,0.54564,-0.77598,0.25866,-1.9008,-1.0346,-1.5272e-09,-0.95039,0,0,0.5,1.1842e-15,0,0.66667
0.70029,0.25598,1.4006,-0.36603,-0.83216,1.795,1.3671,-0.45569,-1.5237,1.8228,-2.5502e-10,-0.76187,0,0,0.5,-0,-0,0.66667
0.4705,0.89405,0.941,0.59107,2.3239,4.1092,-1.4832,0.49439,-0.75742,-1.9776,-5.4525e-12,-0.37871,0,0,0.5,-0,-0,0.66667
0.82714,0.52335,1.6543,0.035019,0.038611,0.79106,-0.15448,0.051493,-1.9956,-0.20597,4.2571e-10,-0.99781,0,0,0.5,-0,-0,0.66667
0.49583,0.3491,0.99165,-0.22635,-0.79043,3.7068,0.59857,-0.19952,-1.818,0.7981,2.407e-12,-0.90898,0,0,0.5,-0,-0,0.66667
0.36349,0.45188,0.72698,-0.072185,-0.2924,5.2098,0.13994,-0.046646,-1.9809,0.18659,3.3955e-11,-0.99044,0,0,0.5,-5.9212e-16,0,0.66667
0.2756,0.65639,0.55121,0.23459,1.0327,6.3117,-0.34482,0.11494,-1.8054,-0.45976,-1.2378e-10,-0.90268,0,0,0.5,-1.1842e-15,0,0.66667
0.92474,0.62771,1.8495,0.19157,0.043537,0.3023,-0.94482,0.31494,-1.8701,-1.2598,4.8188e-08,-0.93507,0,0,0.5,-0,-0,0.66667
0.38699,0.99597,0.77398,0.74395,3.3665,5.1165,-1.5355,0.51182,-0.032503,-2.0473,3.1253e-13,-0.016251,0,0,0.5,7.4015e-16,0,0.66667
0.49288,0.73206,0.98576,0.34809,1.2462,3.7694,-0.91501,0.305,-1.5686,-1.22,-4.6534e-12,-0.78428,0,0,0.5,-1.1842e-15,0,0.66667
0.25444,0.01507,0.50888,-0.72739,-3.6031,6.6878,0.98708,-0.32903,-0.11813,1.3161,3.8532e-11,-0.059066,0,0,0.5,-0,-0,0.66667
0.88497,0.41636,1.7699,-0.12545,-0.073951,0.47404,0.59212,-0.19737,-1.9436,0.78949,9.8987e-10,-0.9718,0,0,0.5,-0,-0,0.66667
0.38326,0.68616,0.76653,0.27924,1.1302,4.9971,-0.57078,0.19026,-1.7235,-0.76105,-9.1223e-11,-0.86175,0,0,0.5,8.8818e-16,0,0.66667
0.29757,0.93383,0.59515,0.65074,3.0695,6.1329,-1.0328,0.34426,-0.49494,-1.377,-1.2621e-10,-0.24747,0,0,0.5,4.4409e-16,0,0.66667
0.71759,0.13389,1.4352,-0.54916,-1.2721,1.7631,2.1017,-0.70058,-0.92761,2.8023,-4.599e-10,-0.4638,0,0,0.5,-0,-0,0.66667
0.19087,0.84168,0.38174,0.51252,2.4745,7.437,-0.52173,0.17391,-1.0667,-0.69565,-1.8405e-09,-0.53337,0,0,0.5,-7.4015e-17,0,0.66667
0.11819,0.2356,0.23639,-0.3966,-1.919,8.3712,0.25,-0.083334,-1.4401,0.33334,-2.5492e-09,-0.72004,0,0,0.5,1.4803e-16,0,0.66667
0.837,0.78453,1.674,0.4268,0.51324,0.86537,-1.9052,0.63507,-1.3527,-2.5403,-1.8804e-10,-0.67637,0,0,0.5,2.3685e-15,0,0.66667
0.74414,0.8335,1.4883,0.50025,1.0286,1.5292,-1.9854,0.66179,-1.1098,-2.6471,7.3652e-10,-0.55488,0,0,0.5,-0,-0,0.66667
0.59052,0.41611,1.181,-0.12584,-0.36577,2.7129,0.39632,-0.13211,-1.9434,0.52843,-3.549e-11,-0.97168,0,0,0.5,-1.1842e-15,0,0.66667
0.24289,0.32033,0.48578,-0.2695,-1.2156,6.732,0.34912,-0.11637,-1.7415,0.46549,7.7253e-11,-0.87075,0,0,0.5,-0,-0,0.66667
0.62325,0.69466,1.2465,0.292,0.80788,2.4386,-0.97059,0.32353,-1.6969,-1.2941,1.0058e-10,-0.84843,0,0,0.5,-0,-0,0.66667
0.63836,0.35986,1.2767,-0.21021,-0.55129,2.2766,0.71568,-0.23856,-1.8424,0.95425,-8.9429e-11,-0.92118,0,0,0.5,1.1842e-15,0,0.66667
0.32757,0.96694,0.65514,0.70041,3.2825,5.7901,-1.2236,0.40788,-0.25666,-1.6315,-1.2175e-11,-0.12833,0,0,0.5,7.4015e-16,0,0.66667
0.067489,0.1757,0.13498,-0.48644,-2.4182,9.0486,0.17509,-0.058364,-1.1581,0.23346,-1.5534e-09,-0.57906,0,0,0.5,-7.9923e-17,0,0.66667
0.88054,0.92236,1.7611,0.63354,0.6532,0.79879,-2.9752,0.99174,-0.57226,-3.967,1.5606e-08,-0.28613,0,0,0.5,-0,-0,0.66667
0.45996,0.381,0.91991,-0.17851,-0.6524,4.094,0.43789,-0.14596,-1.8867,0.58386,1.9907e-11,-0.94334,0,0,0.5,-0,-0,0.66667
0.76387,0.53964,1.5277,0.059463,0.097614,1.2193,-0.24225,0.080751,-1.9873,-0.323,1.245e-10,-0.99366,0,0,0.5,-0,-0,0.66667
0.25389,0.063164,0.50778,-0.65525,-3.179,6.672,0.88726,-0.29575,-0.47436,1.183,3.4749e-10,-0.23718,0,0,0.5,5.9212e-16,0,0.66667
0.59139,0.72641,1.1828,0.33962,1.0203,2.7567,-1.0712,0.35706,-1.5898,-1.4283,7.2472e-11,-0.79491,0,0,0.5,-0,-0,0.66667
0.4288,0.99946,0.85759,0.74918,3.26,4.65,-1.7133,0.5711,-0.0052743,-2.2844,3.4617e-13,-0.0026372,0,0,0.5,1.8689e-15,0,0.66667
0.3821,0.59825,0.7642,0.14738,0.58859,4.9918,-0.30033,0.10011,-1.923,-0.40044,-5.5343e-11,-0.96148,0,0,0.5,-0,-0,0.66667
0.12671,0.80338,0.25343,0.45507,2.2203,8.2644,-0.30754,0.10251,-1.2635,-0.41005,1.9315e-09,-0.63175,0,0,0.5,1.4803e-16,0,0.66667
0.24427,0.52402,0.48853,0.036033,0.15974,6.6989,-0.046942,0.015647,-1.9952,-0.06259,-7.3771e-11,-0.99761,0,0,0.5,-2.9606e-16,0,0.66667
0.079342,0.41414,0.15868,-0.1288,-0.60968,8.8763,0.054501,-0.018167,-1.941,0.072668,-4.2762e-08,-0.9705,0,0,0.5,1.4803e-16,0,0.66667
0.30286,0.37385,0.60572,-0.18922,-0.81324,5.9643,0.30563,-0.10188,-1.8735,0.40751,1.1314e-10,-0.93675,0,0,0.5,-1.8504e-16,0,0.66667
0.7417,0.10543,1.4834,-0.59185,-1.2898,1.6132,2.3412,-0.78041,-0.75395,3.1216,-6.2436e-10,-0.37698,0,0,0.5,-0,-0,0.66667
0.61502,0.43358,1.23,-0.09963,-0.27328,2.4743,0.32679,-0.10893,-1.965,0.43573,-3.7756e-11,-0.98251,0,0,0.5,-5.9212e-16,0,0.66667
0.67241,0.95375,1.3448,0.68062,1.9187,2.2247,-2.4408,0.81361,-0.35251,-3.2545,3.3537e-11,-0.17625,0,0,0.5,1.1842e-15,0,0.66667
0.0083831,0.50704,0.016766,0.010559,0.050147,9.8313,-0.00047043,0.00016305,-1.9994,-0.00062413,9.3516e-06,-0.99972,0,0,0.5,-0,-0,0.66667
0.67838,0.84177,1.3568,0.51266,1.3166,2.0548,-1.8548,0.61827,-1.0662,-2.4731,2.4785e-10,-0.53308,0,0,0.5,1.3323e-15,0,0.66667
0.50318,0.15561,1.0064,-0.51659,-1.8992,3.7238,1.3863,-0.46211,-1.0522,1.8484,-1.1615e-12,-0.52608,0,0,0.5,-1.8504e-16,0,0.66667
0.23091,0.63245,0.46182,0.19867,0.89532,6.8791,-0.24467,0.081555,-1.8596,-0.32622,-6.9334e-11,-0.92978,0,0,0.5,-0,-0,0.66667
0.1749,0.64107,0.34979,0.21161,0.98046,7.6093,-0.19739,0.065796,-1.8402,-0.26318,3.0615e-10,-0.92011,0,0,0.5,2.9606e-16,0,0.66667
0.18498,0.40717,0.36997,-0.13925,-0.63883,7.4729,0.13738,-0.045794,-1.932,0.18317,3.814e-10,-0.96602,0,0,0.5,-0,-0,0.66667
0.84426,0.26408,1.6885,-0.35388,-0.38163,0.78053,1.5934,-0.53115,-1.5543,2.1246,8.0446e-10,-0.77717,0,0,0.5,-0,-0,0.66667
0.98259,0.46884,1.9652,-0.046741,0.018555,0.05445,0.24495,-0.081646,-1.9934,0.3266,4.7082e-06,-0.99671,0,0,0.5,-0,-0,0.66667
0.91374,0.66289,1.8275,0.24434,0.087713,0.36998,-1.1907,0.39691,-1.7876,-1.5876,1.0807e-08,-0.89381,0,0,0.5,-0,-0,0.66667
0.34737,0.86339,0.69474,0.54509,2.4064,5.4957,-1.0099,0.33662,-0.94308,-1.3465,-1.3364e-10,-0.47154,0,0,0.5,-0,-0,0.66667
0.78022,0.19649,1.5604,-0.45526,-0.78226,1.2439,1.8944,-0.63147,-1.2629,2.5259,-8.3953e-10,-0.63147,0,0,0.5,-0,-0,0.66667
0.54645,0.37227,1.0929,-0.1916,-0.61224,3.1653,0.5584,-0.18613,-1.8703,0.74453,-2.4664e-11,-0.93513,0,0,0.5,-0,-0,0.66667
0.81644,0.069679,1.6329,-0.64548,-1.0502,1.1599,2.8107,-0.93689,-0.5185,3.7475,-2.7217e-09,-0.25925,0,0,0.5,-2.3685e-15,0,0.66667
0.48373,0.58321,0.96745,0.12482,0.43914,3.8233,-0.32202,0.10734,-1.9444,-0.42936,-5.945e-12,-0.97219,0,0,0.5,5.9212e-16,0,0.66667
0.58995,0.62996,1.1799,0.19494,0.57179,2.7301,-0.61336,0.20445,-1.8651,-0.81782,5.1241e-11,-0.93254,0,0,0.5,-1.1842e-15,0,0.66667
0.78726,0.50972,1.5745,0.014579,0.021058,1.0514,-0.061213,0.020404,-1.9988,-0.081617,3.64e-11,-0.99941,0,0,0.5,-0,-0,0.66667
0.10023,0.81408,0.20047,0.47111,2.321,8.6146,-0.25185,0.08395,-1.2116,-0.3358,6.7371e-09,-0.60578,0,0,0.5,2.9606e-16,0,0.66667
0.53701,0.45522,1.074,-0.067177,-0.21608,3.2476,0.1924,-0.064132,-1.9833,0.25653,-7.5542e-12,-0.99166,0,0,0.5,-1.2281e-15,0,0.66667
0.36598,0.14457,0.73197,-0.53315,-2.3087,5.2704,1.0407,-0.34689,-0.98878,1.3875,1.0073e-10,-0.49439,0,0,0.5,5.9212e-16,0,0.66667
0.60431,0.53407,1.2086,0.051103,0.14334,2.5724,-0.1647,0.054901,-1.9912,-0.2196,1.7722e-11,-0.99561,0,0,0.5,-0,-0,0.66667
0.9588,0.20666,1.9176,-0.44,-0.021043,0.29958,2.25,-0.75,-1.3111,3,5.8657e-09,-0.65553,0,0,0.5,-0,-0,0.66667
0.39282,0.35104,0.78565,-0.22344,-0.88902,4.8743,0.46812,-0.15604,-1.8225,0.62416,6.9656e-11,-0.91123,0,0,0.5,1.1842e-15,0,0.66667
0.39297,0.49951,0.78595,-0.00074152,-0.0029107,4.8551,0.0015541,-0.00051804,-2.0011,0.0020722,2.7073e-13,-1.0005,0,0,0.5,-9.2519e-17,0,0.66667
0.79064,0.72275,1.5813,0.33412,0.51182,1.1066,-1.4089,0.46963,-1.6034,-1.8785,-1.8891e-11,-0.80168,0,0,0.5,2.3685e-15,0,0.66667
0.64508,0.77431,1.2902,0.41147,1.1135,2.2874,-1.4156,0.47188,-1.3979,-1.8875,1.5721e-10,-0.69896,0,0,0.5,-0,-0,0.66667
0.39388,0.72085,0.78777,0.33127,1.3371,4.8827,-0.69591,0.23197,-1.6105,-0.92787,-8.8454e-11,-0.80526,0,0,0.5,-0,-0,0.66667
0.68896,0.11224,1.3779,-0.58164,-1.4944,2.0135,2.1372,-0.7124,-0.79671,2.8496,-2.1785e-10,-0.39836,0,0,0.5,-0,-0,0.66667
0.404,0.86863,0.808,0.55295,2.3205,4.8347,-1.1914,0.39714,-0.91298,-1.5886,-4.2212e-11,-0.45649,0,0,0.5,-5.9212e-16,0,0.66667
0.13611,0.82788,0.27223,0.49181,2.4109,8.1451,-0.35703,0.11901,-1.1394,-0.47603,-2.9558e-11,-0.56968,0,0,0.5,-0,-0,0.66667
0.45064,0.73024,0.90129,0.34536,1.3091,4.2339,-0.83004,0.27668,-1.5755,-1.1067,-3.442e-11,-0.78776,0,0,0.5,-0,-0,0.66667
0.33442,0.15612,0.66884,-0.51582,-2.2848,5.6419,0.92001,-0.30667,-1.055,1.2267,1.9644e-10,-0.52748,0,0,0.5,6.1987e-16,0,0.66667
0.21797,0.098926,0.43594,-0.60161,-2.931,7.1088,0.69937,-0.23312,-0.71347,0.9325,1.5045e-09,-0.35673,0,0,0.5,-0,-3.2731e-16,0.66667
0.92577,0.86853,1.8515,0.55279,0.27414,0.51908,-2.7294,0.90979,-0.91349,-3.6392,-5.7182e-08,-0.45675,0,0,0.5,1.1842e-15,0,0.66667
0.68964,0.32787,1.3793,-0.25819,-0.58934,1.8414,0.94965,-0.31655,-1.7625,1.2662,-1.4537e-10,-0.88124,0,0,0.5,-0,-0,0.66667
0.59882,0.26376,1.1976,-0.35436,-1.0517,2.6907,1.1317,-0.37725,-1.5529,1.509,-8.1122e-11,-0.77645,0,0,0.5,-0,-0,0.66667
0.74666,0.4945,1.4933,-0.0082528,-0.014658,1.3446,0.032864,-0.010955,-1.9999,0.043819,-1.4135e-11,-0.99995,0,0,0.5,-5.9212e-16,0,0.66667
0.54197,0.058228,1.0839,-0.66266,-2.4113,3.4054,1.9154,-0.63847,-0.43897,2.5539,-2.0596e-12,-0.21948,0,0,0.5,6.1697e-16,0,0.66667
0.70053,0.023018,1.4011,-0.71547,-1.9057,2.0283,2.6731,-0.89104,-0.17976,3.5642,-1.689e-11,-0.089878,0,0,0.5,1.1842e-15,-4.5955e-16,0.66667
0.93056,0.8719,1.8611,0.55786,0.25348,0.50441,-2.7686,0.92288,-0.89392,-3.6915,-5.6992e-08,-0.44696,0,0,0.5,-2.0558e-17,0,0.66667
0.86262,0.84342,1.7252,0.51514,0.54431,0.78483,-2.37,0.78998,-1.0575,-3.1599,1.8072e-09,-0.52877,0,0,0.5,-1.2212e-15,0,0.66667
0.16744,0.97023,0.33488,0.70534,3.6088,7.7747,-0.62989,0.20996,-0.23186,-0.83985,-1.4822e-09,-0.11593,0,0,0.5,-0,-0,0.66667
0.26314,0.15943,0.52628,-0.51085,-2.3762,6.5179,0.71693,-0.23898,-1.0727,0.95591,6.8098e-10,-0.53633,0,0,0.5,-0,-0,0.66667
0.07161,0.39395,0.14322,-0.15908,-0.75544,8.9806,0.060755,-0.020252,-1.9094,0.081007,-3.9826e-08,-0.95472,0,0,0.5,-0,-0,0.66667
0.97867,0.66819,1.9573,0.25229,-0.073738,0.12061,-1.3169,0.43895,-1.7731,-1.7558,1.7203e-07,-0.88656,0,0,0.5,-0,-0,0.66667
0.23638,0.23406,0.47277,-0.39891,-1.8418,6.8337,0.50291,-0.16764,-1.4337,0.67055,4.2771e-10,-0.71686,0,0,0.5,-0,-0,0.66667
0.6606,0.52562,1.3212,0.038434,0.093175,2.0522,-0.13541,0.045137,-1.9948,-0.18055,2.3002e-11,-0.99742,0,0,0.5,-1.1842e-15,0,0.66667
0.089631,0.50405,0.17926,0.00607,0.028568,8.737,-0.0029016,0.00096729,-2.0002,-0.0038688,1.1755e-07,-1.0001,0,0,0.5,-0,-0,0.66667
0.21077,0.30052,0.42154,-0.29922,-1.3782,7.1491,0.33636,-0.11212,-1.6811,0.44848,-8.2874e-11,-0.84054,0,0,0.5,-2.9606e-16,0,0.66667
0.50282,0.76648,1.0056,0.39971,1.4259,3.6797,-1.0719,0.35731,-1.4314,-1.4292,1.7166e-12,-0.71569,0,0,0.5,-0,-0,0.66667
0.10495,0.58318,0.20991,0.12477,0.58733,8.5331,-0.069839,0.02328,-1.9442,-0.093119,4.2308e-09,-0.97211,0,0,0.5,-1.4803e-16,0,0.66667
0.38887,0.039187,0.77775,-0.69122,-3.0683,5.0689,1.4336,-0.47786,-0.30114,1.9114,5.2115e-12,-0.15057,0,0,0.5,-0,-4.4877e-16,0.66667
0.53799,0.91496,1.076,0.62244,2.2459,3.4205,-1.786,0.59532,-0.62211,-2.3813,4.527e-12,-0.31106,0,0,0.5,-0,-0,0.66667
0.3392,0.51534,0.67841,0.023016,0.095216,5.5041,-0.041639,0.01388,-1.9975,-0.055518,-1.3825e-11,-0.99875,0,0,0.5,-0,-0,0.66667
0.5559,0.82919,1.1118,0.49379,1.6565,3.1711,-1.464,0.48799,-1.1324,-1.952,2.7475e-11,-0.5662,0,0,0.5,-0,-0,0.66667
0.53677,0.033895,1.0735,-0.69916,-2.6011,3.4812,2.0015,-0.66717,-0.2625,2.6687,-4.0346e-13,-0.13125,0,0,0.5,1.1842e-15,0,0.66667
0.39061,0.83169,0.78122,0.49753,2.0861,4.9691,-1.0365,0.34549,-1.1196,-1.382,-7.6771e-11,-0.5598,0,0,0.5,-0,2.2319e-16,0.66667
0.69627,0.89243,1.3925,0.58864,1.4856,1.9594,-2.1859,0.72863,-0.76736,-2.9145,2.3969e-10,-0.38368,0,0,0.5,-1.1842e-15,0,0.66667
0.67848,0.79131,1.357,0.43697,1.0893,2.0106,-1.5812,0.52707,-1.3206,-2.1083,2.518e-10,-0.66032,0,0,0.5,-0,-0,0.66667
0.6873,0.86386,1.3746,0.54579,1.386,2.0022,-2.0006,0.66688,-0.94063,-2.6675,2.5889e-10,-0.47031,0,0,0.5,-5.9212e-16,6.1863e-16,0.66667
0.56149,0.65652,1.123,0.23478,0.73384,3.0212,-0.70307,0.23436,-1.8052,-0.93742,3.8431e-11,-0.90262,0,0,0.5,-0,-0,0.66667
0.35808,0.30396,0.71616,-0.29406,-1.2221,5.3011,0.56159,-0.1872,-1.6924,0.74878,1.2187e-10,-0.84622,0,0,0.5,-2.9606e-16,0,0.66667
0.61311,0.44538,1.2262,-0.081924,-0.22547,2.4905,0.26788,-0.089295,-1.976,0.35718,-3.0728e-11,-0.98798,0,0,0.5,-0,-0,0.66667
0.93574,0.63888,1.8715,0.20832,0.026064,0.26128,-1.0396,0.34654,-1.8452,-1.3862,8.1487e-09,-0.92262,0,0,0.5,-0,-0,0.66667
0.59689,0.69919,1.1938,0.29879,0.87916,2.6899,-0.95116,0.31705,-1.6821,-1.2682,7.4361e-11,-0.84107,0,0,0.5,1.1842e-15,0,0.66667
0.97959,0.40312,1.9592,-0.14533,0.050279,0.080629,0.75925,-0.25309,-1.9254,1.0123,-9.8588e-07,-0.96268,0,0,0.5,-5.9212e-16,0,0.66667
0.44101,0.15857,0.88201,-0.51215,-2.0408,4.3986,1.2046,-0.40153,-1.0681,1.6061,2.6423e-11,-0.53403,0,0,0.5,-0,-0,0.66667
0.73961,0.24531,1.4792,-0.38203,-0.7579,1.4942,1.507,-0.50232,-1.4813,2.0093,-3.4772e-10,-0.74063,0,0,0.5,1.4803e-15,0,0.66667
0.037604,0.66383,0.075208,0.24574,1.1808,9.439,-0.049285,0.016428,-1.7851,-0.065713,5.5492e-08,-0.89253,0,0,0.5,-0,-0,0.66667
0.76473,0.82381,1.5295,0.48571,0.91104,1.3711,-1.981,0.66033,-1.1609,-2.6413,9.2043e-10,-0.58045,0,0,0.5,1.1842e-15,0,0.66667
0.51828,0.58915,1.0366,0.13373,0.4461,3.4509,-0.36964,0.12321,-1.9367,-0.49285,7.0406e-12,-0.96837,0,0,0.5,-0,-0,0.66667
0.0053165,0.49178,0.010633,-0.012323,-0.05853,9.8727,0.0003498,-0.00014787,-1.9992,0.00045077,-4.69e-05,-0.99959,0,0,0.5,9.2519e-18,0,0.66667
0.2772,0.27363,0.5544,-0.33955,-1.5143,6.3064,0.50199,-0.16733,-1.5899,0.66932,2.4036e-10,-0.79496,0,0,0.5,-0,-0,0.66667
0.53483,0.061645,1.0697,-0.65753,-2.415,3.4737,1.8756,-0.62519,-0.46371,2.5008,-1.7429e-12,-0.23185,0,0,0.5,5.5511e-16,0,0.66667
0.76796,0.28539,1.5359,-0.32192,-0.55114,1.2581,1.3185,-0.4395,-1.6319,1.758,-1.021e-10,-0.81597,0,0,0.5,-2.3685e-15,0,0.66667
0.053093,0.26418,0.10619,-0.35374,-1.7208,9.2341,0.10016,-0.033388,-1.5544,0.13355,8.811e-09,-0.77722,0,0,0.5,-0,-0,0.66667
0.54905,0.97093,1.0981,0.7064,2.5852,3.3643,-2.0685,0.68951,-0.22656,-2.758,2.9443e-13,-0.11328,0,0,0.5,-0,-0,0.66667
0.80099,0.05329,1.602,-0.67007,-1.202,1.2779,2.8625,-0.95417,-0.40328,3.8167,-1.244e-09,-0.20164,0,0,0.5,-5.9212e-16,0,0.66667
0.64958,0.23505,1.2992,-0.39742,-1.0585,2.2408,1.3769,-0.45895,-1.4377,1.8358,-1.6412e-10,-0.71887,0,0,0.5,1.1842e-15,0,0.66667
0.93145,0.64322,1.8629,0.21483,0.036674,0.28143,-1.0672,0.35574,-1.8353,-1.423,1.3322e-08,-0.91764,0,0,0.5,-0,-0,0.66667
0.074731,0.15584,0.14946,-0.51624,-2.5794,8.9548,0.20576,-0.068586,-1.0535,0.27434,1.8445e-08,-0.52674,0,0,0.5,1.8504e-17,0,0.66667
0.27681,0.99839,0.55361,0.74758,3.6788,6.4205,-1.1037,0.36789,-0.013623,-1.4715,1.1529e-11,-0.0068113,0,0,0.5,7.4015e-17,0,0.66667
0.91924,0.32394,1.8385,-0.26409,-0.08337,0.35351,1.2947,-0.43158,-1.7516,1.7263,-5.4871e-09,-0.87581,0,0,0.5,-0,-0,0.66667
0.76501,0.06597,1.53,-0.65104,-1.3466,1.4969,2.6563,-0.88543,-0.49358,3.5417,-6.1341e-10,-0.24679,0,0,0.5,-2.3685e-15,2.3382e-16,0.66667
0.59974,0.042532,1.1995,-0.6862,-2.2782,2.866,2.1949,-0.73163,-0.32526,2.9265,-5.0442e-12,-0.16263,0,0,0.5,-0,-0,0.66667
0.83297,0.96011,1.6659,0.69017,1.0653,1.107,-3.0661,1.022,-0.30609,-4.0881,2.2157e-09,-0.15304,0,0,0.5,-1.1842e-15,0,0.66667
0.89604,0.64772,1.7921,0.22158,0.11497,0.44493,-1.0589,0.35297,-1.8251,-1.4119,-3.1389e-09,-0.91257,0,0,0.5,-0,-0,0.66667
0.97272,0.57326,1.9454,0.10989,-0.031189,0.095596,-0.57008,0.19003,-1.9566,-0.76011,-1.5047e-06,-0.97832,0,0,0.5,-0,-0,0.66667
0.99852,0.68117,1.997,0.27176,-0.13342,0.069762,-1.4472,0.48241,-1.7376,-1.9296,2.7679e-08,-0.86878,0,0,0.5,-0,-3.7656e-16,0.66667
0.13965,0.89621,0.2793,0.59431,2.9788,8.1127,-0.44264,0.14755,-0.74396,-0.59018,-7.8911e-09,-0.37198,0,0,0.5,-0,-5.1659e-16,0.66667
0.070542,0.73936,0.14108,0.35904,1.7439,9.0015,-0.13508,0.045027,-1.5411,-0.18011,3.7529e-09,-0.77057,0,0,0.5,7.4015e-17,0,0.66667
0.073467,0.59449,0.14693,0.14173,0.67209,8.9554,-0.055533,0.018511,-1.9295,-0.074044,9.7267e-08,-0.96475,0,0,0.5,2.9606e-16,0,0.66667
0.014744,0.80366,0.029488,0.45549,2.2611,9.7481,-0.035817,0.011939,-1.2622,-0.047756,-7.5305e-08,-0.63111,0,0,0.5,-0,-0,0.66667
0.97182,0.12439,1.9436,-0.56341,-0.023778,0.36244,2.9202,-0.97339,-0.87238,3.8936,-5.9746e-07,-0.43619,0,0,0.5,1.4803e-15,0,0.66667
0.094767,0.71652,0.18953,0.32478,1.5627,8.677,-0.16415,0.054717,-1.6258,-0.21887,-1.3313e-09,-0.81289,0,0,0.5,-2.0354e-16,0,0.66667
0.84174,0.65233,1.6835,0.22849,0.23429,0.74055,-1.0258,0.34192,-1.8148,-1.3677,-4.3048e-10,-0.90742,0,0,0.5,-1.2779e-15,0,0.66667
0.68517,0.82537,1.3703,0.48805,1.2168,1.9834,-1.7835,0.59448,-1.1526,-2.3779,2.8436e-10,-0.57632,0,0,0.5,-0,-0,0.66667
0.48756,0.3318,0.97511,-0.2523,-0.89522,3.8021,0.65606,-0.21869,-1.7732,0.87475,7.6202e-12,-0.8866,0,0,0.5,-5.9212e-16,0,0.66667
0.34669,0.97758,0.69339,0.71637,3.3247,5.5704,-1.3246,0.44153,-0.17513,-1.7661,-4.8159e-12,-0.087566,0,0,0.5,-0,-0,0.66667
0.35365,0.2922,0.7073,-0.3117,-1.3041,5.358,0.5879,-0.19597,-1.6541,0.78387,1.3341e-10,-0.82703,0,0,0.5,-0,-0,0.66667
0.25384,0.15639,0.50768,-0.51542,-2.4131,6.6357,0.69778,-0.23259,-1.0565,0.93037,8.0701e-10,-0.52826,0,0,0.5,1.1842e-15,0,0.66667
0.91102,0.86635,1.822,0.54953,0.34992,0.57861,-2.67,0.89001,-0.926,-3.56,4.5571e-09,-0.463,0,0,0.5,-1.1842e-15,0,0.66667
0.72564,0.35065,1.4513,-0.22403,-0.44665,1.5392,0.867,-0.289,-1.8214,1.156,-1.2095e-10,-0.91071,0,0,0.5,-0,-0,0.66667
0.025926,0.00039345,0.051852,-0.74941,-3.9935,9.6075,0.10362,-0.034535,-0.0041308,0.13816,6.9816e-06,-0.0020654,0,0,0.5,-0,-0,0.66667
0.46152,0.83977,0.92304,0.50966,1.9792,4.17,-1.2545,0.41816,-1.0767,-1.6727,-1.588e-11,-0.53836,0,0,0.5,-0,-0,0.66667
0.2813,0.90316,0.5626,0.60475,2.8467,6.3175,-0.90729,0.30243,-0.70041,-1.2097,-3.4622e-10,-0.3502,0,0,0.5,-5.9212e-16,0,0.66667
0.028966,0.825,0.057932,0.4875,2.4336,9.5596,-0.075312,0.025104,-1.1546,-0.10042,8.9036e-09,-0.57728,0,0,0.5,-0,-0,0.66667
0.88468,0.16394,1.7694,-0.50409,-0.42311,0.66296,2.3785,-0.79282,-1.0963,3.1713,4.0069e-09,-0.54814,0,0,0.5,-0,-0,0.66667
0.77101,0.79759,1.542,0.44638,0.79734,1.302,-1.8355,0.61184,-1.2909,-2.4474,7.2797e-10,-0.64545,0,0,0.5,-0,-0,0.66667
0.32974,0.76462,0.65947,0.39694,1.7201,5.6667,-0.69805,0.23268,-1.4393,-0.93073,-2.1152e-10,-0.71966,0,0,0.5,-0,-0,0.66667
0.79656,0.31838,1.5931,-0.27242,-0.39309,1.0405,1.1573,-0.38578,-1.7364,1.5431,1.6188e-10,-0.86821,0,0,0.5,-0,-0,0.66667
0.32464,0.45433,0.64928,-0.0685,-0.2872,5.6848,0.1186,-0.039534,-1.9827,0.15813,4.47e-11,-0.99137,0,0,0.5,5.9212e-16,0,0.66667
0.30788,0.95063,0.61576,0.67594,3.1893,6.0168,-1.1099,0.36997,-0.3749,-1.4799,-6.1624e-11,-0.18745,0,0,0.5,5.9212e-16,-1.0448e-16,0.66667
0.92811,0.17568,1.8562,-0.48648,-0.19526,0.45274,2.4081,-0.80269,-1.158,3.2107,6.2335e-09,-0.57898,0,0,0.5,1.1842e-15,0,0.66667
0.97692,0.72747,1.9538,0.34121,-0.074802,0.17214,-1.7778,0.59259,-1.5857,-2.3704,2.1596e-08,-0.79285,0,0,0.5,-0,-0,0.66667
0.52356,0.16551,1.0471,-0.50174,-1.7808,3.5039,1.401,-0.467,-1.1045,1.868,-9.8294e-12,-0.55226,0,0,0.5,-0,-0,0.66667
0.95194,0.62382,1.9039,0.18573,-0.0087625,0.18962,-0.94295,0.31432,-1.8784,-1.2573,1.0506e-07,-0.93918,0,0,0.5,5.9212e-16,0,0.66667
0.888,0.75097,1.776,0.37645,0.26029,0.55802,-1.7829,0.59429,-1.4971,-2.3772,-1.859e-09,-0.74854,0,0,0.5,2.3685e-15,0,0.66667
0.51803,0.80664,1.0361,0.45996,1.6274,3.5427,-1.2708,0.4236,-1.2479,-1.6944,9.2646e-12,-0.62396,0,0,0.5,5.9212e-16,0,0.66667
0.37275,0.30877,0.7455,-0.28685,-1.1744,5.1237,0.57025,-0.19008,-1.7079,0.76033,1.037e-10,-0.85396,0,0,0.5,7.4015e-16,0,0.66667
0.71035,0.43003,1.4207,-0.10495,-0.21726,1.6361,0.39761,-0.13254,-1.9606,0.53014,-8.5622e-11,-0.98031,0,0,0.5,-5.9212e-16,0,0.66667
0.45564,0.57075,0.91129,0.10612,0.38782,4.1342,-0.25789,0.085964,-1.9598,-0.34386,-1.4131e-11,-0.9799,0,0,0.5,-1.1842e-15,0,0.66667
0.60521,0.28434,1.2104,-0.32348,-0.93973,2.6186,1.0441,-0.34805,-1.6284,1.3922,-8.6439e-11,-0.81422,0,0,0.5,-0,-0,0.66667
0.99041,0.13647,1.9808,-0.54529,0.094404,0.28993,2.8803,-0.96011,-0.94223,3.8404,-1.4268e-07,-0.47112,0,0,0.5,2.3685e-15,0,0.66667
0.77392,0.72618,1.5478,0.33927,0.56828,1.2239,-1.4004,0.46679,-1.5905,-1.8672,1.2646e-10,-0.79526,0,0,0.5,-0,-0,0.66667
0.33428,0.54121,0.66855,0.061818,0.25704,5.5657,-0.11021,0.036737,-1.986,-0.14695,-3.7658e-11,-0.99299,0,0,0.5,-0,-0,0.66667
0.088998,0.1752,0.178,-0.4872,-2.4135,8.7643,0.23125,-0.077084,-1.1555,0.30834,-8.5415e-09,-0.57775,0,0,0.5,-0,-0,0.66667
0.18491,0.37657,0.36981,-0.18514,-0.85223,7.4763,0.18258,-0.060859,-1.879,0.24344,-1.5096e-10,-0.93949,0,0,0.5,5.9212e-16,0,0.66667
0.52685,0.65911,1.0537,0.23866,0.79444,3.3786,-0.67062,0.22354,-1.798,-0.89416,1.6188e-11,-0.899,0,0,0.5,-0,-0,0.66667
0.4171,0.082519,0.8342,-0.62622,-2.6482,4.717,1.3931,-0.46435,-0.60519,1.8574,1.3373e-11,-0.30259,0,0,0.5,-0,-0,0.66667
0.80066,0.55304,1.6013,0.079561,0.10643,0.96499,-0.33974,0.11325,-1.9772,-0.45299,3.5698e-10,-0.98858,0,0,0.5,-5.9212e-16,0,0.66667
0.9332,0.76516,1.8664,0.39774,0.10716,0.36702,-1.9796,0.65986,-1.4369,-2.6394,2.5936e-09,-0.71846,0,0,0.5,-1.1842e-15,0,0.66667
0.17786,0.86688,0.35573,0.55031,2.694,7.6112,-0.52203,0.17401,-0.92295,-0.69605,-3.0119e-09,-0.46148,0,0,0.5,-2.9606e-16,0,0.66667
0.86007,0.54226,1.7201,0.06339,0.05128,0.59867,-0.29077,0.096924,-1.9855,-0.3877,1.3657e-09,-0.99273,0,0,0.5,-0,-0,0.66667
0.95739,0.25631,1.9148,-0.36553,-6.3694e-06,0.25351,1.8664,-0.62215,-1.5249,2.4886,-8.5654e-10,-0.76246,0,0,0.5,-0,-0,0.66667
0.95947,0.92697,1.9189,0.64046,0.17011,0.48195,-3.2773,1.0924,-0.54108,-4.3698,-3.2941e-07,-0.27054,0,0,0.5,-0,-0,0.66667
0.037863,0.65843,0.075725,0.23765,1.1409,9.4354,-0.047989,0.015996,-1.7998,-0.063986,6.8056e-08,-0.89989,0,0,0.5,-0,-0,0.66667
0.057584,0.57954,0.11517,0.11931,0.56637,9.1685,-0.036641,0.012214,-1.9488,-0.048855,9.8355e-08,-0.97438,0,0,0.5,-0,-0,0.66667
0.0057974,0.91742,0.011595,0.62614,3.2286,9.8682,-0.01936,0.0064525,-0.60554,-0.025814,-1.4126e-06,-0.30277,0,0,0.5,9.2519e-18,1.0882e-15,0.66667
0.31268,0.087831,0.62536,-0.61825,-2.8594,5.9382,1.031,-0.34367,-0.64122,1.3747,1.4869e-10,-0.32061,0,0,0.5,1.4803e-16,0,0.66667
0.055698,0.099408,0.1114,-0.60089,-3.0693,9.211,0.1785,-0.0595,-0.71623,0.238,-2.3606e-07,-0.35812,0,0,0.5,-1.4803e-16,0,0.66667
0.29386,0.77346,0.58772,0.41018,1.831,6.1115,-0.64287,0.21429,-1.4016,-0.85716,-3.2892e-10,-0.70082,0,0,0.5,2.9606e-16,0,0.66667
0.35602,0.66579,0.71203,0.24868,1.0291,5.3182,-0.47219,0.1574,-1.7798,-0.62959,-1.0785e-10,-0.8899,0,0,0.5,-0,-0,0.66667
0.95368,0.36139,1.9074,-0.20791,0.011611,0.19043,1.0575,-0.3525,-1.8459,1.41,-2.7348e-09,-0.92297,0,0,0.5,-1.1842e-15,0,0.66667
0.47695,0.64475,0.9539,0.21712,0.77853,3.9114,-0.5523,0.1841,-1.8318,-0.7364,-1.3055e-11,-0.91591,0,0,0.5,5.9212e-16,0,0.66667
0.27824,0.46086,0.55648,-0.058716,-0.25486,6.2657,0.087131,-0.029044,-1.9876,0.11617,6.2116e-11,-0.9938,0,0,0.5,-0,-0,0.66667
0.50301,0.026034,1.006,-0.71095,-2.7903,3.8324,1.9073,-0.63575,-0.20305,2.543,-1.5876e-14,-0.10153,0,0,0.5,-5.9212e-16,0,0.66667
0.64336,0.010162,1.2867,-0.73476,-2.2795,2.5147,2.5211,-0.84038,-0.080135,3.3615,-1.295e-12,-0.040068,0,0,0.5,-0,-0,0.66667
0.11125,0.8304,0.22249,0.4956,2.4476,8.4718,-0.29404,0.098014,-1.1262,-0.39206,4.0666e-09,-0.56312,0,0,0.5,-0,-0,0.66667
0.75806,0.53119,1.5161,0.046778,0.078935,1.261,-0.18912,0.063041,-1.9932,-0.25216,1.0315e-10,-0.99662,0,0,0.5,-1.2627e-15,0,0.66667
0.85195,0.94539,1.7039,0.66809,0.89649,0.97977,-3.0356,1.0119,-0.41274,-4.0475,6.4562e-09,-0.20637,0,0,0.5,-0,-0,0.66667
0.84425,0.93885,1.6885,0.65828,0.92028,1.0118,-2.964,0.98801,-0.46029,-3.952,6.4214e-09,-0.23014,0,0,0.5,2.3685e-15,0,0.66667
0.89051,0.89533,1.781,0.593,0.525,0.71179,-2.8164,0.93879,-0.7495,-3.7551,8.7981e-09,-0.37475,0,0,0.5,-1.1842e-15,0,0.66667
0.38184,0.47507,0.76368,-0.0374,-0.14863,4.988,0.076164,-0.025388,-1.995,0.10155,1.5094e-11,-0.99748,0,0,0.5,-0,-0,0.66667
0.44381,0.55685,0.88761,0.08528,0.31614,4.2667,-0.20185,0.067284,-1.9742,-0.26914,-1.4788e-11,-0.98709,0,0,0.5,-8.8818e-16,0,0.66667
0.10158,0.86618,0.20316,0.54926,2.7506,8.6041,-0.29757,0.099191,-0.92697,-0.39676,8.826e-09,-0.46348,0,0,0.5,1.4803e-16,0,0.66667
0.22581,0.08274,0.45161,-0.62589,-3.057,7.0156,0.75376,-0.25125,-0.60662,1.005,1.0515e-09,-0.30331,0,0,0.5,-0,-0,0.66667
0.97132,0.04688,1.9426,-0.67968,-0.13408,0.4888,3.521,-1.1737,-0.35693,4.6947,1.3756e-06,-0.17846,0,0,0.5,-0,-0,0.66667
0.28462,0.30902,0.56925,-0.28648,-1.2614,6.2048,0.43487,-0.14496,-1.7087,0.57982,1.6747e-10,-0.85433,0,0,0.5,-2.9606e-16,0,0.66667
0.9074,0.24996,1.8148,-0.37507,-0.18925,0.46449,1.8151,-0.60504,-1.5011,2.4201,1.9158e-09,-0.75054,0,0,0.5,4.7647e-16,0,0.66667
0.89055,0.6129,1.7811,0.16935,0.093139,0.45592,-0.80435,0.26812,-1.8978,-1.0725,1.3495e-09,-0.94888,0,0,0.5,-1.1842e-15,0,0.66667
0.9225,0.56707,1.845,0.10061,0.022305,0.29027,-0.49499,0.165,-1.9645,-0.65999,4.8904e-08,-0.98223,0,0,0.5,2.3685e-15,0,0.66667
0.15615,0.86908,0.3123,0.55363,2.7337,7.8925,-0.46106,0.15369,-0.91051,-0.61475,-4.0849e-09,-0.45526,0,0,0.5,-2.9606e-16,3.8468e-16,0.66667
0.87972,0.90605,1.7594,0.60908,0.61345,0.779,-2.8577,0.95256,-0.68202,-3.8103,5.9435e-09,-0.34101,0,0,0.5,5.181e-16,0,0.66667
0.63199,0.72483,1.264,0.33724,0.92326,2.3739,-1.1367,0.3789,-1.5956,-1.5156,1.217e-10,-0.79779,0,0,0.5,2.3685e-15,0,0.66667
0.21063,0.48226,0.42126,-0.026605,-0.1201,7.1343,0.029887,-0.0099622,-1.9968,0.039849,1.1293e-10,-0.99842,0,0,0.5,-2.9606e-16,0,0.66667
0.34512,0.46624,0.69023,-0.050647,-0.20853,5.4323,0.093221,-0.031074,-1.9916,0.12429,2.859e-11,-0.99581,0,0,0.5,1.4803e-16,0,0.66667
0.15992,0.33473,0.31984,-0.2479,-1.1595,7.8088,0.21144,-0.070479,-1.7812,0.28192,-6.5751e-10,-0.8906,0,0,0.5,-1.4803e-16,0,0.66667
0.44435,0.066272,0.8887,-0.65059,-2.6908,4.4249,1.5418,-0.51394,-0.49535,2.0557,4.0191e-12,-0.24767,0,0,0.5,-1.1842e-15,0,0.66667
0.083775,0.15423,0.16755,-0.51865,-2.5889,8.8356,0.23173,-0.077244,-1.0442,0.30898,-1.562e-08,-0.5221,0,0,0.5,1.8504e-16,0,0.66667
0.16532,0.40922,0.33064,-0.13616,-0.62955,7.7314,0.12005,-0.040018,-1.9345,0.16007,1.1839e-10,-0.96726,0,0,0.5,-0,-0,0.66667
0.1972,0.04087,0.39439,-0.68869,-3.4672,7.3927,0.72431,-0.24144,-0.31319,0.96575,8.5174e-10,-0.1566,0,0,0.5,-0,-0,0.66667
0.69103,0.95754,1.3821,0.68632,1.8474,2.0782,-2.5294,0.84313,-0.32479,-3.3725,4.4421e-11,-0.16239,0,0,0.5,-0,-0,0.66667
0.5738,0.73962,1.1476,0.35943,1.1243,2.9357,-1.1,0.36666,-1.5402,-1.4666,5.513e-11,-0.77011,0,0,0.5,5.9212e-16,0,0.66667
0.87332,0.79489,1.7466,0.44233,0.39155,0.67474,-2.0602,0.68675,-1.3039,-2.747,-2.2266e-09,-0.65194,0,0,0.5,-0,-0,0.66667
0.24463,0.058835,0.48927,-0.66175,-3.2326,6.7892,0.86339,-0.2878,-0.44334,1.1512,4.0465e-10,-0.22167,0,0,0.5,-2.9606e-16,0,0.66667
0.62961,0.32692,1.2592,-0.25962,-0.70247,2.3699,0.87179,-0.2906,-1.7597,1.1624,-9.8261e-11,-0.87986,0,0,0.5,-0,-0,0.66667
0.034431,0.034899,0.068863,-0.69765,-3.6616,9.4947,0.12811,-0.042705,-0.26989,0.17082,-9.829e-07,-0.13495,0,0,0.5,-0,-0,0.66667
0.5162,0.20014,1.0324,-0.4498,-1.5917,3.5577,1.2383,-0.41277,-1.2803,1.6511,-8.6717e-12,-0.64016,0,0,0.5,-0,-0,0.66667
0.86323,0.043143,1.7265,-0.68528,-0.8654,0.93831,3.155,-1.0517,-0.32976,4.2066,-7.1728e-09,-0.16488,0,0,0.5,-2.3685e-15,0,0.66667
0.98413,0.86776,1.9683,0.55164,-0.055038,0.31385,-2.8954,0.96513,-0.91813,-3.8605,3.3333e-07,-0.45907,0,0,0.5,-0,-4.5334e-16,0.66667
0.009873,0.063451,0.019746,-0.65482,-3.4013,9.8149,0.034479,-0.011494,-0.47626,0.045971,-1.1423e-06,-0.23813,0,0,0.5,-0,-0,0.66667
0.25284,0.92044,0.50568,0.63067,3.0408,6.6779,-0.85045,0.28348,-0.58528,-1.1339,-5.1527e-10,-0.29264,0,0,0.5,-0,-0,0.66667
0.22385,0.49,0.4477,-0.015003,-0.067256,6.9624,0.017912,-0.0059706,-1.9988,0.023883,5.2127e-11,-0.99939,0,0,0.5,-2.9606e-16,0,0.66667
0.047538,0.057416,0.095075,-0.66388,-3.4488,9.3217,0.16831,-0.056105,-0.43333,0.22442,-3.8208e-07,-0.21666,0,0,0.5,-1.8504e-17,0,0.66667
0.010172,0.97438,0.020345,0.71158,3.7532,9.8117,-0.038611,0.012868,-0.19974,-0.051482,-3.0327e-06,-0.099868,0,0,0.5,-0,-0,0.66667
0.4902,0.23232,0.98039,-0.40152,-1.4598,3.8159,1.0497,-0.34991,-1.4261,1.3996,5.9527e-12,-0.71307,0,0,0.5,-0,-0,0.66667
0.045482,0.75299,0.090964,0.37948,1.855,9.3366,-0.092052,0.030684,-1.4886,-0.12274,-8.537e-10,-0.74431,0,0,0.5,-1.4803e-16,0,0.66667
0.27833,0.47333,0.55666,-0.040001,-0.17355,6.2641,0.059379,-0.019793,-1.9946,0.079171,4.5565e-11,-0.99731,0,0,0.5,-0,-0,0.66667
0.63997,0.40484,1.2799,-0.14274,-0.36923,2.2483,0.4872,-0.1624,-1.9286,0.6496,-6.5733e-11,-0.96428,0,0,0.5,1.4803e-15,0,0.66667
0.29469,0.98686,0.58938,0.73029,3.5346,6.1968,-1.1478,0.3826,-0.10326,-1.5304,-1.0168e-11,-0.051631,0,0,0.5,-2.9606e-16,0,0.66667
0.26965,0.55357,0.53931,0.080356,0.35107,6.3754,-0.11556,0.038521,-1.9768,-0.15409,-8.813e-11,-0.98838,0,0,0.5,-2.9606e-16,0,0.66667
0.59055,0.94633,1.1811,0.66949,2.246,2.9396,-2.1086,0.70287,-0.40608,-2.8115,6.3241e-12,-0.20304,0,0,0.5,-0,-0,0.66667
0.38053,0.73494,0.76107,0.35241,1.4472,5.0452,-0.71522,0.23841,-1.5578,-0.95363,-1.0691e-10,-0.77889,0,0,0.5,-0,-0,0.66667
0.70252,0.079398,1.405,-0.6309,-1.5965,1.9417,2.3639,-0.78795,-0.58436,3.1518,-1.7886e-10,-0.29218,0,0,0.5,-0,5.8819e-16,0.66667
0.49612,0.76159,0.99225,0.39239,1.4114,3.7489,-1.0383,0.34608,-1.4521,-1.3843,-2.4071e-12,-0.72604,0,0,0.5,-0,-0,0.66667
0.63321,0.63443,1.2664,0.20165,0.53513,2.3217,-0.681,0.227,-1.855,-0.908,8.2772e-11,-0.92751,0,0,0.5,-0,-0,0.66667
0.35339,0.3823,0.70679,-0.17655,-0.72671,5.3403,0.33275,-0.11092,-1.889,0.44366,8.2485e-11,-0.9445,0,0,0.5,-0,-0,0.66667
0.28704,0.1526,0.57409,-0.5211,-2.393,6.2227,0.79776,-0.26592,-1.0348,1.0637,4.4981e-10,-0.51742,0,0,0.5,-0,-0,0.66667
0.13321,0.33248,0.26641,-0.25128,-1.1863,8.162,0.17852,-0.059507,-1.7749,0.23803,-1.52e-09,-0.88747,0,0,0.5,-1.4803e-16,0,0.66667
0.93708,0.22866,1.8742,-0.40701,-0.097071,0.3576,2.0341,-0.67804,-1.4108,2.7122,1.5429e-09,-0.70542,0,0,0.5,-0,-0,0.66667
0.80484,0.9553,1.6097,0.68296,1.215,1.2665,-2.9316,0.97719,-0.34094,-3.9088,1.0625e-09,-0.17047,0,0,0.5,1.1842e-15,0,0.66667
0.93803,0.6871,1.8761,0.28065,0.038983,0.28138,-1.4041,0.46802,-1.7212,-1.8721,-2.7109e-08,-0.86059,0,0,0.5,-1.8504e-16,0,0.66667
0.18538,0.96154,0.37076,0.69231,3.5057,7.5434,-0.68448,0.22816,-0.29583,-0.91265,-1.0112e-09,-0.14792,0,0,0.5,-2.9606e-16,4.2036e-16,0.66667
0.93316,0.26448,1.8663,-0.35328,-0.083116,0.33951,1.7582,-0.58606,-1.5556,2.3443,4.5125e-09,-0.77782,0,0,0.5,-0,-0,0.66667
0.93575,0.86991,1.8715,0.55487,0.22153,0.48121,-2.7692,0.92306,-0.90561,-3.6922,-2.2145e-09,-0.4528,0,0,0.5,5.9212e-16,0,0.66667
0.28354,0.31681,0.56709,-0.27478,-1.2089,6.2167,0.41553,-0.13851,-1.7319,0.55404,1.5622e-10,-0.86596,0,0,0.5,-5.9212e-16,0,0.66667
0.27463,0.91549,0.54927,0.62324,2.9607,6.4054,-0.91287,0.30429,-0.61854,-1.2172,-3.3478e-10,-0.30927,0,0,0.5,-0,-0,0.66667
0.55143,0.79023,1.1029,0.43535,1.4474,3.1892,-1.2803,0.42678,-1.3258,-1.7071,3.159e-11,-0.6629,0,0,0.5,-0,-0,0.66667
0.18529,0.0098651,0.37058,-0.7352,-3.7697,7.5547,0.72653,-0.24218,-0.077864,0.96871,2.7908e-10,-0.038932,0,0,0.5,-0,-0,0.66667
0.4421,0.6481,0.8842,0.22215,0.83502,4.3027,-0.5238,0.1746,-1.8243,-0.6984,-3.4477e-11,-0.91215,0,0,0.5,5.9212e-16,0,0.66667
0.18532,0.44149,0.37064,-0.087767,-0.40153,7.4666,0.086746,-0.028915,-1.973,0.11566,4.1811e-10,-0.98652,0,0,0.5,-5.9212e-16,0,0.66667
0.94738,0.48968,1.8948,-0.015483,0.00056961,0.17832,0.078232,-0.026077,-1.9987,0.10431,1.8429e-07,-0.99934,0,0,0.5,-1.2466e-15,0,0.66667
0.49382,0.18125,0.98765,-0.47812,-1.7626,3.8063,1.2592,-0.41975,-1.1872,1.679,2.8496e-12,-0.59358,0,0,0.5,-0,-0,0.66667
0.96392,0.863,1.9278,0.5445,0.055576,0.36998,-2.7992,0.93307,-0.94531,-3.7323,-4.3359e-08,-0.47265,0,0,0.5,-1.1842e-15,0,0.66667
0.64494,0.24706,1.2899,-0.37941,-1.0172,2.2741,1.3051,-0.43502,-1.4887,1.7401,-1.5229e-10,-0.74434,0,0,0.5,1.7764e-15,0,0.66667
0.48432,0.030589,0.96863,-0.70412,-2.8257,4.0235,1.8187,-0.60625,-0.23843,2.425,3.8525e-14,-0.11922,0,0,0.5,-3.7007e-16,4.9064e-17,0.66667
0.9677,0.57131,1.9354,0.10697,-0.024869,0.11238,-0.55206,0.18402,-1.9592,-0.73608,-7.8892e-07,-0.9796,0,0,0.5,-0,-0,0.66667
0.14319,0.12282,0.28638,-0.56577,-2.8134,8.0626,0.43207,-0.14402,-0.8626,0.57609,4.4104e-09,-0.4313,0,0,0.5,-3.3307e-16,0,0.66667
0.63233,0.16212,1.2647,-0.50683,-1.4616,2.4513,1.7092,-0.56974,-1.0867,2.279,-1.1105e-10,-0.54333,0,0,0.5,-0,-0,0.66667
0.66189,0.45049,1.3238,-0.074261,-0.17965,2.0432,0.26215,-0.087382,-1.9798,0.34953,-4.3244e-11,-0.98989,0,0,0.5,-0,-0,0.66667
0.43384,0.045179,0.86768,-0.68223,-2.8851,4.5574,1.5786,-0.52619,-0.34454,2.1047,2.533e-12,-0.17227,0,0,0.5,-5.9212e-16,0,0.66667
0.059357,0.21843,0.11871,-0.42235,-2.0764,9.1533,0.13371,-0.044569,-1.3668,0.17827,-1.4087e-08,-0.68341,0,0,0.5,-9.9457e-17,0,0.66667
0.49272,0.24179,0.98545,-0.38731,-1.3985,3.7837,1.0178,-0.33926,-1.4663,1.3571,4.5511e-12,-0.73317,0,0,0.5,-5.9212e-16,0,0.66667
0.46513,0.3874,0.93027,-0.16891,-0.61241,4.0347,0.41901,-0.13967,-1.8981,0.55868,1.6471e-11,-0.94903,0,0,0.5,-0,-0,0.66667
0.80675,0.077218,1.6135,-0.63417,-1.0755,1.2087,2.7286,-0.90954,-0.56939,3.6382,-2.2146e-09,-0.2847,0,0,0.5,1.1842e-15,0,0.66667
0.25666,0.18852,0.51332,-0.46722,-2.1609,6.5894,0.63956,-0.21319,-1.2247,0.85275,6.53e-10,-0.61233,0,0,0.5,-0,-0,0.66667
0.39143,0.80879,0.78286,0.46318,1.9247,4.948,-0.96695,0.32232,-1.2378,-1.2893,-8.5788e-11,-0.61889,0,0,0.5,-2.9606e-16,0,0.66667
0.24017,0.85135,0.48034,0.52702,2.493,6.8107,-0.67508,0.22503,-1.0122,-0.9001,-1.0088e-09,-0.50611,0,0,0.5,-0,-0,0.66667
0.68644,0.19003,1.3729,-0.46495,-1.1443,1.9594,1.7022,-0.5674,-1.2321,2.2696,-2.9427e-10,-0.61606,0,0,0.5,-0,-0,0.66667
0.98988,0.85641,1.9798,0.53462,-0.096002,0.28124,-2.8224,0.94082,-0.98318,-3.7633,1.203e-07,-0.49159,0,0,0.5,-0,-0,0.66667
0.17743,0.94361,0.35486,0.66541,3.3545,7.6388,-0.62968,0.20989,-0.42567,-0.83957,-2.6312e-09,-0.21283,0,0,0.5,-0,-0,0.66667
0.82145,0.48853,1.6429,-0.017201,-0.019804,0.82594,0.075358,-0.025119,-1.9984,0.10048,-9.7393e-11,-0.9992,0,0,0.5,-0,-0,0.66667
0.23099,0.85755,0.46198,0.53632,2.5549,6.929,-0.66071,0.22024,-0.97674,-0.88095,-1.193e-09,-0.48837,0,0,0.5,-0,-0,0.66667
0.057976,0.97748,0.11595,0.71622,3.7702,9.1889,-0.22146,0.073819,-0.17584,-0.29528,-3.1201e-08,-0.08792,0,0,0.5,-1.4803e-16,0,0.66667
0.13882,0.34127,0.27763,-0.23809,-1.1204,8.0869,0.17627,-0.058757,-1.7992,0.23503,-1.8459e-09,-0.89959,0,0,0.5,1.4803e-16,0,0.66667
0.93515,0.11339,1.8703,-0.57991,-0.25208,0.50716,2.8923,-0.9641,-0.80387,3.8564,6.0386e-09,-0.40194,0,0,0.5,-0,-0,0.66667
0.88854,0.56128,1.7771,0.09192,0.050379,0.45006,-0.4356,0.1452,-1.9709,-0.5808,8.9236e-09,-0.98545,0,0,0.5,4.4409e-16,0,0.66667
0.28926,0.57546,0.57852,0.11319,0.48865,6.1288,-0.17462,0.058208,-1.9538,-0.23283,-8.9342e-11,-0.97691,0,0,0.5,-0,-0,0.66667
0.94776,0.4443,1.8955,-0.083545,0.0027906,0.18248,0.4223,-0.14077,-1.9751,0.56307,1.9229e-08,-0.98754,0,0,0.5,-0,-0,0.66667
0.84993,0.76718,1.6999,0.40077,0.42636,0.77474,-1.8167,0.60555,-1.4283,-2.4222,-9.3405e-10,-0.71414,0,0,0.5,1.7772e-16,0,0.66667
0.43465,0.48949,0.86931,-0.015766,-0.059004,4.3687,0.036549,-0.012183,-1.9988,0.048732,3.2186e-12,-0.99938,0,0,0.5,5.9212e-16,0,0.66667
0.46805,0.087219,0.9361,-0.61917,-2.4638,4.1498,1.5456,-0.51521,-0.63706,2.0608,3.782e-12,-0.31853,0,0,0.5,2.9606e-16,3.9156e-16,0.66667
0.62985,0.41685,1.2597,-0.12472,-0.33055,2.3386,0.41896,-0.13965,-1.9442,0.55861,-5.3222e-11,-0.97212,0,0,0.5,-0,-0,0.66667
0.15803,0.44023,0.31606,-0.089652,-0.41466,7.8262,0.075562,-0.025187,-1.9721,0.10075,7.4798e-10,-0.98605,0,0,0.5,-0,-0,0.66667
0.014782,0.88683,0.029564,0.58024,2.9581,9.7493,-0.045744,0.015248,-0.80259,-0.060992,3.5112e-07,-0.4013,0,0,0.5,-0,-0,0.66667
0.26551,0.85934,0.53102,0.53901,2.5201,6.4952,-0.76328,0.25443,-0.96663,-1.0177,-6.4374e-10,-0.48331,0,0,0.5,5.9212e-16,-7.4078e-16,0.66667
0.015444,0.038171,0.030887,-0.69274,-3.6344,9.7426,0.057057,-0.019017,-0.29387,0.076076,2.294e-06,-0.14693,0,0,0.5,3.7007e-17,0,0.66667
0.6745,0.69593,1.349,0.2939,0.70923,1.9816,-1.0573,0.35242,-1.6927,-1.4097,1.57e-10,-0.84635,0,0,0.5,-0,-0,0.66667
0.55147,0.95866,1.1029,0.68798,2.4897,3.3279,-2.0235,0.67449,-0.31667,-2.698,1.3971e-12,-0.15833,0,0,0.5,-5.9212e-16,0,0.66667
0.32165,0.38164,0.6433,-0.17753,-0.75113,5.7295,0.30455,-0.10152,-1.8878,0.40607,1.0078e-10,-0.94392,0,0,0.5,-0,-0,0.66667
0.7802,0.66475,1.5604,0.24713,0.38721,1.1427,-1.0283,0.34278,-1.7828,-1.3711,-3.1963e-11,-0.89139,0,0,0.5,-0,-0,0.66667
0.14579,0.21052,0.29157,-0.43423,-2.0983,8.0118,0.33762,-0.11254,-1.3293,0.45016,-7.0493e-10,-0.66467,0,0,0.5,-0,-0,0.66667
0.24488,0.48967,0.48976,-0.015494,-0.068642,6.6908,0.020236,-0.0067453,-1.9987,0.026981,2.7183e-11,-0.99935,0,0,0.5,-0,-0,0.66667
0.29231,0.29424,0.58463,-0.30865,-1.3559,6.1118,0.48118,-0.16039,-1.6607,0.64158,1.9377e-10,-0.83036,0,0,0.5,-0,-0,0.66667
0.19593,0.96608,0.39186,0.69912,3.532,7.4112,-0.73056,0.24352,-0.26267,-0.97408,-5.9198e-10,-0.13133,0,0,0.5,2.9606e-16,0,0.66667
0.087939,0.69379,0.17588,0.29068,1.3942,8.7663,-0.13633,0.045444,-1.6995,-0.18178,7.2957e-09,-0.84976,0,0,0.5,-0,-0,0.66667
0.86998,0.84083,1.74,0.51125,0.50332,0.74304,-2.3721,0.79071,-1.0712,-3.1628,4.6176e-12,-0.53558,0,0,0.5,-2.9606e-16,0,0.66667
0.088189,0.71431,0.17638,0.32146,1.5481,8.7644,-0.1512,0.050399,-1.6328,-0.20159,-1.5764e-09,-0.8164,0,0,0.5,7.4015e-17,0,0.66667
0.68371,0.98802,1.3674,0.73203,2.0589,2.1764,-2.6693,0.88977,-0.094212,-3.5591,5.1088e-12,-0.047106,0,0,0.5,-0,-0,0.66667
0.1204,0.8729,0.2408,0.55935,2.7951,8.3587,-0.35918,0.11973,-0.88824,-0.4789,-6.3866e-09,-0.44412,0,0,0.5,-1.4803e-16,0,0.66667
0.010699,0.77678,0.021398,0.41517,2.046,9.8017,-0.02369,0.0078967,-1.3874,-0.031587,2.2441e-08,-0.69369,0,0,0.5,1.5587e-17,0,0.66667
0.55727,0.74736,1.1145,0.37104,1.2009,3.1048,-1.1028,0.36759,-1.511,-1.4704,4.0559e-11,-0.75552,0,0,0.5,-5.9212e-16,0,0.66667
0.90711,0.68399,1.8142,0.27598,0.12157,0.41379,-1.3352,0.44506,-1.7298,-1.7802,-6.7943e-09,-0.8649,0,0,0.5,-2.9606e-16,0,0.66667
0.86046,0.46222,1.7209,-0.056668,-0.045591,0.59587,0.26006,-0.086686,-1.9887,0.34674,-5.4484e-10,-0.99436,0,0,0.5,-0,-0,0.66667
0.33845,0.13298,0.6769,-0.55053,-2.4517,5.6044,0.99374,-0.33125,-0.92215,1.325,1.5365e-10,-0.46108,0,0,0.5,1.1842e-15,0,0.66667
0.027159,0.41957,0.054318,-0.12065,-0.57444,9.5782,0.017475,-0.0058255,-1.9477,0.0233,-5.1171e-07,-0.97384,0,0,0.5,-0,-0,0.66667
0.80086,0.91678,1.6017,0.62517,1.0844,1.2374,-2.6702,0.89008,-0.60996,-3.5603,2.069e-09,-0.30498,0,0,0.5,-2.3685e-15,0,0.66667
0.80598,0.82866,1.612,0.49299,0.75795,1.0994,-2.1192,0.70639,-1.1352,-2.8256,1.4602e-09,-0.56759,0,0,0.5,-0,-0,0.66667
0.86849,0.85845,1.737,0.53768,0.55221,0.77219,-2.4905,0.83016,-0.97143,-3.3207,1.7421e-09,-0.48572,0,0,0.5,-0,-0,0.66667
0.66965,0.98154,1.3393,0.72232,2.0943,2.2825,-2.5797,0.85991,-0.14446,-3.4396,6.112e-12,-0.072232,0,0,0.5,2.3685e-15,5.7269e-16,0.66667
0.80778,0.31826,1.6156,-0.27262,-0.36723,0.96686,1.1745,-0.39149,-1.7358,1.566,2.8541e-10,-0.8679,0,0,0.5,-0,-0,0.66667
0.8975,0.81972,1.795,0.47957,0.3321,0.58214,-2.2956,0.76519,-1.1821,-3.0607,-5.8277e-09,-0.59104,0,0,0.5,-0,-0,0.66667
0.45383,0.59213,0.90766,0.1382,0.50737,4.1578,-0.3345,0.1115,-1.9331,-0.44599,-1.8868e-11,-0.96653,0,0,0.5,8.1416e-16,0,0.66667
0.55783,0.037263,1.1157,-0.6941,-2.4919,3.2699,2.065,-0.68834,-0.28702,2.7533,-1.2521e-12,-0.14351,0,0,0.5,-0,-3.8616e-16,0.66667
0.50613,0.7783,1.0123,0.41745,1.488,3.6511,-1.1269,0.37562,-1.3808,-1.5025,3.6094e-12,-0.69042,0,0,0.5,1.4803e-16,0,0.66667
0.69198,0.25839,1.384,-0.36242,-0.8453,1.8616,1.3375,-0.44584,-1.5327,1.7834,-2.3547e-10,-0.76637,0,0,0.5,-0,-0,0.66667
0.68291,0.80952,1.3658,0.46427,1.1543,1.9884,-1.691,0.56366,-1.2341,-2.2546,2.7825e-10,-0.61705,0,0,0.5,-2.9606e-16,0,0.66667
0.52031,0.51394,1.0406,0.020906,0.069127,3.4213,-0.058015,0.019338,-1.9978,-0.077353,1.241e-12,-0.99892,0,0,0.5,-0,-0,0.66667
0.82847,0.8045,1.6569,0.45675,0.59642,0.93554,-2.0182,0.67272,-1.2583,-2.6909,5.4233e-10,-0.62913,0,0,0.5,-1.1842e-15,0,0.66667
0.50578,0.61833,1.0116,0.1775,0.60674,3.5906,-0.47879,0.1596,-1.8879,-0.63839,2.7795e-12,-0.94394,0,0,0.5,-8.8818e-16,0,0.66667
0.82486,0.461,1.6497,-0.058505,-0.065802,0.80684,0.25738,-0.085793,-1.9877,0.34317,-6.2679e-10,-0.99385,0,0,0.5,-5.9212e-16,0,0.66667
0.28185,0.84183,0.56369,0.51274,2.3581,6.285,-0.77074,0.25691,-1.0661,-1.0277,-4.9942e-10,-0.53307,0,0,0.5,-7.4015e-17,0,0.66667
0.17849,0.86814,0.35699,0.55221,2.7038,7.6034,-0.52569,0.17523,-0.91566,-0.70092,-3.0471e-09,-0.45783,0,0,0.5,-4.234e-17,0,0.66667
0.96987,0.034845,1.9397,-0.69773,-0.16611,0.51465,3.6091,-1.203,-0.26962,4.8122,3.3145e-06,-0.13481,0,0,0.5,-2.3685e-15,0,0.66667
0.74194,0.28037,1.4839,-0.32945,-0.63475,1.452,1.3036,-0.43455,-1.6149,1.7382,-2.0375e-10,-0.80747,0,0,0.5,-2.4114e-16,0,0.66667
0.25979,0.94876,0.51958,0.67314,3.2714,6.6042,-0.93267,0.31089,-0.38839,-1.2436,-2.2055e-10,-0.19419,0,0,0.5,-0,-0,0.66667
0.58124,0.77911,1.1625,0.41866,1.3104,2.8865,-1.2978,0.43261,-1.3775,-1.7304,5.967e-11,-0.68875,0,0,0.5,-1.1842e-15,0,0.66667
0.95526,0.45898,1.9105,-0.06153,0.0069497,0.151,0.31348,-0.10449,-1.9863,0.41797,3.5609e-07,-0.99314,0,0,0.5,-0,-0,0.66667
0.080754,0.12323,0.16151,-0.56515,-2.852,8.8791,0.2434,-0.081134,-0.86519,0.32454,-2.9539e-08,-0.4326,0,0,0.5,-2.0354e-16,0,0.66667
0.083534,0.64099,0.16707,0.21149,1.0065,8.8221,-0.094223,0.031408,-1.8403,-0.12563,8.9039e-09,-0.92016,0,0,0.5,1.4803e-16,0,0.66667
0.61913,0.73643,1.2383,0.35464,1.0058,2.4992,-1.171,0.39035,-1.5522,-1.5614,1.0666e-10,-0.77609,0,0,0.5,-0,-0,0.66667
0.22449,0.55256,0.44899,0.078845,0.35383,6.9552,-0.094401,0.031467,-1.9775,-0.12587,-1.8533e-10,-0.98873,0,0,0.5,2.9606e-16,0,0.66667
0.76518,0.56241,1.5304,0.093611,0.15318,1.2134,-0.38203,0.12734,-1.9701,-0.50937,1.7835e-10,-0.98507,0,0,0.5,1.249e-15,0,0.66667
0.56815,0.94366,1.1363,0.66549,2.321,3.1501,-2.0165,0.67218,-0.42531,-2.6887,3.9608e-12,-0.21265,0,0,0.5,-0,-0,0.66667
0.66619,0.25035,1.3324,-0.37448,-0.94685,2.0852,1.3305,-0.44351,-1.5024,1.774,-1.9271e-10,-0.75119,0,0,0.5,-2.3685e-15,0,0.66667
0.10781,0.23544,0.21563,-0.39683,-1.9252,8.5085,0.22818,-0.076061,-1.4396,0.30424,-2.2157e-09,-0.71981,0,0,0.5,-0,-0,0.66667
0.084283,0.89781,0.16857,0.59672,3.0322,8.8354,-0.26823,0.089411,-0.73365,-0.35764,2.1883e-08,-0.36683,0,0,0.5,-7.4015e-17,0,0.66667
0.62512,0.98917,1.2502,0.73376,2.3658,2.673,-2.4463,0.81544,-0.085495,-3.2618,8.3489e-13,-0.042747,0,0,0.5,-0,-0,0.66667
0.40973,0.45098,0.81946,-0.073524,-0.28382,4.6596,0.16067,-0.053556,-1.9802,0.21422,2.1302e-11,-0.99012,0,0,0.5,-5.9212e-16,0,0.66667
0.087253,0.96616,0.17451,0.69923,3.6475,8.8068,-0.32539,0.10846,-0.2621,-0.43385,1.2868e-08,-0.13105,0,0,0.5,2.1087e-16,0,0.66667
0.37106,0.93628,0.74213,0.65442,2.9186,5.258,-1.2951,0.4317,-0.47814,-1.7268,-2.0124e-11,-0.23907,0,0,0.5,-7.7716e-16,5.4673e-16,0.66667
0.67214,0.63611,1.3443,0.20417,0.48668,1.9751,-0.73189,0.24396,-1.8516,-0.97585,1.0929e-10,-0.92578,0,0,0.5,-0,-0,0.66667
0.18959,0.13587,0.37917,-0.54619,-2.6587,7.4595,0.55227,-0.18409,-0.93895,0.73636,2.4467e-09,-0.46948,0,0,0.5,-2.9606e-16,0,0.66667
0.89573,0.64069,1.7915,0.21103,0.10912,0.44283,-1.0081,0.33605,-1.841,-1.3442,5.5945e-10,-0.92051,0,0,0.5,1.1842e-15,0,0.66667
0.94985,0.518,1.8997,0.026995,-0.0016453,0.1691,-0.13675,0.045585,-1.9969,-0.18234,1.5481e-08,-0.99844,0,0,0.5,-0,-0,0.66667
0.96157,0.58244,1.9231,0.12366,-0.020458,0.1375,-0.6342,0.2114,-1.9451,-0.84559,2.7318e-09,-0.97254,0,0,0.5,-0,-0,0.66667
0.73008,0.1254,1.4602,-0.5619,-1.2557,1.6769,2.1879,-0.72931,-0.87839,2.9172,-5.7961e-10,-0.4392,0,0,0.5,-0,-0,0.66667
0.40629,0.42644,0.81258,-0.11034,-0.42837,4.7024,0.23909,-0.079698,-1.9565,0.31879,3.2689e-11,-0.97825,0,0,0.5,5.9212e-16,0,0.66667
0.74375,0.13895,1.4875,-0.54158,-1.1395,1.5605,2.1483,-0.71609,-0.95647,2.8644,-7.5966e-10,-0.47824,0,0,0.5,-1.1842e-15,0,0.66667
0.28799,0.83096,0.57597,0.49643,2.2654,6.2046,-0.76249,0.25416,-1.1231,-1.0166,-4.3881e-10,-0.56157,0,0,0.5,-0,-0,0.66667
0.31442,0.091493,0.62883,-0.61276,-2.8261,5.9153,1.0275,-0.34251,-0.66573,1.37,1.5195e-10,-0.33287,0,0,0.5,-1.4803e-16,0,0.66667
0.6059,0.17256,1.2118,-0.49116,-1.4942,2.6856,1.5872,-0.52905,-1.1417,2.1162,-7.3987e-11,-0.57085,0,0,0.5,1.1842e-15,0,0.66667
0.59485,0.28744,1.1897,-0.31884,-0.94641,2.7161,1.0115,-0.33718,-1.6387,1.3487,-7.4738e-11,-0.81937,0,0,0.5,-0,-0,0.66667
0.87866,0.75332,1.7573,0.37999,0.29721,0.60726,-1.7807,0.59356,-1.4871,-2.3743,-1.8064e-09,-0.74354,0,0,0.5,2.3685e-15,0,0.66667
0.2546,0.31942,0.5092,-0.27088,-1.2136,6.5826,0.36781,-0.1226,-1.739,0.49042,1.1317e-10,-0.86951,0,0,0.5,-0,-0,0.66667
0.76619,0.078077,1.5324,-0.63289,-1.2876,1.4729,2.5862,-0.86206,-0.57545,3.4482,-8.0219e-10,-0.28772,0,0,0.5,-1.1842e-15,0,0.66667
0.94101,0.51154,1.882,0.017305,0.00047458,0.20376,-0.086849,0.028949,-1.9985,-0.1158,-5.0302e-07,-0.99924,0,0,0.5,-4.737e-15,0,0.66667
0.0010329,0.5002,0.0020659,0.00029469,0.0013994,9.9305,-1.7325e-06,0.00013036,-2.0011,6.2581e-05,0.00019467,-1.0006,0,0,0.5,-0,-0,0.66667
0.47609,0.0022496,0.95218,-0.74663,-3.0755,4.1368,1.8958,-0.63193,-0.018532,2.5277,-1.4333e-13,-0.009266,0,0,0.5,-2.3685e-15,0,0.66667
0.65704,0.39292,1.3141,-0.16062,-0.39743,2.098,0.56286,-0.18762,-1.9079,0.75048,-8.2118e-11,-0.95394,0,0,0.5,-0,-0,0.66667
0.84332,0.68375,1.6866,0.27563,0.28549,0.74903,-1.2397,0.41324,-1.7305,-1.6529,-8.9775e-10,-0.86524,0,0,0.5,1.4803e-15,0,0.66667
0.18374,0.3694,0.36748,-0.19589,-0.90301,7.4923,0.19196,-0.063988,-1.8637,0.25595,-1.9145e-10,-0.93184,0,0,0.5,2.9606e-16,0,0.66667
0.85616,0.21676,1.7123,-0.42486,-0.43668,0.75503,1.94,-0.64667,-1.3589,2.5867,9.6605e-10,-0.67947,0,0,0.5,2.9606e-16,0,0.66667
0.36437,0.2435,0.72873,-0.38475,-1.6142,5.2455,0.74769,-0.24923,-1.4736,0.99692,1.3593e-10,-0.7368,0,0,0.5,-2.9606e-16,0,0.66667
0.89227,0.051908,1.7845,-0.67214,-0.65355,0.78287,3.1986,-1.0662,-0.39341,4.2648,-1.5014e-08,-0.19671,0,0,0.5,-1.1842e-15,0,0.66667
0.027712,0.30475,0.055423,-0.29288,-1.416,9.5725,0.043286,-0.014429,-1.6949,0.057715,-4.9324e-08,-0.84743,0,0,0.5,-0,-0,0.66667
0.08539,0.79016,0.17078,0.43524,2.136,8.8083,-0.19821,0.066072,-1.3261,-0.26429,3.1146e-09,-0.66305,0,0,0.5,-0,-0,0.66667
0.98141,0.81811,1.9628,0.47717,-0.071944,0.25496,-2.4976,0.83253,-1.1906,-3.3301,1.2397e-08,-0.59529,0,0,0.5,2.3685e-15,0,0.66667
0.6095,0.99872,1.219,0.74808,2.5054,2.8244,-2.4318,0.81059,-0.011313,-3.2423,-8.3644e-13,-0.0056567,0,0,0.5,1.8504e-15,0,0.66667
0.41763,0.48497,0.83526,-0.022552,-0.086156,4.5656,0.050232,-0.016744,-1.9976,0.066976,5.9674e-12,-0.99879,0,0,0.5,-0,-0,0.66667
0.16921,0.92122,0.33843,0.63183,3.1663,7.7373,-0.57021,0.19007,-0.58005,-0.76028,-4.2421e-09,-0.29003,0,0,0.5,-0,-0,0.66667
0.6499,0.91786,1.2998,0.62678,1.8207,2.3737,-2.1725,0.72417,-0.60262,-2.8967,5.8012e-11,-0.30131,0,0,0.5,-0,-0,0.66667
0.036975,0.71269,0.07395,0.31903,1.5467,9.4488,-0.062913,0.020971,-1.6381,-0.083883,-1.4058e-09,-0.81905,0,0,0.5,-1.8504e-17,0,0.66667
0.31161,0.23791,0.62323,-0.39314,-1.7268,5.8881,0.65337,-0.21779,-1.4501,0.87116,2.5577e-10,-0.72507,0,0,0.5,2.9606e-16,0,0.66667
0.32348,0.62892,0.64696,0.19338,0.81815,5.7086,-0.33363,0.11121,-1.8674,-0.44484,-1.0699e-10,-0.93368,0,0,0.5,-0,-0,0.66667
0.60744,0.66326,1.2149,0.2449,0.69655,2.5733,-0.79339,0.26446,-1.7868,-1.0578,7.4796e-11,-0.89339,0,0,0.5,-0,-0,0.66667
0.65083,0.04386,1.3017,-0.68421,-2.0365,2.4092,2.375,-0.79165,-0.33491,3.1666,-1.8149e-11,-0.16745,0,0,0.5,-0,-0,0.66667
0.84605,0.47027,1.6921,-0.044588,-0.041666,0.67749,0.20119,-0.067065,-1.9938,0.26826,-2.4373e-09,-0.9969,0,0,0.5,-0,-0,0.66667
0.92758,0.47058,1.8552,-0.044137,-0.0072052,0.26138,0.21835,-0.072783,-1.9938,0.29113,9.846e-08,-0.99688,0,0,0.5,-0,-0,0.66667
0.66046,0.88105,1.3209,0.57157,1.5789,2.2444,-2.0133,0.67111,-0.83845,-2.6844,1.3155e-10,-0.41922,0,0,0.5,-0,-0,0.66667
0.57817,0.20679,1.1563,-0.43982,-1.3932,2.9257,1.3562,-0.45207,-1.3119,1.8083,-5.3643e-11,-0.65597,0,0,0.5,-0,-0,0.66667
0.39872,0.31854,0.79743,-0.27219,-1.083,4.8134,0.57881,-0.19294,-1.7365,0.77174,7.4737e-11,-0.86827,0,0,0.5,-0,-0,0.66667
0.96661,0.9752,1.9332,0.7128,0.20939,0.54291,-3.6747,1.2249,-0.19356,-4.8996,-1.1909e-06,-0.096778,0,0,0.5,-0,-0,0.66667
0.15408,0.1192,0.30816,-0.5712,-2.8341,7.9221,0.46939,-0.15646,-0.84011,0.62585,5.1281e-09,-0.42005,0,0,0.5,7.4015e-17,-7.507e-16,0.66667
0.89509,0.2356,1.7902,-0.39661,-0.25389,0.5357,1.8933,-0.63111,-1.4401,2.5244,1.6518e-09,-0.72006,0,0,0.5,1.1842e-15,0,0.66667
0.31101,0.59706,0.62203,0.1456,0.61967,5.8586,-0.24151,0.080502,-1.9252,-0.32201,-9.2844e-11,-0.96261,0,0,0.5,-0,-0,0.66667
0.54849,0.67908,1.097,0.26862,0.86507,3.1617,-0.7858,0.26193,-1.7433,-1.0477,3.1787e-11,-0.87166,0,0,0.5,-5.9212e-16,0,0.66667
0.68207,0.7577,1.3641,0.38655,0.93692,1.9553,-1.4061,0.46871,-1.4685,-1.8749,2.3448e-10,-0.73426,0,0,0.5,-2.3685e-15,0,0.66667
0.23647,0.16106,0.47294,-0.5084,-2.3996,6.8534,0.64118,-0.21373,-1.0813,0.85491,1.0273e-09,-0.54065,0,0,0.5,-0,-0,0.66667
0.16774,0.67084,0.33547,0.25626,1.1962,7.7066,-0.22925,0.076417,-1.7659,-0.30567,5.7936e-10,-0.88295,0,0,0.5,-2.9606e-16,0,0.66667
0.50848,0.47845,1.017,-0.032325,-0.10901,3.5479,0.087662,-0.029221,-1.9959,0.11688,-8.6902e-13,-0.99793,0,0,0.5,-0,-0,0.66667
0.79186,0.48576,1.5837,-0.021359,-0.030034,1.0201,0.090206,-0.030069,-1.9978,0.12027,-9.8055e-11,-0.99888,0,0,0.5,-1.1842e-15,0,0.66667
0.69241,0.62988,1.3848,0.19482,0.43491,1.8005,-0.71945,0.23982,-1.8652,-0.95927,1.1418e-10,-0.93261,0,0,0.5,-0,-0,0.66667
0.11897,0.57724,0.23795,0.11586,0.54322,8.3457,-0.073519,0.024506,-1.9516,-0.098025,8.1406e-10,-0.97581,0,0,0.5,-0,-0,0.66667
0.90074,0.34296,1.8015,-0.23556,-0.11316,0.42727,1.1316,-0.3772,-1.8036,1.5088,3.0182e-09,-0.9018,0,0,0.5,1.3323e-15,0,0.66667
0.47974,0.87081,0.95948,0.55622,2.1378,3.9925,-1.4231,0.47438,-0.90028,-1.8975,-5.3776e-12,-0.45014,0,0,0.5,1.1722e-15,0,0.66667
0.94668,0.024201,1.8934,-0.7137,-0.35579,0.6095,3.6034,-1.2011,-0.18877,4.8046,-4.6912e-08,-0.094383,0,0,0.5,1.1842e-15,0,0.66667
0.55343,0.97461,1.1069,0.71192,2.5929,3.3251,-2.1013,0.70045,-0.19793,-2.8018,3.5283e-13,-0.098964,0,0,0.5,-0,-0,0.66667
0.084802,0.096035,0.1696,-0.60595,-3.0857,8.8295,0.27406,-0.091352,-0.69507,0.36541,-2.4679e-08,-0.34754,0,0,0.5,-2.9606e-16,0,0.66667
0.20246,0.23104,0.40493,-0.40343,-1.8962,7.27,0.43563,-0.14521,-1.421,0.58084,3.2549e-10,-0.71049,0,0,0.5,2.9606e-16,0,0.66667
0.85424,0.84177,1.7085,0.51266,0.57966,0.82817,-2.3356,0.77855,-1.0662,-3.1142,1.1779e-09,-0.5331,0,0,0.5,-1.4803e-16,0,0.66667
0.70593,0.004859,1.4119,-0.74271,-1.9788,2.0114,2.7963,-0.93209,-0.03895,3.7284,1.9473e-12,-0.019475,0,0,0.5,-0,-0,0.66667
0.89494,0.46809,1.7899,-0.047868,-0.023015,0.4131,0.22847,-0.076158,-1.9928,0.30463,1.5803e-08,-0.9964,0,0,0.5,5.181e-16,0,0.66667
0.32915,0.75698,0.65829,0.38547,1.6677,5.6712,-0.67668,0.22556,-1.4718,-0.90224,-2.0763e-10,-0.73588,0,0,0.5,-0,-0,0.66667
0.528,0.79567,1.056,0.44351,1.5377,3.4321,-1.2489,0.41631,-1.3001,-1.6652,1.5614e-11,-0.65003,0,0,0.5,-0,-0,0.66667
0.6504,0.75362,1.3008,0.38043,1.0059,2.226,-1.3196,0.43988,-1.4858,-1.7595,1.6271e-10,-0.74288,0,0,0.5,-0,-0,0.66667
0.59429,0.13512,1.1886,-0.54731,-1.7388,2.826,1.7347,-0.57825,-0.93474,2.313,-4.2825e-11,-0.46737,0,0,0.5,-0,-0,0.66667
0.23146,0.73631,0.46293,0.35447,1.6286,6.8896,-0.43758,0.14586,-1.5527,-0.58344,-2.1405e-10,-0.77636,0,0,0.5,2.9606e-16,0,0.66667
0.42682,0.53126,0.85364,0.046883,0.17725,4.4597,-0.10672,0.035575,-1.9933,-0.1423,-1.1018e-11,-0.99663,0,0,0.5,1.1842e-15,0,0.66667
0.24811,0.18445,0.49622,-0.47333,-2.2029,6.6987,0.62634,-0.20878,-1.204,0.83512,7.4411e-10,-0.60201,0,0,0.5,4.4353e-16,0,0.66667
0.84561,0.17353,1.6912,-0.4897,-0.5803,0.85883,2.2085,-0.73618,-1.1469,2.9447,-9.4281e-10,-0.57344,0,0,0.5,1.1842e-15,0,0.66667
0.98668,0.11002,1.9734,-0.58498,0.05107,0.33975,3.0783,-1.0261,-0.78279,4.1044,2.211e-07,-0.39139,0,0,0.5,-0,-0,0.66667
0.066571,0.30555,0.13314,-0.29168,-1.4043,9.0518,0.10356,-0.03452,-1.6974,0.13808,4.8802e-09,-0.84872,0,0,0.5,-3.7007e-17,0,0.66667
0.71393,0.62743,1.4279,0.19115,0.39559,1.6234,-0.72784,0.24261,-1.8707,-0.97045,1.1626e-10,-0.93533,0,0,0.5,2.3685e-15,0,0.66667
0.33012,0.37162,0.66023,-0.19257,-0.8102,5.6267,0.33905,-0.11302,-1.8687,0.45206,1.0303e-10,-0.93435,0,0,0.5,-0,-0,0.66667
0.62544,0.072902,1.2509,-0.64065,-1.9792,2.5991,2.137,-0.71233,-0.5405,2.8493,-2.654e-11,-0.27025,0,0,0.5,-1.1842e-15,0,0.66667
0.25813,0.57542,0.51626,0.11313,0.49868,6.5238,-0.15575,0.051916,-1.9539,-0.20767,-1.1746e-10,-0.97693,0,0,0.5,-0,-0,0.66667
0.65101,0.80118,1.302,0.45176,1.2204,2.2549,-1.5685,0.52285,-1.2738,-2.0914,1.7046e-10,-0.63691,0,0,0.5,-0,-0,0.66667
0.37115,0.73905,0.74229,0.35858,1.4876,5.1582,-0.70979,0.2366,-1.5424,-0.94639,-1.2123e-10,-0.77119,0,0,0.5,-0,-0,0.66667
0.29482,0.13208,0.58964,-0.55189,-2.5399,6.1353,0.86777,-0.28926,-0.91707,1.157,3.5808e-10,-0.45853,0,0,0.5,-0,-3.5431e-16,0.66667
0.91176,0.66366,1.8235,0.24549,0.092996,0.37945,-1.1938,0.39792,-1.7855,-1.5917,1.0913e-08,-0.89277,0,0,0.5,-0,-0,0.66667
0.9425,0.05954,1.885,-0.66069,-0.30726,0.56321,3.3211,-1.107,-0.44845,4.4281,-2.7009e-07,-0.22422,0,0,0.5,1.7593e-15,0,0.66667
0.61355,0.56185,1.2271,0.092771,0.25523,2.4874,-0.30357,0.10119,-1.9704,-0.40476,3.4933e-11,-0.98518,0,0,0.5,-2.2204e-16,0,0.66667
0.21447,0.81936,0.42894,0.47905,2.2719,7.128,-0.54795,0.18265,-1.184,-0.73059,-1.0923e-09,-0.59199,0,0,0.5,-0,-0,0.66667
0.93942,0.099735,1.8788,-0.6004,-0.25044,0.51101,3.0081,-1.0027,-0.71846,4.0108,1.8756e-07,-0.35923,0,0,0.5,-2.3685e-15,0,0.66667
0.75045,0.25306,1.5009,-0.3704,-0.69957,1.4076,1.4825,-0.49417,-1.5129,1.9767,-3.0892e-10,-0.75645,0,0,0.5,-2.3685e-15,0,0.66667
0.75109,0.39933,1.5022,-0.151,-0.2665,1.3265,0.60489,-0.20163,-1.919,0.80652,-1.2483e-10,-0.95951,0,0,0.5,5.9212e-16,0,0.66667
0.21172,0.16181,0.42344,-0.50729,-2.4237,7.1684,0.57282,-0.19094,-1.085,0.76376,1.418e-09,-0.54252,0,0,0.5,-5.9212e-16,0,0.66667
0.83016,0.75935,1.6603,0.38903,0.47905,0.88318,-1.7224,0.57414,-1.4617,-2.2966,-3.2191e-10,-0.73084,0,0,0.5,-0,-0,0.66667
0.2401,0.054716,0.48019,-0.66793,-3.2763,6.8476,0.85528,-0.28509,-0.41355,1.1404,4.1261e-10,-0.20678,0,0,0.5,2.9019e-16,0,0.66667
0.63162,0.51658,1.2632,0.024872,0.065237,2.3138,-0.083783,0.027928,-1.9971,-0.11171,1.1426e-11,-0.99857,0,0,0.5,-0,-0,0.66667
0.71074,0.039451,1.4215,-0.69082,-1.7621,1.9275,2.6186,-0.87288,-0.30287,3.4915,-6.1199e-11,-0.15143,0,0,0.5,-0,-0,0.66667
0.74238,0.0051089,1.4848,-0.74234,-1.7683,1.7407,2.9392,-0.97973,-0.040758,3.9189,3.7974e-12,-0.020379,0,0,0.5,-0,-0,0.66667
0.39026,0.51603,0.78053,0.024048,0.09471,4.8874,-0.050054,0.016685,-1.9976,-0.066739,-8.9585e-12,-0.99878,0,0,0.5,1.1842e-15,0,0.66667
0.75983,0.1383,1.5197,-0.54255,-1.0722,1.4453,2.1986,-0.73288,-0.95276,2.9315,-1.0228e-09,-0.47638,0,0,0.5,-1.1842e-15,0,0.66667
0.90294,0.30782,1.8059,-0.28827,-0.14066,0.43895,1.3882,-0.46274,-1.7048,1.8509,5.8324e-10,-0.8524,0,0,0.5,-0,-0,0.66667
0.58742,0.1235,1.1748,-0.56475,-1.83,2.9015,1.7693,-0.58977,-0.86673,2.3591,-3.1921e-11,-0.43336,0,0,0.5,1.4063e-15,0,0.66667
0.09041,0.72567,0.18082,0.3385,1.6333,8.7357,-0.16322,0.054407,-1.5926,-0.21763,-1.8564e-09,-0.79628,0,0,0.5,-0,-0,0.66667
0.12898,0.73047,0.25795,0.3457,1.6542,8.2246,-0.2378,0.079266,-1.5746,-0.31706,1.4832e-09,-0.7873,0,0,0.5,-0,-0,0.66667
0.10526,0.92111,0.21053,0.63166,3.2244,8.5649,-0.35461,0.1182,-0.58075,-0.47282,-1.7094e-08,-0.29037,0,0,0.5,-1.4803e-16,0,0.66667
0.17273,0.0034784,0.34545,-0.74478,-3.8476,7.7161,0.6861,-0.2287,-0.028343,0.9148,-4.3427e-10,-0.014172,0,0,0.5,-0,-0,0.66667
0.12643,0.37235,0.25286,-0.19148,-0.90049,8.2489,0.12912,-0.043039,-1.8704,0.17215,-2.6336e-09,-0.93518,0,0,0.5,-1.8504e-16,0,0.66667
0.7783,0.32348,1.5566,-0.26478,-0.42154,1.1622,1.0991,-0.36636,-1.7503,1.4654,2.7223e-11,-0.87517,0,0,0.5,-0,-0,0.66667
0.039412,0.10507,0.078823,-0.59239,-3.0246,9.4249,0.12452,-0.041506,-0.7517,0.16602,3.8725e-08,-0.37585,0,0,0.5,-7.4015e-17,0,0.66667
0.24156,0.083162,0.48312,-0.62526,-3.0289,6.8175,0.80553,-0.26851,-0.60947,1.074,7.1969e-10,-0.30473,0,0,0.5,-2.9606e-16,0,0.66667
0.87907,0.67981,1.7581,0.26972,0.18991,0.5492,-1.2645,0.42151,-1.7412,-1.6861,-1.6784e-09,-0.87059,0,0,0.5,-5.9212e-16,0,0.66667
0.97352,0.082767,1.947,-0.62585,-0.063575,0.42139,3.2495,-1.0832,-0.60685,4.3326,-1.4431e-07,-0.30343,0,0,0.5,1.1842e-15,0,0.66667
0.60542,0.22161,1.2108,-0.41759,-1.2427,2.6541,1.3484,-0.44945,-1.3805,1.7978,-8.8721e-11,-0.69026,0,0,0.5,-0,-0,0.66667
0.97624,0.70405,1.9525,0.30608,-0.072152,0.15459,-1.5936,0.53121,-1.6662,-2.1249,-3.1439e-08,-0.83311,0,0,0.5,-1.1561e-15,0,0.66667
0.043452,0.4648,0.086903,-0.052801,-0.25042,9.3582,0.012236,-0.0040793,-1.9905,0.016314,-8.4611e-07,-0.99523,0,0,0.5,9.2519e-17,0,0.66667
0.94857,0.022026,1.8971,-0.71696,-0.34714,0.60686,3.6271,-1.209,-0.17199,4.8362,-1.2999e-07,-0.085995,0,0,0.5,-0,7.8691e-16,0.66667
0.3113,0.94095,0.62259,0.66142,3.1,5.9703,-1.0981,0.36604,-0.44511,-1.4642,-7.3788e-11,-0.22255,0,0,0.5,-0,2.3253e-16,0.66667
0.79897,0.10573,1.5979,-0.5914,-1.0102,1.2201,2.5201,-0.84003,-0.75601,3.3601,-2.221e-09,-0.378,0,0,0.5,-1.1842e-15,0,0.66667
0.81063,0.70618,1.6213,0.30926,0.41582,0.96384,-1.3371,0.44568,-1.6595,-1.7827,-2.8308e-10,-0.82976,0,0,0.5,-0,-0,0.66667
0.86,0.018908,1.72,-0.72164,-0.97098,0.99408,3.3099,-1.1033,-0.14808,4.4132,-2.119e-09,-0.074039,0,0,0.5,-0,-0,0.66667
0.45855,0.92955,0.9171,0.64433,2.6154,4.266,-1.5758,0.52526,-0.52365,-2.101,-3.247e-12,-0.26183,0,0,0.5,2.9606e-16,0,0.66667
0.93064,0.47833,1.8613,-0.032503,-0.0042916,0.2475,0.16133,-0.053776,-1.9958,0.2151,-7.5615e-08,-0.99791,0,0,0.5,-0,-0,0.66667
0.25789,0.0080365,0.51579,-0.73795,-3.6602,6.6487,1.015,-0.33833,-0.0635,1.3533,9.4145e-12,-0.03175,0,0,0.5,-0,-0,0.66667
0.93445,0.98795,1.8689,0.73192,0.47469,0.67554,-3.6477,1.2159,-0.094785,-4.8636,2.7186e-08,-0.047392,0,0,0.5,-1.1842e-15,0,0.66667
0.61912,0.65454,1.2382,0.2318,0.6401,2.4597,-0.76541,0.25514,-1.8096,-1.0205,8.143e-11,-0.90482,0,0,0.5,-1.3323e-15,0,0.66667
0.98544,0.82198,1.9709,0.48298,-0.090467,0.24782,-2.5384,0.84613,-1.1704,-3.3845,-3.7835e-08,-0.58522,0,0,0.5,-0,-0,0.66667
0.032644,0.10689,0.065288,-0.58967,-3.0102,9.514,0.10266,-0.034221,-0.76328,0.13688,-1.9287e-07,-0.38164,0,0,0.5,7.4015e-17,0,0.66667
0.72517,0.34428,1.4503,-0.23358,-0.46763,1.5457,0.9034,-0.30113,-1.8069,1.2045,-1.2272e-10,-0.90347,0,0,0.5,-0,-0,0.66667
0.56555,0.20203,1.1311,-0.44696,-1.4532,3.0531,1.3482,-0.44939,-1.2891,1.7976,-4.124e-11,-0.64457,0,0,0.5,1.1842e-15,0,0.66667
0.49242,0.65104,0.98485,0.22656,0.79525,3.7437,-0.59502,0.19834,-1.8176,-0.79336,-4.4326e-12,-0.90879,0,0,0.5,-0,-0,0.66667
0.25922,0.49867,0.51844,-0.0020014,-0.0087874,6.5069,0.0027669,-0.00092231,-2.0007,0.0036892,6.3855e-12,-1.0004,0,0,0.5,-1.4803e-16,0,0.66667
0.32683,0.52068,0.65366,0.031027,0.12974,5.6566,-0.054083,0.018028,-1.9963,-0.07211,-2.0808e-11,-0.99815,0,0,0.5,-0,-0,0.66667
0.24946,0.52909,0.49892,0.04363,0.19285,6.6323,-0.058048,0.019349,-1.9941,-0.077397,-8.3007e-11,-0.99705,0,0,0.5,4.4409e-16,0,0.66667
0.21927,0.23406,0.43854,-0.39891,-1.8583,7.0528,0.46649,-0.1555,-1.4338,0.62199,3.9537e-10,-0.71691,0,0,0.5,-0,-0,0.66667
0.79966,0.25893,1.5993,-0.3616,-0.53342,1.0601,1.5422,-0.51406,-1.5349,2.0562,-1.0742e-11,-0.76743,0,0,0.5,-0,-0,0.66667
0.5024,0.67891,1.0048,0.26836,0.93351,3.6451,-0.71905,0.23968,-1.7438,-0.95874,1.4947e-12,-0.87188,0,0,0.5,5.9212e-16,0,0.66667
0.08319,0.23104,0.16638,-0.40344,-1.9696,8.8355,0.179,-0.059666,-1.4207,0.23866,-5.2474e-09,-0.71036,0,0,0.5,-0,-0,0.66667
0.77698,0.10713,1.554,-0.5893,-1.114,1.3628,2.442,-0.814,-0.76468,3.256,-1.3723e-09,-0.38234,0,0,0.5,-0,-0,0.66667
0.53365,0.54138,1.0673,0.062073,0.20081,3.2824,-0.17667,0.058889,-1.986,-0.23556,6.3322e-12,-0.99299,0,0,0.5,-0,-0,0.66667
0.73939,0.45409,1.4788,-0.068865,-0.12666,1.403,0.27156,-0.090521,-1.9825,0.36208,-8.7536e-11,-0.99125,0,0,0.5,-0,-0,0.66667
0.51539,0.29858,1.0308,-0.30214,-1.0357,3.5152,0.8305,-0.27683,-1.6751,1.1073,-1.0102e-11,-0.83754,0,0,0.5,-0,-0,0.66667
0.39995,0.87552,0.79989,0.56327,2.3804,4.8854,-1.2015,0.4005,-0.87284,-1.602,-4.1757e-11,-0.43642,0,0,0.5,1.1842e-15,0,0.66667
0.98625,0.67703,1.9725,0.26555,-0.096792,0.10279,-1.3968,0.46559,-1.749,-1.8624,5.5563e-08,-0.87449,0,0,0.5,-0,-0,0.66667
0.028243,0.26881,0.056485,-0.34679,-1.689,9.5663,0.052236,-0.017412,-1.5719,0.069648,5.3089e-09,-0.78596,0,0,0.5,3.7007e-17,0,0.66667
0.93276,0.78051,1.8655,0.42076,0.12343,0.38443,-2.0932,0.69773,-1.3714,-2.7909,-2.2634e-10,-0.68572,0,0,0.5,-1.4803e-15,0,0.66667
0.93085,0.95752,1.8617,0.68628,0.42353,0.63543,-3.4071,1.1357,-0.32489,-4.5427,9.9886e-08,-0.16244,0,0,0.5,-0,-0,0.66667
0.39092,0.035116,0.78184,-0.69733,-3.0956,5.0484,1.4539,-0.48462,-0.27165,1.9385,3.286e-12,-0.13583,0,0,0.5,-0,-0,0.66667
0.21446,0.23879,0.42893,-0.39182,-1.8274,7.1135,0.44817,-0.14939,-1.4537,0.59756,3.23e-10,-0.72683,0,0,0.5,-2.9606e-16,0,0.66667
0.61921,0.54579,1.2384,0.068688,0.18614,2.4318,-0.22684,0.075613,-1.9826,-0.30245,2.7492e-11,-0.99129,0,0,0.5,-1.1842e-15,0,0.66667
0.17797,0.027285,0.35594,-0.70907,-3.618,7.6414,0.67304,-0.22435,-0.21261,0.89739,7.8138e-10,-0.10631,0,0,0.5,4.4409e-16,0,0.66667
0.80321,0.82878,1.6064,0.49317,0.77006,1.1172,-2.1126,0.7042,-1.1346,-2.8168,1.4392e-09,-0.56729,0,0,0.5,-1.1842e-15,0,0.66667
0.25393,0.60618,0.50787,0.15928,0.70598,6.5803,-0.21571,0.071904,-1.9093,-0.28762,-1.1684e-10,-0.95464,0,0,0.5,-0,-0,0.66667
0.29081,0.30107,0.58161,-0.2984,-1.3104,6.129,0.4628,-0.15427,-1.6829,0.61707,1.8294e-10,-0.84144,0,0,0.5,-0,-0,0.66667
0.91592,0.45719,1.8318,-0.064211,-0.017984,0.3149,0.31366,-0.10455,-1.9848,0.41822,-4.5136e-08,-0.9924,0,0,0.5,-0,-0,0.66667
0.90292,0.17205,1.8058,-0.49192,-0.32117,0.56656,2.3689,-0.78962,-1.139,3.1585,4.4941e-09,-0.56952,0,0,0.5,-1.0693e-15,0,0.66667
0.53538,0.76354,1.0708,0.39531,1.3375,3.3368,-1.1288,0.37625,-1.4438,-1.505,2.2729e-11,-0.7219,0,0,0.5,-0,-0,0.66667
0.86284,0.96779,1.7257,0.70169,0.90516,0.95775,-3.229,1.0763,-0.2503,-4.3054,6.8781e-09,-0.12515,0,0,0.5,1.1842e-15,0,0.66667
0.35253,0.057412,0.70507,-0.66388,-3.0168,5.4791,1.2482,-0.41607,-0.43303,1.6643,2.6531e-11,-0.21651,0,0,0.5,-2.9606e-16,0,0.66667
0.99788,0.27712,1.9958,-0.33433,0.14874,0.10519,1.7793,-0.5931,-1.603,2.3724,3.265e-08,-0.8015,0,0,0.5,5.9212e-16,-7.177e-16,0.66667
0.43369,0.56475,0.86738,0.097129,0.36488,4.3833,-0.22466,0.074887,-1.9671,-0.29955,-2.0031e-11,-0.98356,0,0,0.5,1.1842e-15,0,0.66667
0.29481,0.87567,0.58962,0.5635,2.601,6.1388,-0.88601,0.29534,-0.87206,-1.1813,-3.4663e-10,-0.43603,0,0,0.5,-0,-0,0.66667
0.041574,0.025527,0.083148,-0.71171,-3.7479,9.4022,0.15781,-0.052602,-0.19905,0.21041,2.7576e-07,-0.099523,0,0,0.5,3.7007e-17,0,0.66667
0.98971,0.39489,1.9794,-0.15766,0.070687,0.052155,0.8322,-0.2774,-1.9111,1.1096,1.9449e-07,-0.95555,0,0,0.5,-0,-0,0.66667
0.46489,0.39844,0.92978,-0.15234,-0.5517,4.0353,0.37772,-0.12591,-1.9173,0.50363,1.5235e-11,-0.95866,0,0,0.5,5.9212e-16,0,0.66667
0.73459,0.069634,1.4692,-0.64555,-1.4875,1.7091,2.5291,-0.84304,-0.51842,3.3722,-3.0653e-10,-0.25921,0,0,0.5,-0,-0,0.66667
0.64081,0.48597,1.2816,-0.021039,-0.053868,2.2294,0.071904,-0.023968,-1.9981,0.095873,-1.0544e-11,-0.99904,0,0,0.5,-1.1842e-15,0,0.66667
0.72309,0.824,1.4462,0.486,1.0723,1.6788,-1.8743,0.62476,-1.1597,-2.499,5.1557e-10,-0.57984,0,0,0.5,-0,-0,0.66667
0.051111,0.13883,0.10222,-0.54175,-2.7307,9.2683,0.14768,-0.049226,-0.95588,0.1969,2.4382e-08,-0.47794,0,0,0.5,-0,-0,0.66667
0.92005,0.70973,1.8401,0.3146,0.10636,0.37385,-1.5437,0.51457,-1.6479,-2.0583,-3.9034e-09,-0.82396,0,0,0.5,-0,-0,0.66667
0.92684,0.90289,1.8537,0.60434,0.33072,0.56387,-2.9873,0.99578,-0.70185,-3.9831,4.8592e-08,-0.35092,0,0,0.5,-2.9606e-16,0,0.66667
0.552,0.351,1.104,-0.2235,-0.71002,3.115,0.65799,-0.21933,-1.8222,0.87732,-3.0856e-11,-0.91112,0,0,0.5,-0,-0,0.66667
0.96392,0.17268,1.9278,-0.49098,-0.021901,0.3225,2.5241,-0.84136,-1.1423,3.3654,-2.8007e-08,-0.57113,0,0,0.5,-0,-0,0.66667
0.28096,0.26945,0.56191,-0.34583,-1.54,6.2603,0.5182,-0.17273,-1.5745,0.69093,2.498e-10,-0.78725,0,0,0.5,2.9606e-16,0,0.66667
0.60215,0.10684,1.2043,-0.58975,-1.8736,2.7779,1.8939,-0.63131,-0.76274,2.5253,-3.3631e-11,-0.38137,0,0,0.5,-0,-0,0.66667
0.39646,0.74668,0.79293,0.37002,1.5,4.862,-0.7824,0.2608,-1.5136,-1.0432,-8.7747e-11,-0.7568,0,0,0.5,-0,-0,0.66667
0.62802,0.93906,1.256,0.6586,2.0392,2.589,-2.2059,0.73531,-0.45861,-2.9413,1.8014e-11,-0.2293,0,0,0.5,2.3685e-15,0,0.66667
0.30063,0.61927,0.60126,0.1789,0.76948,5.9911,-0.28684,0.095614,-1.8863,-0.38246,-1.0975e-10,-0.94315,0,0,0.5,-2.9606e-16,0,0.66667
0.81936,0.65098,1.6387,0.22647,0.2769,0.87628,-0.98966,0.32989,-1.8177,-1.3195,-2.6669e-10,-0.90886,0,0,0.5,-1.7764e-15,0,0.66667
0.069786,0.25627,0.13957,-0.36559,-1.7777,9.0118,0.13607,-0.045356,-1.5247,0.18142,-2.7158e-09,-0.76236,0,0,0.5,-0,-0,0.66667
0.041878,0.59076,0.083755,0.13614,0.64803,9.38,-0.030407,0.010136,-1.9346,-0.040543,2.4703e-07,-0.96729,0,0,0.5,-1.8504e-17,0,0.66667
0.049396,0.098127,0.098793,-0.60281,-3.0827,9.294,0.15881,-0.052936,-0.70834,0.21174,-8.7481e-08,-0.35417,0,0,0.5,-1.4803e-16,0,0.66667
0.15046,0.30816,0.30091,-0.28776,-1.3568,7.9365,0.23091,-0.076969,-1.7058,0.30787,-1.0756e-09,-0.85291,0,0,0.5,7.4015e-17,0,0.66667
0.39535,0.42659,0.7907,-0.11012,-0.43266,4.8312,0.23219,-0.077398,-1.9564,0.30959,3.6991e-11,-0.97821,0,0,0.5,5.9212e-16,0,0.66667
0.95539,0.83906,1.9108,0.50859,0.076366,0.36697,-2.5915,0.86383,-1.0806,-3.4553,6.6172e-08,-0.54031,0,0,0.5,-1.7764e-15,0,0.66667
0.1108,0.81344,0.22159,0.47016,2.3103,8.4753,-0.27782,0.092607,-1.2151,-0.37043,5.4647e-09,-0.60755,0,0,0.5,2.9606e-16,0,0.66667
0.64755,0.082432,1.2951,-0.62635,-1.8292,2.3938,2.1632,-0.72106,-0.60455,2.8842,-5.5405e-11,-0.30228,0,0,0.5,-0,-0,0.66667
0.52762,0.49316,1.0552,-0.010262,-0.033503,3.3438,0.028876,-0.0096254,-1.9996,0.038502,-8.8062e-13,-0.99979,0,0,0.5,-1.1842e-15,0,0.66667
0.35324,0.91869,0.70648,0.62803,2.8221,5.4562,-1.1832,0.3944,-0.59701,-1.5776,-5.3178e-11,-0.29851,0,0,0.5,5.9212e-16,0,0.66667
0.1982,0.10858,0.3964,-0.58714,-2.8758,7.3572,0.62064,-0.20688,-0.77367,0.82752,2.3463e-09,-0.38684,0,0,0.5,-0,-0,0.66667
0.22059,0.94728,0.44119,0.67092,3.3259,7.0929,-0.78933,0.26311,-0.3993,-1.0524,-6.7024e-10,-0.19965,0,0,0.5,-5.9212e-16,0,0.66667
0.043822,0.39758,0.087643,-0.15362,-0.7319,9.3541,0.035904,-0.011968,-1.9159,0.047872,-1.293e-07,-0.95793,0,0,0.5,7.4015e-17,0,0.66667
0.71316,0.25558,1.4263,-0.36662,-0.79809,1.6916,1.3945,-0.46482,-1.5221,1.8593,-2.7843e-10,-0.76107,0,0,0.5,2.3685e-15,0,0.66667
0.65384,0.50928,1.3077,0.013915,0.034367,2.1116,-0.048522,0.016174,-1.9991,-0.064697,7.8018e-12,-0.99954,0,0,0.5,2.3685e-15,0,0.66667
0.44377,0.84921,0.88754,0.52382,2.087,4.3725,-1.2398,0.41326,-1.0245,-1.653,-2.2968e-11,-0.51223,0,0,0.5,-0,-0,0.66667
0.71894,0.19793,1.4379,-0.4531,-0.99966,1.6912,1.7373,-0.57912,-1.2699,2.3165,-4.4853e-10,-0.63493,0,0,0.5,-1.1842e-15,0,0.66667
0.10998,0.9803,0.21995,0.72044,3.7634,8.5152,-0.42257,0.14086,-0.15424,-0.56342,-1.0016e-08,-0.077121,0,0,0.5,-0,-0,0.66667
0.93872,0.75618,1.8774,0.38426,0.078165,0.33607,-1.9238,0.64127,-1.4752,-2.5651,-3.223e-10,-0.73759,0,0,0.5,-0,-0,0.66667
0.84763,0.72608,1.6953,0.33912,0.3518,0.75344,-1.533,0.51101,-1.591,-2.044,-7.332e-10,-0.7955,0,0,0.5,-0,-0,0.66667
0.65904,0.61266,1.3181,0.169,0.41627,2.0819,-0.594,0.198,-1.898,-0.79199,8.6701e-11,-0.94899,0,0,0.5,1.1842e-15,0,0.66667
0.37883,0.84554,0.75766,0.51832,2.2097,5.114,-1.0472,0.34907,-1.0455,-1.3963,-8.6736e-11,-0.52277,0,0,0.5,1.1842e-15,0,0.66667
0.41657,0.50484,0.83313,0.0072589,0.027758,4.5778,-0.016127,0.0053757,-2,-0.021503,-2.0866e-12,-0.99999,0,0,0.5,-0,-0,0.66667
0.48215,0.83986,0.96431,0.50979,1.9268,3.9453,-1.3109,0.43697,-1.0764,-1.7479,-6.9923e-12,-0.53821,0,0,0.5,-0,-0,0.66667
0.93528,0.52966,1.8706,0.044485,0.0038587,0.22872,-0.2219,0.073966,-1.9938,-0.29586,2.3926e-07,-0.99692,0,0,0.5,-1.1842e-15,0,0.66667
0.86359,0.77173,1.7272,0.4076,0.38507,0.70347,-1.8773,0.62578,-1.4089,-2.5031,-1.173e-09,-0.70447,0,0,0.5,-1.1842e-15,0,0.66667
0.47792,0.60191,0.95585,0.15286,0.54358,3.8905,-0.38964,0.12988,-1.9166,-0.51951,-9.6055e-12,-0.95832,0,0,0.5,-0,-0,0.66667
0.55452,0.99925,1.109,0.74888,2.7646,3.3411,-2.2148,0.73825,-0.0068542,-2.953,-2.4003e-13,-0.0034271,0,0,0.5,-5.9212e-16,0,0.66667
0.8754,0.50913,1.7508,0.0137,0.0090797,0.51188,-0.063962,0.021321,-1.9992,-0.085283,-5.5386e-09,-0.99962,0,0,0.5,-0,-0,0.66667
0.94926,0.84801,1.8985,0.52202,0.11835,0.40068,-2.6429,0.88095,-1.0314,-3.5238,-1.4628e-10,-0.5157,0,0,0.5,2.3685e-15,0,0.66667
0.63918,0.92265,1.2784,0.63397,1.8942,2.4723,-2.1612,0.7204,-0.57049,-2.8816,4.09e-11,-0.28524,0,0,0.5,-0,-0,0.66667
0.74852,0.89278,1.497,0.58917,1.2501,1.5615,-2.352,0.78402,-0.76534,-3.1361,7.3814e-10,-0.38267,0,0,0.5,-0,-0,0.66667
0.35162,0.34528,0.70325,-0.23209,-0.96234,5.3689,0.43524,-0.14508,-1.8092,0.58032,1.0504e-10,-0.9046,0,0,0.5,-0,-0,0.66667
0.91803,0.11432,1.8361,-0.57852,-0.34842,0.57508,2.8325,-0.94417,-0.80959,3.7767,2.2565e-08,-0.40479,0,0,0.5,-0,-0,0.66667
0.83675,0.5015,1.6735,0.0022474,0.0022809,0.73133,-0.01003,0.0033432,-2.0007,-0.013373,6.9067e-10,-1.0004,0,0,0.5,-0,-0,0.66667
0.55206,0.80849,1.1041,0.46273,1.5486,3.195,-1.3624,0.45414,-1.239,-1.8166,2.9191e-11,-0.61949,0,0,0.5,-0,-0,0.66667
0.86763,0.79823,1.7353,0.44734,0.42172,0.70805,-2.07,0.69,-1.2878,-2.76,-1.8009e-09,-0.64391,0,0,0.5,-0,-0,0.66667
0.84987,0.34178,1.6997,-0.23733,-0.22694,0.69629,1.0757,-0.35858,-1.8004,1.4343,3.1008e-10,-0.90018,0,0,0.5,-1.2287e-15,0,0.66667
0.80841,0.63881,1.6168,0.20822,0.27265,0.94052,-0.89774,0.29925,-1.8453,-1.197,-1.1005e-10,-0.92263,0,0,0.5,-1.1842e-15,0,0.66667
0.13069,0.59766,0.26139,0.14649,0.68572,8.1905,-0.10211,0.034035,-1.924,-0.13614,1.1125e-09,-0.96201,0,0,0.5,-0,-0,0.66667
0.536,0.071404,1.072,-0.64289,-2.3442,3.4529,1.8378,-0.61261,-0.53013,2.4504,-2.8917e-12,-0.26507,0,0,0.5,-0,-0,0.66667
0.90078,0.69106,1.8016,0.28659,0.14548,0.44841,-1.3768,0.45894,-1.7083,-1.8358,1.0262e-09,-0.85417,0,0,0.5,-0,-0,0.66667
0.77083,0.62552,1.5417,0.18828,0.3046,1.191,-0.77405,0.25802,-1.8749,-1.0321,7.9651e-11,-0.93746,0,0,0.5,-2.3685e-15,0,0.66667
0.42071,0.054666,0.84143,-0.668,-2.8515,4.6965,1.4989,-0.49962,-0.4134,1.9985,4.8966e-12,-0.2067,0,0,0.5,-2.9606e-16,0,0.66667
0.97788,0.3858,1.9558,-0.17131,0.05474,0.093359,0.89343,-0.29781,-1.8952,1.1912,-3.3338e-07,-0.94758,0,0,0.5,-0,-0,0.66667
0.25077,0.43402,0.50155,-0.098967,-0.4379,6.6173,0.13236,-0.044121,-1.9658,0.17649,1.2957e-10,-0.9829,0,0,0.5,-0,-0,0.66667
0.33361,0.76528,0.66722,0.39792,1.7193,5.6197,-0.708,0.236,-1.4364,-0.944,-2.0233e-10,-0.71818,0,0,0.5,5.9212e-16,0,0.66667
0.9542,0.5192,1.9084,0.028797,-0.0030246,0.1525,-0.14655,0.04885,-1.9967,-0.1954,3.1602e-07,-0.99835,0,0,0.5,-0,-0,0.66667
0.80872,0.7709,1.6174,0.40635,0.58236,1.0261,-1.7527,0.58422,-1.4125,-2.3369,2.3516e-10,-0.70625,0,0,0.5,-0,-0,0.66667
0.90034,0.82369,1.8007,0.48554,0.3259,0.57346,-2.3315,0.77716,-1.1613,-3.1086,-4.2888e-09,-0.58063,0,0,0.5,-0,-0,0.66667
0.01159,0.9442,0.023179,0.66631,3.4712,9.7926,-0.041181,0.013728,-0.42142,-0.054908,1.8951e-06,-0.21071,0,0,0.5,-0,-0,0.66667
0.37976,0.85097,0.75953,0.52646,2.2471,5.1059,-1.0663,0.35543,-1.0144,-1.4217,-8.1268e-11,-0.50721,0,0,0.5,-0,-0,0.66667
0.23552,0.65821,0.47104,0.23732,1.0709,6.8231,-0.2981,0.099365,-1.8006,-0.39746,-3.7564e-11,-0.90031,0,0,0.5,-0,-0,0.66667
0.29594,0.39715,0.59187,-0.15428,-0.66457,6.0477,0.2435,-0.081167,-1.9152,0.32467,1.0286e-10,-0.95762,0,0,0.5,-2.9606e-16,0,0.66667
0.738,0.88047,1.476,0.57071,1.2459,1.6243,-2.2463,0.74876,-0.84207,-2.9951,6.4918e-10,-0.42103,0,0,0.5,-2.3685e-15,0,0.66667
0.72408,0.13761,1.4482,-0.54358,-1.2286,1.7093,2.0992,-0.69973,-0.94882,2.7989,-5.2394e-10,-0.47441,0,0,0.5,-0,-0,0.66667
0.4618,0.40829,0.9236,-0.13757,-0.49969,4.0681,0.33882,-0.11294,-1.9333,0.45177,1.5297e-11,-0.96666,0,0,0.5,-0,-0,0.66667
0.36527,0.60157,0.73055,0.15235,0.61892,5.1941,-0.2968,0.098934,-1.9172,-0.39574,-6.6333e-11,-0.95862,0,0,0.5,-0,-0,0.66667
0.58469,0.65981,1.1694,0.23972,0.71587,2.7917,-0.74753,0.24918,-1.796,-0.9967,5.5637e-11,-0.89801,0,0,0.5,-0,-0,0.66667
0.53371,0.97983,1.0674,0.71974,2.712,3.5257,-2.0487,0.6829,-0.15774,-2.7316,1.7453e-13,-0.07887,0,0,0.5,-0,-0,0.66667
0.55058,0.79119,1.1012,0.43678,1.455,3.1984,-1.2826,0.42752,-1.3213,-1.7101,3.0818e-11,-0.66066,0,0,0.5,-0,-0,0.66667
0.61548,0.080558,1.231,-0.62916,-1.9757,2.681,2.0653,-0.68842,-0.59193,2.7537,-2.6346e-11,-0.29596,0,0,0.5,1.1842e-15,0,0.66667
0.39565,0.51625,0.7913,0.024378,0.09546,4.8236,-0.051441,0.017147,-1.9973,-0.068588,-8.5172e-12,-0.99863,0,0,0.5,-1.1842e-15,0,0.66667
0.77172,0.86542,1.5434,0.54813,1.0334,1.3665,-2.256,0.752,-0.93136,-3.008,1.2828e-09,-0.46568,0,0,0.5,5.9212e-16,0,0.66667
0.2512,0.54343,0.50241,0.065152,0.28783,6.6105,-0.087287,0.029096,-1.9845,-0.11638,-9.9323e-11,-0.99227,0,0,0.5,5.9212e-16,0,0.66667
0.65576,0.19345,1.3115,-0.45983,-1.2304,2.2176,1.6082,-0.53607,-1.2485,2.1443,-1.8361e-10,-0.62423,0,0,0.5,-0,-0,0.66667
0.9604,0.34749,1.9208,-0.22877,0.026303,0.17339,1.1718,-0.3906,-1.8142,1.5624,6.1021e-08,-0.90711,0,0,0.5,-0,-0,0.66667
0.0035548,0.57727,0.0071095,0.1159,0.55215,9.8965,-0.0021979,0.00073469,-1.9517,-0.0029295,3.105e-06,-0.97583,0,0,0.5,-4.6259e-18,0,0.66667
0.72336,0.56502,1.4467,0.09753,0.19205,1.531,-0.37626,0.12542,-1.9668,-0.50168,9.3635e-11,-0.98338,0,0,0.5,2.3685e-15,0,0.66667
0.109,0.47879,0.21799,-0.031812,-0.14913,8.4777,0.018492,-0.0061642,-1.9962,0.024657,2.4291e-09,-0.99812,0,0,0.5,-0,-0,0.66667
0.54379,0.48529,1.0876,-0.022063,-0.070014,3.1753,0.063987,-0.021329,-1.9977,0.085316,-3.0397e-12,-0.99886,0,0,0.5,-0,-0,0.66667
0.62692,0.93346,1.2538,0.65019,2.0106,2.5927,-2.1739,0.72464,-0.49737,-2.8986,2.1834e-11,-0.24868,0,0,0.5,2.9606e-16,0,0.66667
0.24295,0.0050485,0.48589,-0.74243,-3.7172,6.8347,0.96198,-0.32066,-0.040292,1.2826,-1.5838e-12,-0.020146,0,0,0.5,1.1842e-15,0,0.66667
0.91384,0.8233,1.8277,0.48495,0.26185,0.51205,-2.3636,0.78786,-1.1633,-3.1514,-9.3592e-09,-0.58165,0,0,0.5,-0,-0,0.66667
0.62231,0.65042,1.2446,0.22563,0.61762,2.4283,-0.74885,0.24962,-1.8191,-0.99847,8.2115e-11,-0.90956,0,0,0.5,1.1842e-15,0,0.66667
0.23169,0.051629,0.46339,-0.67256,-3.3176,6.9539,0.83108,-0.27703,-0.39133,1.1081,4.7221e-10,-0.19567,0,0,0.5,-0,-0,0.66667
0.77013,0.68277,1.5403,0.27415,0.45639,1.2232,-1.126,0.37535,-1.733,-1.5014,2.0497e-11,-0.86649,0,0,0.5,-1.1842e-15,0,0.66667
0.10551,0.28883,0.21101,-0.31676,-1.5188,8.5337,0.17824,-0.059414,-1.6431,0.23765,-1.6595e-09,-0.82155,0,0,0.5,-0,-0,0.66667
0.55523,0.22381,1.1105,-0.41429,-1.3605,3.1422,1.2268,-0.40893,-1.3899,1.6357,-3.6383e-11,-0.69493,0,0,0.5,-0,-0,0.66667
0.094956,0.23585,0.18991,-0.39623,-1.9275,8.6788,0.20066,-0.066887,-1.4414,0.26755,-1.659e-09,-0.72068,0,0,0.5,-0,-0,0.66667
0.58098,0.9953,1.162,0.74295,2.6168,3.0835,-2.3021,0.76736,-0.037728,-3.0694,-6.2172e-14,-0.018864,0,0,0.5,-2.9606e-16,0,0.66667
0.25298,0.54846,0.50596,0.072683,0.32084,6.588,-0.098066,0.032689,-1.9807,-0.13076,-1.0295e-10,-0.99034,0,0,0.5,2.9606e-16,0,0.66667
0.64947,0.9985,1.2989,0.74775,2.3032,2.4735,-2.5901,0.86335,-0.012725,-3.4534,-1.7499e-12,-0.0063624,0,0,0.5,-3.7526e-15,0,0.66667
0.71583,0.086208,1.4317,-0.62069,-1.5,1.8301,2.3696,-0.78988,-0.63012,3.1595,-2.7698e-10,-0.31506,0,0,0.5,-5.9212e-16,0,0.66667
0.52419,0.62285,1.0484,0.18428,0.61178,3.3959,-0.51519,0.17173,-1.8799,-0.68692,1.2207e-11,-0.93993,0,0,0.5,1.4803e-16,0,0.66667
0.65752,0.25229,1.315,-0.37156,-0.96138,2.1593,1.303,-0.43433,-1.5099,1.7373,-1.7411e-10,-0.75496,0,0,0.5,-2.3685e-15,0,0.66667
0.81329,0.72625,1.6266,0.33938,0.45535,0.96096,-1.4721,0.49069,-1.5905,-1.9628,-2.5825e-10,-0.79526,0,0,0.5,-0,-0,0.66667
0.80751,0.60856,1.615,0.16283,0.21164,0.93427,-0.70128,0.23376,-1.9051,-0.93503,9.7681e-11,-0.95255,0,0,0.5,-0,-0,0.66667
0.61968,0.4162,1.2394,-0.1257,-0.34169,2.4335,0.41543,-0.13848,-1.9434,0.5539,-4.8755e-11,-0.9717,0,0,0.5,-0,-0,0.66667
0.4511,0.030396,0.9022,-0.70441,-2.9439,4.3799,1.6947,-0.56491,-0.2368,2.2596,2.4813e-13,-0.1184,0,0,0.5,1.4803e-16,0,0.66667
0.40795,7.8936e-05,0.8159,-0.74988,-3.3336,4.8824,1.6315,-0.54385,-0.0018443,2.1754,-5.6422e-13,-0.00092215,0,0,0.5,-0,-0,0.66667
0.87475,0.32057,1.7495,-0.26914,-0.20028,0.57156,1.2556,-0.41854,-1.7425,1.6742,1.8091e-09,-0.87124,0,0,0.5,-0,-0,0.66667
0.70293,0.94575,1.4059,0.66862,1.7239,1.9691,-2.5066,0.83555,-0.41048,-3.3422,9.2919e-11,-0.20524,0,0,0.5,2.3685e-15,0,0.66667
0.18494,0.10528,0.36987,-0.59208,-2.9196,7.5279,0.58398,-0.19466,-0.75316,0.77864,3.1071e-09,-0.37658,0,0,0.5,-2.9606e-16,0,0.66667
0.56573,0.46482,1.1315,-0.052771,-0.16073,2.9522,0.15922,-0.053075,-1.9905,0.2123,-1.0979e-11,-0.99524,0,0,0.5,8.8818e-16,0,0.66667
0.90881,0.71955,1.8176,0.32933,0.15067,0.432,-1.5963,0.53209,-1.6154,-2.1284,3.1368e-09,-0.80769,0,0,0.5,-0,-0,0.66667
0.15069,0.92776,0.30138,0.64164,3.244,7.9774,-0.51567,0.17189,-0.53578,-0.68756,-7.18e-09,-0.26789,0,0,0.5,1.4803e-16,0,0.66667
0.84552,0.59636,1.691,0.14453,0.13858,0.69485,-0.65176,0.21725,-1.9264,-0.86902,8.8054e-10,-0.96321,0,0,0.5,-0,-0,0.66667
0.8202,0.73389,1.6404,0.35084,0.45249,0.92332,-1.5347,0.51157,-1.5617,-2.0463,-3.0167e-10,-0.78084,0,0,0.5,-1.1842e-15,0,0.66667
0.49934,0.42485,0.99868,-0.11272,-0.38702,3.6517,0.3002,-0.10007,-1.9545,0.40027,1.9329e-13,-0.97724,0,0,0.5,-5.9212e-16,0,0.66667
0.037584,0.2307,0.075168,-0.40395,-1.9841,9.4427,0.080971,-0.02699,-1.4192,0.10796,1.4052e-08,-0.70962,0,0,0.5,7.4015e-17,0,0.66667
0.1475,0.010517,0.29501,-0.73422,-3.8128,8.0353,0.5776,-0.19253,-0.082763,0.77013,1.6961e-09,-0.041382,0,0,0.5,-0,-0,0.66667
0.92264,0.22123,1.8453,-0.41816,-0.16362,0.42478,2.0576,-0.68588,-1.3791,2.7435,-1.0554e-09,-0.68954,0,0,0.5,2.3685e-15,0,0.66667
0.044155,0.73004,0.08831,0.34506,1.678,9.3533,-0.081258,0.027086,-1.5763,-0.10834,5.8228e-09,-0.78813,0,0,0.5,7.4015e-17,0,0.66667
0.3725,0.76511,0.745,0.39767,1.6599,5.1518,-0.79004,0.26335,-1.4372,-1.0534,-1.2263e-10,-0.71859,0,0,0.5,5.9212e-16,0,0.66667
0.61904,0.72466,1.2381,0.33699,0.95165,2.4934,-1.1126,0.37086,-1.5962,-1.4835,1.0449e-10,-0.79811,0,0,0.5,-2.3685e-15,0,0.66667
0.19695,0.47846,0.3939,-0.032305,-0.1468,7.313,0.033933,-0.011311,-1.9959,0.045243,2.1757e-10,-0.99794,0,0,0.5,-0,-0,0.66667
0.98108,0.74575,1.9622,0.36862,-0.08939,0.1759,-1.9288,0.64293,-1.5172,-2.5717,6.7812e-09,-0.7586,0,0,0.5,5.8092e-16,0,0.66667
0.15598,0.58103,0.31195,0.12155,0.56345,7.8543,-0.10111,0.033704,-1.9472,-0.13482,-8.2363e-10,-0.97358,0,0,0.5,-0,-0,0.66667
0.53968,0.01942,1.0794,-0.72087,-2.6928,3.4669,2.0749,-0.69162,-0.15177,2.7665,-2.3115e-13,-0.075885,0,0,0.5,-0,-0,0.66667
0.61801,0.79139,1.236,0.43708,1.2724,2.5455,-1.4407,0.48022,-1.3203,-1.9209,1.0452e-10,-0.66014,0,0,0.5,-0,-0,0.66667
0.23099,0.092722,0.46198,-0.61092,-2.9645,6.9465,0.75262,-0.25087,-0.67391,1.0035,1.0798e-09,-0.33696,0,0,0.5,7.4015e-17,6.4134e-19,0.66667
0.46631,0.95131,0.93262,0.67696,2.7522,4.1997,-1.6836,0.5612,-0.37007,-2.2448,-1.1465e-12,-0.18504,0,0,0.5,-0,-5.8411e-16,0.66667
0.49101,0.89664,0.98202,0.59496,2.2794,3.8912,-1.558,0.51934,-0.74101,-2.0774,-1.4952e-12,-0.37051,0,0,0.5,5.9212e-16,0,0.66667
0.76686,0.34878,1.5337,-0.22683,-0.37811,1.2303,0.9277,-0.30923,-1.8174,1.2369,-3.5833e-11,-0.9087,0,0,0.5,-0,-0,0.66667
0.63428,0.42487,1.2686,-0.1127,-0.29498,2.2961,0.38124,-0.12708,-1.9542,0.50831,-5.0475e-11,-0.97712,0,0,0.5,-0,-0,0.66667
0.46755,0.81144,0.9351,0.46716,1.7801,4.0866,-1.1649,0.3883,-1.2251,-1.5532,-1.6763e-11,-0.61254,0,0,0.5,1.4803e-16,0,0.66667
0.66694,0.55931,1.3339,0.08897,0.21227,2.0002,-0.31647,0.10549,-1.9723,-0.42196,5.369e-11,-0.98615,0,0,0.5,4.9351e-16,0,0.66667
0.45338,0.79708,0.90675,0.44562,1.7199,4.2352,-1.0775,0.35917,-1.2936,-1.4367,-2.7256e-11,-0.64679,0,0,0.5,-0,-0,0.66667
0.52571,0.23067,1.0514,-0.404,-1.3919,3.4402,1.1327,-0.37758,-1.4191,1.5103,-1.5959e-11,-0.70956,0,0,0.5,-0,-0,0.66667
0.65857,0.084514,1.3171,-0.62323,-1.7698,2.2967,2.189,-0.72967,-0.61874,2.9187,-7.3628e-11,-0.30937,0,0,0.5,-0,-0,0.66667
0.1812,0.9867,0.36239,0.73005,3.7434,7.6053,-0.7055,0.23517,-0.10436,-0.94067,-4.4736e-10,-0.052181,0,0,0.5,-0,-0,0.66667
0.78805,0.58696,1.5761,0.13045,0.18987,1.0578,-0.54825,0.18275,-1.9394,-0.731,2.0869e-10,-0.96969,0,0,0.5,-1.1842e-15,0,0.66667
0.60287,0.88024,1.2057,0.57037,1.7961,2.7591,-1.8339,0.6113,-0.8434,-2.4452,4.1715e-11,-0.4217,0,0,0.5,-2.3685e-15,0,0.66667
0.98033,0.026902,1.9607,-0.70965,-0.10406,0.49866,3.7103,-1.2368,-0.2097,4.9471,-5.9055e-07,-0.10485,0,0,0.5,-0,-2.837e-16,0.66667
0.22238,0.37855,0.44477,-0.18218,-0.82356,6.9879,0.21607,-0.072023,-1.8824,0.28809,7.2062e-11,-0.94122,0,0,0.5,5.9212e-16,0,0.66667
0.46627,0.28498,0.93253,-0.32254,-1.1929,4.0534,0.80207,-0.26736,-1.6306,1.0694,2.2871e-11,-0.81529,0,0,0.5,-0,-0,0.66667
0.89564,0.66299,1.7913,0.24449,0.13048,0.45539,-1.1679,0.38928,-1.7874,-1.5571,-5.6211e-09,-0.89369,0,0,0.5,-2.3685e-15,0,0.66667
0.60143,0.13909,1.2029,-0.54136,-1.6916,2.7553,1.7365,-0.57883,-0.9573,2.3153,-5.1508e-11,-0.47865,0,0,0.5,-0,-0,0.66667
0.72596,0.54431,1.4519,0.066464,0.12919,1.5072,-0.25733,0.085778,-1.9837,-0.34311,7.1379e-11,-0.99183,0,0,0.5,-1.1842e-15,0,0.66667
0.41367,0.0111,0.82734,-0.73335,-3.2231,4.8093,1.6179,-0.53932,-0.087283,2.1573,3.6549e-13,-0.043641,0,0,0.5,-0,-0,0.66667
0.68431,0.48235,1.3686,-0.026469,-0.059643,1.8461,0.096603,-0.032201,-1.997,0.1288,-1.9574e-11,-0.99849,0,0,0.5,-1.1842e-15,0,0.66667
0.94606,0.62019,1.8921,0.18029,0.0018561,0.21066,-0.90967,0.30322,-1.8846,-1.2129,-3.0688e-08,-0.94229,0,0,0.5,-1.7764e-15,0,0.66667
0.20019,0.039015,0.40037,-0.69148,-3.4796,7.3555,0.73826,-0.24609,-0.29982,0.98435,7.1014e-10,-0.14991,0,0,0.5,-0,4.4228e-16,0.66667
0.80737,0.37334,1.6147,-0.18998,-0.24906,0.9421,0.81806,-0.27269,-1.8724,1.0907,3.7042e-11,-0.9362,0,0,0.5,1.6283e-15,0,0.66667
0.96954,0.73929,1.9391,0.35894,-0.046567,0.20714,-1.856,0.61867,-1.5417,-2.4747,-5.0227e-09,-0.77083,0,0,0.5,-0,-0,0.66667
0.014569,0.13907,0.029137,-0.5414,-2.7356,9.7516,0.042067,-0.014022,-0.9574,0.056089,2.7036e-07,-0.4787,0,0,0.5,-0,7.0621e-16,0.66667
0.21521,0.82021,0.43042,0.48031,2.2777,7.1187,-0.5513,0.18377,-1.1796,-0.73506,-1.0977e-09,-0.5898,0,0,0.5,-0,-0,0.66667
0.11738,0.64385,0.23475,0.21577,1.0195,8.3705,-0.13508,0.045026,-1.8339,-0.1801,1.7853e-09,-0.91693,0,0,0.5,9.0275e-18,0,0.66667
0.76742,0.097061,1.5348,-0.60441,-1.2015,1.4404,2.4738,-0.8246,-0.7017,3.2984,-1.0683e-09,-0.35085,0,0,0.5,2.3685e-15,0,0.66667
0.081217,0.84402,0.16243,0.51603,2.5755,8.8691,-0.22352,0.074508,-1.0543,-0.29803,7.9694e-09,-0.52714,0,0,0.5,2.9606e-16,0,0.66667
0.99841,0.88199,1.9968,0.57298,-0.12947,0.29588,-3.051,1.017,-0.83274,-4.0681,-2.5212e-07,-0.41637,0,0,0.5,-0,-0,0.66667
0.38961,0.052719,0.77922,-0.67092,-2.9569,5.0509,1.3941,-0.46471,-0.39933,1.8588,9.7274e-12,-0.19966,0,0,0.5,-0,5.0928e-16,0.66667
0.9052,0.029718,1.8104,-0.70542,-0.63203,0.76182,3.4056,-1.1352,-0.23163,4.5408,-2.5128e-10,-0.11582,0,0,0.5,-5.9212e-16,0,0.66667
0.18858,0.53137,0.37716,0.047056,0.2147,7.4229,-0.047326,0.015775,-1.9934,-0.063102,-5.1229e-10,-0.99669,0,0,0.5,-5.9212e-16,0,0.66667
0.44087,0.55179,0.88174,0.077681,0.28895,4.2997,-0.18265,0.060884,-1.9781,-0.24354,-1.4265e-11,-0.98907,0,0,0.5,5.9212e-16,0,0.66667
0.84481,0.54198,1.6896,0.062974,0.059675,0.68628,-0.28374,0.09458,-1.9856,-0.37832,1.5296e-09,-0.99282,0,0,0.5,-0,-0,0.66667
0.59527,0.9668,1.1905,0.70019,2.3587,2.9177,-2.223,0.74099,-0.25765,-2.9639,1.7677e-12,-0.12882,0,0,0.5,1.6283e-15,0,0.66667
0.46216,0.1416,0.92432,-0.53761,-2.1024,4.175,1.3251,-0.44171,-0.97171,1.7668,1.2676e-11,-0.48585,0,0,0.5,-5.9212e-16,0,0.66667
0.51265,0.72997,1.0253,0.34495,1.1976,3.5569,-0.94314,0.31438,-1.5765,-1.2575,8.3245e-12,-0.78825,0,0,0.5,-0,-0,0.66667
0.57389,0.35246,1.1478,-0.2213,-0.67372,2.894,0.67735,-0.22578,-1.8256,0.90313,-4.5008e-11,-0.9128,0,0,0.5,-0,-0,0.66667
0.44032,0.031125,0.88064,-0.70331,-2.9743,4.4973,1.6516,-0.55055,-0.24239,2.2022,3.7137e-13,-0.12119,0,0,0.5,-3.1456e-16,0,0.66667
0.19356,0.15228,0.38712,-0.52159,-2.5205,7.404,0.53844,-0.17948,-1.033,0.71792,1.9413e-09,-0.5165,0,0,0.5,4.0595e-17,0,0.66667
0.11397,0.72152,0.22793,0.33227,1.5933,8.4224,-0.20196,0.067321,-1.608,-0.26928,8.9972e-10,-0.80399,0,0,0.5,-2.9606e-16,0,0.66667
0.15123,0.92531,0.30246,0.63796,3.2218,7.9699,-0.51455,0.17152,-0.55234,-0.68607,-6.946e-09,-0.27617,0,0,0.5,-0,-0,0.66667
0.052491,0.52225,0.10498,0.033374,0.15808,9.2364,-0.0093424,0.0031141,-1.9957,-0.012457,2.0182e-08,-0.99785,0,0,0.5,7.4015e-17,0,0.66667
0.55868,0.15299,1.1174,-0.52052,-1.7523,3.1569,1.551,-0.51698,-1.0371,2.0679,-2.4916e-11,-0.51856,0,0,0.5,5.9212e-16,0,0.66667
0.84772,0.018594,1.6954,-0.72211,-1.0529,1.0592,3.2648,-1.0883,-0.14545,4.353,-1.8659e-09,-0.072723,0,0,0.5,-0,-0,0.66667
0.35912,0.44182,0.71824,-0.08727,-0.3552,5.2634,0.16715,-0.055716,-1.9734,0.22286,4.2464e-11,-0.98672,0,0,0.5,-0,-0,0.66667
0.075311,0.74036,0.15062,0.36053,1.7502,8.938,-0.14481,0.04827,-1.5375,-0.19308,1.331e-09,-0.76877,0,0,0.5,-7.4015e-17,0,0.66667
0.42572,0.52558,0.85145,0.038375,0.14525,4.4721,-0.087131,0.029044,-1.9949,-0.11618,-9.1646e-12,-0.99743,0,0,0.5,-5.9212e-16,0,0.66667
0.60201,0.12138,1.204,-0.56792,-1.7899,2.7657,1.8234,-0.60781,-0.85353,2.4313,-4.1839e-11,-0.42676,0,0,0.5,-0,-0,0.66667
0.4254,0.76747,0.85081,0.40121,1.5855,4.5361,-0.91027,0.30342,-1.4271,-1.2137,-5.41e-11,-0.71356,0,0,0.5,-5.9212e-16,0,0.66667
0.81072,0.40872,1.6214,-0.13693,-0.17308,0.90784,0.59205,-0.19735,-1.9341,0.7894,-3.056e-10,-0.96703,0,0,0.5,2.3685e-15,0,0.66667
0.94189,0.77915,1.8838,0.41873,0.083901,0.34677,-2.1034,0.70115,-1.3773,-2.8046,-1.3474e-08,-0.68863,0,0,0.5,-1.1842e-15,0,0.66667
0.86991,0.85735,1.7398,0.53603,0.54246,0.76345,-2.4869,0.82897,-0.97779,-3.3159,1.4213e-09,-0.48889,0,0,0.5,-0,-0,0.66667
0.704,0.99253,1.408,0.73879,1.9746,2.0226,-2.7739,0.92464,-0.059372,-3.6986,1.8205e-12,-0.029686,0,0,0.5,-0,-0,0.66667
0.4703,0.56065,0.9406,0.090975,0.3256,3.9687,-0.22819,0.076063,-1.9714,-0.30425,-8.1773e-12,-0.98572,0,0,0.5,-6.6613e-16,0,0.66667
0.6827,0.3637,1.3654,-0.20445,-0.4718,1.8847,0.74443,-0.24814,-1.8509,0.99257,-1.1475e-10,-0.92544,0,0,0.5,-0,-0,0.66667
0.013418,0.92086,0.026837,0.63129,3.2589,9.7681,-0.04518,0.01506,-0.58251,-0.06024,-4.416e-07,-0.29126,0,0,0.5,1.8504e-17,0,0.66667
0.98248,0.33626,1.965,-0.24561,0.082411,0.10558,1.287,-0.42899,-1.7855,1.716,-1.8037e-07,-0.89274,0,0,0.5,-1.1842e-15,0,0.66667
0.17208,0.80707,0.34415,0.46061,2.2165,7.672,-0.42272,0.14091,-1.246,-0.56363,-6.079e-10,-0.62301,0,0,0.5,7.4015e-17,0,0.66667
0.90626,0.67173,1.8125,0.25759,0.11295,0.40985,-1.245,0.41501,-1.7637,-1.6601,-1.3762e-09,-0.88186,0,0,0.5,-0,-0,0.66667
0.80711,0.65161,1.6142,0.22742,0.30233,0.95498,-0.97895,0.32632,-1.8163,-1.3053,-1.9254e-10,-0.90815,0,0,0.5,-1.1842e-15,0,0.66667
0.80014,0.16455,1.6003,-0.50318,-0.80411,1.144,2.1473,-0.71576,-1.0996,2.863,-1.5687e-09,-0.54979,0,0,0.5,-0,-0,0.66667
0.26894,0.28425,0.53787,-0.32362,-1.4475,6.408,0.46417,-0.15472,-1.6282,0.6189,2.0749e-10,-0.81409,0,0,0.5,-0,-0,0.66667
0.21915,0.7287,0.43831,0.34305,1.5835,7.0462,-0.40096,0.13365,-1.5814,-0.53462,-9.7251e-11,-0.7907,0,0,0.5,-0,-0,0.66667
0.4288,0.18844,0.8576,-0.46735,-1.8675,4.5192,1.0688,-0.35626,-1.2243,1.4251,4.3132e-11,-0.61213,0,0,0.5,1.1842e-15,0,0.66667
0.84937,0.6116,1.6987,0.16739,0.15592,0.6778,-0.75829,0.25276,-1.8998,-1.011,-1.1065e-10,-0.94988,0,0,0.5,-1.1842e-15,0,0.66667
0.45038,0.84148,0.90076,0.51222,2.0183,4.2942,-1.2304,0.41012,-1.0678,-1.6405,-2.1185e-11,-0.53392,0,0,0.5,-1.4803e-16,0,0.66667
0.93542,0.86102,1.8708,0.54152,0.20978,0.47033,-2.7016,0.90054,-0.95686,-3.6021,-2.9176e-08,-0.47843,0,0,0.5,-0,-1.8075e-16,0.66667
0.35268,0.9976,0.70536,0.7464,3.4815,5.5139,-1.404,0.46798,-0.019687,-1.8719,1.2925e-12,-0.0098436,0,0,0.5,1.9244e-15,0,0.66667
0.61939,0.70947,1.2388,0.31421,0.88175,2.4819,-1.038,0.34599,-1.6486,-1.3839,1.0096e-10,-0.8243,0,0,0.5,-5.9212e-16,0,0.66667
0.9807,0.23522,1.9614,-0.39716,0.085733,0.19614,2.0773,-0.69244,-1.4386,2.7698,1.196e-08,-0.71928,0,0,0.5,-1.1842e-15,0,0.66667
0.64346,0.24047,1.2869,-0.38929,-1.0507,2.2917,1.336,-0.44532,-1.4609,1.7813,-1.5069e-10,-0.73044,0,0,0.5,-5.9212e-16,0,0.66667
0.045498,0.82771,0.090996,0.49156,2.4527,9.3403,-0.11928,0.039761,-1.1404,-0.15904,4.3042e-09,-0.5702,0,0,0.5,-7.4015e-17,0,0.66667
0.46356,0.81284,0.92711,0.46927,1.7984,4.1313,-1.1602,0.38672,-1.218,-1.5469,-1.8844e-11,-0.60901,0,0,0.5,-0,-0,0.66667
0.33475,0.47733,0.6695,-0.034,-0.14123,5.559,0.060702,-0.020234,-1.9956,0.080935,2.1109e-11,-0.99778,0,0,0.5,-0,-0,0.66667
0.53218,0.91172,1.0644,0.61758,2.2449,3.4763,-1.7529,0.58429,-0.64421,-2.3372,3.9826e-12,-0.32211,0,0,0.5,-1.1842e-15,0,0.66667
0.28475,0.85375,0.56949,0.53062,2.4459,6.2537,-0.80582,0.26861,-0.99856,-1.0744,-4.5752e-10,-0.49928,0,0,0.5,-0,-0,0.66667
0.12226,0.55383,0.24452,0.080749,0.37767,8.3011,-0.052653,0.017551,-1.9766,-0.070204,1.9507e-10,-0.98831,0,0,0.5,-0,-0,0.66667
0.66829,0.66226,1.3366,0.24339,0.59132,2.0189,-0.86751,0.28917,-1.7894,-1.1567,1.2474e-10,-0.89472,0,0,0.5,-0,-0,0.66667
0.68136,0.011367,1.3627,-0.73295,-2.0751,2.1962,2.6635,-0.88783,-0.089364,3.5513,-4.5597e-12,-0.044682,0,0,0.5,2.3685e-15,0,0.66667
0.86714,0.58087,1.7343,0.12131,0.091586,0.56773,-0.56102,0.18701,-1.9471,-0.74803,9.9438e-10,-0.97353,0,0,0.5,-0,-0,0.66667
0.13238,0.30419,0.26476,-0.29372,-1.394,8.1757,0.20737,-0.069124,-1.693,0.2765,-5.2251e-10,-0.84648,0,0,0.5,-0,-0,0.66667
0.79862,0.13824,1.5972,-0.54264,-0.89742,1.1831,2.3113,-0.77043,-0.95258,3.0817,-1.9953e-09,-0.47629,0,0,0.5,1.1842e-15,0,0.66667
0.82677,0.76499,1.6535,0.39749,0.50412,0.90855,-1.7527,0.58423,-1.4378,-2.3369,-1.9322e-10,-0.71889,0,0,0.5,-1.1842e-15,0,0.66667
0.64655,0.9649,1.2931,0.69735,2.1094,2.4565,-2.4046,0.80155,-0.27126,-3.2062,8.5645e-12,-0.13563,0,0,0.5,-0,-0,0.66667
0.20492,0.44138,0.40984,-0.087934,-0.3987,7.21,0.096105,-0.032035,-1.973,0.12814,3.3352e-10,-0.98649,0,0,0.5,-0,-0,0.66667
0.26142,0.82186,0.52284,0.48279,2.234,6.533,-0.67313,0.22438,-1.1709,-0.8975,-6.4253e-10,-0.58546,0,0,0.5,-0,-0,0.66667
0.4185,0.92308,0.83699,0.63463,2.6867,4.7052,-1.4165,0.47216,-0.56744,-1.8886,-1.1215e-11,-0.28372,0,0,0.5,-5.9212e-16,0,0.66667
0.5418,0.27956,1.0836,-0.33066,-1.0904,3.2483,0.95546,-0.31849,-1.612,1.2739,-2.8842e-11,-0.80599,0,0,0.5,-1.2583e-15,0,0.66667
0.47744,0.035454,0.95488,-0.69682,-2.8136,4.092,1.7743,-0.59145,-0.27381,2.3658,2.2615e-13,-0.13691,0,0,0.5,1.1842e-15,0,0.66667
0.46746,0.45925,0.93492,-0.06112,-0.21932,3.9985,0.15238,-0.050793,-1.9865,0.20317,6.0115e-12,-0.99326,0,0,0.5,-0,-0,0.66667
0.83984,0.81635,1.6797,0.47452,0.57973,0.88088,-2.1254,0.70848,-1.1998,-2.8339,6.4407e-10,-0.59989,0,0,0.5,-0,-0,0.66667
0.8701,0.53944,1.7402,0.059161,0.042348,0.54294,-0.27454,0.091514,-1.9873,-0.36606,2.3187e-09,-0.99365,0,0,0.5,-0,-0,0.66667
0.81675,0.19377,1.6335,-0.45935,-0.64816,1.0087,2.0009,-0.66698,-1.2498,2.6679,-8.5605e-10,-0.62488,0,0,0.5,-0,-0,0.66667
0.8778,0.82405,1.7556,0.48608,0.43042,0.68337,-2.2756,0.75854,-1.1595,-3.0342,-1.7263e-09,-0.57975,0,0,0.5,-0,-0,0.66667
0.57101,0.2837,1.142,-0.32445,-1.0123,2.9512,0.98806,-0.32935,-1.6263,1.3174,-5.2439e-11,-0.81313,0,0,0.5,2.3685e-15,0,0.66667
0.96404,0.96126,1.9281,0.69189,0.20054,0.52575,-3.5574,1.1858,-0.29773,-4.7432,-2.3784e-07,-0.14887,0,0,0.5,-0,3.4237e-16,0.66667
0.60654,0.54728,1.2131,0.07092,0.19809,2.5522,-0.22942,0.076473,-1.9816,-0.30589,2.4892e-11,-0.99079,0,0,0.5,-1.1842e-15,0,0.66667
0.60395,0.028511,1.2079,-0.70723,-2.3504,2.8429,2.278,-0.75935,-0.2221,3.0374,-1.4724e-12,-0.11105,0,0,0.5,-1.4803e-15,0,0.66667
0.3193,0.62087,0.6386,0.18131,0.76883,5.759,-0.30876,0.10292,-1.8834,-0.41168,-1.0359e-10,-0.94168,0,0,0.5,2.9606e-16,0,0.66667
0.6812,0.86354,1.3624,0.5453,1.4088,2.0522,-1.9811,0.66038,-0.94219,-2.6415,2.2998e-10,-0.47109,0,0,0.5,-5.9212e-16,0,0.66667
0.051966,0.71068,0.10393,0.31601,1.5292,9.248,-0.087583,0.029194,-1.6447,-0.11678,4.9433e-09,-0.82234,0,0,0.5,-3.7007e-17,0,0.66667
0.13455,0.95185,0.26909,0.67777,3.4769,8.1917,-0.48636,0.16212,-0.36601,-0.64848,-8.131e-09,-0.183,0,0,0.5,-0,-0,0.66667
0.13024,0.96413,0.26048,0.6962,3.5939,8.2501,-0.4836,0.1612,-0.27684,-0.6448,-7.1264e-09,-0.13842,0,0,0.5,-7.4015e-17,0,0.66667
0.6552,0.63891,1.3104,0.20836,0.52204,2.1246,-0.72809,0.2427,-1.8452,-0.97079,1.0061e-10,-0.92261,0,0,0.5,-0,-0,0.66667
0.17533,0.66059,0.35067,0.24089,1.1192,7.6057,-0.22525,0.075084,-1.794,-0.30034,4.2141e-10,-0.897,0,0,0.5,-0,-0,0.66667
0.34115,0.24595,0.68229,-0.38108,-1.631,5.5242,0.69335,-0.23112,-1.4841,0.92446,1.7979e-10,-0.74204,0,0,0.5,7.4015e-16,0,0.66667
0.044312,0.12878,0.088623,-0.55684,-2.8182,9.3588,0.1316,-0.043866,-0.89799,0.17546,-1.7697e-07,-0.449,0,0,0.5,-0,-0,0.66667
0.23373,0.73166,0.46747,0.34749,1.5928,6.8595,-0.43317,0.14439,-1.5703,-0.57757,-1.9628e-10,-0.78516,0,0,0.5,-0,-0,0.66667
0.96422,0.46068,1.9284,-0.058979,0.012092,0.11783,0.3033,-0.1011,-1.9874,0.4044,-7.4523e-08,-0.9937,0,0,0.5,-0,-0,0.66667
0.50914,0.06572,1.0183,-0.65142,-2.4803,3.7324,1.7689,-0.58962,-0.49162,2.3585,-4.875e-13,-0.24581,0,0,0.5,-1.1842e-15,0,0.66667
0.15107,0.61272,0.30215,0.16909,0.78759,7.921,-0.13624,0.045412,-1.8978,-0.18165,2.0611e-10,-0.94889,0,0,0.5,1.4803e-16,0,0.66667
0.52301,0.87148,1.046,0.55723,2.0133,3.5368,-1.5543,0.5181,-0.89635,-2.0724,6.031e-12,-0.44817,0,0,0.5,-0,-0,0.66667
0.94351,0.70272,1.887,0.30408,0.029831,0.271,-1.5301,0.51005,-1.6706,-2.0402,-1.1963e-08,-0.83529,0,0,0.5,1.1842e-15,0,0.66667
0.86569,0.88042,1.7314,0.57063,0.62244,0.81493,-2.6346,0.87819,-0.84232,-3.5128,4.4346e-09,-0.42116,0,0,0.5,-0,-0,0.66667
0.39207,0.75642,0.78413,0.38463,1.5707,4.9174,-0.80427,0.26809,-1.4741,-1.0724,-9.3389e-11,-0.73706,0,0,0.5,-0,-0,0.66667
0.28387,0.50436,0.56774,0.0065333,0.028221,6.1936,-0.0098912,0.0032971,-2.0002,-0.013188,-7.0903e-12,-1.0001,0,0,0.5,-0,-0,0.66667
0.76173,0.81043,1.5235,0.46565,0.87555,1.3794,-1.8917,0.63057,-1.2297,-2.5223,7.9505e-10,-0.61487,0,0,0.5,2.9606e-16,0,0.66667
0.24048,0.032041,0.48097,-0.70194,-3.4764,6.8527,0.90029,-0.3001,-0.24899,1.2004,1.1723e-10,-0.1245,0,0,0.5,-5.9212e-16,0,0.66667
0.25423,0.79581,0.50846,0.44372,2.0453,6.6152,-0.60164,0.20055,-1.2994,-0.80218,-5.8016e-10,-0.64968,0,0,0.5,-0,-0,0.66667
0.084086,0.81966,0.16817,0.4795,2.3739,8.8286,-0.21504,0.071678,-1.1824,-0.28671,8.2555e-09,-0.59118,0,0,0.5,-0,-0,0.66667
0.86414,0.49605,1.7283,-0.0059298,-0.0045461,0.57291,0.027329,-0.0091098,-2.0002,0.036439,-6.8256e-09,-1.0001,0,0,0.5,-2.9606e-16,0,0.66667
0.4479,0.29596,0.8958,-0.30606,-1.156,4.2546,0.7311,-0.2437,-1.6663,0.9748,3.5926e-11,-0.83316,0,0,0.5,-0,-0,0.66667
0.56179,0.29995,1.1236,-0.30008,-0.94831,3.0357,0.8991,-0.2997,-1.6795,1.1988,-4.3374e-11,-0.83974,0,0,0.5,-5.9212e-16,0,0.66667
0.73671,0.42966,1.4734,-0.10552,-0.19699,1.4278,0.41459,-0.1382,-1.9603,0.55278,-1.1079e-10,-0.98016,0,0,0.5,1.1842e-15,0,0.66667
0.79649,0.48507,1.593,-0.022395,-0.030615,0.98878,0.095131,-0.03171,-1.9978,0.12684,-1.4277e-10,-0.99892,0,0,0.5,1.1842e-15,0,0.66667
0.44751,0.69123,0.89502,0.28684,1.0806,4.2545,-0.68461,0.2282,-1.7078,-0.91281,-3.5781e-11,-0.8539,0,0,0.5,-0,-0,0.66667
0.18413,0.0044013,0.36826,-0.7434,-3.8228,7.5714,0.73003,-0.24334,-0.035364,0.97337,1.3664e-10,-0.017682,0,0,0.5,-0,2.866e-16,0.66667
0.82873,0.32398,1.6575,-0.26403,-0.30611,0.83163,1.167,-0.389,-1.7519,1.556,4.6945e-10,-0.87593,0,0,0.5,-0,-0,0.66667
0.030998,0.3266,0.061996,-0.2601,-1.2524,9.5279,0.043001,-0.014334,-1.7591,0.057334,-2.3764e-09,-0.87955,0,0,0.5,-0,-0,0.66667
0.94673,0.68627,1.8935,0.2794,0.014173,0.24636,-1.4108,0.47025,-1.7232,-1.881,-1.9035e-08,-0.86161,0,0,0.5,-1.6283e-15,0,0.66667
0.57698,0.042983,1.154,-0.68553,-2.3732,3.0792,2.1095,-0.70317,-0.32875,2.8127,-2.9574e-12,-0.16438,0,0,0.5,1.1842e-15,-5.5539e-16,0.66667
0.87539,0.58041,1.7508,0.12061,0.08179,0.52313,-0.56309,0.1877,-1.9479,-0.75079,1.9314e-09,-0.97397,0,0,0.5,-0,-0,0.66667
0.60857,0.13023,1.2171,-0.55466,-1.716,2.6966,1.8002,-0.60008,-0.9065,2.4003,-5.3472e-11,-0.45325,0,0,0.5,-0,-0,0.66667
0.25166,0.26359,0.50332,-0.35462,-1.6109,6.6318,0.47596,-0.15865,-1.5524,0.63461,2.6622e-10,-0.77622,0,0,0.5,-0,-0,0.66667
0.29613,0.71143,0.59226,0.31715,1.3912,6.0655,-0.50089,0.16696,-1.6424,-0.66785,-2.0043e-10,-0.82122,0,0,0.5,-2.9606e-16,0,0.66667
0.53292,0.073298,1.0658,-0.64005,-2.3427,3.4822,1.8192,-0.6064,-0.54309,2.4256,-2.7665e-12,-0.27154,0,0,0.5,-0,-0,0.66667
0.96208,0.35193,1.9242,-0.22211,0.030056,0.16478,1.1397,-0.37989,-1.8243,1.5195,-4.5025e-09,-0.91216,0,0,0.5,2.3685e-15,0,0.66667
0.1845,0.1729,0.36899,-0.49066,-2.364,7.5156,0.48279,-0.16093,-1.1435,0.64372,1.452e-09,-0.57174,0,0,0.5,-2.9606e-16,0,0.66667
0.5099,0.76365,1.0198,0.39548,1.3943,3.6031,-1.0755,0.3585,-1.4433,-1.434,6.1126e-12,-0.72163,0,0,0.5,-0,-0,0.66667
0.34379,0.25253,0.68758,-0.3712,-1.5823,5.4899,0.68062,-0.22687,-1.5109,0.90749,1.7147e-10,-0.75546,0,0,0.5,-0,-0,0.66667
0.76973,0.073439,1.5395,-0.63984,-1.2891,1.4548,2.6267,-0.87556,-0.54391,3.5022,-8.0181e-10,-0.27196,0,0,0.5,-0,-0,0.66667
0.80287,0.86783,1.6057,0.55175,0.89818,1.1631,-2.3626,0.78752,-0.91743,-3.1501,2.2421e-09,-0.45871,0,0,0.5,1.0675e-15,0,0.66667
0.42456,0.58573,0.84912,0.12859,0.48941,4.4912,-0.29118,0.097059,-1.9411,-0.38823,-2.9654e-11,-0.97054,0,0,0.5,-0,-0,0.66667
0.20412,0.39374,0.40824,-0.1594,-0.72591,7.2236,0.17353,-0.057842,-1.9093,0.23137,1.2884e-10,-0.95465,0,0,0.5,2.9606e-16,0,0.66667
0.067089,0.71998,0.13418,0.32998,1.5967,9.0463,-0.11807,0.039356,-1.6137,-0.15743,2.0527e-09,-0.80684,0,0,0.5,-0,-0,0.66667
0.19865,0.22176,0.3973,-0.41736,-1.97,7.3213,0.44217,-0.14739,-1.3812,0.58957,4.1037e-10,-0.69058,0,0,0.5,-0,-0,0.66667
0.2724,0.77203,0.5448,0.40805,1.8472,6.3792,-0.59281,0.1976,-1.4076,-0.79042,-3.9658e-10,-0.7038,0,0,0.5,-2.9606e-16,0,0.66667
0.59879,0.40738,1.1976,-0.13893,-0.39703,2.6344,0.44368,-0.14789,-1.9322,0.59157,-4.3023e-11,-0.9661,0,0,0.5,-0,-0,0.66667
0.87308,0.074503,1.7462,-0.63825,-0.70653,0.84028,2.972,-0.99065,-0.55122,3.9626,-1.2721e-08,-0.27561,0,0,0.5,-0,5.603e-16,0.66667
0.12823,0.93562,0.25646,0.65343,3.3358,8.2695,-0.44688,0.14896,-0.48264,-0.59584,-1.4926e-08,-0.24132,0,0,0.5,-3.7007e-17,0,0.66667
0.95819,0.43692,1.9164,-0.09462,0.013,0.14448,0.48354,-0.16118,-1.9691,0.64472,-3.7338e-07,-0.98456,0,0,0.5,-1.7023e-15,0,0.66667
0.68317,0.010479,1.3663,-0.73428,-2.0706,2.1827,2.6754,-0.8918,-0.082524,3.5672,-3.9531e-12,-0.041262,0,0,0.5,-0,5.9447e-16,0.66667
0.74196,0.93562,1.4839,0.65344,1.4746,1.6618,-2.5857,0.86191,-0.4825,-3.4477,3.2151e-10,-0.24125,0,0,0.5,-1.3323e-15,0,0.66667
0.98288,0.31946,1.9658,-0.27081,0.088342,0.11568,1.4196,-0.47319,-1.7393,1.8928,-3.0793e-08,-0.86965,0,0,0.5,2.3685e-15,0,0.66667
0.4161,0.19303,0.8322,-0.46046,-1.8632,4.6617,1.0219,-0.34062,-1.2462,1.3625,5.5986e-11,-0.6231,0,0,0.5,1.1842e-15,0,0.66667
0.53158,0.66128,1.0632,0.24192,0.7992,3.3298,-0.68587,0.22862,-1.7923,-0.91449,1.9235e-11,-0.89616,0,0,0.5,-0,-0,0.66667
0.67921,0.25117,1.3584,-0.37325,-0.90851,1.9733,1.3521,-0.4507,-1.5054,1.8028,-2.1929e-10,-0.75272,0,0,0.5,2.3685e-15,0,0.66667
0.51288,0.12661,1.0258,-0.56008,-2.0569,3.6433,1.532,-0.51067,-0.88548,2.0427,-3.2258e-12,-0.44274,0,0,0.5,-0,-0,0.66667
0.29911,0.79074,0.59822,0.43611,1.9494,6.0521,-0.69571,0.2319,-1.3235,-0.92761,-3.3747e-10,-0.66176,0,0,0.5,-0,-0,0.66667
0.10538,0.15424,0.21077,-0.51865,-2.5775,8.5511,0.29151,-0.097168,-1.0443,0.38867,8.9124e-10,-0.52214,0,0,0.5,2.0354e-16,0,0.66667
0.28493,0.5065,0.56986,0.0097506,0.042089,6.1801,-0.014817,0.0049391,-1.9997,-0.019756,-1.0271e-11,-0.99983,0,0,0.5,-1.1842e-15,0,0.66667
0.76885,0.78659,1.5377,0.42988,0.76903,1.3072,-1.7628,0.58759,-1.3431,-2.3503,6.0718e-10,-0.67155,0,0,0.5,-0,-0,0.66667
0.64078,0.23237,1.2816,-0.40144,-1.0948,2.3212,1.3719,-0.45731,-1.4267,1.8292,-1.4715e-10,-0.71333,0,0,0.5,-1.1842e-15,0,0.66667
0.80133,0.75652,1.6027,0.38477,0.56901,1.0615,-1.6444,0.54814,-1.4736,-2.1926,1.3603e-10,-0.73678,0,0,0.5,-0,-0,0.66667
0.51712,0.86078,1.0342,0.54117,1.9631,3.5896,-1.4925,0.49751,-0.95824,-1.9901,5.2313e-12,-0.47912,0,0,0.5,-5.9212e-16,0,0.66667
0.2321,0.45242,0.4642,-0.071375,-0.3189,6.8566,0.088353,-0.029451,-1.9814,0.1178,1.4886e-10,-0.99069,0,0,0.5,-0,-0,0.66667
0.62796,0.61361,1.2559,0.17041,0.4562,2.3636,-0.57074,0.19025,-1.8963,-0.76099,6.864e-11,-0.94816,0,0,0.5,-0,-0,0.66667
0.30401,0.75399,0.60801,0.38098,1.6792,5.9795,-0.6177,0.2059,-1.4842,-0.82361,-2.6315e-10,-0.7421,0,0,0.5,-0,-0,0.66667
0.029529,0.3851,0.059057,-0.17236,-0.8232,9.5467,0.027143,-0.0090478,-1.8941,0.036191,-4.7584e-08,-0.94706,0,0,0.5,-0,-0,0.66667
0.90333,0.76211,1.8067,0.39316,0.21949,0.49448,-1.8942,0.63139,-1.4499,-2.5256,-1.3642e-09,-0.72496,0,0,0.5,-0,-0,0.66667
0.42037,0.25116,0.84074,-0.37326,-1.4751,4.5856,0.83683,-0.27894,-1.5056,1.1158,6.0979e-11,-0.75282,0,0,0.5,-0,-0,0.66667
0.42613,0.98626,0.85226,0.72939,3.1606,4.6683,-1.6577,0.55256,-0.10783,-2.2102,-3.445e-13,-0.053913,0,0,0.5,-0,-0,0.66667
0.74125,0.92708,1.4825,0.64063,1.4383,1.6561,-2.5326,0.84421,-0.54031,-3.3768,3.8913e-10,-0.27015,0,0,0.5,5.9212e-16,0,0.66667
0.94846,0.77605,1.8969,0.41408,0.053872,0.31844,-2.0946,0.6982,-1.3905,-2.7928,-8.1861e-09,-0.69525,0,0,0.5,-0,-0,0.66667
0.072516,0.58975,0.14503,0.13462,0.63822,8.968,-0.052066,0.017355,-1.9359,-0.069421,6.9122e-08,-0.96793,0,0,0.5,4.2938e-17,0,0.66667
0.1727,0.31226,0.3454,-0.2816,-1.316,7.6435,0.25938,-0.086459,-1.7193,0.34584,-4.7201e-10,-0.85964,0,0,0.5,-3.2382e-17,0,0.66667
0.32236,0.69023,0.64471,0.28534,1.2213,5.7351,-0.49057,0.16352,-1.711,-0.65409,-1.5418e-10,-0.85551,0,0,0.5,-1.1842e-15,0,0.66667
0.24842,0.2848,0.49685,-0.3228,-1.4619,6.6682,0.42768,-0.14256,-1.6301,0.57025,1.7017e-10,-0.81503,0,0,0.5,-5.9212e-16,0,0.66667
0.49549,0.43646,0.99099,-0.095311,-0.32882,3.6918,0.25187,-0.083957,-1.9686,0.33583,1.2076e-12,-0.98428,0,0,0.5,8.1416e-16,0,0.66667
0.82446,0.8192,1.6489,0.4788,0.65235,0.97482,-2.1053,0.70177,-1.1849,-2.8071,1.0917e-09,-0.59244,0,0,0.5,-0,-0,0.66667
0.85397,0.03393,1.7079,-0.6991,-0.95597,1.0011,3.1841,-1.0614,-0.26276,4.2454,-3.1864e-09,-0.13138,0,0,0.5,2.3685e-15,0,0.66667
0.59583,0.3374,1.1917,-0.2439,-0.71175,2.6843,0.77504,-0.25835,-1.7886,1.0334,-6.5042e-11,-0.8943,0,0,0.5,-0,-0,0.66667
0.24017,0.436,0.48035,-0.096,-0.42738,6.7533,0.12297,-0.04099,-1.968,0.16396,1.5435e-10,-0.98399,0,0,0.5,7.4015e-17,0,0.66667
0.18649,0.28082,0.37299,-0.32877,-1.5375,7.4678,0.32701,-0.109,-1.6169,0.43601,-2.9929e-10,-0.80843,0,0,0.5,9.2519e-17,0,0.66667
0.74339,0.94737,1.4868,0.67106,1.5231,1.6669,-2.6606,0.88686,-0.39843,-3.5474,2.5039e-10,-0.19921,0,0,0.5,-0,-0,0.66667
0.23721,0.38557,0.47443,-0.17164,-0.76904,6.7957,0.21715,-0.072384,-1.8949,0.28954,1.0654e-10,-0.94744,0,0,0.5,-5.9212e-16,0,0.66667
0.53949,0.81336,1.079,0.47003,1.6107,3.3256,-1.3524,0.45081,-1.2153,-1.8032,2.0473e-11,-0.60766,0,0,0.5,2.3685e-15,0,0.66667
0.74928,0.94237,1.4986,0.66355,1.468,1.6181,-2.6517,0.88389,-0.43488,-3.5356,3.3435e-10,-0.21744,0,0,0.5,-0,-0,0.66667
0.22825,0.064902,0.4565,-0.65265,-3.207,6.9918,0.79449,-0.26483,-0.48608,1.0593,7.1421e-10,-0.24304,0,0,0.5,-0,-0,0.66667
0.1745,0.1187,0.349,-0.57195,-2.8179,7.6583,0.5323,-0.17743,-0.83695,0.70973,3.5521e-09,-0.41847,0,0,0.5,-0,-0,0.66667
0.039736,0.94292,0.079471,0.66438,3.4543,9.4238,-0.1408,0.046933,-0.43063,-0.18773,3.1236e-07,-0.21532,0,0,0.5,-0,-0,0.66667
0.14757,0.19773,0.29514,-0.45341,-2.1977,7.9907,0.35685,-0.11895,-1.2686,0.4758,-2.5811e-10,-0.63429,0,0,0.5,-0,-0,0.66667
0.85144,0.42452,1.7029,-0.11322,-0.10154,0.65438,0.51411,-0.17137,-1.9538,0.68548,-5.6627e-10,-0.9769,0,0,0.5,-1.1842e-15,0,0.66667
0.10464,0.32075,0.20927,-0.26888,-1.2816,8.5427,0.15005,-0.050017,-1.7427,0.20007,4.9521e-10,-0.87135,0,0,0.5,-2.9606e-16,0,0.66667
0.22365,0.90258,0.44729,0.60387,2.9356,7.0375,-0.72027,0.24009,-0.70382,-0.96037,-1.3144e-09,-0.35191,0,0,0.5,-0,-0,0.66667
0.032757,0.79283,0.065514,0.43924,2.1718,9.508,-0.076738,0.025579,-1.3137,-0.10232,9.5214e-09,-0.65683,0,0,0.5,-0,-0,0.66667
0.67636,0.40079,1.3527,-0.14882,-0.34721,1.927,0.53681,-0.17894,-1.9214,0.71575,-8.7534e-11,-0.96068,0,0,0.5,-2.9606e-16,0,0.66667
0.2317,0.71796,0.46341,0.32695,1.4956,6.8827,-0.40402,0.13467,-1.6209,-0.5387,-1.0736e-10,-0.81047,0,0,0.5,-1.8504e-17,0,0.66667
0.41359,0.80115,0.82718,0.45172,1.8292,4.6875,-0.99642,0.33214,-1.2739,-1.3286,-6.0037e-11,-0.63697,0,0,0.5,-0,-0,0.66667
0.1393,0.71115,0.2786,0.31672,1.5046,8.0859,-0.23531,0.078436,-1.6433,-0.31374,1.195e-09,-0.82166,0,0,0.5,1.4803e-16,0,0.66667
0.37722,0.66142,0.75443,0.24214,0.98111,5.0625,-0.48714,0.16238,-1.7918,-0.64952,-8.7285e-11,-0.89589,0,0,0.5,-0,-0,0.66667
0.42444,0.45268,0.84887,-0.070977,-0.26932,4.4883,0.16067,-0.053556,-1.9816,0.21423,1.6935e-11,-0.99078,0,0,0.5,-0,-0,0.66667
0.47296,0.58658,0.94593,0.12986,0.4642,3.9427,-0.32758,0.10919,-1.9399,-0.43677,-1.0248e-11,-0.96996,0,0,0.5,-8.8818e-16,0,0.66667
0.42284,0.63929,0.84568,0.20893,0.80264,4.5213,-0.47117,0.15706,-1.8444,-0.62823,-4.533e-11,-0.92219,0,0,0.5,-5.9212e-16,0,0.66667
0.10276,0.34249,0.20551,-0.23627,-1.1227,8.5662,0.12948,-0.043161,-1.8023,0.17265,-6.9409e-09,-0.90115,0,0,0.5,1.8504e-17,0,0.66667
0.77258,0.81601,1.5452,0.47402,0.85307,1.3085,-1.9532,0.65105,-1.2014,-2.6042,9.3349e-10,-0.60072,0,0,0.5,-0,-0,0.66667
0.13721,0.82864,0.27441,0.49296,2.4163,8.131,-0.36073,0.12024,-1.1354,-0.48098,-1.4955e-10,-0.5677,0,0,0.5,2.9606e-16,0,0.66667
0.42429,0.023122,0.84858,-0.71532,-3.0905,4.6811,1.6187,-0.53956,-0.18057,2.1582,6.195e-13,-0.090287,0,0,0.5,-5.9212e-16,0,0.66667
0.27196,0.75338,0.54391,0.38008,1.7124,6.3795,-0.55128,0.18376,-1.4868,-0.73503,-3.2741e-10,-0.74338,0,0,0.5,-0,-0,0.66667
0.30101,0.57008,0.60202,0.10512,0.44971,5.9808,-0.16875,0.056251,-1.9606,-0.225,-7.8423e-11,-0.98028,0,0,0.5,-0,-0,0.66667
0.67242,0.41213,1.3448,-0.1318,-0.3106,1.9582,0.47267,-0.15756,-1.9385,0.63023,-7.7588e-11,-0.96925,0,0,0.5,-0,-0,0.66667
0.51779,0.71978,1.0356,0.32968,1.1317,3.4979,-0.91041,0.30347,-1.6145,-1.2139,1.1895e-11,-0.80727,0,0,0.5,-0,-0,0.66667
0.19009,0.16025,0.38017,-0.50962,-2.4598,7.4466,0.51665,-0.17222,-1.077,0.68887,1.7935e-09,-0.53849,0,0,0.5,-0,-0,0.66667
0.46913,0.18239,0.93827,-0.47641,-1.8159,4.0729,1.192,-0.39734,-1.1934,1.5894,1.51e-11,-0.59669,0,0,0.5,5.9212e-16,0,0.66667
0.33954,0.93038,0.67908,0.64557,2.9485,5.6256,-1.169,0.38968,-0.5181,-1.5587,-5.2716e-11,-0.25905,0,0,0.5,-2.9606e-16,0,0.66667
0.7045,0.6643,1.409,0.24644,0.53378,1.715,-0.92596,0.30865,-1.784,-1.2346,1.4063e-10,-0.892,0,0,0.5,-0,-0,0.66667
0.2261,0.091557,0.45219,-0.61266,-2.9816,7.0087,0.73878,-0.24626,-0.66598,0.98504,1.1923e-09,-0.33299,0,0,0.5,-7.4015e-17,0,0.66667
0.84499,0.34797,1.69,-0.22804,-0.22711,0.72132,1.0277,-0.34257,-1.8156,1.3703,3.0333e-10,-0.90778,0,0,0.5,-2.3685e-15,0,0.66667
0.52623,0.059024,1.0525,-0.66146,-2.4652,3.5631,1.8564,-0.61881,-0.44471,2.4753,-1.1765e-12,-0.22236,0,0,0.5,2.9606e-16,0,0.66667
0.50062,0.94457,1.0012,0.66685,2.5837,3.8301,-1.7805,0.59349,-0.419,-2.374,3.9302e-14,-0.2095,0,0,0.5,-1.1842e-15,0,0.66667
0.25369,0.24199,0.50737,-0.38701,-1.7656,6.6115,0.52362,-0.17454,-1.4673,0.69816,3.7047e-10,-0.73364,0,0,0.5,-0,-0,0.66667
0.18616,0.96162,0.37231,0.69243,3.5054,7.5336,-0.68747,0.22916,-0.2953,-0.91662,-9.8547e-10,-0.14765,0,0,0.5,-1.4803e-16,0,0.66667
0.47182,0.81109,0.94364,0.46664,1.7679,4.0397,-1.1742,0.39141,-1.2266,-1.5656,-1.4396e-11,-0.61332,0,0,0.5,-7.4015e-16,0,0.66667
0.98182,0.50909,1.9636,0.01364,-0.0053383,0.055161,-0.07143,0.023813,-1.9991,-0.095238,4.5033e-06,-0.99956,0,0,0.5,-4.737e-15,0,0.66667
0.13291,0.039477,0.26581,-0.69078,-3.558,8.2149,0.48965,-0.16322,-0.30305,0.65287,7.7685e-09,-0.15153,0,0,0.5,-2.9606e-16,0,0.66667
0.28346,0.057857,0.56692,-0.66321,-3.1686,6.3095,1.0026,-0.33422,-0.43641,1.3369,1.4358e-10,-0.21821,0,0,0.5,1.4803e-16,0,0.66667
0.80064,0.10194,1.6013,-0.59708,-1.0156,1.2143,2.5496,-0.84987,-0.73221,3.3995,-2.3189e-09,-0.3661,0,0,0.5,2.3685e-15,0,0.66667
0.66478,0.52854,1.3296,0.042809,0.10253,2.0156,-0.15178,0.050593,-1.994,-0.20237,2.6581e-11,-0.99699,0,0,0.5,-0,-0,0.66667
0.27876,0.71308,0.55752,0.31962,1.4196,6.2835,-0.47519,0.1584,-1.6369,-0.63358,-2.0761e-10,-0.81847,0,0,0.5,1.4803e-16,0,0.66667
0.31465,0.99113,0.6293,0.73669,3.5249,5.9592,-1.2363,0.41209,-0.070162,-1.6483,-2.5586e-12,-0.035081,0,0,0.5,-0,-0,0.66667
0.41995,0.23498,0.8399,-0.39753,-1.5795,4.5975,0.89037,-0.29679,-1.4376,1.1872,5.9774e-11,-0.71881,0,0,0.5,-0,-0,0.66667
0.60279,0.77115,1.2056,0.40672,1.2135,2.6742,-1.3076,0.43585,-1.4114,-1.7434,8.5456e-11,-0.70569,0,0,0.5,-0,-0,0.66667
0.71934,0.47355,1.4387,-0.039673,-0.079029,1.5578,0.1522,-0.050734,-1.9948,0.20294,-4.391e-11,-0.99741,0,0,0.5,-0,-0,0.66667
0.8573,0.41572,1.7146,-0.12642,-0.10705,0.62337,0.57801,-0.19267,-1.9429,0.77068,-2.7347e-11,-0.97147,0,0,0.5,-0,-0,0.66667
0.68111,0.25069,1.3622,-0.37396,-0.90529,1.9576,1.3584,-0.45281,-1.5037,1.8113,-2.2387e-10,-0.75183,0,0,0.5,-0,-0,0.66667
0.23698,0.83918,0.47396,0.50878,2.4009,6.847,-0.64304,0.21435,-1.08,-0.85739,-1.0212e-09,-0.53998,0,0,0.5,2.9606e-16,0,0.66667
0.92572,0.51923,1.8514,0.028851,0.0052083,0.26854,-0.14244,0.047482,-1.9965,-0.18993,7.6267e-08,-0.99827,0,0,0.5,-0,-0,0.66667
0.7812,0.11394,1.5624,-0.57909,-1.0673,1.3262,2.4127,-0.80424,-0.80745,3.2169,-1.5493e-09,-0.40372,0,0,0.5,-0,-5.4159e-16,0.66667
0.30738,0.49613,0.61476,-0.0057996,-0.024621,5.8981,0.0095076,-0.0031692,-2.0002,0.012677,4.6179e-12,-1.0001,0,0,0.5,1.1272e-15,0,0.66667
0.30497,0.48863,0.60993,-0.01706,-0.072575,5.9283,0.027748,-0.0092493,-1.9984,0.036997,1.398e-11,-0.99921,0,0,0.5,-2.9606e-16,0,0.66667
0.88117,0.86905,1.7623,0.55357,0.51299,0.72137,-2.6015,0.86718,-0.91042,-3.4687,4.7155e-09,-0.45521,0,0,0.5,-0,-0,0.66667
0.12608,0.013482,0.25216,-0.72978,-3.8076,8.3092,0.49072,-0.16357,-0.106,0.65429,4.3229e-09,-0.052999,0,0,0.5,-0,-0,0.66667
0.63346,0.53289,1.2669,0.049335,0.12888,2.2979,-0.16668,0.055558,-1.992,-0.22223,2.3001e-11,-0.99602,0,0,0.5,2.3685e-15,0,0.66667
0.27771,0.88961,0.55543,0.58441,2.7426,6.3558,-0.8656,0.28853,-0.78506,-1.1541,-4.2962e-10,-0.39253,0,0,0.5,5.9212e-16,0,0.66667
0.8272,0.52638,1.6544,0.039564,0.043613,0.79091,-0.17454,0.058181,-1.9948,-0.23273,4.3953e-10,-0.99741,0,0,0.5,-1.1842e-15,0,0.66667
0.36452,0.116,0.72905,-0.576,-2.526,5.3031,1.1198,-0.37327,-0.82002,1.4931,7.6507e-11,-0.41001,0,0,0.5,2.9606e-16,0,0.66667
0.73337,0.36189,1.4667,-0.20717,-0.39903,1.4744,0.81029,-0.2701,-1.847,1.0804,-1.1293e-10,-0.92351,0,0,0.5,1.1842e-15,0,0.66667
0.19242,0.32021,0.38484,-0.26968,-1.2481,7.3846,0.27675,-0.09225,-1.7412,0.369,-2.7847e-10,-0.87061,0,0,0.5,-0,-0,0.66667
0.48145,0.39505,0.96289,-0.15742,-0.55718,3.8523,0.40421,-0.13474,-1.9115,0.53894,8.1781e-12,-0.95574,0,0,0.5,5.9212e-16,0,0.66667
0.80359,0.072667,1.6072,-0.641,-1.1102,1.2345,2.7472,-0.91574,-0.53863,3.663,-1.9139e-09,-0.26931,0,0,0.5,-0,-0,0.66667
0.39699,0.93731,0.79398,0.65596,2.8572,4.9594,-1.3888,0.46295,-0.4711,-1.8518,-1.0344e-11,-0.23555,0,0,0.5,-6.6669e-17,0,0.66667
0.16157,0.78485,0.32315,0.42728,2.051,7.8044,-0.3682,0.12273,-1.3512,-0.49093,2.4583e-10,-0.67562,0,0,0.5,-0,-0,0.66667
0.64898,0.91393,1.298,0.6209,1.8028,2.3774,-2.1491,0.71636,-0.62904,-2.8654,6.1483e-11,-0.31452,0,0,0.5,1.1842e-15,0,0.66667
0.75333,0.81254,1.5067,0.46881,0.91476,1.4418,-1.8835,0.62785,-1.2197,-2.5114,7.4372e-10,-0.60985,0,0,0.5,2.3685e-15,0,0.66667
0.28019,0.73733,0.56039,0.35599,1.5887,6.2716,-0.53198,0.17733,-1.549,-0.70931,-2.6911e-10,-0.77451,0,0,0.5,-3.3181e-16,0,0.66667
0.45136,0.10988,0.90272,-0.58519,-2.3516,4.3154,1.4087,-0.46957,-0.78194,1.8783,1.0601e-11,-0.39097,0,0,0.5,-5.9212e-16,-7.4918e-16,0.66667
0.90045,0.57259,1.8009,0.10888,0.047683,0.39375,-0.52288,0.17429,-1.9574,-0.69718,6.5092e-09,-0.9787,0,0,0.5,-0,-0,0.66667
0.87199,0.004456,1.744,-0.74332,-0.94233,0.95831,3.4569,-1.1523,-0.035807,4.6091,-1.9482e-10,-0.017904,0,0,0.5,-0,-0,0.66667
0.70719,0.87298,1.4144,0.55947,1.3468,1.8517,-2.1101,0.70337,-0.88779,-2.8135,3.6528e-10,-0.4439,0,0,0.5,-1.6283e-15,0,0.66667
0.5909,0.40418,1.1818,-0.14373,-0.41815,2.7117,0.45297,-0.15099,-1.9273,0.60396,-4.0306e-11,-0.96364,0,0,0.5,-1.6283e-15,0,0.66667
0.81738,0.75078,1.6348,0.37617,0.50161,0.9543,-1.6399,0.54662,-1.4978,-2.1865,-1.8722e-10,-0.74889,0,0,0.5,-0,-0,0.66667
0.90764,0.010909,1.8153,-0.73364,-0.67088,0.78409,3.5514,-1.1838,-0.08602,4.7352,-6.3131e-08,-0.04301,0,0,0.5,-0,-0,0.66667
0.0025076,0.92261,0.0050151,0.63392,3.2753,9.9115,-0.0084774,0.0028227,-0.57068,-0.011305,-4.6967e-06,-0.28534,0,0,0.5,-4.6259e-18,0,0.66667
0.39723,0.48711,0.79446,-0.019334,-0.075572,4.8049,0.04096,-0.013653,-1.9981,0.054614,6.5736e-12,-0.99903,0,0,0.5,-0,-0,0.66667
0.56141,0.24989,1.1228,-0.37516,-1.2061,3.0648,1.1233,-0.37443,-1.5008,1.4977,-4.4068e-11,-0.75041,0,0,0.5,-1.3415e-16,0,0.66667
0.73392,0.44019,1.4678,-0.089712,-0.16916,1.4473,0.35116,-0.11705,-1.9722,0.46821,-1.0241e-10,-0.98608,0,0,0.5,-0,-0,0.66667
0.087473,0.34063,0.17495,-0.23905,-1.1399,8.7704,0.11152,-0.037175,-1.7972,0.1487,1.3971e-08,-0.89862,0,0,0.5,-3.7007e-17,0,0.66667
0.39975,0.93919,0.79951,0.65879,2.8643,4.9291,-1.4046,0.46818,-0.45758,-1.8727,-9.3341e-12,-0.22879,0,0,0.5,-0,-0,0.66667
0.27962,0.30149,0.55924,-0.29777,-1.3176,6.2693,0.44407,-0.14802,-1.6844,0.59209,1.8009e-10,-0.84221,0,0,0.5,-2.9606e-16,0,0.66667
0.42351,0.045443,0.84702,-0.68183,-2.9152,4.6722,1.5401,-0.51336,-0.34657,2.0534,3.2946e-12,-0.17328,0,0,0.5,-0,-0,0.66667
0.49798,0.49162,0.99596,-0.012567,-0.043068,3.6609,0.033375,-0.011125,-1.9993,0.0445,9.8095e-14,-0.99965,0,0,0.5,-1.7764e-15,0,0.66667
0.66002,0.99133,1.32,0.73699,2.2036,2.3752,-2.5943,0.86476,-0.068513,-3.459,1.4209e-12,-0.034257,0,0,0.5,-5.9212e-16,0,0.66667
0.49624,0.47526,0.99247,-0.037117,-0.12762,3.6803,0.098234,-0.032745,-1.9951,0.13098,3.8769e-13,-0.99755,0,0,0.5,1.1842e-15,0,0.66667
0.62047,0.63776,1.2409,0.20664,0.56641,2.441,-0.68381,0.22794,-1.8476,-0.91175,7.512e-11,-0.92381,0,0,0.5,-1.1842e-15,0,0.66667
0.58244,0.67442,1.1649,0.26162,0.78794,2.8195,-0.81269,0.2709,-1.7561,-1.0836,5.6764e-11,-0.87803,0,0,0.5,-0,-0,0.66667
0.42833,0.77768,0.85666,0.41652,1.6459,4.5074,-0.95152,0.31717,-1.3835,-1.2687,-5.0344e-11,-0.69175,0,0,0.5,7.4015e-16,0,0.66667
0.0049764,0.32716,0.0099527,-0.25926,-1.2495,9.8776,0.0068809,-0.0022936,-1.7604,0.0091745,-2.2167e-08,-0.88019,0,0,0.5,-9.2519e-18,0,0.66667
0.19452,0.8919,0.38903,0.58785,2.8844,7.4044,-0.60985,0.20328,-0.77063,-0.81314,-2.5386e-09,-0.38532,0,0,0.5,-0,-0,0.66667
0.32021,0.038666,0.64041,-0.692,-3.2522,5.8747,1.1818,-0.39393,-0.29716,1.5757,2.6727e-11,-0.14858,0,0,0.5,-0,-0,0.66667
0.14698,0.086344,0.29396,-0.62048,-3.1235,8.0218,0.48639,-0.16213,-0.63091,0.64852,7.4877e-09,-0.31546,0,0,0.5,-0,-0,0.66667
0.59866,0.59796,1.1973,0.14693,0.42037,2.6368,-0.46914,0.15638,-1.9235,-0.62552,4.493e-11,-0.96176,0,0,0.5,2.3685e-15,0,0.66667
0.6115,0.027467,1.223,-0.7088,-2.3225,2.7753,2.3116,-0.77054,-0.21418,3.0822,-1.7875e-12,-0.10709,0,0,0.5,5.9212e-16,0,0.66667
0.50009,0.58909,1.0002,0.13363,0.459,3.6458,-0.35642,0.11881,-1.937,-0.47523,-1.6043e-14,-0.96849,0,0,0.5,2.9606e-16,0,0.66667
0.32085,0.72846,0.6417,0.3427,1.4814,5.7639,-0.58642,0.19547,-1.582,-0.78189,-1.9595e-10,-0.791,0,0,0.5,-0,-0,0.66667
0.65326,0.81442,1.3065,0.47163,1.2756,2.2458,-1.6432,0.54772,-1.2099,-2.1909,1.7525e-10,-0.60495,0,0,0.5,-0,-0,0.66667
0.19028,0.88368,0.38057,0.57551,2.8202,7.4561,-0.58406,0.19469,-0.82214,-0.77874,-2.7534e-09,-0.41107,0,0,0.5,5.9212e-16,0,0.66667
0.005881,0.86649,0.011762,0.54974,2.7835,9.8666,-0.017243,0.0057475,-0.92517,-0.02299,-1.2504e-07,-0.46258,0,0,0.5,-4.6259e-18,-6.2719e-16,0.66667
0.73494,0.94806,1.4699,0.67209,1.5711,1.7293,-2.6344,0.87813,-0.3937,-3.5125,1.9579e-10,-0.19685,0,0,0.5,1.1842e-15,0,0.66667
0.4435,0.12524,0.88701,-0.56214,-2.2647,4.3919,1.3297,-0.44322,-0.87743,1.7729,1.6389e-11,-0.43872,0,0,0.5,-0,-0,0.66667
0.69784,0.71755,1.3957,0.32633,0.73855,1.7979,-1.2145,0.40485,-1.6222,-1.6194,2.0453e-10,-0.81109,0,0,0.5,-1.4063e-15,0,0.66667
0.18504,0.80562,0.37009,0.45842,2.1937,7.5035,-0.45242,0.15081,-1.2528,-0.60322,-8.5388e-10,-0.6264,0,0,0.5,-1.4803e-16,0,0.66667
0.06262,0.48742,0.12524,-0.018872,-0.089254,9.1,0.0063029,-0.0021011,-1.9984,0.0084038,-1.6152e-07,-0.99922,0,0,0.5,7.4015e-17,0,0.66667
0.37811,0.25503,0.75622,-0.36746,-1.5167,5.0776,0.74101,-0.247,-1.5201,0.98802,1.1233e-10,-0.76006,0,0,0.5,1.1842e-15,0,0.66667
0.696,0.35236,1.392,-0.22147,-0.49107,1.7776,0.82208,-0.27403,-1.8253,1.0961,-1.2666e-10,-0.91264,0,0,0.5,-0,-0,0.66667
0.10282,0.38054,0.20564,-0.17919,-0.84703,8.5632,0.098262,-0.032754,-1.8859,0.13102,2.7763e-09,-0.94294,0,0,0.5,-0,-0,0.66667
0.19583,0.081027,0.39167,-0.62846,-3.114,7.3961,0.65639,-0.2188,-0.59508,0.87519,2.1751e-09,-0.29754,0,0,0.5,-2.9606e-16,0,0.66667
0.45395,0.55058,0.90791,0.07587,0.27745,4.151,-0.18369,0.061229,-1.9792,-0.24492,-1.0733e-11,-0.98961,0,0,0.5,5.9212e-16,0,0.66667
0.62115,0.86793,1.2423,0.5519,1.6602,2.5792,-1.8283,0.60945,-0.91691,-2.4378,6.9804e-11,-0.45846,0,0,0.5,-5.9212e-16,0,0.66667
0.75012,0.59935,1.5002,0.14902,0.26407,1.3333,-0.5962,0.19873,-1.9214,-0.79493,1.2567e-10,-0.96069,0,0,0.5,-2.3685e-15,0,0.66667
0.10974,0.20433,0.21947,-0.44351,-2.1686,8.4869,0.25956,-0.086521,-1.3003,0.34608,-2.8e-09,-0.65013,0,0,0.5,1.4803e-16,0,0.66667
0.62462,0.058156,1.2492,-0.66277,-2.0709,2.6224,2.2079,-0.73596,-0.4387,2.9439,-1.5615e-11,-0.21935,0,0,0.5,-2.9606e-16,2.8346e-16,0.66667
0.38736,0.64797,0.77472,0.22195,0.88799,4.9387,-0.45853,0.15284,-1.8247,-0.61138,-7.355e-11,-0.91233,0,0,0.5,5.9212e-16,0,0.66667
0.67009,0.59954,1.3402,0.1493,0.35509,1.9813,-0.53358,0.17786,-1.9209,-0.71144,8.4485e-11,-0.96047,0,0,0.5,-0,-0,0.66667
0.20356,0.092263,0.40712,-0.61161,-3.0072,7.2941,0.66399,-0.22133,-0.67101,0.88532,2.1113e-09,-0.33551,0,0,0.5,-7.4015e-17,0,0.66667
0.52792,0.88719,1.0558,0.58078,2.0986,3.499,-1.6352,0.54508,-0.8002,-2.1803,5.8311e-12,-0.4001,0,0,0.5,-0,-0,0.66667
0.17216,0.54261,0.34433,0.063922,0.29379,7.639,-0.058693,0.019564,-1.9852,-0.078258,-6.5087e-10,-0.99261,0,0,0.5,-2.9606e-16,0,0.66667
0.018681,0.21477,0.037362,-0.42784,-2.1127,9.6953,0.042627,-0.014209,-1.3495,0.056836,-4.0546e-09,-0.67477,0,0,0.5,1.8504e-17,0,0.66667
0.48695,0.3608,0.9739,-0.2088,-0.73719,3.8,0.54228,-0.18076,-1.8445,0.72303,7.1217e-12,-0.92223,0,0,0.5,5.9212e-16,0,0.66667
0.18418,0.015697,0.36836,-0.72646,-3.7168,7.5667,0.71358,-0.23786,-0.12303,0.95144,4.4668e-10,-0.061515,0,0,0.5,5.9212e-16,-5.9211e-16,0.66667
0.63834,0.33396,1.2767,-0.24906,-0.65779,2.2869,0.84793,-0.28264,-1.7792,1.1306,-1.0289e-10,-0.88958,0,0,0.5,-0,-0,0.66667
0.53657,0.61863,1.0731,0.17794,0.57783,3.2651,-0.50922,0.16974,-1.8874,-0.67895,1.8074e-11,-0.94369,0,0,0.5,-0,-0,0.66667
0.77495,0.14834,1.5499,-0.52749,-0.9683,1.3291,2.1802,-0.72672,-1.0104,2.9069,-1.2921e-09,-0.50521,0,0,0.5,-5.9212e-16,0,0.66667
0.39296,0.65092,0.78592,0.22637,0.90088,4.8731,-0.47443,0.15814,-1.818,-0.63257,-7.0406e-11,-0.90901,0,0,0.5,5.9212e-16,0,0.66667
0.98945,0.018834,1.9789,-0.72175,-0.049655,0.48922,3.8087,-1.2696,-0.14727,5.0783,2.8545e-07,-0.073637,0,0,0.5,-0,-0,0.66667
0.51521,0.15826,1.0304,-0.5126,-1.8489,3.5956,1.4085,-0.46951,-1.0666,1.878,-5.8233e-12,-0.53332,0,0,0.5,-0,-5.1824e-16,0.66667
0.47882,0.23182,0.95765,-0.40227,-1.4864,3.9395,1.0273,-0.34243,-1.424,1.3697,1.3012e-11,-0.71201,0,0,0.5,-0,-0,0.66667
0.74944,0.96057,1.4989,0.69086,1.554,1.6416,-2.7614,0.92046,-0.30296,-3.6819,1.658e-10,-0.15148,0,0,0.5,-5.9212e-16,0,0.66667
0.57269,0.078966,1.1454,-0.63155,-2.1564,3.084,1.929,-0.64299,-0.5812,2.572,-9.7663e-12,-0.2906,0,0,0.5,1.1842e-15,0,0.66667
0.36247,0.14557,0.72493,-0.53165,-2.3086,5.3115,1.0278,-0.34259,-0.99463,1.3703,1.0864e-10,-0.49732,0,0,0.5,-0,-0,0.66667
0.48924,0.76299,0.97849,0.39448,1.4339,3.8237,-1.0293,0.34311,-1.4461,-1.3724,-6.706e-12,-0.72306,0,0,0.5,1.1842e-15,0,0.66667
0.18914,0.049393,0.37828,-0.67591,-3.4018,7.4919,0.68182,-0.22727,-0.37519,0.90909,1.5181e-09,-0.1876,0,0,0.5,-0,-0,0.66667
0.39358,0.03785,0.78717,-0.69323,-3.0656,5.016,1.4552,-0.48505,-0.29135,1.9402,4.1687e-12,-0.14568,0,0,0.5,-0,-0,0.66667
0.029962,0.78925,0.059924,0.43387,2.1435,9.5451,-0.069331,0.02311,-1.3306,-0.092441,6.3314e-09,-0.66532,0,0,0.5,-0,-0,0.66667
0.46253,0.54319,0.92506,0.064779,0.23407,4.0539,-0.1598,0.053266,-1.9845,-0.21307,-7.4648e-12,-0.99226,0,0,0.5,-0,-0,0.66667
0.27447,0.1732,0.54895,-0.49019,-2.2536,6.3712,0.71758,-0.23919,-1.145,0.95677,5.3839e-10,-0.57249,0,0,0.5,5.9212e-16,0,0.66667
0.52672,0.24332,1.0534,-0.38502,-1.3183,3.4227,1.0816,-0.36053,-1.4729,1.4421,-1.7246e-11,-0.73643,0,0,0.5,-0,-0,0.66667
0.029272,0.34476,0.058544,-0.23287,-1.1181,9.5508,0.036355,-0.012118,-1.8082,0.048473,2.2727e-07,-0.9041,0,0,0.5,-7.4015e-17,0,0.66667
0.55509,0.75952,1.1102,0.38928,1.2705,3.1337,-1.1525,0.38415,-1.4608,-1.5366,3.7751e-11,-0.73039,0,0,0.5,-0,-0,0.66667
0.293,0.15396,0.586,-0.51905,-2.3729,6.1486,0.8111,-0.27037,-1.0427,1.0815,4.0727e-10,-0.52136,0,0,0.5,-7.4015e-17,0,0.66667
0.57749,0.82766,1.155,0.49149,1.5835,2.9571,-1.5138,0.50459,-1.1407,-2.0184,4.373e-11,-0.57035,0,0,0.5,1.1842e-15,0,0.66667
0.73277,0.38579,1.4655,-0.17131,-0.32835,1.4701,0.6695,-0.22317,-1.8953,0.89267,-1.1278e-10,-0.94767,0,0,0.5,-0,-0,0.66667
0.44034,0.74866,0.88068,0.37299,1.4398,4.3579,-0.87596,0.29199,-1.5062,-1.1679,-4.2576e-11,-0.75311,0,0,0.5,7.4015e-16,0,0.66667
0.66316,0.62919,1.3263,0.19379,0.47352,2.0509,-0.68541,0.22847,-1.8667,-0.91388,9.9719e-11,-0.93336,0,0,0.5,-0,-0,0.66667
0.23891,0.21644,0.47782,-0.42534,-1.9707,6.8061,0.54197,-0.18066,-1.3574,0.72262,5.6076e-10,-0.67868,0,0,0.5,-3.7007e-16,0,0.66667
0.9986,0.98727,1.9972,0.7309,-0.010523,0.47818,-3.8927,1.2976,-0.1002,-5.1902,9.3281e-05,-0.050098,0,0,0.5,-0,-0,0.66667
0.24288,0.21943,0.48576,-0.42085,-1.944,6.7548,0.54515,-0.18172,-1.3711,0.72687,5.2841e-10,-0.68557,0,0,0.5,-5.9212e-16,0,0.66667
0.94083,0.90488,1.8817,0.60732,0.25001,0.51271,-3.0474,1.0158,-0.68944,-4.0632,-2.7752e-07,-0.34472,0,0,0.5,1.4803e-16,0,0.66667
0.21722,0.6298,0.43444,0.1947,0.88346,7.0557,-0.22556,0.075186,-1.8656,-0.30074,-2.9865e-11,-0.93279,0,0,0.5,-0,-0,0.66667
0.49756,0.75145,0.99513,0.37717,1.3492,3.7282,-1.0009,0.33363,-1.4951,-1.3345,-1.5735e-12,-0.74753,0,0,0.5,1.1842e-15,0,0.66667
0.82118,0.56522,1.6424,0.097829,0.11382,0.83441,-0.42845,0.14282,-1.9665,-0.57127,5.2493e-10,-0.98323,0,0,0.5,-0,-0,0.66667
0.71659,0.62571,1.4332,0.18856,0.38621,1.6015,-0.72064,0.24021,-1.8746,-0.96085,1.1522e-10,-0.93732,0,0,0.5,-2.3685e-15,0,0.66667
0.70558,0.075836,1.4112,-0.63625,-1.5999,1.922,2.3943,-0.79809,-0.56019,3.1923,-1.7714e-10,-0.28009,0,0,0.5,1.1842e-15,0,0.66667
0.44044,0.58317,0.88088,0.12475,0.46551,4.3084,-0.29304,0.097679,-1.9443,-0.39072,-2.2334e-11,-0.97215,0,0,0.5,-5.9212e-16,0,0.66667
0.75418,0.18171,1.5084,-0.47743,-0.93236,1.4411,1.9203,-0.64012,-1.1896,2.5605,-7.7681e-10,-0.59481,0,0,0.5,5.9212e-16,0,0.66667
0.91995,0.63514,1.8399,0.20271,0.056538,0.32692,-0.99456,0.33152,-1.8536,-1.3261,-9.7343e-10,-0.92681,0,0,0.5,-0,-0,0.66667
0.44135,0.94394,0.8827,0.66591,2.7775,4.4658,-1.5675,0.52249,-0.42332,-2.09,-3.025e-12,-0.21166,0,0,0.5,-1.1842e-15,0,0.66667
0.52797,0.39689,1.0559,-0.15466,-0.50855,3.3514,0.4355,-0.14517,-1.9147,0.58066,-1.2298e-11,-0.95733,0,0,0.5,-0,-0,0.66667
0.066036,0.1883,0.13207,-0.46756,-2.316,9.0668,0.16467,-0.05489,-1.2237,0.21956,-4.8534e-09,-0.61184,0,0,0.5,-2.9606e-16,0,0.66667
0.39077,0.48207,0.78155,-0.026899,-0.10588,4.8814,0.056061,-0.018687,-1.9971,0.074747,9.867e-12,-0.99855,0,0,0.5,-5.9212e-16,0,0.66667
0.46724,0.66215,0.93448,0.24322,0.88702,4.024,-0.60609,0.20203,-1.7899,-0.80811,-2.0058e-11,-0.89493,0,0,0.5,-0,-0,0.66667
0.89514,0.65452,1.7903,0.23177,0.12337,0.45304,-1.1065,0.36883,-1.8097,-1.4753,-7.2185e-09,-0.90486,0,0,0.5,-1.3323e-15,0,0.66667
0.11056,0.3013,0.22111,-0.29806,-1.4238,8.4655,0.17575,-0.058582,-1.6838,0.23433,-9.6766e-10,-0.84191,0,0,0.5,-1.4803e-16,0,0.66667
0.73114,0.51735,1.4623,0.026019,0.049429,1.4642,-0.10146,0.033819,-1.997,-0.13528,3.3672e-11,-0.99852,0,0,0.5,-0,-0,0.66667
0.54547,0.94781,1.0909,0.67172,2.439,3.3764,-1.9541,0.65138,-0.39546,-2.6055,1.8927e-12,-0.19773,0,0,0.5,-0,-0,0.66667
0.60654,0.59221,1.2131,0.13832,0.38837,2.5599,-0.44744,0.14915,-1.9328,-0.59659,4.6643e-11,-0.96641,0,0,0.5,5.181e-16,0,0.66667
0.029783,0.4091,0.059566,-0.13635,-0.64964,9.543,0.021658,-0.0072185,-1.9346,0.028877,1.114e-06,-0.96729,0,0,0.5,-7.4015e-17,0,0.66667
0.14675,0.22104,0.29349,-0.41844,-2.0155,7.9974,0.3275,-0.10917,-1.378,0.43666,-1.0233e-09,-0.68901,0,0,0.5,5.9212e-16,0,0.66667
0.28398,0.21564,0.56797,-0.42655,-1.9231,6.238,0.64604,-0.21535,-1.3537,0.86138,3.9148e-10,-0.67683,0,0,0.5,-4.4409e-16,0,0.66667
0.004872,0.14516,0.0097441,-0.53225,-2.6845,9.8799,0.01383,-0.00461,-0.99224,0.01844,1.0209e-07,-0.49612,0,0,0.5,-0,1.0843e-15,0.66667
0.66916,0.64221,1.3383,0.21332,0.5139,2.0032,-0.7613,0.25377,-1.8377,-1.0151,1.1157e-10,-0.91884,0,0,0.5,3.918e-16,0,0.66667
0.87026,0.40426,1.7405,-0.14361,-0.10515,0.55534,0.66654,-0.22218,-1.9273,0.88872,6.0704e-10,-0.96367,0,0,0.5,-1.6283e-15,0,0.66667
0.54697,0.56226,1.0939,0.093392,0.29544,3.1464,-0.27244,0.090813,-1.9703,-0.36325,1.3398e-11,-0.98514,0,0,0.5,-4.0708e-16,0,0.66667
0.54316,0.57776,1.0863,0.11664,0.37217,3.1881,-0.3379,0.11263,-1.951,-0.45054,1.4908e-11,-0.97552,0,0,0.5,-0,-0,0.66667
0.61573,0.47887,1.2315,-0.031693,-0.086498,2.4627,0.10408,-0.034692,-1.996,0.13877,-1.2484e-11,-0.99799,0,0,0.5,-0,-0,0.66667
0.30218,0.58409,0.60436,0.12614,0.53982,5.9674,-0.20329,0.067764,-1.943,-0.27105,-8.7858e-11,-0.97152,0,0,0.5,-0,-0,0.66667
0.36673,0.30941,0.73346,-0.28588,-1.1771,5.1956,0.55916,-0.18639,-1.7098,0.74555,1.0985e-10,-0.85492,0,0,0.5,-4.8354e-16,0,0.66667
0.57494,0.057366,1.1499,-0.66395,-2.2868,3.0838,2.0359,-0.67863,-0.43281,2.7145,-4.7846e-12,-0.2164,0,0,0.5,5.9212e-16,0,0.66667
0.80922,0.8387,1.6184,0.50805,0.77491,1.0898,-2.1927,0.73089,-1.0825,-2.9235,1.7595e-09,-0.54123,0,0,0.5,-1.1842e-15,0,0.66667
0.2016,0.013761,0.40319,-0.72936,-3.7087,7.3473,0.78419,-0.2614,-0.10813,1.0456,1.3807e-10,-0.054065,0,0,0.5,-5.9212e-16,5.8369e-16,0.66667
0.32752,0.86471,0.65505,0.54707,2.4554,5.7349,-0.95561,0.31854,-0.93569,-1.2741,-1.9355e-10,-0.46784,0,0,0.5,-0,5.8727e-16,0.66667
0.74292,0.040584,1.4858,-0.68912,-1.5842,1.6865,2.7305,-0.91016,-0.3111,3.6406,-1.5152e-10,-0.15555,0,0,0.5,-0,-0,0.66667
0.34092,0.65421,0.68184,0.23131,0.9682,5.4991,-0.42059,0.1402,-1.8105,-0.56078,-1.1281e-10,-0.90525,0,0,0.5,-1.4803e-16,0,0.66667
0.047611,0.94025,0.095222,0.66037,3.4274,9.3205,-0.16769,0.055895,-0.45019,-0.22358,3.8866e-07,-0.2251,0,0,0.5,-0,-0,0.66667
0.15636,0.26646,0.31271,-0.35032,-1.6629,7.8643,0.29213,-0.097377,-1.5633,0.38951,-7.9827e-10,-0.78165,0,0,0.5,-2.9606e-16,0,0.66667
0.19386,0.58058,0.38773,0.12086,0.55171,7.3557,-0.12497,0.041656,-1.9474,-0.16662,-3.1226e-10,-0.97372,0,0,0.5,-2.9606e-16,0,0.66667
0.49511,0.78932,0.99022,0.43398,1.5788,3.7749,-1.146,0.38199,-1.3301,-1.528,-2.7333e-12,-0.66505,0,0,0.5,-0,-0,0.66667
0.63512,0.63286,1.2702,0.19929,0.52607,2.3036,-0.67505,0.22502,-1.8586,-0.90006,8.3344e-11,-0.92928,0,0,0.5,-1.1842e-15,0,0.66667
0.88022,0.0020914,1.7604,-0.74686,-0.89345,0.92274,3.5062,-1.1687,-0.017336,4.6749,-1.4932e-08,-0.008668,0,0,0.5,-0,-0,0.66667
0.90254,0.40366,1.8051,-0.14451,-0.061741,0.39093,0.6956,-0.23187,-1.9264,0.92746,2.2527e-09,-0.96318,0,0,0.5,-2.9606e-16,0,0.66667
0.30716,0.062185,0.61432,-0.65672,-3.0827,6.0186,1.0758,-0.35861,-0.46754,1.4344,8.7215e-11,-0.23377,0,0,0.5,5.5511e-17,0,0.66667
0.75338,0.33584,1.5068,-0.24625,-0.43973,1.3348,0.98942,-0.32981,-1.7842,1.3192,-8.1578e-11,-0.89212,0,0,0.5,-5.9212e-16,0,0.66667
0.28243,0.7144,0.56486,0.3216,1.4253,6.2377,-0.48441,0.16147,-1.6327,-0.64588,-2.0982e-10,-0.81636,0,0,0.5,-0,-0,0.66667
0.36858,0.63641,0.73715,0.20461,0.83253,5.1604,-0.40221,0.13407,-1.8506,-0.53628,-8.2513e-11,-0.9253,0,0,0.5,-5.9212e-16,0,0.66667
0.29273,0.73827,0.58545,0.3574,1.5817,6.1151,-0.55798,0.18599,-1.5453,-0.74398,-2.5576e-10,-0.77266,0,0,0.5,-0,-0,0.66667
0.41369,0.29463,0.82738,-0.30806,-1.2124,4.6462,0.67968,-0.22656,-1.6619,0.90624,6.5102e-11,-0.83097,0,0,0.5,-0,-0,0.66667
0.21472,0.87385,0.42943,0.56078,2.7087,7.141,-0.64218,0.21406,-0.88274,-0.85623,-1.7472e-09,-0.44137,0,0,0.5,-4.0708e-16,0,0.66667
0.31899,0.42615,0.63797,-0.11077,-0.46744,5.757,0.18845,-0.062815,-1.9558,0.25126,7.1242e-11,-0.97792,0,0,0.5,-0,-0,0.66667
0.12192,0.71705,0.24384,0.32558,1.5565,8.3165,-0.2117,0.070568,-1.6239,-0.28227,3.4699e-10,-0.81195,0,0,0.5,1.8504e-17,0,0.66667
0.96302,0.1153,1.926,-0.57705,-0.086073,0.40423,2.9638,-0.98793,-0.81563,3.9517,4.9776e-09,-0.40782,0,0,0.5,-1.1842e-15,0,0.66667
0.50398,0.67603,1.008,0.26404,0.91561,3.6271,-0.70972,0.23657,-1.7516,-0.9463,2.476e-12,-0.87582,0,0,0.5,-0,-0,0.66667
0.9231,0.88493,1.8462,0.5774,0.31822,0.5529,-2.8427,0.94756,-0.81438,-3.7902,-3.8452e-08,-0.40719,0,0,0.5,-0,-0,0.66667
0.74616,0.9877,1.4923,0.73155,1.7086,1.7033,-2.9112,0.9704,-0.096682,-3.8816,2.8777e-11,-0.048341,0,0,0.5,-0,-0,0.66667
0.45771,0.88457,0.91541,0.57686,2.2946,4.2417,-1.4082,0.46939,-0.81645,-1.8776,-9.8435e-12,-0.40823,0,0,0.5,-0,-0,0.66667
0.75462,0.99464,1.5092,0.74197,1.6945,1.6542,-2.9862,0.99539,-0.042729,-3.9815,6.0507e-13,-0.021365,0,0,0.5,2.2232e-15,0,0.66667
0.62802,0.44552,1.256,-0.081714,-0.21682,2.3506,0.2737,-0.091232,-1.9761,0.36493,-3.5474e-11,-0.98805,0,0,0.5,-0,-0,0.66667
0.30376,0.47262,0.60752,-0.041073,-0.17496,5.9438,0.066539,-0.02218,-1.9943,0.088719,3.4315e-11,-0.99715,0,0,0.5,-0,-0,0.66667
0.52166,0.73312,1.0433,0.34968,1.1978,3.4635,-0.97287,0.32429,-1.5646,-1.2972,1.4296e-11,-0.7823,0,0,0.5,-0,-0,0.66667
0.71231,0.97797,1.4246,0.71696,1.8476,1.9387,-2.7237,0.90791,-0.17194,-3.6316,2.3137e-11,-0.085971,0,0,0.5,-0,-0,0.66667
0.30531,0.19038,0.61063,-0.46442,-2.079,5.9824,0.75624,-0.25208,-1.2336,1.0083,3.3143e-10,-0.61678,0,0,0.5,-0,-0,0.66667
0.012523,0.6668,0.025046,0.2502,1.2045,9.7761,-0.016711,0.0055702,-1.777,-0.022281,-8.4495e-08,-0.88852,0,0,0.5,-0,-0,0.66667
0.26826,0.88778,0.53653,0.58167,2.7437,6.4722,-0.83221,0.2774,-0.79655,-1.1096,-5.3544e-10,-0.39828,0,0,0.5,-0,-0,0.66667
0.79675,0.20249,1.5935,-0.44626,-0.70103,1.1277,1.8963,-0.6321,-1.2916,2.5284,-7.7106e-10,-0.64578,0,0,0.5,-1.1842e-15,0,0.66667
0.92999,0.8512,1.86,0.52679,0.22391,0.47882,-2.6129,0.87096,-1.0131,-3.4838,-1.297e-08,-0.50654,0,0,0.5,-0,-0,0.66667
0.62533,0.44,1.2507,-0.089998,-0.24055,2.3764,0.30015,-0.10005,-1.972,0.4002,-3.8042e-11,-0.98601,0,0,0.5,-2.3685e-15,0,0.66667
0.13281,0.95638,0.26561,0.68456,3.52,8.2152,-0.48488,0.16163,-0.33317,-0.64651,-8.2292e-09,-0.16658,0,0,0.5,-0,-0,0.66667
0.75757,0.0092579,1.5151,-0.73611,-1.657,1.628,2.9742,-0.99139,-0.072984,3.9656,-2.6311e-11,-0.036492,0,0,0.5,-0,-0,0.66667
0.52691,0.42966,1.0538,-0.10552,-0.34618,3.3566,0.29652,-0.098839,-1.9602,0.39536,-8.447e-12,-0.98011,0,0,0.5,-0,-0,0.66667
0.75387,0.1487,1.5077,-0.52696,-1.0576,1.4766,2.1187,-0.70623,-1.0125,2.8249,-9.1178e-10,-0.50627,0,0,0.5,-0,-0,0.66667
0.85861,0.76819,1.7172,0.40229,0.39666,0.7273,-1.8422,0.61406,-1.4242,-2.4562,-1.2322e-09,-0.71211,0,0,0.5,-0,-0,0.66667
0.94754,0.89185,1.8951,0.58778,0.18799,0.46846,-2.9704,0.99013,-0.77097,-3.9605,-1.4843e-07,-0.38548,0,0,0.5,-0,-0,0.66667
0.65454,0.021498,1.3091,-0.71775,-2.1528,2.405,2.5056,-0.83519,-0.16805,3.3408,-4.7202e-12,-0.084026,0,0,0.5,-0,-0,0.66667
0.85426,0.1742,1.7085,-0.4887,-0.54032,0.80984,2.2265,-0.74218,-1.1502,2.9687,-3.1409e-10,-0.57512,0,0,0.5,1.1842e-15,0,0.66667
0.74259,0.27224,1.4852,-0.34164,-0.65937,1.4525,1.353,-0.45101,-1.5846,1.8041,-2.3722e-10,-0.79232,0,0,0.5,1.1842e-15,0,0.66667
0.7271,0.47237,1.4542,-0.041443,-0.080079,1.4964,0.16071,-0.05357,-1.9942,0.21428,-5.0938e-11,-0.99711,0,0,0.5,-0,-0,0.66667
0.85879,0.72938,1.7176,0.34407,0.32318,0.69314,-1.5759,0.5253,-1.5789,-2.1012,-1.0311e-09,-0.78943,0,0,0.5,-0,-0,0.66667
0.923,0.33756,1.846,-0.24366,-0.065274,0.32848,1.1994,-0.39981,-1.7891,1.5993,1.5328e-08,-0.89455,0,0,0.5,-0,-0,0.66667
0.90208,0.11229,1.8042,-0.58156,-0.44244,0.64759,2.7979,-0.93265,-0.79691,3.7306,-4.4359e-09,-0.39846,0,0,0.5,-1.1842e-15,0,0.66667
0.39575,0.53705,0.7915,0.055571,0.21772,4.8233,-0.11729,0.039097,-1.9891,-0.15639,-1.923e-11,-0.99453,0,0,0.5,-0,-0,0.66667
0.084021,0.70793,0.16804,0.3119,1.5013,8.8195,-0.13977,0.046589,-1.6536,-0.18636,2.729e-09,-0.8268,0,0,0.5,-7.4015e-17,0,0.66667
0.82957,0.33773,1.6591,-0.24341,-0.27775,0.81878,1.0769,-0.35898,-1.7895,1.4359,5.8092e-10,-0.89476,0,0,0.5,1.7764e-15,0,0.66667
0.53893,0.70795,1.0779,0.31193,1.03,3.272,-0.89658,0.29886,-1.6535,-1.1954,2.6369e-11,-0.82676,0,0,0.5,5.9212e-16,0,0.66667
0.54208,0.18818,1.0842,-0.46772,-1.5948,3.2982,1.3522,-0.45074,-1.2231,1.803,-2.2286e-11,-0.61155,0,0,0.5,-0,-0,0.66667
0.82518,0.04348,1.6504,-0.68478,-1.0989,1.1463,3.0137,-1.0046,-0.33225,4.0182,-1.8828e-09,-0.16612,0,0,0.5,-0,-0,0.66667
0.031984,0.64623,0.063968,0.21934,1.0516,9.5141,-0.037416,0.012472,-1.8288,-0.049887,-6.5651e-08,-0.91438,0,0,0.5,-0,-0,0.66667
0.87796,0.85818,1.7559,0.53727,0.50414,0.72345,-2.5158,0.83858,-0.97311,-3.3543,1.0443e-09,-0.48655,0,0,0.5,1.1842e-15,0,0.66667
0.034634,0.10827,0.069268,-0.5876,-2.9978,9.4877,0.10854,-0.03618,-0.77179,0.14472,-6.7919e-08,-0.38589,0,0,0.5,7.4015e-17,0,0.66667
0.69319,0.75452,1.3864,0.38179,0.89276,1.8605,-1.4115,0.47049,-1.4819,-1.882,2.5737e-10,-0.74097,0,0,0.5,-0,-0,0.66667
0.58748,0.6131,1.175,0.16966,0.49864,2.7494,-0.53158,0.17719,-1.8971,-0.70877,4.421e-11,-0.94855,0,0,0.5,5.9212e-16,0,0.66667
0.64175,0.98961,1.2835,0.73441,2.2861,2.5282,-2.5136,0.83788,-0.082029,-3.3515,1.2319e-12,-0.041015,0,0,0.5,1.1842e-15,0,0.66667
0.37408,0.89815,0.74816,0.59722,2.612,5.1991,-1.1915,0.39717,-0.73179,-1.5887,-5.0318e-11,-0.36589,0,0,0.5,-2.9606e-16,4.5479e-16,0.66667
0.27546,0.88701,0.55092,0.58051,2.7254,6.3825,-0.85285,0.28428,-0.80124,-1.1371,-4.6172e-10,-0.40062,0,0,0.5,5.9212e-16,0,0.66667
0.50941,0.79628,1.0188,0.44442,1.587,3.6269,-1.2074,0.40247,-1.2971,-1.6099,5.0748e-12,-0.64854,0,0,0.5,-0,-0,0.66667
0.88582,0.53092,1.7716,0.046373,0.026306,0.45896,-0.21908,0.073028,-1.9934,-0.29211,7.9348e-09,-0.99668,0,0,0.5,-2.2204e-16,0,0.66667
0.56529,0.80762,1.1306,0.46144,1.5073,3.0623,-1.3912,0.46373,-1.2432,-1.8549,3.9094e-11,-0.6216,0,0,0.5,8.8818e-16,0,0.66667
0.66315,0.6661,1.3263,0.24915,0.61513,2.0654,-0.88118,0.29373,-1.7789,-1.1749,1.2385e-10,-0.88943,0,0,0.5,-0,-0,0.66667
0.44138,0.72586,0.88276,0.33878,1.2975,4.3366,-0.7975,0.26583,-1.5918,-1.0633,-4.1896e-11,-0.79591,0,0,0.5,-0,-0,0.66667
0.97214,0.95255,1.9443,0.67883,0.12733,0.48533,-3.5195,1.1732,-0.36101,-4.6927,-1.4517e-06,-0.18051,0,0,0.5,-0,-0,0.66667
0.74252,0.69855,1.485,0.29783,0.56632,1.4345,-1.1794,0.39314,-1.6841,-1.5726,1.5383e-10,-0.84204,0,0,0.5,-1.1842e-15,0,0.66667
0.3549,0.034236,0.70981,-0.69865,-3.2029,5.4662,1.3224,-0.4408,-0.26501,1.7632,7.3337e-12,-0.13251,0,0,0.5,-0,-4.8435e-16,0.66667
0.65353,0.85951,1.3071,0.53926,1.4957,2.2831,-1.8796,0.62653,-0.9655,-2.5061,1.4038e-10,-0.48275,0,0,0.5,4.103e-16,0,0.66667
0.54262,0.68063,1.0852,0.27094,0.88215,3.2226,-0.7841,0.26137,-1.7389,-1.0455,2.782e-11,-0.86945,0,0,0.5,-0,-0,0.66667
0.88406,0.56841,1.7681,0.10262,0.060809,0.47463,-0.48384,0.16128,-1.9625,-0.64512,-1.7974e-09,-0.98127,0,0,0.5,-0,-0,0.66667
0.27505,0.7112,0.55011,0.3168,1.41,6.3297,-0.46474,0.15491,-1.6429,-0.61965,-2.0322e-10,-0.82147,0,0,0.5,-2.9606e-16,0,0.66667
0.10807,0.49788,0.21613,-0.0031736,-0.014874,8.49,0.0018291,-0.00060968,-2.0008,0.0024389,4.6641e-08,-1.0004,0,0,0.5,-7.4015e-17,0,0.66667
0.19127,0.27824,0.38254,-0.33264,-1.5533,7.406,0.33933,-0.11311,-1.6071,0.45244,-2.3442e-10,-0.80355,0,0,0.5,4.4409e-16,0,0.66667
0.38705,0.027195,0.77409,-0.70921,-3.172,5.0985,1.464,-0.48799,-0.212,1.952,1.846e-12,-0.106,0,0,0.5,5.9212e-16,0,0.66667
0.85406,0.008419,1.7081,-0.73737,-1.0497,1.0424,3.3587,-1.1196,-0.066504,4.4783,-1.1136e-09,-0.033252,0,0,0.5,-4.737e-15,0,0.66667
0.27084,0.34259,0.54169,-0.23611,-1.0428,6.3721,0.34106,-0.11369,-1.8026,0.45475,1.1989e-10,-0.9013,0,0,0.5,7.7716e-16,0,0.66667
0.62636,0.29184,1.2527,-0.31224,-0.86137,2.4166,1.0431,-0.34768,-1.6531,1.3907,-1.0885e-10,-0.82654,0,0,0.5,-0,-0,0.66667
0.62355,0.55158,1.2471,0.077368,0.20755,2.3918,-0.2573,0.085766,-1.9784,-0.34306,3.222e-11,-0.9892,0,0,0.5,-0,-0,0.66667
0.40805,0.34272,0.81609,-0.23591,-0.92471,4.6976,0.51341,-0.17114,-1.8031,0.68454,6.0708e-11,-0.90156,0,0,0.5,7.7716e-16,0,0.66667
0.050335,0.80148,0.10067,0.45223,2.2379,9.2745,-0.1214,0.040467,-1.2724,-0.16187,-9.8506e-09,-0.63622,0,0,0.5,-0,-0,0.66667
0.74483,0.34505,1.4897,-0.23243,-0.42934,1.3942,0.9233,-0.30777,-1.8087,1.2311,-9.4538e-11,-0.90436,0,0,0.5,-2.3685e-15,0,0.66667
0.29573,0.0011921,0.59145,-0.74821,-3.6394,6.1913,1.1801,-0.39336,-0.010542,1.5734,-8.8769e-12,-0.0052712,0,0,0.5,-0,-0,0.66667
0.39846,0.50377,0.79692,0.0056558,0.022072,4.7902,-0.012019,0.0040064,-2.0002,-0.016026,-2.0325e-12,-1.0001,0,0,0.5,-0,-0,0.66667
0.37724,0.090199,0.75448,-0.6147,-2.6941,5.1693,1.2367,-0.41225,-0.65702,1.649,3.7311e-11,-0.32851,0,0,0.5,-8.8818e-16,0,0.66667
0.6636,0.65591,1.3272,0.23387,0.57488,2.0571,-0.82772,0.27591,-1.8065,-1.1036,1.1695e-10,-0.90324,0,0,0.5,4.0708e-16,0,0.66667
0.086333,0.94906,0.17267,0.67359,3.4897,8.8161,-0.31015,0.10338,-0.38619,-0.41354,-3.1205e-08,-0.19309,0,0,0.5,1.4803e-16,0,0.66667
0.54989,0.84911,1.0998,0.52366,1.7918,3.2462,-1.5358,0.51192,-1.0252,-2.0477,1.973e-11,-0.51259,0,0,0.5,-0,-0,0.66667
0.015422,0.066782,0.030844,-0.64983,-3.3704,9.7421,0.053447,-0.017816,-0.49911,0.071263,-9.3518e-07,-0.24956,0,0,0.5,3.7007e-17,0,0.66667
0.98304,0.22499,1.9661,-0.41252,0.093833,0.1998,2.1628,-0.72092,-1.3951,2.8837,2.2865e-08,-0.69756,0,0,0.5,2.3685e-15,0,0.66667
0.59843,0.68225,1.1969,0.27337,0.79757,2.6674,-0.87249,0.29083,-1.7344,-1.1633,7.2395e-11,-0.86721,0,0,0.5,-0,-0,0.66667
0.38411,0.18432,0.76823,-0.47351,-1.9867,5.037,0.97005,-0.32335,-1.2032,1.2934,9.4166e-11,-0.6016,0,0,0.5,-5.9212e-16,0,0.66667
0.14675,0.18052,0.2935,-0.47922,-2.3354,8.0045,0.37506,-0.12502,-1.1833,0.50008,1.1656e-10,-0.59166,0,0,0.5,-1.4803e-16,0,0.66667
0.69688,0.70564,1.3938,0.30847,0.69671,1.7988,-1.1465,0.38216,-1.6611,-1.5286,1.8767e-10,-0.83053,0,0,0.5,-0,-0,0.66667
0.90581,0.105,1.8116,-0.5925,-0.43734,0.6412,2.8624,-0.95412,-0.75154,3.8165,1.6084e-09,-0.37577,0,0,0.5,-0,-0,0.66667
0.31811,0.035867,0.63622,-0.6962,-3.2812,5.9015,1.1812,-0.39372,-0.27684,1.5749,2.2198e-11,-0.13842,0,0,0.5,-0,-0,0.66667
0.76649,0.77633,1.533,0.41449,0.74393,1.315,-1.6944,0.56481,-1.3895,-2.2592,5.1103e-10,-0.69476,0,0,0.5,-2.9606e-16,0,0.66667
0.2875,0.49678,0.575,-0.0048277,-0.0208,6.1477,0.0074025,-0.0024675,-2.0003,0.0098699,5.232e-12,-1.0002,0,0,0.5,7.4015e-17,0,0.66667
0.95723,0.087171,1.9145,-0.61924,-0.16152,0.46671,3.1614,-1.0538,-0.63655,4.2152,-1.0328e-07,-0.31827,0,0,0.5,-5.9212e-16,0,0.66667
0.70232,0.87702,1.4046,0.56552,1.3861,1.8945,-2.1183,0.70609,-0.86375,-2.8244,3.2311e-10,-0.43187,0,0,0.5,-0,1.4298e-16,0.66667
0.62502,0.99442,1.25,0.74162,2.4006,2.6804,-2.4721,0.82405,-0.044782,-3.2962,-2.2782e-13,-0.022391,0,0,0.5,-0,-0,0.66667
0.93073,0.56922,1.8615,0.10383,0.014643,0.25516,-0.51538,0.17179,-1.9616,-0.68717,2.653e-08,-0.98078,0,0,0.5,-0,-0,0.66667
0.26904,0.060942,0.53808,-0.65859,-3.1703,6.4853,0.945,-0.315,-0.45863,1.26,2.222e-10,-0.22932,0,0,0.5,2.5905e-16,0,0.66667
0.92362,0.47562,1.8472,-0.036571,-0.0073816,0.27817,0.18015,-0.060049,-1.9953,0.2402,3.2873e-08,-0.99765,0,0,0.5,2.3685e-15,0,0.66667
0.67808,0.036546,1.3562,-0.69518,-1.9458,2.1902,2.5141,-0.83803,-0.28177,3.3521,-2.1568e-11,-0.14088,0,0,0.5,-2.3685e-15,0,0.66667
0.77136,0.4331,1.5427,-0.10035,-0.15926,1.1698,0.41283,-0.13761,-1.9644,0.55044,-1.9201e-10,-0.98221,0,0,0.5,-2.9606e-16,0,0.66667
0.57164,0.27649,1.1433,-0.33526,-1.0473,2.9486,1.0221,-0.3407,-1.6005,1.3628,-5.3178e-11,-0.80026,0,0,0.5,2.9606e-16,0,0.66667
0.8339,0.78749,1.6678,0.43123,0.53216,0.88642,-1.9179,0.6393,-1.3388,-2.5572,2.5706e-12,-0.66939,0,0,0.5,-0,-0,0.66667
0.69828,0.39135,1.3966,-0.16297,-0.35479,1.7447,0.60693,-0.20231,-1.9049,0.80924,-1.0347e-10,-0.95247,0,0,0.5,1.1842e-15,0,0.66667
0.14661,0.36408,0.29322,-0.20388,-0.95382,7.9818,0.15941,-0.053138,-1.8517,0.21255,-8.8983e-10,-0.92585,0,0,0.5,-1.4803e-16,0,0.66667
0.61246,0.20542,1.2249,-0.44187,-1.3044,2.5994,1.4434,-0.48112,-1.3052,1.9245,-9.5004e-11,-0.65262,0,0,0.5,-0,-0,0.66667
0.27932,0.22966,0.55864,-0.40551,-1.8266,6.2919,0.60409,-0.20136,-1.415,0.80546,3.6868e-10,-0.70749,0,0,0.5,-0,-0,0.66667
0.91588,0.58691,1.8318,0.13036,0.038312,0.32554,-0.63678,0.21226,-1.9395,-0.84905,-6.7798e-09,-0.96973,0,0,0.5,-1.234e-15,0,0.66667
0.19823,0.49436,0.39646,-0.008458,-0.038399,7.296,0.0089421,-0.0029807,-1.9998,0.011923,1.6324e-10,-0.99991,0,0,0.5,-0,-0,0.66667
0.28572,0.16717,0.57143,-0.49924,-2.2831,6.2335,0.76075,-0.25358,-1.1134,1.0143,4.5701e-10,-0.55668,0,0,0.5,-0,-0,0.66667
0.047655,0.83148,0.095309,0.49722,2.4833,9.312,-0.12637,0.042124,-1.1206,-0.1685,1.0988e-08,-0.56032,0,0,0.5,7.4015e-17,0,0.66667
0.44758,0.19944,0.89516,-0.45084,-1.7549,4.3018,1.0762,-0.35873,-1.2767,1.4349,3.0681e-11,-0.63837,0,0,0.5,-0,-0,0.66667
0.55759,0.7771,1.1152,0.41565,1.3596,3.119,-1.2361,0.41202,-1.386,-1.6481,3.8155e-11,-0.69301,0,0,0.5,1.2183e-15,0,0.66667
0.57356,0.51667,1.1471,0.024998,0.074899,2.8726,-0.07647,0.02549,-1.9972,-0.10196,5.8505e-12,-0.99858,0,0,0.5,-0,-0,0.66667
0.90538,0.20224,1.8108,-0.44664,-0.26133,0.52113,2.1567,-0.7189,-1.2903,2.8756,5.2243e-09,-0.64514,0,0,0.5,-0,-0,0.66667
0.34741,0.90464,0.69483,0.60696,2.7242,5.5172,-1.1246,0.37487,-0.69092,-1.4995,-7.8249e-11,-0.34546,0,0,0.5,-1.4803e-16,0,0.66667
0.44753,0.45731,0.89506,-0.06404,-0.23605,4.2231,0.15285,-0.05095,-1.9849,0.2038,1.0331e-11,-0.99244,0,0,0.5,-0,-0,0.66667
0.85124,0.61128,1.7025,0.16691,0.15262,0.66692,-0.75777,0.25259,-1.9003,-1.0104,-5.246e-11,-0.95015,0,0,0.5,-0,-0,0.66667
0.57683,0.091069,1.1537,-0.6134,-2.0645,3.0326,1.8871,-0.62902,-0.66293,2.5161,-1.3802e-11,-0.33146,0,0,0.5,-4.4409e-16,0,0.66667
0.65399,0.08345,1.308,-0.62483,-1.7956,2.337,2.1794,-0.72646,-0.61157,2.9058,-6.5202e-11,-0.30579,0,0,0.5,-5.9212e-16,-5.2336e-16,0.66667
0.27836,0.55505,0.55672,0.082573,0.35869,6.265,-0.12259,0.040862,-1.9757,-0.16345,-8.1185e-11,-0.98784,0,0,0.5,2.9606e-16,0,0.66667
0.48747,0.0074161,0.97494,-0.73888,-2.9916,4.012,1.921,-0.64032,-0.058801,2.5613,-5.2514e-14,-0.0294,0,0,0.5,2.3685e-15,0,0.66667
0.62095,0.24362,1.2419,-0.38457,-1.0948,2.4945,1.2736,-0.42453,-1.4742,1.6981,-1.1197e-10,-0.73708,0,0,0.5,-0,-0,0.66667
0.13339,0.17423,0.26679,-0.48866,-2.3958,8.1804,0.34765,-0.11588,-1.1503,0.46353,-3.4087e-10,-0.57517,0,0,0.5,-0,-0,0.66667
0.032909,0.9427,0.065817,0.66404,3.454,9.5132,-0.11655,0.038849,-0.43245,-0.1554,-6.7575e-07,-0.21622,0,0,0.5,7.4015e-17,0,0.66667
0.11341,0.72853,0.22682,0.3428,1.6465,8.4304,-0.20734,0.069115,-1.5818,-0.27646,8.4323e-10,-0.79091,0,0,0.5,-0,-0,0.66667
0.47746,0.4321,0.95492,-0.10185,-0.36104,3.8901,0.25935,-0.086452,-1.9632,0.34581,6.7875e-12,-0.98159,0,0,0.5,-0,-0,0.66667
0.024027,0.41009,0.048053,-0.13487,-0.64274,9.6205,0.017281,-0.0057598,-1.9356,0.023041,7.8316e-07,-0.96781,0,0,0.5,7.4015e-17,0,0.66667
0.62621,0.93658,1.2524,0.65487,2.0323,2.6024,-2.1871,0.72904,-0.47626,-2.9162,1.8578e-11,-0.23813,0,0,0.5,2.2204e-16,0,0.66667
0.097583,0.47113,0.19517,-0.043299,-0.20356,8.6305,0.022535,-0.0075115,-1.994,0.030046,2.2415e-08,-0.99698,0,0,0.5,-0,-0,0.66667
0.25096,0.46193,0.50192,-0.057099,-0.25223,6.6134,0.076424,-0.025475,-1.9885,0.1019,9.32e-11,-0.99426,0,0,0.5,1.4803e-16,0,0.66667
0.42649,0.58072,0.85299,0.12108,0.45953,4.4682,-0.27542,0.091807,-1.9473,-0.36723,-2.726e-11,-0.97365,0,0,0.5,-5.9212e-16,0,0.66667
0.11583,0.15506,0.23165,-0.51741,-2.5643,8.4139,0.31962,-0.10654,-1.0489,0.42616,-3.6865e-09,-0.52447,0,0,0.5,-1.8504e-16,0,0.66667
0.27055,0.64958,0.5411,0.22436,0.98986,6.3745,-0.32374,0.10791,-1.8209,-0.43166,-1.1766e-10,-0.91047,0,0,0.5,6.0429e-16,0,0.66667
0.02108,0.41103,0.042159,-0.13346,-0.6361,9.6602,0.015003,-0.0050008,-1.9368,0.020004,2.2216e-07,-0.96842,0,0,0.5,-0,-0,0.66667
0.98505,0.91164,1.9701,0.61746,-0.018306,0.37856,-3.2438,1.0813,-0.64476,-4.3251,8.3061e-07,-0.32238,0,0,0.5,-2.3685e-15,0,0.66667
0.61157,0.91266,1.2231,0.61899,1.9514,2.7098,-2.019,0.67299,-0.63779,-2.692,2.7852e-11,-0.3189,0,0,0.5,-0,-0,0.66667
0.37835,0.31733,0.75671,-0.27401,-1.1137,5.0545,0.55293,-0.18431,-1.7333,0.73723,9.4655e-11,-0.86664,0,0,0.5,-0,-0,0.66667
0.026528,0.47707,0.053057,-0.034398,-0.16331,9.5864,0.004864,-0.0016214,-1.9955,0.0064853,-1.3983e-07,-0.99777,0,0,0.5,-0,-0,0.66667
0.38984,0.1005,0.77968,-0.59925,-2.5839,5.0167,1.2459,-0.41531,-0.72333,1.6612,3.5073e-11,-0.36166,0,0,0.5,-0,-4.0102e-16,0.66667
0.45256,0.60277,0.90512,0.15416,0.56766,4.174,-0.37208,0.12403,-1.9154,-0.49611,-2.1153e-11,-0.9577,0,0,0.5,-0,-0,0.66667
0.931,0.20014,1.862,-0.44978,-0.1516,0.41252,2.2333,-0.74445,-1.2801,2.9778,1.2263e-08,-0.64004,0,0,0.5,-0,-0,0.66667
0.2785,0.23484,0.55701,-0.39774,-1.79,6.3006,0.59078,-0.19693,-1.437,0.78771,3.5443e-10,-0.7185,0,0,0.5,-0,-0,0.66667
0.61478,0.45624,1.2296,-0.065639,-0.17976,2.4734,0.21522,-0.07174,-1.9841,0.28696,-2.5184e-11,-0.99205,0,0,0.5,-0,-0,0.66667
0.66517,0.4662,1.3303,-0.050705,-0.12133,2.0126,0.17988,-0.059959,-1.9914,0.23984,-3.1341e-11,-0.99569,0,0,0.5,1.3323e-15,0,0.66667
0.18596,0.22814,0.37192,-0.40778,-1.9321,7.4843,0.40444,-0.13481,-1.4086,0.53925,1.5411e-10,-0.70428,0,0,0.5,-0,-0,0.66667
0.50576,0.12311,1.0115,-0.56534,-2.1015,3.7203,1.5249,-0.50831,-0.86429,2.0333,-1.3937e-12,-0.43214,0,0,0.5,-7.4015e-17,0,0.66667
0.7865,0.58694,1.573,0.13041,0.19152,1.0684,-0.54704,0.18235,-1.9394,-0.72939,2.0594e-10,-0.96971,0,0,0.5,-5.9212e-16,0,0.66667
0.096579,0.3125,0.19316,-0.28125,-1.345,8.6506,0.14487,-0.048289,-1.7199,0.19316,-2.2541e-09,-0.85996,0,0,0.5,2.9606e-16,0,0.66667
0.60604,0.021674,1.2121,-0.71749,-2.3857,2.8317,2.3191,-0.77302,-0.16932,3.0921,-1.3882e-12,-0.08466,0,0,0.5,1.1842e-15,5.0337e-16,0.66667
0.02606,0.10322,0.05212,-0.59518,-3.0436,9.6009,0.082722,-0.027575,-0.74012,0.1103,-9.4862e-07,-0.37006,0,0,0.5,-0,-0,0.66667
0.0070467,0.81731,0.014093,0.47597,2.3725,9.8507,-0.017888,0.0059627,-1.1946,-0.023851,-1.8488e-08,-0.59732,0,0,0.5,-0,-0,0.66667
0.059529,0.029081,0.11906,-0.70638,-3.7075,9.168,0.22427,-0.074755,-0.2266,0.29902,-3.3653e-07,-0.1133,0,0,0.5,-0,-0,0.66667
0.4814,0.75066,0.9628,0.376,1.3764,3.9027,-0.96536,0.32179,-1.4984,-1.2871,-1.2093e-11,-0.74918,0,0,0.5,-1.1842e-15,0,0.66667
0.9257,0.30437,1.8514,-0.29345,-0.07894,0.33878,1.4488,-0.48293,-1.6936,1.9317,-1.0551e-08,-0.84681,0,0,0.5,-0,-0,0.66667
0.40556,0.40507,0.81111,-0.1424,-0.55447,4.7139,0.308,-0.10267,-1.929,0.41067,4.1798e-11,-0.96448,0,0,0.5,3.7007e-17,0,0.66667
0.075033,0.5209,0.15007,0.031349,0.148,8.9331,-0.012545,0.0041816,-1.9961,-0.016727,-3.5933e-08,-0.99807,0,0,0.5,-0,-0,0.66667
0.86135,0.6872,1.7227,0.2808,0.24565,0.64877,-1.29,0.42999,-1.7208,-1.72,-1.8756e-10,-0.8604,0,0,0.5,-2.5905e-16,0,0.66667
0.5193,0.30955,1.0386,-0.28568,-0.97029,3.4695,0.79122,-0.26374,-1.7104,1.055,-1.258e-11,-0.85518,0,0,0.5,7.4015e-16,0,0.66667
0.31894,0.62751,0.63787,0.19127,0.81201,5.7645,-0.32535,0.10845,-1.8705,-0.43379,-1.0817e-10,-0.93523,0,0,0.5,1.1842e-15,0,0.66667
0.96303,0.80991,1.9261,0.46486,0.012925,0.30412,-2.3876,0.79586,-1.2322,-3.1835,-2.8489e-08,-0.6161,0,0,0.5,-2.9606e-16,0,0.66667
0.93826,0.4091,1.8765,-0.13635,-0.010115,0.23025,0.68231,-0.22744,-1.9346,0.90974,-1.5157e-07,-0.96731,0,0,0.5,-0,-0,0.66667
0.26002,0.97233,0.52004,0.7085,3.4787,6.6127,-0.98252,0.32751,-0.21558,-1.31,-5.7825e-11,-0.10779,0,0,0.5,-0,-0,0.66667
0.20139,0.64727,0.40278,0.22091,1.0127,7.2634,-0.23727,0.079091,-1.8263,-0.31636,1.1573e-10,-0.91316,0,0,0.5,-1.4803e-16,0,0.66667
0.58891,0.78847,1.1778,0.4327,1.339,2.8184,-1.3591,0.45302,-1.3341,-1.8121,6.5923e-11,-0.66707,0,0,0.5,-0,-0,0.66667
0.84252,0.0061131,1.685,-0.74083,-1.136,1.1079,3.3289,-1.1096,-0.048792,4.4385,-3.935e-10,-0.024396,0,0,0.5,4.737e-15,0,0.66667
0.33672,0.21691,0.67344,-0.42464,-1.8397,5.5884,0.76258,-0.25419,-1.3595,1.0168,2.0402e-10,-0.67976,0,0,0.5,-7.4015e-16,0,0.66667
0.58643,0.57577,1.1729,0.11366,0.33294,2.7514,-0.35549,0.1185,-1.9534,-0.47398,3.0656e-11,-0.97671,0,0,0.5,-0,-0,0.66667
0.16224,0.9534,0.32449,0.6801,3.4612,7.836,-0.5885,0.19617,-0.35476,-0.78466,-3.1901e-09,-0.17738,0,0,0.5,-0,-0,0.66667
0.19459,0.060445,0.38919,-0.65933,-3.2959,7.4188,0.68428,-0.22809,-0.45494,0.91237,1.7018e-09,-0.22747,0,0,0.5,7.4015e-17,0,0.66667
0.76134,0.9671,1.5227,0.70065,1.5188,1.5677,-2.8449,0.94831,-0.25531,-3.7933,1.3707e-10,-0.12766,0,0,0.5,1.4803e-15,0,0.66667
0.1501,0.4822,0.3002,-0.026707,-0.12367,7.9302,0.021379,-0.0071264,-1.9968,0.028506,4.1e-10,-0.99842,0,0,0.5,2.9606e-16,0,0.66667
0.26591,0.28937,0.53181,-0.31595,-1.4143,6.4451,0.44807,-0.14936,-1.6451,0.59742,1.936e-10,-0.82255,0,0,0.5,-0,-0,0.66667
0.68949,0.45338,1.379,-0.06993,-0.15522,1.8047,0.25715,-0.085718,-1.9821,0.34287,-5.138e-11,-0.99106,0,0,0.5,-1.1842e-15,0,0.66667
0.015089,0.70277,0.030179,0.30415,1.4735,9.742,-0.024477,0.0081591,-1.6707,-0.032636,4.6332e-08,-0.83534,0,0,0.5,-0,-0,0.66667
0.032194,0.21036,0.064389,-0.43446,-2.1463,9.5153,0.074599,-0.024866,-1.3288,0.099465,-9.1087e-09,-0.6644,0,0,0.5,-3.7007e-17,0,0.66667
0.28753,0.13666,0.57505,-0.54502,-2.5164,6.2233,0.83577,-0.27859,-0.94329,1.1144,4.1886e-10,-0.47164,0,0,0.5,-0,-0,0.66667
0.33662,0.26819,0.67325,-0.34771,-1.4851,5.5718,0.62425,-0.20808,-1.5695,0.83234,1.7317e-10,-0.78475,0,0,0.5,-0,-0,0.66667
0.36222,0.8167,0.72443,0.47505,2.0352,5.2962,-0.91771,0.3059,-1.198,-1.2236,-1.3509e-10,-0.59899,0,0,0.5,-0,-0,0.66667
0.80719,0.88738,1.6144,0.58106,0.94433,1.1596,-2.5015,0.83383,-0.79895,-3.3353,2.6149e-09,-0.39947,0,0,0.5,-0,-0,0.66667
0.035981,0.10633,0.071962,-0.59051,-3.0144,9.47,0.11332,-0.037773,-0.7596,0.15109,-5.2933e-08,-0.3798,0,0,0.5,-0,-0,0.66667
0.3584,0.41538,0.71679,-0.12693,-0.5181,5.2749,0.24262,-0.080875,-1.9426,0.3235,5.9792e-11,-0.97129,0,0,0.5,-0,-0,0.66667
0.63828,0.69615,1.2766,0.29422,0.78469,2.3014,-1.0016,0.33386,-1.692,-1.3354,1.1775e-10,-0.84601,0,0,0.5,1.1842e-15,0,0.66667
0.143,0.43995,0.28601,-0.09007,-0.41877,8.0253,0.068695,-0.022898,-1.9718,0.091594,2.3917e-09,-0.98592,0,0,0.5,-0,-0,0.66667
0.85774,0.92906,1.7155,0.64359,0.80819,0.92452,-2.9442,0.9814,-0.52713,-3.9256,8.5344e-09,-0.26356,0,0,0.5,-0,-4.6682e-16,0.66667
0.64556,0.89482,1.2911,0.59223,1.7122,2.3872,-2.0391,0.67968,-0.75243,-2.7187,8.0119e-11,-0.37621,0,0,0.5,-5.9212e-16,0,0.66667
0.11529,0.65348,0.23059,0.23022,1.0899,8.3989,-0.14156,0.047187,-1.8121,-0.18875,3.4838e-10,-0.90603,0,0,0.5,3.7007e-17,0,0.66667
0.2081,0.95595,0.41619,0.68393,3.4225,7.2537,-0.75906,0.25302,-0.33627,-1.0121,-7.005e-10,-0.16813,0,0,0.5,-0,-0,0.66667
0.7455,0.23223,1.491,-0.40166,-0.78453,1.4603,1.597,-0.53233,-1.4258,2.1293,-4.2439e-10,-0.7129,0,0,0.5,-0,-0,0.66667
0.40341,0.77653,0.80681,0.41479,1.6843,4.7936,-0.89243,0.29748,-1.3885,-1.1899,-7.7318e-11,-0.69427,0,0,0.5,-6.4931e-16,0,0.66667
0.48447,0.70486,0.96894,0.30728,1.105,3.8491,-0.79397,0.26466,-1.6639,-1.0586,-1.0239e-11,-0.83197,0,0,0.5,5.9212e-16,0,0.66667
0.88746,0.48642,1.7749,-0.020371,-0.011203,0.44924,0.096419,-0.03214,-1.998,0.12856,-3.9845e-09,-0.999,0,0,0.5,1.1842e-15,0,0.66667
0.13744,0.35178,0.27489,-0.22233,-1.0451,8.1042,0.16298,-0.054326,-1.8241,0.2173,-1.4189e-09,-0.91204,0,0,0.5,-0,-0,0.66667
0.96437,0.15595,1.9287,-0.51608,-0.034126,0.34263,2.6544,-0.88479,-1.054,3.5392,-9.593e-09,-0.52702,0,0,0.5,-3.7007e-16,0,0.66667
0.04263,0.63231,0.085259,0.19847,0.9489,9.3707,-0.045123,0.015041,-1.8598,-0.060165,-1.3756e-07,-0.92991,0,0,0.5,-0,-0,0.66667
0.09944,0.69079,0.19888,0.28618,1.3686,8.6127,-0.15177,0.050592,-1.7092,-0.20237,-1.1734e-09,-0.85461,0,0,0.5,-0,-0,0.66667
0.22324,0.15437,0.44648,-0.51845,-2.4693,7.0236,0.61727,-0.20576,-1.045,0.82302,1.3064e-09,-0.52251,0,0,0.5,4.4409e-16,0,0.66667
0.80659,0.14196,1.6132,-0.53706,-0.8482,1.1281,2.3103,-0.7701,-0.97382,3.0804,-2.1548e-09,-0.48691,0,0,0.5,-0,-0,0.66667
0.45587,0.70461,0.91175,0.30691,1.1477,4.1652,-0.74621,0.24874,-1.6646,-0.99494,-3.007e-11,-0.83228,0,0,0.5,-0,-0,0.66667
0.65325,0.76015,1.3065,0.39022,1.0271,2.2051,-1.3595,0.45318,-1.4582,-1.8127,1.7039e-10,-0.72912,0,0,0.5,-0,-0,0.66667
0.17432,0.64782,0.34864,0.22173,1.0286,7.6176,-0.20614,0.068714,-1.825,-0.27485,3.8918e-10,-0.91252,0,0,0.5,-1.4803e-16,0,0.66667
0.16672,0.18163,0.33344,-0.47756,-2.3106,7.744,0.42464,-0.14155,-1.1891,0.56619,8.6521e-10,-0.59456,0,0,0.5,2.4675e-16,0,0.66667
0.52085,0.11611,1.0417,-0.57583,-2.1001,3.5689,1.5996,-0.53319,-0.82073,2.1328,-4.5501e-12,-0.41037,0,0,0.5,-0,-0,0.66667
0.74029,0.50936,1.4806,0.014033,0.025638,1.3931,-0.055404,0.018468,-1.9989,-0.073872,2.2702e-11,-0.99946,0,0,0.5,-0,-0,0.66667
0.46247,0.45731,0.92495,-0.064035,-0.23139,4.0544,0.15794,-0.052648,-1.9849,0.21059,7.2986e-12,-0.99244,0,0,0.5,-5.9212e-16,0,0.66667
0.86961,0.95095,1.7392,0.67642,0.80581,0.89656,-3.1372,1.0457,-0.37254,-4.183,9.9363e-09,-0.18627,0,0,0.5,1.1842e-15,0,0.66667
0.66041,0.42284,1.3208,-0.11573,-0.28213,2.0609,0.40764,-0.13588,-1.9518,0.54351,-6.3742e-11,-0.97589,0,0,0.5,-0,-0,0.66667
0.24909,0.48536,0.49818,-0.021962,-0.097063,6.6368,0.029176,-0.0097255,-1.9979,0.038902,3.8899e-11,-0.99893,0,0,0.5,-2.9606e-16,0,0.66667
0.2349,0.11236,0.4698,-0.58147,-2.7947,6.8899,0.72847,-0.24282,-0.79752,0.97129,1.0919e-09,-0.39876,0,0,0.5,-2.9606e-16,0,0.66667
0.37405,0.95986,0.74809,0.6898,3.1022,5.2391,-1.3761,0.45869,-0.30809,-1.8348,-7.9574e-12,-0.15405,0,0,0.5,-2.9606e-16,0,0.66667
0.75662,0.29089,1.5132,-0.31367,-0.56425,1.3363,1.2657,-0.42191,-1.6498,1.6877,-1.4065e-10,-0.82488,0,0,0.5,-0,-0,0.66667
0.93794,0.59003,1.8759,0.13505,0.010408,0.23128,-0.67554,0.22518,-1.9358,-0.90072,1.3593e-07,-0.96788,0,0,0.5,-1.4803e-15,0,0.66667
0.86191,0.86889,1.7238,0.55334,0.61171,0.81989,-2.5436,0.84787,-0.91146,-3.3915,2.8986e-09,-0.45573,0,0,0.5,-1.7764e-15,0,0.66667
0.26161,0.10899,0.52322,-0.58651,-2.7811,6.5564,0.81833,-0.27278,-0.77631,1.0911,5.9858e-10,-0.38815,0,0,0.5,-5.9212e-16,0,0.66667
0.41228,0.82737,0.82456,0.49105,2.0101,4.7162,-1.0797,0.35991,-1.142,-1.4396,-5.3167e-11,-0.571,0,0,0.5,-5.9212e-16,0,0.66667
0.61154,0.33883,1.2231,-0.24176,-0.6808,2.5336,0.78852,-0.26284,-1.7925,1.0514,-7.7593e-11,-0.89624,0,0,0.5,-5.9212e-16,0,0.66667
0.54683,0.62379,1.0937,0.18569,0.59254,3.1603,-0.54156,0.18052,-1.8785,-0.72208,2.4259e-11,-0.93925,0,0,0.5,1.7023e-15,0,0.66667
0.38927,0.98299,0.77855,0.72448,3.2501,5.0806,-1.5041,0.50137,-0.13333,-2.0055,-1.2362e-12,-0.066666,0,0,0.5,5.9212e-16,0,0.66667
0.10142,0.62979,0.20284,0.19469,0.92176,8.5824,-0.10531,0.035104,-1.8654,-0.14041,-4.7579e-09,-0.93268,0,0,0.5,2.9606e-16,0,0.66667
0.71224,0.91716,1.4245,0.62575,1.5334,1.8617,-2.377,0.79233,-0.60728,-3.1693,2.395e-10,-0.30364,0,0,0.5,-0,-0,0.66667
0.088135,0.25882,0.17627,-0.36176,-1.7525,8.7673,0.17005,-0.056683,-1.5343,0.22673,-2.4927e-10,-0.76717,0,0,0.5,-0,-0,0.66667
0.86608,0.13337,1.7322,-0.54994,-0.58468,0.79504,2.5402,-0.84674,-0.92437,3.387,-2.4943e-09,-0.46218,0,0,0.5,2.3685e-15,0,0.66667
0.86345,0.45144,1.7269,-0.072843,-0.056766,0.58081,0.33545,-0.11182,-1.9806,0.44726,-2.053e-09,-0.99028,0,0,0.5,1.1842e-15,0,0.66667
0.70845,0.56295,1.4169,0.094423,0.19663,1.6502,-0.35677,0.11892,-1.9693,-0.47569,8.0267e-11,-0.98463,0,0,0.5,2.3685e-15,0,0.66667
0.48642,0.019851,0.97285,-0.72022,-2.8996,4.0112,1.8685,-0.62282,-0.15528,2.4913,2.5535e-14,-0.077638,0,0,0.5,-1.1842e-15,0,0.66667
0.69915,0.99142,1.3983,0.73713,1.9951,2.0587,-2.7486,0.9162,-0.067795,-3.6648,3.5889e-12,-0.033897,0,0,0.5,1.7764e-15,0,0.66667
0.39499,0.35642,0.78997,-0.21538,-0.85419,4.8475,0.45371,-0.15124,-1.8345,0.60495,6.6031e-11,-0.91726,0,0,0.5,-5.9212e-16,0,0.66667
0.7975,0.047867,1.595,-0.6782,-1.2445,1.3077,2.8846,-0.96153,-0.36421,3.8461,-9.5492e-10,-0.18211,0,0,0.5,1.1842e-15,0,0.66667
0.78642,0.17392,1.5728,-0.48912,-0.83134,1.2243,2.0515,-0.68382,-1.1488,2.7353,-1.1982e-09,-0.57439,0,0,0.5,-1.1842e-15,0,0.66667
0.15553,0.89369,0.31106,0.59053,2.9424,7.9064,-0.48984,0.16328,-0.75975,-0.65311,-5.4755e-09,-0.37987,0,0,0.5,-4.8024e-16,5.694e-16,0.66667
0.31782,0.39291,0.63564,-0.16064,-0.68078,5.7753,0.27228,-0.09076,-1.9076,0.36304,9.5375e-11,-0.95382,0,0,0.5,-0,-0,0.66667
0.34398,0.73087,0.68797,0.3463,1.4695,5.4821,-0.63532,0.21177,-1.5733,-0.84709,-1.606e-10,-0.78666,0,0,0.5,-5.9212e-16,0,0.66667
0.36417,0.16084,0.72834,-0.50873,-2.1932,5.2836,0.98808,-0.32936,-1.08,1.3174,1.1746e-10,-0.54,0,0,0.5,-0,-0,0.66667
0.56665,0.61345,1.1333,0.17017,0.52201,2.9562,-0.51427,0.17142,-1.8966,-0.68569,3.2819e-11,-0.94828,0,0,0.5,-0,-0,0.66667
0.041687,0.76339,0.083375,0.39508,1.9369,9.3877,-0.08784,0.02928,-1.4444,-0.11712,-7.2875e-09,-0.7222,0,0,0.5,-0,-0,0.66667
0.65997,0.70672,1.3199,0.31009,0.78351,2.1133,-1.0915,0.36382,-1.6576,-1.4553,1.4989e-10,-0.82881,0,0,0.5,-0,-0,0.66667
0.20163,0.8168,0.40326,0.4752,2.2655,7.292,-0.51102,0.17034,-1.1975,-0.68136,-1.1173e-09,-0.59876,0,0,0.5,-0,-0,0.66667
0.41646,0.2235,0.83293,-0.41476,-1.6604,4.6427,0.92123,-0.30708,-1.3885,1.2283,6.2255e-11,-0.69427,0,0,0.5,-0,-0,0.66667
0.45089,0.16681,0.90179,-0.49979,-1.9616,4.2834,1.2019,-0.40062,-1.1115,1.6025,2.2532e-11,-0.55576,0,0,0.5,-0,-0,0.66667
0.34873,0.88002,0.69745,0.57003,2.53,5.4881,-1.0602,0.35339,-0.84483,-1.4136,-1.108e-10,-0.42242,0,0,0.5,-0,-0,0.66667
0.38328,0.36035,0.76656,-0.20947,-0.84041,4.9853,0.4282,-0.14273,-1.8433,0.57093,7.3154e-11,-0.92166,0,0,0.5,5.9212e-16,0,0.66667
0.18031,0.54288,0.36061,0.064326,0.29467,7.5318,-0.061858,0.020619,-1.9847,-0.082477,-6.0132e-10,-0.99236,0,0,0.5,2.9606e-16,0,0.66667
0.06813,0.81761,0.13626,0.47642,2.3633,9.0396,-0.17311,0.057704,-1.1931,-0.23082,7.5681e-09,-0.59655,0,0,0.5,-0,-0,0.66667
0.55126,0.16418,1.1025,-0.50373,-1.7089,3.2224,1.481,-0.49366,-1.0976,1.9747,-2.3229e-11,-0.5488,0,0,0.5,-1.1842e-15,0,0.66667
0.59587,0.4447,1.1917,-0.082947,-0.23752,2.6561,0.2636,-0.087867,-1.9755,0.35147,-2.5729e-11,-0.98776,0,0,0.5,-0,-0,0.66667
0.1455,0.37933,0.291,-0.181,-0.84549,7.9954,0.14046,-0.04682,-1.8838,0.18728,-4.4381e-10,-0.94189,0,0,0.5,-5.9212e-16,0,0.66667
0.23094,0.15872,0.46188,-0.51192,-2.4251,6.9243,0.63053,-0.21018,-1.0689,0.8407,1.1389e-09,-0.53443,0,0,0.5,-5.9212e-16,0,0.66667
0.28638,0.74191,0.57275,0.36287,1.6145,6.1954,-0.55422,0.18474,-1.5316,-0.73896,-2.7326e-10,-0.7658,0,0,0.5,2.9606e-16,0,0.66667
0.83075,0.99515,1.6615,0.74273,1.219,1.1752,-3.2908,1.0969,-0.03887,-4.3877,-6.4295e-10,-0.019435,0,0,0.5,5.9212e-16,0,0.66667
0.15342,0.031936,0.30684,-0.7021,-3.6057,7.9533,0.57449,-0.1915,-0.24834,0.76598,1.4279e-09,-0.12417,0,0,0.5,-0,-0,0.66667
0.55214,0.032638,1.1043,-0.70104,-2.5474,3.3303,2.0644,-0.68813,-0.25335,2.7525,-5.3979e-13,-0.12668,0,0,0.5,-2.3685e-15,0,0.66667
0.56814,0.19799,1.1363,-0.45302,-1.4684,3.0302,1.3727,-0.45756,-1.2698,1.8302,-4.2545e-11,-0.63492,0,0,0.5,-0,-0,0.66667
0.34342,0.76378,0.68684,0.39568,1.6948,5.5001,-0.72471,0.24157,-1.443,-0.96628,-1.7907e-10,-0.7215,0,0,0.5,-0,-0,0.66667
0.35062,0.99772,0.70123,0.74658,3.4883,5.5381,-1.3961,0.46536,-0.018781,-1.8614,1.4088e-12,-0.0093903,0,0,0.5,1.8504e-15,0,0.66667
0.95911,0.57855,1.9182,0.11782,-0.016696,0.14527,-0.60267,0.20089,-1.95,-0.80356,-1.1709e-09,-0.97499,0,0,0.5,-0,-0,0.66667
0.55334,0.21879,1.1067,-0.42181,-1.3926,3.1642,1.2448,-0.41494,-1.3684,1.6598,-3.4497e-11,-0.68421,0,0,0.5,-0,-0,0.66667
0.65273,0.84955,1.3055,0.52433,1.4486,2.2809,-1.8253,0.60844,-1.0226,-2.4337,1.4957e-10,-0.5113,0,0,0.5,-0,-0,0.66667
0.49074,0.44587,0.98148,-0.081192,-0.28194,3.7425,0.2125,-0.070834,-1.9763,0.28334,2.1781e-12,-0.98813,0,0,0.5,1.1842e-15,0,0.66667
0.64665,0.085672,1.2933,-0.62149,-1.815,2.3981,2.1434,-0.71447,-0.6264,2.8579,-5.7977e-11,-0.3132,0,0,0.5,-0,-0,0.66667
0.60525,0.7387,1.2105,0.35805,1.0488,2.6309,-1.1558,0.38526,-1.5437,-1.541,8.9021e-11,-0.77185,0,0,0.5,5.9212e-16,0,0.66667
0.14517,0.082599,0.29035,-0.6261,-3.1581,8.0461,0.48476,-0.16159,-0.60573,0.64635,8.0137e-09,-0.30287,0,0,0.5,-1.4803e-16,0,0.66667
0.33468,0.095343,0.66936,-0.60699,-2.7525,5.6692,1.0834,-0.36115,-0.69073,1.4446,1.0312e-10,-0.34536,0,0,0.5,-0,-0,0.66667
0.46043,0.92953,0.92087,0.64429,2.6093,4.2455,-1.5821,0.52738,-0.5238,-2.1095,-3.061e-12,-0.2619,0,0,0.5,-0,-0,0.66667
0.12782,0.81493,0.25564,0.47239,2.312,8.2516,-0.32204,0.10735,-1.2072,-0.42938,1.3636e-09,-0.60362,0,0,0.5,2.9606e-16,0,0.66667
0.36307,0.98364,0.72615,0.72547,3.3319,5.383,-1.4048,0.46826,-0.12812,-1.873,-2.3633e-12,-0.06406,0,0,0.5,-0,-0,0.66667
0.22814,0.20279,0.45628,-0.44581,-2.0857,6.9471,0.54244,-0.18081,-1.2927,0.72326,7.2748e-10,-0.64634,0,0,0.5,-2.9606e-16,0,0.66667
0.8475,0.71505,1.695,0.32258,0.33136,0.74591,-1.4581,0.48602,-1.6304,-1.9441,-7.2376e-10,-0.81521,0,0,0.5,-2.9606e-16,0,0.66667
0.34147,0.44094,0.68295,-0.08859,-0.36644,5.4785,0.16134,-0.05378,-1.9726,0.21512,4.9954e-11,-0.98631,0,0,0.5,-0,-0,0.66667
0.22679,0.76364,0.45358,0.39547,1.8341,6.9558,-0.47833,0.15944,-1.4433,-0.63778,-3.9877e-10,-0.72164,0,0,0.5,-0,-0,0.66667
0.40818,0.28952,0.81636,-0.31572,-1.2518,4.712,0.68732,-0.22911,-1.6455,0.91642,7.1277e-11,-0.82273,0,0,0.5,-0,-0,0.66667
0.68306,0.37592,1.3661,-0.18612,-0.42761,1.8773,0.67803,-0.22601,-1.8777,0.90404,-1.0673e-10,-0.93887,0,0,0.5,2.3685e-15,0,0.66667
0.065622,0.75153,0.13124,0.3773,1.8392,9.0679,-0.13205,0.044016,-1.4947,-0.17606,7.7804e-11,-0.74734,0,0,0.5,-0,-0,0.66667
0.18073,0.67955,0.36146,0.26933,1.2527,7.5372,-0.2596,0.086534,-1.7418,-0.34614,4.1291e-10,-0.87091,0,0,0.5,2.9606e-16,0,0.66667
0.69431,0.14693,1.3886,-0.5296,-1.3081,1.9344,1.9611,-0.6537,-1.0023,2.6148,-3.1217e-10,-0.50117,0,0,0.5,-0,-0,0.66667
0.75226,0.021328,1.5045,-0.71801,-1.6274,1.6473,2.8807,-0.96022,-0.1667,3.8409,-6.7676e-11,-0.08335,0,0,0.5,1.1842e-15,0,0.66667
0.61775,0.20667,1.2355,-0.43999,-1.2828,2.5493,1.4496,-0.48321,-1.3111,1.9329,-1.0357e-10,-0.65554,0,0,0.5,-0,-0,0.66667
0.8792,0.47542,1.7584,-0.036873,-0.023191,0.49272,0.1729,-0.057634,-1.9951,0.23053,-7.6113e-09,-0.99756,0,0,0.5,2.3685e-15,0,0.66667
0.1688,0.90146,0.3376,0.6022,2.9954,7.7372,-0.54214,0.18071,-0.71087,-0.72285,-4.8272e-09,-0.35544,0,0,0.5,1.7396e-16,-4.2467e-16,0.66667
0.70355,0.018279,1.4071,-0.72258,-1.916,2.0113,2.7113,-0.90377,-0.14322,3.6151,-1.4397e-11,-0.071609,0,0,0.5,-2.3685e-15,0,0.66667
0.91726,0.070885,1.8345,-0.64367,-0.44567,0.64325,3.1489,-1.0496,-0.52662,4.1985,-4.2963e-08,-0.26331,0,0,0.5,-0,-0,0.66667
0.15074,0.52781,0.30148,0.041709,0.19314,7.9219,-0.033532,0.011177,-1.9942,-0.044709,-2.24e-09,-0.9971,0,0,0.5,-2.9606e-16,0,0.66667
0.24376,0.012721,0.48753,-0.73092,-3.6452,6.8209,0.95025,-0.31675,-0.099869,1.267,4.4415e-11,-0.049934,0,0,0.5,-0,-0,0.66667
0.54668,0.99856,1.0934,0.74785,2.794,3.4169,-2.1805,0.72682,-0.012515,-2.9073,-1.2035e-13,-0.0062577,0,0,0.5,2.2945e-15,0,0.66667
0.34412,0.48962,0.68824,-0.01557,-0.064123,5.4438,0.028575,-0.0095251,-1.9989,0.0381,8.8772e-12,-0.99947,0,0,0.5,-2.9606e-16,0,0.66667
0.69064,0.82371,1.3813,0.48556,1.1899,1.9368,-1.7885,0.59618,-1.1613,-2.3847,3.1083e-10,-0.58064,0,0,0.5,-0,-0,0.66667
0.057568,0.96696,0.11514,0.70045,3.6711,9.1931,-0.21506,0.071686,-0.25626,-0.28674,4.2757e-07,-0.12813,0,0,0.5,-8.3267e-17,0,0.66667
0.16076,0.2414,0.32153,-0.3879,-1.8496,7.8104,0.33258,-0.11086,-1.4647,0.44345,-5.254e-10,-0.73237,0,0,0.5,1.4803e-16,0,0.66667
0.71624,0.22011,1.4325,-0.41983,-0.9223,1.6939,1.6037,-0.53458,-1.3742,2.1383,-3.8201e-10,-0.6871,0,0,0.5,-0,-0,0.66667
0.97062,0.96997,1.9412,0.70495,0.16977,0.52113,-3.6493,1.2164,-0.23399,-4.8657,-3.8254e-06,-0.117,0,0,0.5,-2.3685e-15,0,0.66667
0.92955,0.34051,1.8591,-0.23924,-0.048088,0.29859,1.1861,-0.39535,-1.7969,1.5814,2.3828e-08,-0.89844,0,0,0.5,-0,-0,0.66667
0.90107,0.20697,1.8021,-0.43954,-0.27255,0.53601,2.1123,-0.70409,-1.3126,2.8164,5.1884e-09,-0.65628,0,0,0.5,-0,-0,0.66667
0.12774,0.17241,0.25549,-0.49138,-2.4144,8.2547,0.33478,-0.11159,-1.1409,0.44637,-7.6514e-10,-0.57047,0,0,0.5,-0,-0,0.66667
0.14593,0.30722,0.29186,-0.28918,-1.3658,7.9963,0.22506,-0.075021,-1.7028,0.30008,-9.8963e-10,-0.85139,0,0,0.5,-2.2204e-16,0,0.66667
0.072265,0.42631,0.14453,-0.11053,-0.52333,8.971,0.042599,-0.0142,-1.956,0.056799,3.4253e-08,-0.97802,0,0,0.5,-7.4015e-17,0,0.66667
0.54254,0.11519,1.0851,-0.57721,-2.035,3.3486,1.6702,-0.55673,-0.81502,2.2269,-9.9157e-12,-0.40751,0,0,0.5,-5.9212e-16,0,0.66667
0.88249,0.37526,1.765,-0.18711,-0.11841,0.50195,0.88067,-0.29356,-1.8765,1.1742,5.186e-09,-0.93824,0,0,0.5,-0,-0,0.66667
0.53179,0.78252,1.0636,0.42378,1.4527,3.3849,-1.2019,0.40064,-1.3625,-1.6026,1.9201e-11,-0.68126,0,0,0.5,-0,-0,0.66667
0.78172,0.38596,1.5634,-0.17106,-0.26024,1.1101,0.71319,-0.23773,-1.8957,0.95092,-9.0718e-11,-0.94786,0,0,0.5,2.3685e-15,0,0.66667
0.18845,0.301,0.37691,-0.2985,-1.3889,7.439,0.30002,-0.10001,-1.6829,0.40002,-3.1531e-10,-0.84144,0,0,0.5,-2.9606e-16,0,0.66667
0.86311,0.71527,1.7262,0.32291,0.28578,0.6586,-1.4864,0.49548,-1.6297,-1.9819,-1.3154e-09,-0.81485,0,0,0.5,-1.4803e-15,0,0.66667
0.18742,0.90243,0.37485,0.60365,2.9824,7.4983,-0.60341,0.20114,-0.70499,-0.80455,-3.0482e-09,-0.35249,0,0,0.5,7.4015e-17,2.5385e-16,0.66667
0.054764,0.79497,0.10953,0.44246,2.1844,9.2152,-0.12923,0.043077,-1.3033,-0.17231,-7.8908e-09,-0.65163,0,0,0.5,-0,-0,0.66667
0.42149,0.62865,0.84298,0.19298,0.74124,4.5345,-0.4338,0.1446,-1.8682,-0.5784,-4.3723e-11,-0.93411,0,0,0.5,1.1842e-15,0,0.66667
0.5551,0.16386,1.1102,-0.50421,-1.6993,3.1842,1.4927,-0.49758,-1.0959,1.9903,-2.5418e-11,-0.54793,0,0,0.5,-0,-0,0.66667
0.97074,0.74895,1.9415,0.37342,-0.048993,0.21226,-1.9333,0.64444,-1.5052,-2.5778,-6.8084e-10,-0.75259,0,0,0.5,-1.3323e-15,0,0.66667
0.091754,0.59239,0.18351,0.13858,0.65479,8.7101,-0.067814,0.022605,-1.9326,-0.090419,-2.8504e-08,-0.96632,0,0,0.5,-1.8504e-17,0,0.66667
0.27392,0.28359,0.54784,-0.32461,-1.4475,6.3453,0.47423,-0.15808,-1.6259,0.6323,2.1237e-10,-0.81295,0,0,0.5,1.1842e-15,0,0.66667
0.10511,0.48108,0.21021,-0.028376,-0.13314,8.5297,0.015907,-0.0053023,-1.9966,0.021209,1.2553e-08,-0.9983,0,0,0.5,-0,-0,0.66667
0.39044,0.77681,0.78088,0.41522,1.7089,4.945,-0.86462,0.28821,-1.3875,-1.1528,-9.4776e-11,-0.69376,0,0,0.5,-0,-0,0.66667
0.28901,0.22681,0.57802,-0.40979,-1.8353,6.1718,0.63165,-0.21055,-1.4026,0.8422,3.4466e-10,-0.70132,0,0,0.5,-5.9212e-16,0,0.66667
0.5133,0.075364,1.0266,-0.63695,-2.3985,3.6809,1.7437,-0.58124,-0.55701,2.325,-1.1123e-12,-0.27851,0,0,0.5,-0,6.7397e-16,0.66667
0.34826,0.67315,0.69651,0.25972,1.0838,5.414,-0.48239,0.1608,-1.7596,-0.64319,-1.189e-10,-0.87978,0,0,0.5,-5.9212e-16,0,0.66667
0.92823,0.41132,1.8565,-0.13302,-0.023033,0.27158,0.65854,-0.21951,-1.9372,0.87805,5.6517e-08,-0.9686,0,0,0.5,-0,-0,0.66667
0.78995,0.43275,1.5799,-0.10088,-0.1445,1.04,0.425,-0.14167,-1.964,0.56666,-2.6274e-10,-0.98199,0,0,0.5,1.7764e-15,0,0.66667
0.86101,0.8875,1.722,0.58124,0.66642,0.84888,-2.6691,0.8897,-0.79837,-3.5588,5.874e-09,-0.39918,0,0,0.5,-0,-0,0.66667
0.1295,0.053844,0.259,-0.66923,-3.4298,8.2555,0.46222,-0.15407,-0.40728,0.61629,1.1638e-08,-0.20364,0,0,0.5,1.4803e-16,0,0.66667
0.57507,0.27064,1.1501,-0.34403,-1.0696,2.9177,1.0552,-0.35172,-1.5788,1.4069,-5.6295e-11,-0.78939,0,0,0.5,-0,-0,0.66667
0.21478,0.17028,0.42957,-0.49458,-2.353,7.1268,0.56655,-0.18885,-1.1297,0.7554,1.2385e-09,-0.56484,0,0,0.5,-0,-0,0.66667
0.86824,0.10273,1.7365,-0.59591,-0.65418,0.82443,2.7594,-0.9198,-0.73704,3.6792,-9.1289e-09,-0.36852,0,0,0.5,-0,-0,0.66667
0.015019,0.60019,0.030039,0.15028,0.71718,9.742,-0.012038,0.0040127,-1.9199,-0.016051,8.064e-08,-0.95994,0,0,0.5,-0,-0,0.66667
0.10574,0.29871,0.21149,-0.30193,-1.4447,8.5297,0.17028,-0.05676,-1.6753,0.22704,3.1397e-10,-0.83765,0,0,0.5,2.2803e-17,0,0.66667
0.37606,0.61931,0.75211,0.17896,0.72103,5.0675,-0.35893,0.11964,-1.8864,-0.47857,-6.9186e-11,-0.94319,0,0,0.5,2.9606e-16,0,0.66667
0.40209,0.93865,0.80419,0.65798,2.8534,4.9021,-1.411,0.47034,-0.46154,-1.8814,-8.9158e-12,-0.23077,0,0,0.5,-0,-8.04e-19,0.66667
0.27722,0.74272,0.55444,0.36408,1.6302,6.3104,-0.53829,0.17943,-1.5286,-0.71772,-2.8749e-10,-0.76429,0,0,0.5,2.9606e-16,0,0.66667
0.096063,0.90372,0.19213,0.60558,3.077,8.6821,-0.31026,0.10342,-0.69675,-0.41368,2.0631e-09,-0.34837,0,0,0.5,1.8504e-17,0,0.66667
0.11873,0.047085,0.23746,-0.67937,-3.5011,8.3962,0.4302,-0.1434,-0.35828,0.5736,1.2163e-08,-0.17914,0,0,0.5,1.4803e-16,0,0.66667
0.31794,0.85232,0.63589,0.52849,2.3784,5.8454,-0.89616,0.29872,-1.0066,-1.1949,-2.5069e-10,-0.50332,0,0,0.5,-0,-0,0.66667
0.95079,0.10084,1.9016,-0.59873,-0.17986,0.46779,3.0361,-1.012,-0.72539,4.0481,1.0147e-07,-0.3627,0,0,0.5,-0,-0,0.66667
0.20741,0.15554,0.41481,-0.51669,-2.4788,7.2254,0.57154,-0.19051,-1.0517,0.76206,1.6129e-09,-0.52587,0,0,0.5,-3.7007e-16,0,0.66667
0.74728,0.73713,1.4946,0.3557,0.67687,1.4239,-1.4176,0.47255,-1.5497,-1.8902,2.7082e-10,-0.77483,0,0,0.5,-0,-0,0.66667
0.25819,0.083307,0.51638,-0.62504,-2.9999,6.6098,0.86068,-0.28689,-0.61044,1.1476,4.8352e-10,-0.30522,0,0,0.5,2.9606e-16,0,0.66667
0.03724,0.51511,0.074481,0.022668,0.10752,9.4419,-0.0045016,0.0014999,-1.9975,-0.0060024,-9.3232e-07,-0.99876,0,0,0.5,-0,-0,0.66667
0.016052,0.10748,0.032104,-0.58878,-3.0076,9.7327,0.050406,-0.016802,-0.76706,0.067207,-4.905e-07,-0.38353,0,0,0.5,-0,-0,0.66667
0.15271,0.48613,0.30541,-0.020811,-0.096272,7.8956,0.016949,-0.0056497,-1.9979,0.022599,-2.7315e-10,-0.99895,0,0,0.5,-0,-0,0.66667
0.46208,0.31167,0.92417,-0.2825,-1.0436,4.0899,0.69621,-0.23207,-1.7171,0.92828,2.5101e-11,-0.85855,0,0,0.5,-7.7716e-16,0,0.66667
0.7559,0.25769,1.5118,-0.36347,-0.66865,1.3642,1.4653,-0.48844,-1.5301,1.9538,-2.8282e-10,-0.76503,0,0,0.5,-0,-0,0.66667
0.72881,0.74553,1.4576,0.36829,0.75786,1.5698,-1.4316,0.47719,-1.5179,-1.9087,3.0189e-10,-0.75897,0,0,0.5,-1.4803e-15,0,0.66667
0.35239,0.71762,0.70478,0.32643,1.3704,5.3762,-0.6135,0.2045,-1.6219,-0.818,-1.4083e-10,-0.81096,0,0,0.5,-1.6988e-16,0,0.66667
0.47914,0.78415,0.95828,0.42622,1.583,3.9445,-1.0892,0.36306,-1.3546,-1.4522,-1.2201e-11,-0.67728,0,0,0.5,1.1842e-15,0,0.66667
0.81407,0.49966,1.6281,-0.00050605,-0.00061455,0.87267,0.0021971,-0.00073238,-2.0012,0.0029295,2.8937e-10,-1.0006,0,0,0.5,1.2212e-15,0,0.66667
0.8384,0.92464,1.6768,0.63697,0.90567,1.0238,-2.8482,0.94939,-0.55683,-3.7976,5.0068e-09,-0.27841,0,0,0.5,-0,-0,0.66667
0.31992,0.86752,0.63983,0.55128,2.4914,5.8284,-0.94061,0.31354,-0.9192,-1.2542,-2.1943e-10,-0.4596,0,0,0.5,-0,-0,0.66667
0.004265,0.70859,0.00853,0.31288,1.5179,9.8872,-0.0071171,0.0023723,-1.6515,-0.0094894,-1.0475e-08,-0.82576,0,0,0.5,-0,-0,0.66667
0.046931,0.6721,0.093862,0.25816,1.2411,9.314,-0.064616,0.021539,-1.7627,-0.086155,-1.4659e-08,-0.88134,0,0,0.5,7.4015e-17,0,0.66667
0.73781,0.43735,1.4756,-0.093982,-0.17442,1.4179,0.36982,-0.12327,-1.9697,0.49309,-1.122e-10,-0.98485,0,0,0.5,1.3785e-15,0,0.66667
0.27263,0.27182,0.54526,-0.34226,-1.5317,6.3643,0.49767,-0.16589,-1.5831,0.66355,2.4675e-10,-0.79154,0,0,0.5,-2.9606e-16,0,0.66667
0.48149,0.45736,0.96297,-0.063954,-0.22498,3.843,0.16423,-0.054743,-1.985,0.21897,3.5407e-12,-0.99252,0,0,0.5,-0,-0,0.66667
0.19203,0.87317,0.38406,0.55976,2.7307,7.4307,-0.57329,0.1911,-0.88665,-0.76438,-2.6038e-09,-0.44332,0,0,0.5,3.7007e-17,0,0.66667
0.84711,0.65464,1.6942,0.23197,0.227,0.71032,-1.048,0.34933,-1.8095,-1.3973,-2.385e-10,-0.90474,0,0,0.5,1.6283e-15,0,0.66667
0.50338,0.3426,1.0068,-0.2361,-0.81606,3.6273,0.63386,-0.21129,-1.8027,0.84515,-2.0266e-12,-0.90135,0,0,0.5,-8.8818e-16,0,0.66667
0.52716,0.59032,1.0543,0.13548,0.44533,3.3573,-0.38092,0.12697,-1.9352,-0.50789,1.0635e-11,-0.96759,0,0,0.5,5.9212e-16,0,0.66667
0.28808,0.59184,0.57616,0.13776,0.59611,6.1452,-0.21166,0.070554,-1.9332,-0.28222,-1.016e-10,-0.96658,0,0,0.5,4.2644e-17,0,0.66667
0.512,0.0050055,1.024,-0.74249,-2.9133,3.7606,2.0275,-0.67583,-0.040049,2.7033,-8.6597e-15,-0.020024,0,0,0.5,2.3685e-15,0,0.66667
0.0019636,0.26462,0.0039273,-0.35307,-1.7227,9.9182,0.0036977,-0.0012326,-1.5563,0.0049302,-2.1421e-08,-0.77814,0,0,0.5,-0,-0,0.66667
0.2773,0.82272,0.55459,0.48407,2.2185,6.3345,-0.7159,0.23863,-1.1664,-0.95453,-5.113e-10,-0.58322,0,0,0.5,-0,-0,0.66667
0.34876,0.43918,0.69753,-0.091233,-0.37496,5.3896,0.1697,-0.056567,-1.9711,0.22627,4.8476e-11,-0.98557,0,0,0.5,-0,-0,0.66667
0.28395,0.056621,0.5679,-0.66507,-3.1781,6.3041,1.0072,-0.33573,-0.42745,1.3429,1.3776e-10,-0.21372,0,0,0.5,-0,-0,0.66667
0.085952,0.497,0.1719,-0.0044972,-0.021181,8.7863,0.0020616,-0.00068725,-2.0004,0.0027487,-8.3829e-08,-1.0002,0,0,0.5,-2.2204e-16,0,0.66667
0.52178,0.62559,1.0436,0.18839,0.62824,3.422,-0.52426,0.17475,-1.8747,-0.69901,1.1216e-11,-0.93736,0,0,0.5,-2.3685e-15,0,0.66667
0.78848,0.46064,1.577,-0.059035,-0.084881,1.0453,0.24826,-0.082752,-1.9873,0.33101,-2.3337e-10,-0.99366,0,0,0.5,-0,-0,0.66667
0.9426,0.42139,1.8852,-0.11791,-0.0030419,0.20876,0.59275,-0.19758,-1.9499,0.79033,1.2298e-07,-0.97497,0,0,0.5,-1.1842e-15,0,0.66667
0.49729,0.57243,0.99458,0.10864,0.37409,3.6735,-0.28814,0.096047,-1.9577,-0.38419,-8.7796e-13,-0.97886,0,0,0.5,-0,-0,0.66667
0.59375,0.57209,1.1875,0.10814,0.31163,2.6792,-0.34243,0.11414,-1.9583,-0.45658,3.2131e-11,-0.97916,0,0,0.5,-0,-0,0.66667
0.29086,0.61677,0.58172,0.17516,0.75856,6.1133,-0.27172,0.090573,-1.8906,-0.36229,-1.1108e-10,-0.94532,0,0,0.5,-0,-0,0.66667
0.14916,0.66568,0.29832,0.24852,1.1669,7.9508,-0.1977,0.065902,-1.78,-0.26361,4.9979e-10,-0.88999,0,0,0.5,-0,-0,0.66667
0.13187,0.73447,0.26374,0.35171,1.6831,8.1868,-0.24736,0.082453,-1.5595,-0.32981,1.5176e-09,-0.77976,0,0,0.5,-0,-0,0.66667
0.73236,0.34327,1.4647,-0.2351,-0.45768,1.4902,0.91828,-0.30609,-1.8046,1.2244,-1.1474e-10,-0.90229,0,0,0.5,-2.9606e-16,0,0.66667
0.73447,0.44013,1.4689,-0.089805,-0.16896,1.4431,0.35178,-0.11726,-1.9721,0.46904,-1.0333e-10,-0.98607,0,0,0.5,-0,-0,0.66667
0.17935,0.52526,0.3587,0.03789,0.17354,7.544,-0.036243,0.012081,-1.9949,-0.048324,-4.9023e-10,-0.99743,0,0,0.5,-0,-0,0.66667
0.41356,0.24938,0.82712,-0.37593,-1.4979,4.6648,0.82918,-0.27639,-1.4984,1.1056,6.7999e-11,-0.7492,0,0,0.5,-1.8504e-16,0,0.66667
0.59414,0.30618,1.1883,-0.29072,-0.85907,2.7139,0.92124,-0.30708,-1.6997,1.2283,-7.0922e-11,-0.84985,0,0,0.5,-0,-0,0.66667
0.12528,0.028402,0.25056,-0.7074,-3.668,8.3159,0.47266,-0.15755,-0.22153,0.63022,3.3006e-09,-0.11077,0,0,0.5,-7.4015e-17,0,0.66667
0.78537,0.53462,1.5707,0.051929,0.075978,1.0662,-0.21751,0.072504,-1.9909,-0.29002,2.1943e-10,-0.99543,0,0,0.5,-0,-0,0.66667
0.61999,0.97729,1.24,0.71594,2.3135,2.7044,-2.3674,0.78912,-0.17723,-3.1565,2.1074e-12,-0.088617,0,0,0.5,-0,-0,0.66667
0.61522,0.1438,1.2304,-0.53431,-1.6176,2.623,1.7532,-0.58439,-0.98436,2.3375,-7.0365e-11,-0.49218,0,0,0.5,-5.9212e-16,0,0.66667
0.70121,0.72359,1.4024,0.33538,0.75269,1.7741,-1.2543,0.41808,-1.6004,-1.6723,2.1815e-10,-0.80019,0,0,0.5,-0,-0,0.66667
0.98718,0.23065,1.9744,-0.40402,0.1124,0.18129,2.1272,-0.70906,-1.4192,2.8362,1.9349e-08,-0.70958,0,0,0.5,-0,-0,0.66667
0.56239,0.94628,1.1248,0.66942,2.3616,3.2086,-2.0079,0.6693,-0.40662,-2.6772,3.1413e-12,-0.20331,0,0,0.5,-0,-4.7859e-16,0.66667
0.86442,0.18481,1.7288,-0.47279,-0.4712,0.74313,2.1796,-0.72655,-1.2058,2.9062,1.5248e-09,-0.60289,0,0,0.5,-0,-0,0.66667
0.41871,0.46732,0.83742,-0.049024,-0.18714,4.5538,0.10948,-0.036492,-1.9923,0.14597,1.2865e-11,-0.99615,0,0,0.5,-7.4015e-16,0,0.66667
0.65447,0.36218,1.3089,-0.20673,-0.51887,2.1307,0.72159,-0.24053,-1.8476,0.96212,-9.946e-11,-0.92381,0,0,0.5,-1.1842e-15,0,0.66667
0.92526,0.89516,1.8505,0.59274,0.32509,0.55882,-2.925,0.97501,-0.75035,-3.9,1.2304e-08,-0.37517,0,0,0.5,-0,-0,0.66667
0.66415,0.023376,1.3283,-0.71494,-2.093,2.3218,2.5324,-0.84413,-0.18238,3.3765,-6.7939e-12,-0.09119,0,0,0.5,1.1842e-15,0,0.66667
0.30308,0.34674,0.60616,-0.2299,-0.99198,5.9661,0.37161,-0.12387,-1.8125,0.49548,1.3027e-10,-0.90627,0,0,0.5,-0,-0,0.66667
0.61995,0.97933,1.2399,0.71899,2.3269,2.7072,-2.3772,0.79242,-0.16152,-3.1697,1.9778e-12,-0.080758,0,0,0.5,-0,-0,0.66667
0.35132,0.026396,0.70264,-0.71041,-3.2786,5.5134,1.3311,-0.4437,-0.20573,1.7748,4.7016e-12,-0.10287,0,0,0.5,2.9606e-16,0,0.66667
0.32237,0.86407,0.64473,0.5461,2.4602,5.7971,-0.93891,0.31297,-0.93914,-1.2519,-2.1396e-10,-0.46957,0,0,0.5,-2.9606e-16,0,0.66667
0.61021,0.77502,1.2204,0.41253,1.2131,2.6068,-1.3426,0.44752,-1.3951,-1.7901,9.5636e-11,-0.69755,0,0,0.5,-0,-0,0.66667
0.16032,0.98614,0.32065,0.72922,3.7659,7.8705,-0.62352,0.20784,-0.10873,-0.83136,-6.4404e-10,-0.054365,0,0,0.5,-2.9606e-16,0,0.66667
0.48674,0.56437,0.97348,0.096555,0.33756,3.7875,-0.25065,0.08355,-1.9677,-0.3342,-3.9148e-12,-0.98383,0,0,0.5,1.1842e-15,0,0.66667
0.94563,0.87144,1.8913,0.55716,0.16867,0.44592,-2.8099,0.93665,-0.89662,-3.7466,6.508e-08,-0.44831,0,0,0.5,-1.4803e-15,0,0.66667
0.38391,0.026221,0.76783,-0.71067,-3.1892,5.1351,1.4551,-0.48504,-0.20438,1.9402,1.9857e-12,-0.10219,0,0,0.5,5.9212e-16,0,0.66667
0.18896,0.3976,0.37793,-0.1536,-0.70411,7.4214,0.1548,-0.0516,-1.916,0.2064,1.7833e-10,-0.95799,0,0,0.5,-1.4803e-16,0,0.66667
0.46884,0.25317,0.93768,-0.37025,-1.3773,4.0387,0.92579,-0.3086,-1.5133,1.2344,2.0673e-11,-0.75666,0,0,0.5,-0,-0,0.66667
0.84091,0.14734,1.6818,-0.52898,-0.6712,0.91558,2.3724,-0.7908,-1.0048,3.1632,-2.481e-09,-0.50242,0,0,0.5,-0,-0,0.66667
0.84267,0.0057302,1.6853,-0.7414,-1.1365,1.1077,3.332,-1.1107,-0.045828,4.4427,-3.913e-10,-0.022914,0,0,0.5,-0,3.5466e-16,0.66667
0.8278,0.069263,1.6556,-0.64611,-0.98739,1.0932,2.8525,-0.95084,-0.51589,3.8034,-3.6289e-09,-0.25795,0,0,0.5,-0,-4.0163e-16,0.66667
0.011476,0.066649,0.022951,-0.65003,-3.372,9.7938,0.039783,-0.013262,-0.49797,0.053043,-1.3661e-06,-0.24899,0,0,0.5,-0,-0,0.66667
0.26704,0.75264,0.53408,0.37896,1.7124,6.4412,-0.53972,0.17991,-1.4901,-0.71963,-3.3074e-10,-0.74505,0,0,0.5,-0,-0,0.66667
0.99988,0.8338,1.9998,0.50071,-0.16123,0.22317,-2.6701,0.89003,-1.1085,-3.5601,1.2548e-07,-0.55423,0,0,0.5,-0,-3.6465e-17,0.66667
0.11968,0.26451,0.23937,-0.35324,-1.6966,8.3481,0.22547,-0.075158,-1.5557,0.30063,-1.0103e-09,-0.77786,0,0,0.5,-0,-0,0.66667
0.49009,0.72365,0.98018,0.33547,1.2029,3.7958,-0.87686,0.29229,-1.6,-1.1691,-6.5766e-12,-0.8,0,0,0.5,-1.1842e-15,0,0.66667
0.79003,0.21443,1.5801,-0.42836,-0.69031,1.1611,1.8049,-0.60163,-1.3478,2.4065,-5.8727e-10,-0.6739,0,0,0.5,-1.4803e-15,0,0.66667
0.12221,0.62741,0.24443,0.19111,0.89977,8.305,-0.12457,0.041522,-1.8708,-0.16609,5.2119e-09,-0.93541,0,0,0.5,2.9606e-16,0,0.66667
0.66241,0.7714,1.3248,0.4071,1.051,2.1329,-1.4382,0.47941,-1.4103,-1.9176,1.9601e-10,-0.70515,0,0,0.5,-0,-0,0.66667
0.48808,0.77185,0.97616,0.40777,1.4892,3.8409,-1.0615,0.35382,-1.4085,-1.4153,-7.2132e-12,-0.70423,0,0,0.5,-0,-0,0.66667
0.19429,0.75179,0.38858,0.37768,1.7738,7.3722,-0.39136,0.13045,-1.4935,-0.52181,-1.5789e-11,-0.74675,0,0,0.5,-0,-0,0.66667
0.87863,0.66892,1.7573,0.25339,0.17719,0.54479,-1.1874,0.39579,-1.7712,-1.5832,-2.6397e-11,-0.8856,0,0,0.5,-0,-0,0.66667
0.18149,0.54719,0.36297,0.070791,0.32419,7.5164,-0.068521,0.02284,-1.9815,-0.091361,-5.4884e-10,-0.99076,0,0,0.5,-2.9606e-16,0,0.66667
0.63905,0.6496,1.2781,0.22439,0.58885,2.2738,-0.7648,0.25493,-1.8211,-1.0197,9.4921e-11,-0.91053,0,0,0.5,5.9212e-16,0,0.66667
0.74083,0.71345,1.4817,0.32018,0.61772,1.4564,-1.2651,0.42169,-1.6356,-1.6868,1.9117e-10,-0.81779,0,0,0.5,-0,-0,0.66667
0.56267,0.3174,1.1253,-0.2739,-0.85985,3.0193,0.82195,-0.27398,-1.7337,1.0959,-4.2634e-11,-0.86685,0,0,0.5,-1.1842e-15,0,0.66667
0.62884,0.67071,1.2577,0.25606,0.69365,2.3759,-0.85877,0.28626,-1.7663,-1.145,9.648e-11,-0.88315,0,0,0.5,-0,-0,0.66667
0.11897,0.69832,0.23793,0.29748,1.4178,8.3538,-0.18874,0.062914,-1.6849,-0.25166,2.0079e-09,-0.84243,0,0,0.5,-0,-0,0.66667
0.30804,0.30569,0.61607,-0.29147,-1.2626,5.9131,0.47884,-0.15961,-1.6979,0.63846,1.6921e-10,-0.84893,0,0,0.5,-0,-0,0.66667
0.58696,0.82402,1.1739,0.48602,1.5346,2.8627,-1.5215,0.50716,-1.1596,-2.0286,5.3663e-11,-0.57978,0,0,0.5,1.1842e-15,0,0.66667
0.39546,0.068938,0.79093,-0.64659,-2.8123,4.9725,1.3638,-0.45458,-0.51345,1.8183,1.4486e-11,-0.25672,0,0,0.5,-1.1842e-15,0,0.66667
0.66395,0.084435,1.3279,-0.62335,-1.7465,2.2511,2.2073,-0.73577,-0.61805,2.9431,-8.2846e-11,-0.30902,0,0,0.5,-0,-0,0.66667
0.85195,0.33421,1.7039,-0.24869,-0.23453,0.68855,1.13,-0.37666,-1.7797,1.5067,5.3391e-10,-0.88984,0,0,0.5,-0,-0,0.66667
0.19022,0.95525,0.38044,0.68287,3.4421,7.4798,-0.69279,0.23093,-0.34149,-0.92371,-1.233e-09,-0.17074,0,0,0.5,2.9606e-16,0,0.66667
0.90327,0.37994,1.8065,-0.18009,-0.077834,0.39668,0.86759,-0.2892,-1.8849,1.1568,8.0954e-09,-0.94246,0,0,0.5,-0,-0,0.66667
0.38318,0.17095,0.76635,-0.49357,-2.0827,5.0546,1.0087,-0.33622,-1.1331,1.3449,8.8603e-11,-0.56657,0,0,0.5,5.9212e-16,0,0.66667
0.94312,0.51738,1.8862,0.026069,0.00017858,0.19557,-0.13113,0.043709,-1.997,-0.17484,-2.2245e-07,-0.99848,0,0,0.5,-0,-0,0.66667
0.61738,0.82548,1.2348,0.48822,1.4472,2.5773,-1.6076,0.53586,-1.1519,-2.1434,9.1377e-11,-0.57594,0,0,0.5,-0,-0,0.66667
0.7901,0.40025,1.5802,-0.14963,-0.21604,1.0475,0.6305,-0.21017,-1.9204,0.84067,-1.6933e-10,-0.96019,0,0,0.5,-5.9212e-16,0,0.66667
0.51478,0.39592,1.0296,-0.15612,-0.52488,3.4912,0.42863,-0.14288,-1.9131,0.57151,-6.4996e-12,-0.95656,0,0,0.5,-5.9212e-16,0,0.66667
0.53114,0.32311,1.0623,-0.26534,-0.8805,3.34,0.75164,-0.25055,-1.7495,1.0022,-1.9846e-11,-0.87475,0,0,0.5,-0,-0,0.66667
0.32759,0.9063,0.65519,0.60945,2.7808,5.7551,-1.0648,0.35494,-0.68068,-1.4197,-1.1726e-10,-0.34034,0,0,0.5,-0,-0,0.66667
0.12936,0.2785,0.25873,-0.33225,-1.5866,8.2184,0.22923,-0.076411,-1.6081,0.30564,-1.2362e-09,-0.80403,0,0,0.5,-7.4015e-17,0,0.66667
0.38382,0.86047,0.76764,0.54071,2.3075,5.0636,-1.1069,0.36895,-0.95981,-1.4758,-6.8643e-11,-0.4799,0,0,0.5,-5.9212e-16,0,0.66667
0.21498,0.73514,0.42995,0.35271,1.6339,7.1014,-0.40439,0.1348,-1.5571,-0.53919,-1.13e-10,-0.77855,0,0,0.5,-2.9606e-16,0,0.66667
0.032865,0.56739,0.065731,0.10109,0.48065,9.5012,-0.017719,0.0059071,-1.964,-0.023625,1.0382e-06,-0.982,0,0,0.5,-0,-0,0.66667
0.27489,0.69785,0.54977,0.29677,1.3172,6.3288,-0.43509,0.14503,-1.6864,-0.58012,-1.7641e-10,-0.84319,0,0,0.5,5.9212e-16,0,0.66667
0.18058,0.11326,0.36115,-0.5801,-2.8571,7.5816,0.55868,-0.18623,-0.80291,0.74491,3.3016e-09,-0.40145,0,0,0.5,-0,-0,0.66667
0.87553,0.49453,1.7511,-0.008206,-0.0054256,0.51111,0.038318,-0.012773,-2.0001,0.051091,9.0573e-09,-1,0,0,0.5,5.9212e-16,0,0.66667
0.081237,0.69773,0.16247,0.2966,1.4255,8.856,-0.12851,0.042835,-1.6869,-0.17134,2.5336e-09,-0.84343,0,0,0.5,-0,-0,0.66667
0.1839,0.31932,0.36779,-0.27102,-1.2591,7.496,0.26581,-0.088602,-1.7388,0.35441,-3.9629e-10,-0.8694,0,0,0.5,-0,-0,0.66667
0.70403,0.1336,1.4081,-0.5496,-1.3299,1.8698,2.0636,-0.68788,-0.92594,2.7515,-3.5281e-10,-0.46297,0,0,0.5,-0,-0,0.66667
0.91923,0.11438,1.8385,-0.57844,-0.34153,0.56997,2.8358,-0.94527,-0.80999,3.7811,2.6994e-08,-0.405,0,0,0.5,1.1842e-15,6.843e-17,0.66667
0.25146,0.13385,0.50292,-0.54922,-2.5954,6.6737,0.73657,-0.24552,-0.92735,0.98209,8.3592e-10,-0.46367,0,0,0.5,-0,-0,0.66667
0.021301,0.55831,0.042602,0.087459,0.41592,9.6571,-0.0099391,0.0033132,-1.9731,-0.013252,1.9122e-07,-0.98653,0,0,0.5,-1.8504e-17,0,0.66667
0.9605,0.04349,1.921,-0.68476,-0.21632,0.52866,3.5078,-1.1693,-0.33219,4.6771,-2.6032e-07,-0.1661,0,0,0.5,-0,-0,0.66667
0.68222,0.17197,1.3644,-0.49205,-1.2394,2.0103,1.7903,-0.59678,-1.1385,2.3871,-2.6957e-10,-0.56925,0,0,0.5,-1.1842e-15,0,0.66667
0.31066,0.6582,0.62133,0.23731,1.0189,5.8727,-0.39319,0.13106,-1.8006,-0.52425,-1.3241e-10,-0.90029,0,0,0.5,1.1842e-15,0,0.66667
0.47237,0.20238,0.94475,-0.44643,-1.6815,4.0259,1.1247,-0.3749,-1.2908,1.4996,1.5212e-11,-0.64541,0,0,0.5,-0,-0,0.66667
0.59926,0.48702,1.1985,-0.019466,-0.055186,2.6198,0.062213,-0.020738,-1.9981,0.082951,-6.4147e-12,-0.99903,0,0,0.5,-0,-0,0.66667
0.37387,0.86508,0.74774,0.54762,2.3633,5.1827,-1.0919,0.36398,-0.93351,-1.4559,-7.9322e-11,-0.46676,0,0,0.5,2.9606e-16,5.7281e-16,0.66667
0.87449,0.032853,1.749,-0.70072,-0.8273,0.89829,3.2681,-1.0894,-0.25518,4.3575,-3.7885e-09,-0.12759,0,0,0.5,2.3685e-15,0,0.66667
0.72617,0.93322,1.4523,0.64983,1.5437,1.7752,-2.5168,0.83892,-0.49877,-3.3557,2.3058e-10,-0.24938,0,0,0.5,-0,-0,0.66667
0.95434,0.26746,1.9087,-0.34881,-0.0065405,0.25448,1.7754,-0.59179,-1.567,2.3672,-4.6909e-10,-0.78349,0,0,0.5,-0,-0,0.66667
0.35107,0.12445,0.70213,-0.56333,-2.4909,5.4579,1.0547,-0.35158,-0.8726,1.4063,1.1126e-10,-0.4363,0,0,0.5,-8.1416e-16,0,0.66667
0.93717,0.3407,1.8743,-0.23895,-0.029859,0.26679,1.1943,-0.39812,-1.7977,1.5925,-3.4237e-08,-0.89886,0,0,0.5,5.9212e-16,0,0.66667
0.4791,0.76559,0.9582,0.39838,1.4702,3.9352,-1.0179,0.33931,-1.4351,-1.3572,-1.3006e-11,-0.71754,0,0,0.5,5.9212e-16,0,0.66667
0.64232,0.090553,1.2846,-0.61417,-1.8061,2.4307,2.104,-0.70133,-0.65943,2.8053,-5.758e-11,-0.32971,0,0,0.5,1.7764e-15,0,0.66667
0.73665,0.31012,1.4733,-0.28482,-0.55255,1.4741,1.119,-0.373,-1.7123,1.492,-1.4294e-10,-0.85614,0,0,0.5,1.3323e-15,0,0.66667
0.80934,0.89091,1.6187,0.58637,0.94586,1.1507,-2.531,0.84368,-0.77693,-3.3747,2.7539e-09,-0.38847,0,0,0.5,1.1842e-15,0,0.66667
0.39626,0.89415,0.79252,0.59122,2.5275,4.9393,-1.2495,0.41649,-0.75663,-1.666,-3.4165e-11,-0.37831,0,0,0.5,-5.9212e-16,0,0.66667
0.44795,0.27074,0.89589,-0.34389,-1.3076,4.2638,0.82158,-0.27386,-1.579,1.0954,3.6442e-11,-0.78952,0,0,0.5,-5.9212e-16,0,0.66667
0.81728,0.33538,1.6346,-0.24692,-0.30887,0.89645,1.0763,-0.35876,-1.783,1.4351,2.9579e-10,-0.89148,0,0,0.5,5.9212e-16,0,0.66667
0.71756,0.077759,1.4351,-0.63336,-1.5327,1.8269,2.4239,-0.80795,-0.57326,3.2318,-2.4528e-10,-0.28663,0,0,0.5,-0,-0,0.66667
0.94085,0.1697,1.8817,-0.49544,-0.14046,0.40946,2.4861,-0.82869,-1.1267,3.3148,2.9877e-08,-0.56335,0,0,0.5,2.3685e-15,0,0.66667
0.9796,0.28008,1.9592,-0.32988,0.084147,0.15697,1.7235,-0.57449,-1.6139,2.298,-3.2972e-08,-0.80696,0,0,0.5,5.9212e-16,0,0.66667
0.17891,0.3144,0.35783,-0.27841,-1.2973,7.5618,0.26566,-0.088552,-1.7251,0.35421,-4.7163e-10,-0.86253,0,0,0.5,-0,-0,0.66667
0.22792,0.78968,0.45584,0.43452,2.0287,6.9479,-0.52819,0.17606,-1.3284,-0.70425,-6.4643e-10,-0.66419,0,0,0.5,-0,-0,0.66667
0.71599,0.98282,1.432,0.72423,1.854,1.9175,-2.7656,0.92185,-0.13453,-3.6874,1.9541e-11,-0.067266,0,0,0.5,-0,5.8627e-16,0.66667
0.74738,0.39468,1.4948,-0.15798,-0.28385,1.3557,0.62971,-0.2099,-1.9108,0.83961,-1.1786e-10,-0.95542,0,0,0.5,-0,-0,0.66667
0.60318,0.78779,1.2064,0.43169,1.2963,2.6817,-1.3887,0.46291,-1.3373,-1.8516,8.3625e-11,-0.66866,0,0,0.5,-0,-0,0.66667
0.8773,0.2043,1.7546,-0.44355,-0.37667,0.65509,2.0754,-0.69179,-1.3,2.7671,2.1519e-09,-0.64999,0,0,0.5,-0,-0,0.66667
0.25199,0.84827,0.50398,0.5224,2.4523,6.6606,-0.70208,0.23403,-1.03,-0.93611,-8.2855e-10,-0.51502,0,0,0.5,5.9212e-16,0,0.66667
0.33949,0.70518,0.67897,0.30777,1.303,5.5291,-0.55725,0.18575,-1.6626,-0.74301,-1.4951e-10,-0.83131,0,0,0.5,-0,-0,0.66667
0.49465,0.91912,0.98929,0.62868,2.4235,3.8708,-1.6585,0.55285,-0.5941,-2.2114,-5.1936e-13,-0.29705,0,0,0.5,-0,-0,0.66667
0.31503,0.16911,0.63005,-0.49633,-2.2217,5.8717,0.83391,-0.27797,-1.1236,1.1119,2.815e-10,-0.56181,0,0,0.5,5.9212e-16,0,0.66667
0.54544,0.92985,1.0909,0.64477,2.3176,3.3595,-1.8756,0.62522,-0.52183,-2.5009,3.6181e-12,-0.26091,0,0,0.5,5.9212e-16,0,0.66667
0.68248,0.15082,1.365,-0.52377,-1.3358,2.0277,1.9064,-0.63548,-1.0247,2.5419,-2.576e-10,-0.51235,0,0,0.5,-0,-0,0.66667
0.22037,0.13559,0.44073,-0.54661,-2.6242,7.0661,0.64243,-0.21414,-0.93736,0.85657,1.4804e-09,-0.46868,0,0,0.5,-0,-0,0.66667
0.48534,0.99547,0.97067,0.74321,3.0223,4.0372,-1.9238,0.64125,-0.036506,-2.565,2.5535e-15,-0.018253,0,0,0.5,-8.8818e-16,0,0.66667
0.99298,0.84286,1.986,0.51429,-0.12057,0.25386,-2.7236,0.90787,-1.0604,-3.6315,-1.4324e-08,-0.53022,0,0,0.5,1.5543e-15,0,0.66667
0.32416,0.68034,0.64832,0.27052,1.1539,5.7105,-0.46768,0.15589,-1.7397,-0.62358,-1.4438e-10,-0.86986,0,0,0.5,-0,-0,0.66667
0.035362,0.8435,0.070724,0.51524,2.5858,9.4756,-0.097173,0.032391,-1.0571,-0.12956,-5.0242e-09,-0.52857,0,0,0.5,-8.0954e-18,0,0.66667
0.81735,0.041681,1.6347,-0.68748,-1.153,1.1951,2.9969,-0.99895,-0.3191,3.9958,-1.3211e-09,-0.15955,0,0,0.5,-0,-0,0.66667
0.50331,0.40403,1.0066,-0.14396,-0.49241,3.6124,0.38643,-0.12881,-1.927,0.51524,-1.3617e-12,-0.9635,0,0,0.5,-0,-0,0.66667
0.052784,0.58146,0.10557,0.12218,0.58046,9.2331,-0.034397,0.011466,-1.9463,-0.045862,1.3231e-07,-0.97317,0,0,0.5,7.4015e-17,0,0.66667
0.89031,0.67001,1.7806,0.25501,0.15046,0.48592,-1.2109,0.40363,-1.7684,-1.6145,-6.9241e-10,-0.88421,0,0,0.5,-0,-0,0.66667
0.40451,0.62195,0.80903,0.18293,0.71563,4.7309,-0.39466,0.13155,-1.8816,-0.52621,-5.2259e-11,-0.94082,0,0,0.5,1.4803e-16,0,0.66667
0.92927,0.8715,1.8585,0.55725,0.25992,0.50899,-2.7618,0.9206,-0.89626,-3.6824,-6.3633e-08,-0.44813,0,0,0.5,2.9606e-16,0,0.66667
0.40208,0.55247,0.80416,0.078702,0.30649,4.7497,-0.16877,0.056257,-1.9776,-0.22503,-2.5059e-11,-0.98879,0,0,0.5,-0,-0,0.66667
0.076832,0.83446,0.15366,0.50168,2.4981,8.926,-0.20558,0.068525,-1.1049,-0.2741,7.7199e-10,-0.55247,0,0,0.5,-0,-0,0.66667
0.2453,0.38432,0.4906,-0.17351,-0.77392,6.6919,0.227,-0.075667,-1.8926,0.30267,1.0675e-10,-0.9463,0,0,0.5,-0,-0,0.66667
0.35026,0.89047,0.70052,0.58571,2.6072,5.4755,-1.0941,0.36471,-0.77959,-1.4588,-9.3423e-11,-0.3898,0,0,0.5,-5.9212e-16,0,0.66667
0.75073,0.17119,1.5015,-0.49321,-0.98467,1.4763,1.9748,-0.65825,-1.1347,2.633,-7.9244e-10,-0.56734,0,0,0.5,1.1842e-15,0,0.66667
0.18475,0.30903,0.3695,-0.28645,-1.3329,7.4862,0.28224,-0.094081,-1.7088,0.37632,-4.1729e-10,-0.85438,0,0,0.5,4.2477e-16,0,0.66667
0.43097,0.14895,0.86195,-0.52657,-2.131,4.5171,1.2103,-0.40344,-1.014,1.6138,2.9945e-11,-0.50698,0,0,0.5,-2.9606e-16,0,0.66667
0.87325,0.71206,1.7465,0.31809,0.25065,0.60181,-1.4814,0.49381,-1.6403,-1.9753,-6.9702e-10,-0.82016,0,0,0.5,-0,-0,0.66667
0.53376,0.92753,1.0675,0.64129,2.3452,3.4745,-1.8256,0.60853,-0.53745,-2.4341,2.7405e-12,-0.26873,0,0,0.5,-5.9212e-16,0,0.66667
0.10315,0.2647,0.20631,-0.35295,-1.7021,8.5672,0.19418,-0.064725,-1.5564,0.2589,-2.491e-09,-0.77821,0,0,0.5,-1.4803e-16,0,0.66667
0.024522,0.50121,0.049045,0.0018121,0.0086,9.6134,-0.00023642,8.2443e-05,-2.0008,-0.00031341,5.4551e-06,-1.0004,0,0,0.5,-0,-0,0.66667
0.70581,0.36035,1.4116,-0.20947,-0.44798,1.6937,0.78852,-0.26284,-1.8435,1.0514,-1.2296e-10,-0.92173,0,0,0.5,1.1842e-15,0,0.66667
0.97913,0.22948,1.9583,-0.40577,0.078012,0.20706,2.119,-0.70632,-1.4141,2.8253,1.4592e-08,-0.70705,0,0,0.5,-0,-0,0.66667
0.78517,0.72889,1.5703,0.34334,0.54396,1.148,-1.4377,0.47925,-1.5805,-1.917,7.148e-11,-0.79024,0,0,0.5,-0,-0,0.66667
0.76473,0.23788,1.5295,-0.39318,-0.70432,1.3158,1.6036,-0.53454,-1.45,2.1381,-3.963e-10,-0.725,0,0,0.5,-0,-0,0.66667
0.67545,0.56173,1.3509,0.092591,0.21534,1.9267,-0.33355,0.11118,-1.9705,-0.44473,5.9763e-11,-0.98524,0,0,0.5,-2.9606e-16,0,0.66667
0.7955,0.18289,1.591,-0.47567,-0.76562,1.1551,2.0181,-0.6727,-1.1959,2.6908,-1.1131e-09,-0.59796,0,0,0.5,-1.7764e-15,0,0.66667
0.040018,0.3316,0.080036,-0.2526,-1.2144,9.4067,0.053913,-0.017971,-1.7725,0.071884,-5.175e-08,-0.88627,0,0,0.5,-3.7007e-17,0,0.66667
0.26468,0.2003,0.52936,-0.44954,-2.0616,6.4847,0.63459,-0.21153,-1.2811,0.84612,5.3833e-10,-0.64054,0,0,0.5,-0,-0,0.66667
0.6954,0.34,1.3908,-0.24,-0.53535,1.7878,0.8901,-0.2967,-1.7955,1.1868,-1.3573e-10,-0.89776,0,0,0.5,1.3901e-15,0,0.66667
0.86699,0.29003,1.734,-0.31495,-0.26581,0.63366,1.4563,-0.48544,-1.647,1.9417,9.856e-10,-0.82348,0,0,0.5,-0,-0,0.66667
0.67461,0.86005,1.3492,0.54008,1.4179,2.1037,-1.9432,0.64772,-0.96236,-2.5909,2.077e-10,-0.48118,0,0,0.5,-0,-0,0.66667
0.17628,0.12409,0.35255,-0.56386,-2.7708,7.634,0.53011,-0.1767,-0.87044,0.70681,3.4264e-09,-0.43522,0,0,0.5,-3.7007e-17,0,0.66667
0.93631,0.74351,1.8726,0.36527,0.077724,0.33385,-1.824,0.60801,-1.5258,-2.432,-3.11e-09,-0.76288,0,0,0.5,-0,-0,0.66667
0.90338,0.39915,1.8068,-0.15127,-0.063714,0.38851,0.72881,-0.24294,-1.9186,0.97175,2.3213e-09,-0.9593,0,0,0.5,-1.1842e-15,0,0.66667
0.086679,0.98346,0.17336,0.7252,3.8111,8.8171,-0.33525,0.11175,-0.12943,-0.447,-6.2725e-08,-0.064717,0,0,0.5,3.5333e-16,0,0.66667
0.193,0.95178,0.386,0.67766,3.407,7.4433,-0.69754,0.23251,-0.36655,-0.93006,-1.2898e-09,-0.18328,0,0,0.5,-0,-0,0.66667
0.27519,0.24525,0.55039,-0.38212,-1.7186,6.3392,0.56084,-0.18695,-1.481,0.74779,3.271e-10,-0.74049,0,0,0.5,-2.9606e-16,0,0.66667
0.73841,0.54548,1.4768,0.068225,0.126,1.4105,-0.26868,0.089561,-1.9829,-0.35824,8.5768e-11,-0.99143,0,0,0.5,-1.1842e-15,0,0.66667
0.85937,0.43075,1.7187,-0.10387,-0.085418,0.60774,0.47607,-0.15869,-1.9618,0.63476,-2.2437e-09,-0.98092,0,0,0.5,-5.9212e-16,0,0.66667
0.57832,0.13276,1.1566,-0.55085,-1.8073,2.9808,1.699,-0.56635,-0.92117,2.2654,-3.0055e-11,-0.46058,0,0,0.5,-0,-0,0.66667
0.19965,0.90285,0.39929,0.60427,2.9707,7.3423,-0.64341,0.21447,-0.70217,-0.85789,-2.3367e-09,-0.35109,0,0,0.5,1.4803e-16,0,0.66667
0.41509,0.24887,0.83018,-0.37669,-1.4986,4.6474,0.83393,-0.27798,-1.4963,1.1119,6.6294e-11,-0.74814,0,0,0.5,-6.6613e-16,0,0.66667
0.13786,0.83499,0.27572,0.50248,2.4674,8.1236,-0.36945,0.12315,-1.102,-0.4926,-8.7608e-10,-0.55102,0,0,0.5,-0,-0,0.66667
0.9174,0.070891,1.8348,-0.64366,-0.4448,0.64267,3.1493,-1.0498,-0.52667,4.1991,-4.2126e-08,-0.26333,0,0,0.5,-0,-0,0.66667
0.76453,0.35302,1.5291,-0.22047,-0.37107,1.2452,0.89897,-0.29966,-1.827,1.1986,-5.1891e-11,-0.91351,0,0,0.5,-0,-0,0.66667
0.51021,0.8731,1.0204,0.55965,2.0631,3.6708,-1.5229,0.50763,-0.88703,-2.0305,2.5481e-12,-0.44352,0,0,0.5,2.9606e-16,0,0.66667
0.45358,0.35125,0.90715,-0.22313,-0.82657,4.173,0.53977,-0.17992,-1.8231,0.71969,2.7327e-11,-0.91153,0,0,0.5,-0,-0,0.66667
0.097842,0.98906,0.19568,0.7336,3.8566,8.6737,-0.38281,0.1276,-0.086078,-0.51041,-3.5813e-10,-0.043039,0,0,0.5,-0,-0,0.66667
0.31868,0.31583,0.63735,-0.27626,-1.1845,5.779,0.46952,-0.15651,-1.729,0.62603,1.5125e-10,-0.86452,0,0,0.5,-0,-0,0.66667
0.12063,0.30679,0.24127,-0.28982,-1.3794,8.3312,0.18646,-0.062154,-1.7014,0.24862,-2.3478e-09,-0.85071,0,0,0.5,1.4803e-16,0,0.66667
0.78234,0.87581,1.5647,0.56372,1.0233,1.3064,-2.3521,0.78403,-0.87122,-3.1361,1.6613e-09,-0.43561,0,0,0.5,2.3685e-15,0,0.66667
0.54488,0.57959,1.0898,0.11939,0.37982,3.1706,-0.34696,0.11565,-1.9488,-0.46261,1.5865e-11,-0.97442,0,0,0.5,-0,-0,0.66667
0.22728,0.29595,0.45455,-0.30608,-1.3993,6.9369,0.37101,-0.12367,-1.6662,0.49468,5.3585e-11,-0.83312,0,0,0.5,-2.9606e-16,0,0.66667
0.2242,0.18597,0.44841,-0.47104,-2.2195,7.002,0.56324,-0.18775,-1.2118,0.75099,9.4177e-10,-0.60592,0,0,0.5,4.0708e-16,0,0.66667
0.2604,0.82258,0.5208,0.48387,2.2409,6.546,-0.672,0.224,-1.1671,-0.896,-6.5366e-10,-0.58355,0,0,0.5,-0,-0,0.66667
0.30887,0.85683,0.61775,0.53525,2.4291,5.9581,-0.88173,0.29391,-0.98082,-1.1756,-2.8863e-10,-0.49041,0,0,0.5,-0,-0,0.66667
0.38771,0.72858,0.77541,0.34287,1.3956,4.9582,-0.70898,0.23633,-1.5817,-0.94531,-9.6651e-11,-0.79084,0,0,0.5,-0,-0,0.66667
0.29755,0.321,0.5951,-0.2685,-1.1687,6.0403,0.42609,-0.14203,-1.7436,0.56812,1.5497e-10,-0.87181,0,0,0.5,5.9212e-16,0,0.66667
0.67956,0.63185,1.3591,0.19777,0.46034,1.9099,-0.71678,0.23893,-1.8608,-0.95571,1.1034e-10,-0.93039,0,0,0.5,-0,-0,0.66667
0.035074,0.57293,0.070147,0.1094,0.52028,9.4715,-0.020465,0.0068217,-1.957,-0.027286,2.636e-07,-0.97852,0,0,0.5,-7.4015e-17,0,0.66667
0.32811,0.48092,0.65622,-0.028619,-0.11954,5.6408,0.050081,-0.016694,-1.9968,0.066775,1.8884e-11,-0.99841,0,0,0.5,5.9212e-16,0,0.66667
0.74529,0.026481,1.4906,-0.71028,-1.6413,1.6892,2.8233,-0.94109,-0.20643,3.7644,-6.5038e-11,-0.10322,0,0,0.5,-5.9212e-16,7.3148e-16,0.66667
0.94281,0.52096,1.8856,0.031446,0.0003278,0.1971,-0.15812,0.052707,-1.996,-0.21083,-1.411e-08,-0.99802,0,0,0.5,-0,-0,0.66667
0.80273,0.23002,1.6055,-0.40498,-0.60074,1.0637,1.7338,-0.57793,-1.4163,2.3117,-2.9863e-10,-0.70817,0,0,0.5,-0,-0,0.66667
0.24083,0.46578,0.48165,-0.051333,-0.22809,6.7435,0.065932,-0.021977,-1.9911,0.08791,1.0806e-10,-0.99554,0,0,0.5,2.9606e-16,0,0.66667
0.23292,0.0442,0.46583,-0.6837,-3.3812,6.9418,0.8493,-0.2831,-0.33756,1.1324,3.4827e-10,-0.16878,0,0,0.5,-5.9212e-16,0,0.66667
0.19034,0.43366,0.38067,-0.099508,-0.45446,7.4011,0.10101,-0.033671,-1.9652,0.13469,4.2721e-10,-0.98261,0,0,0.5,-0,-0,0.66667
0.8825,0.96486,1.765,0.69729,0.76744,0.85583,-3.2819,1.094,-0.27154,-4.3759,6.1437e-09,-0.13577,0,0,0.5,1.1842e-15,0,0.66667
0.23786,0.66532,0.47571,0.24799,1.1189,6.7942,-0.31459,0.10486,-1.7811,-0.41945,-5.3012e-11,-0.89053,0,0,0.5,-0,-0,0.66667
0.75818,0.80429,1.5164,0.45643,0.86734,1.399,-1.8457,0.61522,-1.259,-2.4609,7.1693e-10,-0.62949,0,0,0.5,5.9212e-16,0,0.66667
0.26105,0.29049,0.5221,-0.31427,-1.4108,6.5064,0.43755,-0.14585,-1.6485,0.58339,1.8578e-10,-0.82425,0,0,0.5,5.9212e-16,0,0.66667
0.033082,0.166,0.066164,-0.50099,-2.5072,9.5053,0.088394,-0.029465,-1.1073,0.11786,-7.7926e-09,-0.55366,0,0,0.5,-0,-0,0.66667
0.73345,0.31348,1.4669,-0.27978,-0.54896,1.4968,1.0944,-0.36481,-1.7228,1.4592,-1.4119e-10,-0.86138,0,0,0.5,-0,-0,0.66667
0.7262,0.072275,1.4524,-0.64159,-1.5169,1.7681,2.4849,-0.82831,-0.53597,3.3132,-2.6589e-10,-0.26799,0,0,0.5,-1.1842e-15,0,0.66667
0.088959,0.9787,0.17792,0.71805,3.7643,8.7868,-0.34068,0.11356,-0.16638,-0.45424,-3.2994e-08,-0.083191,0,0,0.5,-0,-0,0.66667
0.3267,0.20181,0.6534,-0.44728,-1.9628,5.7161,0.77935,-0.25978,-1.2882,1.0391,2.3676e-10,-0.64411,0,0,0.5,-0,-0,0.66667
0.94837,0.52731,1.8967,0.040972,-0.001841,0.17566,-0.20723,0.069078,-1.9944,-0.27631,7.7794e-08,-0.99718,0,0,0.5,5.9212e-16,0,0.66667
0.16295,0.60649,0.3259,0.15974,0.74035,7.7637,-0.13882,0.046274,-1.9087,-0.18509,3.3608e-11,-0.95433,0,0,0.5,-0,-0,0.66667
0.086672,0.311,0.17334,-0.2835,-1.3589,8.7829,0.13105,-0.043682,-1.715,0.17473,-8.3788e-09,-0.85748,0,0,0.5,2.0354e-16,0,0.66667
0.5946,0.10846,1.1892,-0.58732,-1.8924,2.8471,1.8625,-0.62084,-0.77313,2.4833,-2.9549e-11,-0.38657,0,0,0.5,-1.1842e-15,0,0.66667
0.93099,0.41975,1.862,-0.12038,-0.017144,0.25715,0.59771,-0.19924,-1.9478,0.79694,-5.0831e-09,-0.97392,0,0,0.5,-0,-0,0.66667
0.13378,0.9244,0.26756,0.63659,3.2306,8.1951,-0.4542,0.1514,-0.55848,-0.6056,-9.8671e-09,-0.27924,0,0,0.5,-1.4803e-16,0,0.66667
0.51301,0.60154,1.026,0.15231,0.51335,3.5094,-0.41674,0.13891,-1.9174,-0.55565,5.5592e-12,-0.95871,0,0,0.5,1.1842e-15,0,0.66667
0.684,0.41984,1.368,-0.12025,-0.27293,1.8571,0.43866,-0.14622,-1.948,0.58488,-7.7525e-11,-0.97402,0,0,0.5,-0,-0,0.66667
0.17183,0.15753,0.34366,-0.5137,-2.4998,7.6831,0.47077,-0.15692,-1.0628,0.62769,2.1254e-09,-0.53141,0,0,0.5,-5.9212e-16,-5.4443e-16,0.66667
0.01126,0.78351,0.02252,0.42526,2.0995,9.7943,-0.025538,0.0085127,-1.3576,-0.034051,1.6137e-08,-0.67881,0,0,0.5,-3.7007e-17,0,0.66667
0.88768,0.07628,1.7754,-0.63558,-0.6142,0.7665,3.009,-1.003,-0.56316,4.012,-1.8642e-08,-0.28158,0,0,0.5,-0,-0,0.66667
0.035231,0.98496,0.070463,0.72744,3.8497,9.4855,-0.13668,0.045562,-0.11793,-0.18225,6.286e-07,-0.058967,0,0,0.5,-7.4015e-17,0,0.66667
0.25746,0.23209,0.51492,-0.40187,-1.8341,6.5664,0.55181,-0.18394,-1.4251,0.73574,4.1937e-10,-0.71257,0,0,0.5,-0,-0,0.66667
0.65168,0.14148,1.3034,-0.53778,-1.4976,2.2983,1.8691,-0.62304,-0.97111,2.4922,-1.3661e-10,-0.48555,0,0,0.5,1.1842e-15,0,0.66667
0.28578,0.30973,0.57157,-0.2854,-1.2554,6.1901,0.435,-0.145,-1.7109,0.58,1.6669e-10,-0.85546,0,0,0.5,-1.4803e-16,0,0.66667
0.0097076,0.94142,0.019415,0.66212,3.4458,9.8172,-0.034278,0.011427,-0.44152,-0.045703,1.5014e-06,-0.22076,0,0,0.5,-0,-0,0.66667
0.57545,0.82088,1.1509,0.48132,1.5519,2.9719,-1.4772,0.49241,-1.1761,-1.9696,4.4159e-11,-0.58805,0,0,0.5,-0,-0,0.66667
0.30779,0.67716,0.61558,0.26574,1.1475,5.9122,-0.43623,0.14541,-1.7485,-0.58164,-1.5118e-10,-0.87424,0,0,0.5,-2.9606e-16,0,0.66667
0.15151,0.8789,0.30303,0.56835,2.8205,7.9549,-0.45927,0.15309,-0.85182,-0.61236,-5.1872e-09,-0.42591,0,0,0.5,-0,-0,0.66667
0.97128,0.84119,1.9426,0.51178,-0.005013,0.3162,-2.6511,0.8837,-1.0694,-3.5348,-1.8091e-07,-0.5347,0,0,0.5,-2.9606e-16,0,0.66667
0.16497,0.62094,0.32994,0.18141,0.84154,7.7381,-0.15961,0.053204,-1.8833,-0.21281,3.7722e-11,-0.94163,0,0,0.5,2.2204e-16,0,0.66667
0.72724,0.38019,1.4545,-0.17972,-0.35276,1.5152,0.69705,-0.23235,-1.8852,0.9294,-1.1294e-10,-0.94262,0,0,0.5,-0,-0,0.66667
0.89072,0.65823,1.7814,0.23735,0.13695,0.47695,-1.1275,0.37584,-1.8006,-1.5034,-4.9656e-09,-0.90032,0,0,0.5,2.3685e-15,0,0.66667
0.85872,0.75999,1.7174,0.38998,0.38021,0.71928,-1.786,0.59534,-1.4591,-2.3814,-1.2512e-09,-0.72954,0,0,0.5,-0,-0,0.66667
0.18426,0.61874,0.36851,0.17811,0.81962,7.4844,-0.17503,0.058342,-1.8873,-0.23337,7.1206e-11,-0.94363,0,0,0.5,-1.4803e-16,0,0.66667
0.23681,0.011331,0.47362,-0.733,-3.671,6.9078,0.92577,-0.30859,-0.089229,1.2344,3.8822e-11,-0.044614,0,0,0.5,-0,-0,0.66667
0.018363,0.034815,0.036725,-0.69778,-3.6655,9.7045,0.068337,-0.022779,-0.26929,0.091115,2.7385e-07,-0.13465,0,0,0.5,-0,-0,0.66667
0.93141,0.11443,1.8628,-0.57836,-0.2719,0.52033,2.873,-0.95766,-0.81019,3.8306,1.6674e-08,-0.4051,0,0,0.5,-0,-0,0.66667
0.88712,0.7494,1.7742,0.3741,0.26108,0.56098,-1.77,0.58999,-1.5034,-2.36,-1.7085e-09,-0.7517,0,0,0.5,-1.4803e-15,0,0.66667
0.59547,0.73087,1.1909,0.34631,1.0331,2.7199,-1.0998,0.36661,-1.5732,-1.4664,7.7055e-11,-0.78659,0,0,0.5,-0,-0,0.66667
0.10937,0.85699,0.21874,0.53548,2.6686,8.5005,-0.31234,0.10411,-0.98015,-0.41646,5.3686e-10,-0.49008,0,0,0.5,-0,-0,0.66667
0.17354,0.94325,0.34709,0.66487,3.3561,7.6884,-0.61538,0.20513,-0.42845,-0.82051,-2.9177e-09,-0.21422,0,0,0.5,-0,-0,0.66667
0.57696,0.38179,1.1539,-0.17731,-0.53321,2.8545,0.5456,-0.18187,-1.8883,0.72746,-3.9851e-11,-0.94416,0,0,0.5,-1.1842e-15,0,0.66667
0.25166,0.617,0.50331,0.1755,0.77996,6.6106,-0.23555,0.078517,-1.8904,-0.31407,-1.082e-10,-0.94521,0,0,0.5,-0,-0,0.66667
0.30017,0.32765,0.60034,-0.25853,-1.1217,6.0061,0.41388,-0.13796,-1.7618,0.55184,1.4851e-10,-0.88089,0,0,0.5,5.9212e-16,0,0.66667
0.17099,0.40007,0.34197,-0.14989,-0.6921,7.6573,0.13669,-0.045564,-1.9203,0.18225,5.5725e-11,-0.96016,0,0,0.5,-1.4803e-16,0,0.66667
0.18959,0.45801,0.37918,-0.062984,-0.28736,7.4099,0.063687,-0.021229,-1.9856,0.084916,4.2059e-10,-0.99278,0,0,0.5,-0,-0,0.66667
0.46342,0.76701,0.92684,0.40052,1.5103,4.1082,-0.98991,0.32997,-1.429,-1.3199,-2.3343e-11,-0.71451,0,0,0.5,-0,-0,0.66667
0.50987,0.59604,1.0197,0.14405,0.48762,3.5418,-0.39173,0.13058,-1.9268,-0.52231,4.0448e-12,-0.9634,0,0,0.5,-0,-0,0.66667
0.51158,0.87649,1.0232,0.56473,2.081,3.6592,-1.5408,0.51361,-0.86686,-2.0544,2.7134e-12,-0.43343,0,0,0.5,1.1842e-15,0,0.66667
0.99714,0.3853,1.9943,-0.17205,0.089833,0.034429,0.91496,-0.30499,-1.8944,1.22,-3.3699e-07,-0.9472,0,0,0.5,-0,-0,0.66667
0.1296,0.097212,0.25919,-0.60418,-3.0445,8.2447,0.4176,-0.1392,-0.7025,0.5568,9.8844e-09,-0.35125,0,0,0.5,-2.9606e-16,0,0.66667
0.75617,0.18122,1.5123,-0.47817,-0.92647,1.4272,1.9284,-0.6428,-1.187,2.5712,-7.9807e-10,-0.5935,0,0,0.5,-0,-0,0.66667
0.79376,0.88384,1.5875,0.57575,0.99807,1.2408,-2.4374,0.81246,-0.82112,-3.2498,2.0003e-09,-0.41056,0,0,0.5,-0,-0,0.66667
0.58488,0.072043,1.1698,-0.64194,-2.1523,2.9742,2.0024,-0.66748,-0.53441,2.6699,-1.0449e-11,-0.2672,0,0,0.5,-0,-0,0.66667
0.46274,0.84465,0.92548,0.51697,2.0085,4.1597,-1.2759,0.42529,-1.0506,-1.7011,-1.4601e-11,-0.5253,0,0,0.5,-0,-0,0.66667
0.89343,0.92174,1.7869,0.63261,0.57434,0.73662,-3.0143,1.0048,-0.57655,-4.0191,1.7454e-08,-0.28828,0,0,0.5,-0,-0,0.66667
0.82818,0.56253,1.6564,0.093788,0.10327,0.79016,-0.41426,0.13809,-1.9701,-0.55234,1.05e-09,-0.98504,0,0,0.5,2.3685e-15,0,0.66667
0.050291,0.91,0.10058,0.615,3.1542,9.2829,-0.16495,0.054985,-0.6556,-0.21994,2.762e-08,-0.3278,0,0,0.5,-0,-0,0.66667
0.96298,0.69259,1.926,0.28889,-0.031567,0.19075,-1.4837,0.49456,-1.7034,-1.9783,3.4105e-08,-0.8517,0,0,0.5,-0,-0,0.66667
0.0073399,0.77878,0.01468,0.41818,2.0621,9.8465,-0.01637,0.0054567,-1.3788,-0.021827,9.2769e-09,-0.68939,0,0,0.5,-0,-0,0.66667
0.57313,0.69458,1.1463,0.29187,0.90083,2.9199,-0.89215,0.29738,-1.697,-1.1895,5.2202e-11,-0.84849,0,0,0.5,-0,-0,0.66667
0.57243,0.39127,1.1449,-0.16309,-0.49417,2.8971,0.49792,-0.16597,-1.9048,0.66389,-3.4698e-11,-0.95239,0,0,0.5,-1.1842e-15,0,0.66667
0.83438,0.63342,1.6688,0.20012,0.21583,0.77539,-0.89056,0.29685,-1.8573,-1.1874,-1.6723e-10,-0.92865,0,0,0.5,-0,-0,0.66667
0.38472,0.93039,0.76943,0.64559,2.836,5.0958,-1.3246,0.44154,-0.51795,-1.7662,-1.9017e-11,-0.25898,0,0,0.5,2.9606e-16,0,0.66667
0.091041,0.51944,0.18208,0.02916,0.13725,8.7181,-0.014159,0.0047195,-1.9965,-0.018878,-3.3971e-09,-0.99827,0,0,0.5,-0,-0,0.66667
0.58169,0.17715,1.1634,-0.48428,-1.5442,2.9127,1.5024,-0.5008,-1.1657,2.0032,-4.9058e-11,-0.58287,0,0,0.5,-0,-0,0.66667
0.024846,0.30672,0.049692,-0.28992,-1.4014,9.6109,0.038418,-0.012806,-1.7012,0.051223,-7.6099e-08,-0.85058,0,0,0.5,-0,-0,0.66667
0.3618,0.81508,0.72359,0.47262,2.0245,5.3004,-0.91195,0.30398,-1.2065,-1.2159,-1.3705e-10,-0.60324,0,0,0.5,-1.1842e-15,0,0.66667
0.98532,0.54813,1.9706,0.072202,-0.030501,0.048454,-0.37942,0.12647,-1.981,-0.50589,2.9486e-07,-0.99052,0,0,0.5,-0,-0,0.66667
0.86878,0.45417,1.7376,-0.068743,-0.050142,0.55108,0.31852,-0.10617,-1.9825,0.42469,-1.722e-09,-0.99127,0,0,0.5,-0,-0,0.66667
0.1525,0.53753,0.30499,0.056292,0.26059,7.8988,-0.045783,0.015261,-1.9888,-0.061045,-2.2441e-09,-0.99438,0,0,0.5,2.9606e-16,0,0.66667
0.79883,0.36958,1.5977,-0.19563,-0.27121,0.99991,0.83345,-0.27782,-1.8642,1.1113,3.465e-13,-0.93208,0,0,0.5,-5.9212e-16,0,0.66667
0.811,0.21045,1.622,-0.43432,-0.62446,1.0285,1.8786,-0.62619,-1.3292,2.5048,-4.9883e-10,-0.6646,0,0,0.5,-0,-0,0.66667
0.92821,0.0032513,1.8564,-0.74512,-0.5445,0.71516,3.6887,-1.2296,-0.026331,4.9182,3.7183e-07,-0.013165,0,0,0.5,4.737e-15,0,0.66667
0.22438,0.044699,0.44877,-0.68295,-3.391,7.0485,0.8173,-0.27243,-0.34099,1.0897,4.5336e-10,-0.1705,0,0,0.5,-0,-0,0.66667
0.49897,0.2008,0.99793,-0.4488,-1.6296,3.7394,1.1943,-0.39811,-1.2834,1.5924,5.1903e-13,-0.64172,0,0,0.5,-0,-0,0.66667
0.82744,0.030681,1.6549,-0.70398,-1.1351,1.1527,3.1067,-1.0356,-0.2391,4.1422,-1.1776e-09,-0.11955,0,0,0.5,9.6219e-16,0,0.66667
0.66733,0.471,1.3347,-0.043495,-0.10338,1.9932,0.1548,-0.051601,-1.9939,0.2064,-2.7655e-11,-0.99695,0,0,0.5,-0,-0,0.66667
0.59394,0.9495,1.1879,0.67425,2.252,2.9113,-2.1358,0.71193,-0.38331,-2.8477,6.1624e-12,-0.19166,0,0,0.5,-0,-0,0.66667
0.65198,0.6444,1.304,0.21661,0.54837,2.1553,-0.75319,0.25106,-1.8327,-1.0042,1.0166e-10,-0.91633,0,0,0.5,-0,-0,0.66667
0.23852,0.028947,0.47703,-0.70658,-3.5077,6.8786,0.89883,-0.29961,-0.22551,1.1984,1.0957e-10,-0.11275,0,0,0.5,-1.4803e-16,0,0.66667
0.02554,0.77605,0.05108,0.41407,2.039,9.6036,-0.056402,0.018801,-1.3905,-0.075203,1.1365e-08,-0.69524,0,0,0.5,-0,-0,0.66667
0.73626,0.50273,1.4725,0.004102,0.0076218,1.424,-0.016107,0.0053691,-2.0006,-0.021476,8.6294e-12,-1.0003,0,0,0.5,-0,-0,0.66667
0.32679,0.79698,0.65358,0.44547,1.9539,5.7145,-0.7764,0.2588,-1.294,-1.0352,-2.3618e-10,-0.64699,0,0,0.5,-3.87e-16,0,0.66667
0.37676,0.50623,0.75351,0.0093459,0.037314,5.0484,-0.018779,0.0062598,-1.9998,-0.025039,-4.0326e-12,-0.99991,0,0,0.5,-0,-0,0.66667
0.61262,0.62438,1.2252,0.18657,0.5195,2.5106,-0.60957,0.20319,-1.8772,-0.81277,6.4223e-11,-0.93862,0,0,0.5,3.7007e-17,0,0.66667
0.65717,0.2622,1.3143,-0.35671,-0.91983,2.1561,1.2502,-0.41674,-1.5473,1.667,-1.6683e-10,-0.77363,0,0,0.5,-1.1842e-15,0,0.66667
0.2029,0.44737,0.4058,-0.078939,-0.35814,7.2361,0.085422,-0.028474,-1.9777,0.1139,3.2891e-10,-0.98885,0,0,0.5,5.9212e-16,0,0.66667
0.82603,0.012646,1.6521,-0.73103,-1.2173,1.1894,3.2206,-1.0735,-0.099446,4.2941,-3.2842e-10,-0.049723,0,0,0.5,2.3685e-15,0,0.66667
0.38021,0.38165,0.76041,-0.17752,-0.71216,5.0177,0.35997,-0.11999,-1.8879,0.47996,6.596e-11,-0.94394,0,0,0.5,-1.1842e-15,0,0.66667
0.63174,0.62914,1.2635,0.19371,0.51534,2.3334,-0.65267,0.21756,-1.8668,-0.87023,7.9169e-11,-0.93342,0,0,0.5,-0,-0,0.66667
0.96641,0.9337,1.9328,0.65055,0.1352,0.47062,-3.353,1.1177,-0.49571,-4.4707,5.9581e-07,-0.24785,0,0,0.5,-1.4803e-15,0,0.66667
0.56479,0.17086,1.1296,-0.49371,-1.63,3.0828,1.4872,-0.49572,-1.1328,1.9829,-3.3426e-11,-0.56641,0,0,0.5,-0,-0,0.66667
0.35891,0.26251,0.71782,-0.35624,-1.4943,5.304,0.6819,-0.2273,-1.5485,0.90921,1.3968e-10,-0.77423,0,0,0.5,-0,-0,0.66667
0.61897,0.67482,1.2379,0.26223,0.72847,2.4694,-0.86566,0.28855,-1.7549,-1.1542,8.8986e-11,-0.87745,0,0,0.5,-1.1842e-15,0,0.66667
0.50179,0.47176,1.0036,-0.042359,-0.1444,3.6203,0.11336,-0.037788,-1.9942,0.15115,-2.5681e-13,-0.99712,0,0,0.5,-0,-0,0.66667
0.45238,0.67688,0.90475,0.26532,0.99005,4.1948,-0.64012,0.21337,-1.7495,-0.85349,-3.1027e-11,-0.87474,0,0,0.5,-0,-0,0.66667
0.73227,0.793,1.4645,0.4395,0.91875,1.5806,-1.7164,0.57214,-1.3128,-2.2886,4.9323e-10,-0.65641,0,0,0.5,1.1842e-15,0,0.66667
0.92451,0.63185,1.849,0.19778,0.045892,0.30529,-0.97519,0.32506,-1.8609,-1.3003,3.2944e-08,-0.93046,0,0,0.5,-2.3685e-15,0,0.66667
0.47927,0.71357,0.95854,0.32035,1.1633,3.9094,-0.81885,0.27295,-1.6352,-1.0918,-1.3784e-11,-0.81762,0,0,0.5,-8.8818e-16,0,0.66667
0.08823,0.94708,0.17646,0.67062,3.4704,8.7911,-0.31557,0.10519,-0.40055,-0.42076,-4.4127e-08,-0.20027,0,0,0.5,-0,-0,0.66667
0.56965,0.58594,1.1393,0.12891,0.39145,2.9198,-0.39166,0.13055,-1.9407,-0.52221,2.7159e-11,-0.97033,0,0,0.5,-0,-0,0.66667
0.24495,0.44031,0.4899,-0.089532,-0.39737,6.6916,0.11696,-0.038988,-1.972,0.15595,1.3608e-10,-0.98601,0,0,0.5,-0,-0,0.66667
0.039578,0.20941,0.079156,-0.43588,-2.1527,9.417,0.092007,-0.030669,-1.3241,0.12268,-2.3845e-09,-0.66203,0,0,0.5,-0,-0,0.66667
0.78814,0.89843,1.5763,0.59764,1.0803,1.2955,-2.5121,0.83738,-0.72979,-3.3495,1.7263e-09,-0.36489,0,0,0.5,-0,-0,0.66667
0.27277,0.71393,0.54554,0.3209,1.4312,6.3592,-0.46683,0.15561,-1.634,-0.62244,-2.0717e-10,-0.817,0,0,0.5,-1.4803e-16,0,0.66667
0.77707,0.58001,1.5541,0.12002,0.18536,1.1323,-0.49739,0.1658,-1.9482,-0.66319,1.8483e-10,-0.9741,0,0,0.5,1.1842e-15,0,0.66667
0.48821,0.89328,0.97642,0.58992,2.2651,3.9184,-1.536,0.512,-0.76212,-2.048,-2.1103e-12,-0.38106,0,0,0.5,5.9212e-16,0,0.66667
0.31794,0.42023,0.63587,-0.11966,-0.50566,5.7706,0.20291,-0.067635,-1.9485,0.27054,7.6203e-11,-0.97423,0,0,0.5,-5.9212e-16,0,0.66667
0.31403,0.9157,0.62805,0.62356,2.8854,5.9237,-1.0443,0.34811,-0.61732,-1.3924,-1.3533e-10,-0.30866,0,0,0.5,-0,-0,0.66667
0.042025,0.50116,0.08405,0.0017365,0.0082305,9.3774,-0.0003891,0.000127,-2.0008,-0.00052015,-4.0433e-06,-1.0004,0,0,0.5,-2.9606e-16,0,0.66667
0.5344,0.014319,1.0688,-0.72852,-2.7518,3.5248,2.0764,-0.69213,-0.11236,2.7685,-1.41e-13,-0.056179,0,0,0.5,-0,-0,0.66667
0.82355,0.94548,1.6471,0.66823,1.0664,1.1394,-2.935,0.97835,-0.41213,-3.9134,2.5628e-09,-0.20607,0,0,0.5,-0,-0,0.66667
0.083895,0.67282,0.16779,0.25923,1.2397,8.819,-0.11599,0.038663,-1.7604,-0.15465,-5.0149e-09,-0.88021,0,0,0.5,-1.4803e-16,0,0.66667
0.10856,0.37041,0.21712,-0.19438,-0.91869,8.4871,0.11254,-0.037514,-1.8661,0.15006,3.8527e-09,-0.93305,0,0,0.5,7.4015e-17,0,0.66667
0.52926,0.083308,1.0585,-0.62504,-2.2884,3.5104,1.7643,-0.5881,-0.61064,2.3524,-3.232e-12,-0.30532,0,0,0.5,-0,-5.2696e-16,0.66667
0.66014,0.12242,1.3203,-0.56637,-1.5623,2.2436,1.9941,-0.66469,-0.86005,2.6587,-1.3621e-10,-0.43002,0,0,0.5,1.4803e-16,0,0.66667
0.69475,0.84787,1.3895,0.5218,1.2826,1.9258,-1.9334,0.64448,-1.0322,-2.5779,3.237e-10,-0.51608,0,0,0.5,2.3685e-15,0,0.66667
0.31322,0.72766,0.62644,0.34148,1.4847,5.8577,-0.57045,0.19015,-1.5853,-0.7606,-2.065e-10,-0.79265,0,0,0.5,-0,-0,0.66667
0.037778,0.51168,0.075556,0.017517,0.083074,9.4346,-0.0035287,0.0011753,-1.9984,-0.0047054,-1.3935e-06,-0.99918,0,0,0.5,-0,-0,0.66667
0.41456,0.82318,0.82913,0.48476,1.9764,4.6878,-1.0718,0.35727,-1.164,-1.4291,-5.2474e-11,-0.58198,0,0,0.5,-0,-0,0.66667
0.22604,0.66723,0.45209,0.25085,1.1395,6.9466,-0.30241,0.1008,-1.7757,-0.40322,-6.1004e-13,-0.88787,0,0,0.5,-0,-0,0.66667
0.0011148,0.8879,0.0022297,0.58185,2.9681,9.9297,-0.0034598,0.0011538,-0.79587,-0.0046127,8.1139e-07,-0.39794,0,0,0.5,-0,-0,0.66667
0.68572,0.62398,1.3714,0.18597,0.42366,1.8548,-0.68013,0.22671,-1.878,-0.90684,1.077e-10,-0.93902,0,0,0.5,-4.4409e-16,0,0.66667
0.95206,0.33799,1.9041,-0.24301,0.0055979,0.20992,1.2339,-0.41131,-1.7903,1.6452,2.0098e-08,-0.89514,0,0,0.5,-0,-0,0.66667
0.39115,0.18595,0.7823,-0.47108,-1.9616,4.9538,0.98273,-0.32758,-1.212,1.3103,8.4508e-11,-0.60598,0,0,0.5,-6.6613e-16,0,0.66667
0.3003,0.96131,0.6006,0.69196,3.2976,6.1145,-1.1082,0.36941,-0.29747,-1.4776,-4.364e-11,-0.14873,0,0,0.5,2.9606e-16,0,0.66667
0.55375,0.33471,1.1075,-0.24793,-0.788,3.1028,0.73223,-0.24408,-1.7811,0.9763,-3.4037e-11,-0.89053,0,0,0.5,5.9212e-16,0,0.66667
0.85198,0.46698,1.704,-0.049526,-0.043643,0.64344,0.22504,-0.075013,-1.9919,0.30005,-2.5605e-09,-0.99597,0,0,0.5,-2.9606e-16,0,0.66667
0.79497,0.82856,1.5899,0.49283,0.80399,1.1703,-2.0895,0.69651,-1.1359,-2.786,1.3376e-09,-0.56796,0,0,0.5,-0,-0,0.66667
0.68476,0.92505,1.3695,0.63758,1.7029,2.0893,-2.3285,0.77616,-0.55416,-3.1046,1.0722e-10,-0.27708,0,0,0.5,-0,-0,0.66667
0.43211,0.81786,0.86421,0.47679,1.9023,4.4852,-1.0988,0.36626,-1.1918,-1.4651,-3.8809e-11,-0.59591,0,0,0.5,-0,-0,0.66667
0.69043,0.48274,1.3809,-0.025893,-0.05718,1.7942,0.095345,-0.031782,-1.9971,0.12713,-2.0304e-11,-0.99854,0,0,0.5,1.1842e-15,0,0.66667
0.21603,0.31413,0.43205,-0.2788,-1.2774,7.0789,0.32122,-0.10707,-1.7244,0.42829,-7.9876e-11,-0.86222,0,0,0.5,-0,-0,0.66667
0.28394,0.64158,0.56789,0.21237,0.9274,6.204,-0.32161,0.1072,-1.8391,-0.42882,-1.2286e-10,-0.91955,0,0,0.5,-5.9212e-16,0,0.66667
0.77782,0.85455,1.5556,0.53182,0.96611,1.3126,-2.2062,0.7354,-0.99396,-2.9416,1.3672e-09,-0.49698,0,0,0.5,-0,-0,0.66667
0.92998,0.58147,1.86,0.1222,0.018686,0.26181,-0.60612,0.20204,-1.9463,-0.80816,-2.9247e-09,-0.97315,0,0,0.5,-1.1842e-15,0,0.66667
0.19005,0.68764,0.3801,0.28146,1.3058,7.4166,-0.28529,0.095096,-1.7195,-0.38038,3.3607e-10,-0.85974,0,0,0.5,5.9212e-16,0,0.66667
0.29606,0.87598,0.59213,0.56398,2.6013,6.1236,-0.89052,0.29684,-0.87017,-1.1874,-3.3732e-10,-0.43509,0,0,0.5,-0,7.2234e-17,0.66667
0.0062103,0.86618,0.012421,0.54928,2.7808,9.8623,-0.018193,0.0060642,-0.92693,-0.024257,-1.2313e-07,-0.46347,0,0,0.5,4.6259e-18,0,0.66667
0.43156,0.11637,0.86312,-0.57544,-2.3594,4.5312,1.3245,-0.44149,-0.82232,1.766,1.9155e-11,-0.41116,0,0,0.5,-2.9606e-16,0,0.66667
0.2103,0.57264,0.42059,0.10896,0.49321,7.1407,-0.12221,0.040737,-1.9573,-0.16295,-2.4317e-10,-0.97866,0,0,0.5,-0,-0,0.66667
0.64142,0.3382,1.2828,-0.2427,-0.63509,2.2571,0.83025,-0.27675,-1.7909,1.107,-1.0339e-10,-0.89543,0,0,0.5,-5.9212e-16,0,0.66667
0.70959,0.78758,1.4192,0.43136,0.97382,1.7527,-1.6325,0.54416,-1.3383,-2.1766,3.6982e-10,-0.66917,0,0,0.5,-0,-0,0.66667
0.11878,0.49182,0.23756,-0.012266,-0.057336,8.3469,0.0077701,-0.00259,-1.9992,0.01036,-1.0195e-08,-0.99959,0,0,0.5,-7.4015e-17,0,0.66667
0.082144,0.80883,0.16429,0.46325,2.2869,8.8531,-0.20295,0.06765,-1.2374,-0.2706,4.2574e-09,-0.61869,0,0,0.5,2.2204e-16,0,0.66667
0.90634,0.57723,1.8127,0.11584,0.044353,0.36685,-0.55995,0.18665,-1.9519,-0.7466,-3.9538e-10,-0.97597,0,0,0.5,1.1842e-15,0,0.66667
0.38924,0.23035,0.77848,-0.40447,-1.663,4.956,0.83966,-0.27989,-1.418,1.1195,9.6528e-11,-0.70899,0,0,0.5,5.9212e-16,0,0.66667
0.5334,0.67716,1.0668,0.26574,0.87848,3.3166,-0.75597,0.25199,-1.7486,-1.008,2.1321e-11,-0.8743,0,0,0.5,-5.9212e-16,0,0.66667
0.96324,0.52363,1.9265,0.035451,-0.006984,0.11946,-0.18212,0.060708,-1.9953,-0.24283,3.0557e-07,-0.99767,0,0,0.5,-0,-0,0.66667
0.75905,0.78484,1.5181,0.42725,0.79744,1.3754,-1.7296,0.57655,-1.3513,-2.3062,5.6567e-10,-0.67565,0,0,0.5,-2.3685e-15,0,0.66667
0.32554,0.55126,0.65108,0.076891,0.32225,5.674,-0.1335,0.0445,-1.9786,-0.178,-4.9608e-11,-0.98929,0,0,0.5,-0,-0,0.66667
0.085849,0.29063,0.1717,-0.31406,-1.5116,8.7953,0.1438,-0.047932,-1.6489,0.19173,-1.5533e-09,-0.82445,0,0,0.5,-1.4803e-16,0,0.66667
0.53602,0.83952,1.072,0.50929,1.7757,3.3793,-1.4559,0.48532,-1.0781,-1.9413,1.4796e-11,-0.53903,0,0,0.5,-2.7473e-16,0,0.66667
0.33613,0.32556,0.67225,-0.26167,-1.1038,5.5622,0.46908,-0.15636,-1.7559,0.62544,1.3034e-10,-0.87796,0,0,0.5,-0,-0,0.66667
0.021685,0.34446,0.043371,-0.23331,-1.1208,9.6528,0.026983,-0.0089942,-1.8074,0.035978,2.5716e-07,-0.90368,0,0,0.5,-0,-0,0.66667
0.77115,0.89637,1.5423,0.59456,1.1564,1.4067,-2.4453,0.8151,-0.7427,-3.2604,1.1885e-09,-0.37135,0,0,0.5,-5.9212e-16,0,0.66667
0.38491,0.65606,0.76982,0.23409,0.94027,4.9697,-0.48056,0.16019,-1.8062,-0.64074,-7.8797e-11,-0.90309,0,0,0.5,9.2519e-18,0,0.66667
0.57132,0.93655,1.1426,0.65483,2.2617,3.1124,-1.9953,0.6651,-0.4762,-2.6604,5.088e-12,-0.2381,0,0,0.5,1.3323e-15,0,0.66667
0.75574,0.61748,1.5115,0.17622,0.30593,1.2975,-0.71026,0.23675,-1.8894,-0.94701,1.0402e-10,-0.9447,0,0,0.5,-1.1842e-15,0,0.66667
0.94085,0.75185,1.8817,0.37778,0.066851,0.32354,-1.8956,0.63187,-1.4933,-2.5275,-1.4669e-09,-0.74666,0,0,0.5,-2.3685e-15,0,0.66667
0.61232,0.25147,1.2246,-0.37279,-1.079,2.57,1.2174,-0.40581,-1.5067,1.6232,-9.9589e-11,-0.75336,0,0,0.5,-0,-0,0.66667
0.3154,0.22927,0.63079,-0.4061,-1.783,5.8444,0.6831,-0.2277,-1.4133,0.9108,2.5582e-10,-0.70664,0,0,0.5,-0,-0,0.66667
0.11008,0.74138,0.22015,0.36206,1.7456,8.476,-0.21256,0.070853,-1.5338,-0.28341,1.1661e-09,-0.76692,0,0,0.5,7.4015e-17,0,0.66667
0.073919,0.94857,0.14784,0.67286,3.4924,8.9777,-0.26526,0.088422,-0.38979,-0.35369,-1.6324e-08,-0.19489,0,0,0.5,-0,-0,0.66667
0.31969,0.41931,0.63938,-0.12103,-0.51077,5.749,0.20636,-0.068787,-1.9473,0.27515,7.5991e-11,-0.97364,0,0,0.5,-0,-0,0.66667
0.66084,0.3612,1.3217,-0.2082,-0.51338,2.0747,0.73379,-0.2446,-1.8453,0.97839,-1.0429e-10,-0.92264,0,0,0.5,-1.1842e-15,0,0.66667
0.69515,0.36788,1.3903,-0.19818,-0.43866,1.7786,0.73475,-0.24492,-1.8602,0.97967,-1.165e-10,-0.93009,0,0,0.5,-5.9212e-16,0,0.66667
0.20772,0.73831,0.41544,0.35747,1.6631,7.1957,-0.39601,0.132,-1.5451,-0.52802,-7.3641e-11,-0.77257,0,0,0.5,-0,-0,0.66667
0.082796,0.67823,0.16559,0.26735,1.2799,8.834,-0.11805,0.039351,-1.7455,-0.15741,-3.3066e-09,-0.87276,0,0,0.5,-7.4015e-17,0,0.66667
0.30551,0.52817,0.61102,0.042256,0.17976,5.9219,-0.068852,0.022951,-1.9941,-0.091802,-3.4757e-11,-0.99704,0,0,0.5,5.9212e-16,0,0.66667
0.54757,0.35916,1.0951,-0.21126,-0.67544,3.1577,0.61697,-0.20566,-1.8409,0.82262,-2.701e-11,-0.92045,0,0,0.5,1.1842e-15,0,0.66667
0.75467,0.17376,1.5093,-0.48936,-0.95958,1.4452,1.9696,-0.65655,-1.1479,2.6262,-8.2193e-10,-0.57396,0,0,0.5,-0,-0,0.66667
0.52966,0.44107,1.0593,-0.088389,-0.28832,3.3261,0.24968,-0.083228,-1.9728,0.33291,-7.931e-12,-0.98638,0,0,0.5,-0,-0,0.66667
0.28698,0.80929,0.57397,0.46394,2.1035,6.2091,-0.7101,0.2367,-1.2351,-0.94679,-4.3077e-10,-0.61756,0,0,0.5,-1.3708e-16,0,0.66667
0.62418,0.90794,1.2484,0.61191,1.8727,2.5904,-2.037,0.679,-0.66964,-2.716,3.9821e-11,-0.33482,0,0,0.5,-2.3685e-15,1.2095e-16,0.66667
0.26484,0.15852,0.52967,-0.51222,-2.3808,6.497,0.72349,-0.24116,-1.068,0.96466,6.6596e-10,-0.53398,0,0,0.5,-5.9212e-16,0,0.66667
0.65269,0.3553,1.3054,-0.21704,-0.54843,2.1491,0.75554,-0.25185,-1.832,1.0074,-1.0235e-10,-0.91602,0,0,0.5,-0,-0,0.66667
0.8419,0.89203,1.6838,0.58805,0.78116,0.95931,-2.6404,0.88014,-0.76999,-3.5206,5.2262e-09,-0.385,0,0,0.5,1.1842e-15,7.0982e-16,0.66667
0.63895,0.18698,1.2779,-0.46953,-1.3153,2.3713,1.6,-0.53334,-1.2173,2.1334,-1.4007e-10,-0.60864,0,0,0.5,-2.9606e-16,0,0.66667
0.56563,0.34366,1.1313,-0.23452,-0.72717,2.9795,0.70747,-0.23582,-1.8056,0.94329,-4.1257e-11,-0.90279,0,0,0.5,3.7007e-17,0,0.66667
0.30714,0.19339,0.61428,-0.45992,-2.0541,5.9588,0.75339,-0.25113,-1.2479,1.0045,3.1943e-10,-0.62396,0,0,0.5,-0,-0,0.66667
0.87678,0.66786,1.7536,0.25179,0.18023,0.55385,-1.1774,0.39247,-1.7742,-1.5699,-2.3473e-10,-0.88711,0,0,0.5,-0,-0,0.66667
0.98882,0.96964,1.9776,0.70446,0.035131,0.46918,-3.7151,1.2384,-0.23643,-4.9535,5.4681e-06,-0.11821,0,0,0.5,-0,-0,0.66667
0.77748,0.33041,1.555,-0.25439,-0.4053,1.1642,1.0548,-0.35161,-1.7694,1.4064,1.871e-11,-0.88468,0,0,0.5,-0,-0,0.66667
0.57364,0.040194,1.1473,-0.68971,-2.4059,3.114,2.1101,-0.70337,-0.30832,2.8135,-2.3095e-12,-0.15416,0,0,0.5,-0,3.0168e-16,0.66667
0.14128,0.53468,0.28256,0.052027,0.24173,8.0475,-0.039201,0.013067,-1.991,-0.052269,-7.6938e-10,-0.99551,0,0,0.5,5.9212e-16,0,0.66667
0.31493,0.96343,0.62986,0.69515,3.2826,5.9392,-1.1676,0.38919,-0.28207,-1.5568,-2.5357e-11,-0.14104,0,0,0.5,-1.4803e-16,0,0.66667
0.36686,0.80289,0.73372,0.45433,1.9292,5.2347,-0.88894,0.29631,-1.2656,-1.1853,-1.2919e-10,-0.63282,0,0,0.5,-2.9606e-16,0,0.66667
0.2919,0.9046,0.58379,0.60691,2.8388,6.1879,-0.94482,0.31494,-0.6911,-1.2598,-2.6686e-10,-0.34555,0,0,0.5,8.8818e-16,0,0.66667
0.44595,0.45973,0.89191,-0.06041,-0.2231,4.2409,0.14368,-0.047894,-1.9867,0.19157,1.0088e-11,-0.99333,0,0,0.5,-0,-0,0.66667
0.61063,0.26,1.2213,-0.36,-1.0425,2.5808,1.1724,-0.3908,-1.539,1.5632,-9.6063e-11,-0.76949,0,0,0.5,-0,-0,0.66667
0.21291,0.26616,0.42583,-0.35077,-1.6261,7.1277,0.39831,-0.13277,-1.5619,0.53108,9.0059e-11,-0.78094,0,0,0.5,-2.9606e-16,0,0.66667
0.24976,0.47458,0.49952,-0.038133,-0.16851,6.6284,0.050796,-0.016932,-1.9951,0.067728,7.1117e-11,-0.99756,0,0,0.5,-5.9212e-16,0,0.66667
0.11215,0.21552,0.2243,-0.42672,-2.0789,8.4536,0.25524,-0.085079,-1.3531,0.34032,-2.3153e-09,-0.67655,0,0,0.5,1.8504e-16,0,0.66667
0.30759,0.83241,0.61518,0.49862,2.2454,5.9634,-0.81797,0.27266,-1.1155,-1.0906,-3.1791e-10,-0.55775,0,0,0.5,-0,-0,0.66667
0.49745,0.16486,0.9949,-0.50271,-1.8562,3.7783,1.3337,-0.44457,-1.1013,1.7783,9.7988e-13,-0.55063,0,0,0.5,-0,-0,0.66667
0.48981,0.36145,0.97962,-0.20782,-0.73056,3.7687,0.5429,-0.18097,-1.8458,0.72387,5.5578e-12,-0.92291,0,0,0.5,-5.9212e-16,0,0.66667
0.99558,0.89597,1.9912,0.59395,-0.10121,0.32493,-3.1537,1.0512,-0.74526,-4.205,-6.5905e-07,-0.37263,0,0,0.5,-0,-0,0.66667
0.98111,0.77957,1.9622,0.41935,-0.084438,0.21067,-2.1943,0.73142,-1.3755,-2.9257,-2.44e-08,-0.68777,0,0,0.5,1.6283e-15,0,0.66667
0.43656,0.84552,0.87313,0.51828,2.0794,4.4509,-1.2067,0.40225,-1.0458,-1.609,-2.8087e-11,-0.52292,0,0,0.5,-0,-6.5357e-16,0.66667
0.97202,0.93598,1.944,0.65397,0.10101,0.45706,-3.3902,1.1301,-0.4802,-4.5203,2.2049e-06,-0.2401,0,0,0.5,-0,-0,0.66667
0.2144,0.87543,0.4288,0.56315,2.7221,7.1456,-0.64394,0.21465,-0.87339,-0.85859,-1.7684e-09,-0.4367,0,0,0.5,-5.9212e-16,0,0.66667
0.54112,0.71619,1.0822,0.32429,1.0693,3.2533,-0.93589,0.31196,-1.6266,-1.2478,2.8285e-11,-0.81331,0,0,0.5,-8.8818e-16,0,0.66667
0.45344,0.45992,0.90687,-0.060118,-0.21986,4.156,0.14538,-0.048461,-1.9871,0.19385,8.5989e-12,-0.99355,0,0,0.5,-5.9212e-16,0,0.66667
0.96761,0.011828,1.9352,-0.73226,-0.22893,0.56403,3.7789,-1.2596,-0.093167,5.0385,-9.9002e-07,-0.046584,0,0,0.5,-0,5.5716e-16,0.66667
0.83618,0.93103,1.6724,0.64654,0.94039,1.0455,-2.8833,0.96111,-0.51362,-3.8444,4.5152e-09,-0.25681,0,0,0.5,-0,-0,0.66667
0.21415,0.084764,0.42829,-0.62285,-3.0568,7.1622,0.71137,-0.23712,-0.62032,0.9485,1.4412e-09,-0.31016,0,0,0.5,-0,-0,0.66667
0.43954,0.93456,0.87908,0.65184,2.7118,4.4786,-1.528,0.50935,-0.4899,-2.0374,-4.297e-12,-0.24495,0,0,0.5,1.4803e-16,0,0.66667
0.16848,0.84561,0.33695,0.51841,2.5284,7.7273,-0.46581,0.15527,-1.0452,-0.62108,-2.3236e-09,-0.5226,0,0,0.5,5.9212e-16,0,0.66667
0.52909,0.96164,1.0582,0.69245,2.5997,3.5539,-1.954,0.65132,-0.29514,-2.6053,5.2669e-13,-0.14757,0,0,0.5,5.9212e-16,0,0.66667
0.79348,0.27304,1.587,-0.34044,-0.51481,1.0905,1.4407,-0.48023,-1.5877,1.9209,1.6784e-11,-0.79387,0,0,0.5,-5.9212e-16,0,0.66667
0.035879,0.48529,0.071758,-0.022063,-0.10466,9.4603,0.0042214,-0.0014067,-1.9977,0.0056287,6.4242e-07,-0.99883,0,0,0.5,7.4015e-17,0,0.66667
0.19136,0.026703,0.38272,-0.70995,-3.6047,7.4717,0.72456,-0.24152,-0.20818,0.96608,4.7097e-10,-0.10409,0,0,0.5,-1.4803e-16,0,0.66667
0.97746,0.28172,1.9549,-0.32742,0.076745,0.1624,1.7069,-0.56896,-1.6198,2.2758,-3.1455e-08,-0.80988,0,0,0.5,-2.3685e-15,0,0.66667
0.9608,0.01254,1.9216,-0.73119,-0.27864,0.58385,3.7468,-1.2489,-0.098454,4.9957,1.6767e-06,-0.049227,0,0,0.5,-0,-0,0.66667
0.55659,0.81711,1.1132,0.47566,1.5851,3.1555,-1.412,0.47066,-1.1957,-1.8826,3.0675e-11,-0.59787,0,0,0.5,-0,-0,0.66667
0.64609,0.68533,1.2922,0.278,0.72386,2.2255,-0.95793,0.31931,-1.7258,-1.2772,1.2067e-10,-0.86292,0,0,0.5,-5.9212e-16,0,0.66667
0.27209,0.8454,0.54419,0.5181,2.4006,6.4077,-0.75185,0.25062,-1.0463,-1.0025,-5.8932e-10,-0.52315,0,0,0.5,-0,-0,0.66667
0.95209,0.037442,1.9042,-0.69384,-0.28774,0.56725,3.5232,-1.1744,-0.28851,4.6976,-2.4862e-07,-0.14426,0,0,0.5,-0,3.7632e-16,0.66667
0.66977,0.21161,1.3395,-0.43258,-1.1037,2.0822,1.5452,-0.51508,-1.3347,2.0603,-2.2332e-10,-0.66733,0,0,0.5,1.1842e-15,0,0.66667
0.66681,0.019403,1.3336,-0.7209,-2.1033,2.3047,2.5637,-0.85458,-0.15167,3.4183,-6.2204e-12,-0.075837,0,0,0.5,-0,-0,0.66667
0.011103,0.17334,0.022207,-0.49,-2.4492,9.7969,0.029016,-0.0096722,-1.1457,0.038689,-4.6209e-08,-0.57286,0,0,0.5,1.8504e-17,0,0.66667
0.85297,0.59001,1.7059,0.13502,0.11998,0.64969,-0.61421,0.20474,-1.9355,-0.81895,5.8022e-10,-0.96775,0,0,0.5,-1.7764e-15,0,0.66667
0.77833,0.0073443,1.5567,-0.73898,-1.5411,1.4913,3.0676,-1.0225,-0.058252,4.0901,-1.7363e-11,-0.029126,0,0,0.5,4.737e-15,-4.2582e-16,0.66667
0.68492,0.67393,1.3698,0.26089,0.6049,1.8819,-0.95301,0.31767,-1.7575,-1.2707,1.4462e-10,-0.87875,0,0,0.5,-0,-0,0.66667
0.74078,0.83099,1.4816,0.49649,1.0322,1.5516,-1.9615,0.65384,-1.123,-2.6154,6.9064e-10,-0.56148,0,0,0.5,-1.1842e-15,0,0.66667
0.15657,0.33546,0.31314,-0.24681,-1.1557,7.8528,0.2061,-0.0687,-1.7834,0.2748,-5.7791e-10,-0.8917,0,0,0.5,1.4803e-16,0,0.66667
0.71878,0.57047,1.4376,0.1057,0.21206,1.5685,-0.40521,0.13507,-1.9603,-0.54028,9.2499e-11,-0.98016,0,0,0.5,-0,-0,0.66667
0.096818,0.70117,0.19364,0.30175,1.4467,8.6485,-0.15581,0.051938,-1.6757,-0.20775,-4.7248e-10,-0.83786,0,0,0.5,-0,-0,0.66667
0.70695,0.89364,1.4139,0.59046,1.4443,1.8759,-2.2263,0.74208,-0.75987,-2.9683,2.9665e-10,-0.37993,0,0,0.5,-1.1842e-15,0,0.66667
0.0026318,0.10243,0.0052636,-0.59636,-3.0526,9.9097,0.0083706,-0.002791,-0.73529,0.01116,-1.2345e-06,-0.36765,0,0,0.5,-0,-3.3233e-16,0.66667
0.77621,0.89618,1.5524,0.59427,1.1309,1.3721,-2.4601,0.82005,-0.7439,-3.2802,1.3331e-09,-0.37195,0,0,0.5,-0,-0,0.66667
0.49156,0.16976,0.98311,-0.49536,-1.8407,3.8379,1.2987,-0.43289,-1.1269,1.7315,3.5287e-12,-0.56344,0,0,0.5,-0,-0,0.66667
0.20439,0.90836,0.40877,0.61254,3.0114,7.2837,-0.66771,0.22257,-0.66676,-0.89028,-2.046e-09,-0.33338,0,0,0.5,-0,-0,0.66667
0.72925,0.41868,1.4585,-0.12197,-0.23531,1.4882,0.4744,-0.15813,-1.9465,0.63253,-1.0626e-10,-0.97327,0,0,0.5,1.1842e-15,0,0.66667
0.31565,0.54415,0.63131,0.066219,0.27965,5.7962,-0.11148,0.03716,-1.9839,-0.14864,-4.6885e-11,-0.99195,0,0,0.5,-5.9212e-16,0,0.66667
0.88382,0.91013,1.7676,0.61519,0.60069,0.76491,-2.8998,0.96661,-0.65465,-3.8664,1.0646e-08,-0.32732,0,0,0.5,-0,-0,0.66667
0.18023,0.3165,0.36047,-0.27525,-1.2814,7.5442,0.26459,-0.088195,-1.7309,0.35278,-4.4765e-10,-0.86544,0,0,0.5,5.9212e-16,0,0.66667
0.93855,0.72397,1.8771,0.33595,0.056783,0.30772,-1.6817,0.56055,-1.599,-2.2422,7.7212e-09,-0.79951,0,0,0.5,-0,-0,0.66667
0.97075,0.41629,1.9415,-0.12557,0.032587,0.10551,0.65011,-0.2167,-1.9437,0.86681,-1.7507e-07,-0.97183,0,0,0.5,-0,-0,0.66667
0.30449,0.12282,0.60897,-0.56577,-2.5955,6.0209,0.91876,-0.30625,-0.86247,1.225,2.7969e-10,-0.43124,0,0,0.5,-7.4015e-16,0,0.66667
0.86249,0.39431,1.725,-0.15854,-0.1282,0.60135,0.72925,-0.24308,-1.9102,0.97234,9.1578e-10,-0.95509,0,0,0.5,-0,-0,0.66667
0.84218,0.12743,1.6844,-0.55885,-0.72155,0.93266,2.5101,-0.83671,-0.8903,3.3469,-4.2796e-09,-0.44515,0,0,0.5,-2.3685e-15,5.0349e-16,0.66667
0.42461,0.24593,0.84923,-0.3811,-1.5012,4.5392,0.86304,-0.28768,-1.484,1.1507,5.6275e-11,-0.742,0,0,0.5,5.9212e-16,0,0.66667
0.36368,0.45678,0.72737,-0.064837,-0.26252,5.2071,0.12576,-0.04192,-1.9845,0.16768,3.055e-11,-0.99227,0,0,0.5,5.9212e-16,0,0.66667
0.28244,0.41166,0.56487,-0.13251,-0.57547,6.2161,0.1996,-0.066535,-1.9379,0.26614,1.026e-10,-0.96893,0,0,0.5,-0,-0,0.66667
0.99324,0.54349,1.9865,0.065233,-0.033077,0.023404,-0.34556,0.11519,-1.9843,-0.46074,5.2974e-06,-0.99213,0,0,0.5,-0,-0,0.66667
0.25575,0.16402,0.5115,-0.50397,-2.3508,6.609,0.68742,-0.22914,-1.0967,0.91656,7.4799e-10,-0.54836,0,0,0.5,-0,-0,0.66667
0.92068,0.42194,1.8414,-0.1171,-0.028508,0.30132,0.57498,-0.19166,-1.9508,0.76664,2.4961e-08,-0.9754,0,0,0.5,-1.1842e-15,0,0.66667
0.42834,0.66732,0.85667,0.25098,0.96298,4.4653,-0.57336,0.19112,-1.7755,-0.76448,-4.7161e-11,-0.88775,0,0,0.5,-0,-0,0.66667
0.93543,0.38454,1.8709,-0.17318,-0.019801,0.25141,0.86401,-0.288,-1.8931,1.152,3.5194e-08,-0.94656,0,0,0.5,-0,-0,0.66667
0.83884,0.035132,1.6777,-0.6973,-1.0469,1.0813,3.1196,-1.0399,-0.27151,4.1595,-2.0472e-09,-0.13576,0,0,0.5,-0,-0,0.66667
0.15578,0.83278,0.31155,0.49918,2.4355,7.8894,-0.41472,0.13824,-1.1138,-0.55296,-1.2391e-09,-0.5569,0,0,0.5,-0,-0,0.66667
0.57428,0.88002,1.1486,0.57003,1.8971,3.0309,-1.7459,0.58198,-0.84485,-2.3279,2.3006e-11,-0.42243,0,0,0.5,-0,-0,0.66667
0.6735,0.33368,1.347,-0.24948,-0.59758,1.9757,0.89613,-0.29871,-1.7784,1.1948,-1.3144e-10,-0.88922,0,0,0.5,5.9212e-16,0,0.66667
0.40582,0.83678,0.81164,0.50516,2.0895,4.7956,-1.0934,0.36445,-1.0928,-1.4578,-5.6175e-11,-0.5464,0,0,0.5,2.9606e-16,0,0.66667
0.004877,0.40127,0.0097541,-0.14809,-0.70677,9.8787,0.003852,-0.0012836,-1.9222,0.0051362,5.7137e-07,-0.96109,0,0,0.5,2.313e-18,0,0.66667
0.32533,0.62406,0.65066,0.1861,0.7856,5.6849,-0.3229,0.10763,-1.8778,-0.43053,-1.0274e-10,-0.93892,0,0,0.5,-7.4015e-17,0,0.66667
0.83894,0.15074,1.6779,-0.52389,-0.67104,0.92282,2.3441,-0.78136,-1.0242,3.1254,-2.3263e-09,-0.51211,0,0,0.5,-0,-0,0.66667
0.062824,0.53924,0.12565,0.058864,0.27857,9.0974,-0.019723,0.0065741,-1.9877,-0.026297,-2.0152e-07,-0.99385,0,0,0.5,-0,-0,0.66667
0.10542,0.076539,0.21084,-0.63519,-3.2453,8.5633,0.35713,-0.11904,-0.56486,0.47617,1.6022e-08,-0.28243,0,0,0.5,1.4803e-16,0,0.66667
0.70179,0.9331,1.4036,0.64965,1.6637,1.9625,-2.4316,0.81052,-0.49983,-3.2421,1.2725e-10,-0.24991,0,0,0.5,-2.9606e-16,-2.8655e-16,0.66667
0.51416,0.58594,1.0283,0.12891,0.4328,3.4942,-0.35349,0.11783,-1.9409,-0.47133,5.2417e-12,-0.97044,0,0,0.5,5.9212e-16,0,0.66667
0.49817,0.097724,0.99633,-0.60341,-2.2954,3.82,1.6032,-0.5344,-0.70586,2.1376,2.6268e-13,-0.35293,0,0,0.5,-0,2.7249e-16,0.66667
0.37361,0.13991,0.74722,-0.54014,-2.327,5.183,1.0763,-0.35876,-0.96222,1.435,8.3715e-11,-0.48111,0,0,0.5,-0,-0,0.66667
0.60351,0.94096,1.207,0.66144,2.157,2.8133,-2.129,0.70967,-0.44482,-2.8387,9.8079e-12,-0.22241,0,0,0.5,-0,-0,0.66667
0.85147,0.35039,1.7029,-0.22442,-0.20997,0.68263,1.0191,-0.33971,-1.8208,1.3588,5.7694e-10,-0.91041,0,0,0.5,-0,-0,0.66667
0.27692,0.80696,0.55385,0.46044,2.1,6.3337,-0.68004,0.22668,-1.2463,-0.90672,-4.8737e-10,-0.62314,0,0,0.5,-1.4803e-16,0,0.66667
0.84476,0.9507,1.6895,0.67605,0.95864,1.0268,-3.0459,1.0153,-0.37454,-4.0612,4.4686e-09,-0.18727,0,0,0.5,1.1842e-15,0,0.66667
0.41662,0.63669,0.83324,0.20504,0.79307,4.5928,-0.45559,0.15186,-1.85,-0.60746,-4.8783e-11,-0.92499,0,0,0.5,-0,-0,0.66667
0.50098,0.51115,1.002,0.016729,0.057072,3.6284,-0.044699,0.0149,-1.9987,-0.059599,1.3021e-14,-0.99936,0,0,0.5,-0,-0,0.66667
0.72962,0.98144,1.4592,0.72216,1.7705,1.8138,-2.8102,0.93672,-0.14514,-3.7469,3.1711e-11,-0.072572,0,0,0.5,-1.1842e-15,0,0.66667
0.25872,0.98466,0.51744,0.72699,3.5922,6.6348,-1.0031,0.33438,-0.12014,-1.3375,-3.5439e-11,-0.060072,0,0,0.5,-0,-0,0.66667
0.92164,0.60261,1.8433,0.15392,0.037606,0.30523,-0.75657,0.25219,-1.9157,-1.0088,-2.1435e-08,-0.95786,0,0,0.5,-0,-0,0.66667
0.70207,0.13128,1.4041,-0.55309,-1.3487,1.8878,2.071,-0.69032,-0.91252,2.7613,-3.3644e-10,-0.45626,0,0,0.5,2.3685e-15,0,0.66667
0.61893,0.33593,1.2379,-0.2461,-0.68163,2.4652,0.81237,-0.27079,-1.7844,1.0832,-8.4895e-11,-0.89221,0,0,0.5,-0,-0,0.66667
0.27301,0.9016,0.54602,0.60241,2.8487,6.4192,-0.87713,0.29238,-0.70988,-1.1695,-4.226e-10,-0.35494,0,0,0.5,2.9606e-16,0,0.66667
0.69585,0.70998,1.3917,0.31498,0.71514,1.8098,-1.1689,0.38964,-1.6469,-1.5586,1.9279e-10,-0.82345,0,0,0.5,-0,-0,0.66667
0.25721,0.075316,0.51443,-0.63703,-3.0692,6.6253,0.87388,-0.29129,-0.55653,1.1652,4.2543e-10,-0.27826,0,0,0.5,-0,-0,0.66667
0.81645,0.36453,1.6329,-0.2032,-0.25149,0.88738,0.88483,-0.29494,-1.8528,1.1798,1.9715e-10,-0.92639,0,0,0.5,1.1842e-15,0,0.66667
0.011472,0.17335,0.022945,-0.48998,-2.4491,9.792,0.02998,-0.0099934,-1.1458,0.039973,-4.995e-08,-0.57289,0,0,0.5,1.8504e-17,0,0.66667
0.16654,0.077767,0.33308,-0.63335,-3.1782,7.772,0.56254,-0.18751,-0.57311,0.75006,4.4587e-09,-0.28656,0,0,0.5,2.9606e-16,0,0.66667
0.55783,0.50684,1.1157,0.010264,0.031715,3.031,-0.030536,0.010179,-1.9995,-0.040714,1.8163e-12,-0.99977,0,0,0.5,-0,-0,0.66667
0.71228,0.77762,1.4246,0.41642,0.92613,1.7233,-1.5819,0.52731,-1.3838,-2.1092,3.6056e-10,-0.69189,0,0,0.5,-0,-0,0.66667
0.49248,0.13862,0.98496,-0.54208,-2.0389,3.8493,1.4238,-0.4746,-0.95456,1.8984,2.2043e-12,-0.47728,0,0,0.5,-0,-0,0.66667
0.87781,0.14713,1.7556,-0.52931,-0.49275,0.71758,2.478,-0.82601,-1.0036,3.304,9.0728e-10,-0.5018,0,0,0.5,-0,-0,0.66667
0.97587,0.9162,1.9517,0.6243,0.046904,0.41261,-3.2493,1.0831,-0.61376,-4.3324,2.1829e-07,-0.30688,0,0,0.5,-0,-0,0.66667
0.46428,0.87242,0.92855,0.55863,2.1921,4.1613,-1.3832,0.46108,-0.89102,-1.8443,-9.6728e-12,-0.44551,0,0,0.5,2.9606e-16,0,0.66667
0.76799,0.93882,1.536,0.65824,1.3518,1.4829,-2.6961,0.8987,-0.46038,-3.5948,5.9504e-10,-0.23019,0,0,0.5,-0,-0,0.66667
0.49477,0.59227,0.98954,0.13841,0.47947,3.7041,-0.36522,0.12174,-1.9326,-0.48696,-2.1198e-12,-0.96632,0,0,0.5,2.2204e-16,0,0.66667
0.6651,0.07643,1.3302,-0.63535,-1.785,2.2503,2.2537,-0.75124,-0.56406,3.005,-7.1244e-11,-0.28203,0,0,0.5,-0,-0,0.66667
0.22487,0.96408,0.44975,0.69613,3.4687,7.0459,-0.83489,0.2783,-0.27719,-1.1132,-2.7291e-10,-0.13859,0,0,0.5,-1.4803e-16,0,0.66667
0.10954,0.38954,0.21908,-0.16569,-0.78113,8.473,0.096798,-0.032266,-1.902,0.12906,1.287e-10,-0.95102,0,0,0.5,-0,-0,0.66667
0.97901,0.4721,1.958,-0.041852,0.015061,0.065665,0.21853,-0.072843,-1.9942,0.29137,5.8616e-07,-0.99709,0,0,0.5,-0,-0,0.66667
0.81499,0.78087,1.63,0.4213,0.58627,0.99534,-1.8312,0.61041,-1.37,-2.4416,2.3228e-10,-0.68501,0,0,0.5,1.5543e-15,0,0.66667
0.28538,0.52687,0.57077,0.040305,0.17402,6.1748,-0.061347,0.020449,-1.9945,-0.081795,-4.1715e-11,-0.99725,0,0,0.5,-0,-0,0.66667
0.58583,0.1774,1.1717,-0.48391,-1.5303,2.8726,1.5119,-0.50398,-1.1669,2.0159,-5.3063e-11,-0.58347,0,0,0.5,-5.9212e-16,0,0.66667
0.38007,0.46947,0.76014,-0.045794,-0.18234,5.0094,0.092827,-0.030942,-1.9935,0.12377,1.8848e-11,-0.99673,0,0,0.5,-0,-0,0.66667
0.17634,0.25812,0.35268,-0.36282,-1.7128,7.604,0.34123,-0.11374,-1.5317,0.45497,-3.2883e-10,-0.76586,0,0,0.5,-5.9212e-16,0,0.66667
0.41884,0.34825,0.83767,-0.22763,-0.8805,4.5707,0.50847,-0.16949,-1.8161,0.67796,5.1128e-11,-0.90804,0,0,0.5,-0,-0,0.66667
0.29719,0.94853,0.59438,0.6728,3.1947,6.1453,-1.0664,0.35546,-0.39031,-1.4219,-8.5368e-11,-0.19515,0,0,0.5,-0,-0,0.66667
0.016624,0.2961,0.033248,-0.30586,-1.482,9.7214,0.027118,-0.0090393,-1.667,0.036157,-4.504e-08,-0.83348,0,0,0.5,-3.7007e-17,0,0.66667
0.38737,0.78577,0.77474,0.42866,1.7748,4.9849,-0.88559,0.2952,-1.347,-1.1808,-9.7728e-11,-0.67348,0,0,0.5,1.1842e-15,0,0.66667
0.92091,0.56351,1.8418,0.09527,0.022512,0.29647,-0.46792,0.15597,-1.9688,-0.6239,4.3462e-08,-0.9844,0,0,0.5,-0,-0,0.66667
0.8282,0.44734,1.6564,-0.078991,-0.086756,0.78816,0.34891,-0.1163,-1.9777,0.46521,-8.5294e-10,-0.98885,0,0,0.5,-0,-0,0.66667
0.57407,0.62939,1.1481,0.19409,0.58836,2.8863,-0.59425,0.19808,-1.8663,-0.79233,4.1057e-11,-0.93317,0,0,0.5,-0,-0,0.66667
0.31865,0.24546,0.63729,-0.38181,-1.6645,5.799,0.64886,-0.21629,-1.4819,0.86515,2.2958e-10,-0.74094,0,0,0.5,4.4409e-16,0,0.66667
0.23126,0.69081,0.46253,0.28621,1.3022,6.8832,-0.35302,0.11767,-1.7092,-0.47069,-3.7039e-11,-0.85462,0,0,0.5,5.9212e-16,0,0.66667
0.95602,0.77061,1.912,0.40591,0.018815,0.28495,-2.0697,0.68988,-1.4138,-2.7595,6.8039e-09,-0.7069,0,0,0.5,-0,-0,0.66667
0.56461,0.36265,1.1292,-0.20602,-0.6374,2.9835,0.62039,-0.2068,-1.8487,0.82719,-3.6807e-11,-0.92433,0,0,0.5,-5.9212e-16,0,0.66667
0.21761,0.47162,0.43521,-0.042574,-0.19156,7.0438,0.04941,-0.01647,-1.9943,0.06588,1.8032e-10,-0.99713,0,0,0.5,5.9212e-16,0,0.66667
0.24948,0.63019,0.49896,0.19528,0.87047,6.6401,-0.25983,0.086611,-1.8648,-0.34644,-9.7529e-11,-0.93239,0,0,0.5,-5.9212e-16,0,0.66667
0.9596,0.90128,1.9192,0.60192,0.12921,0.44069,-3.0805,1.0268,-0.71194,-4.1074,1.203e-07,-0.35597,0,0,0.5,1.7764e-15,0,0.66667
0.23881,0.26484,0.47763,-0.35274,-1.6138,6.7953,0.44928,-0.14976,-1.557,0.59904,2.3475e-10,-0.77849,0,0,0.5,-0,-0,0.66667
0.10671,0.92568,0.21343,0.63852,3.2642,8.5468,-0.36341,0.12114,-0.54992,-0.48455,-1.5628e-08,-0.27496,0,0,0.5,-1.2637e-16,6.4164e-16,0.66667
0.18396,0.70113,0.36792,0.3017,1.4071,7.498,-0.296,0.098668,-1.6758,-0.39467,3.8295e-10,-0.83791,0,0,0.5,-2.9606e-16,0,0.66667
0.76622,0.043036,1.5324,-0.68545,-1.4436,1.5199,2.8011,-0.9337,-0.32917,3.7348,-3.2205e-10,-0.16459,0,0,0.5,-0,-0,0.66667
0.70876,0.83208,1.4175,0.49812,1.1597,1.7984,-1.8829,0.62764,-1.1172,-2.5106,4.167e-10,-0.55862,0,0,0.5,1.1842e-15,0,0.66667
0.43794,0.41619,0.87588,-0.12571,-0.4706,4.337,0.29362,-0.097873,-1.9436,0.39149,2.3458e-11,-0.97182,0,0,0.5,-1.1842e-15,0,0.66667
0.7938,0.15426,1.5876,-0.5186,-0.86515,1.1963,2.1956,-0.73186,-1.0445,2.9274,-1.6539e-09,-0.52224,0,0,0.5,-1.3323e-15,0,0.66667
0.51751,0.33621,1.035,-0.24569,-0.83147,3.4786,0.67813,-0.22604,-1.7853,0.90417,-1.0634e-11,-0.89267,0,0,0.5,-0,-0,0.66667
0.4136,0.82155,0.8272,0.48233,1.9674,4.698,-1.0639,0.35465,-1.1725,-1.4186,-5.4044e-11,-0.58623,0,0,0.5,1.1842e-15,0,0.66667
0.11744,0.69551,0.23488,0.29327,1.3976,8.3737,-0.18369,0.061231,-1.6939,-0.24492,2.141e-09,-0.84696,0,0,0.5,-0,-0,0.66667
0.88391,0.27061,1.7678,-0.34409,-0.24287,0.56013,1.6221,-0.5407,-1.5785,2.1628,6.8687e-10,-0.78927,0,0,0.5,1.1842e-15,0,0.66667
0.27559,0.84032,0.55119,0.51048,2.356,6.3622,-0.75032,0.25011,-1.0738,-1.0004,-5.5112e-10,-0.53692,0,0,0.5,3.7007e-16,0,0.66667
0.61626,0.071645,1.2325,-0.64253,-2.0257,2.6832,2.1118,-0.70394,-0.53172,2.8158,-2.0852e-11,-0.26586,0,0,0.5,-0,-0,0.66667
0.98458,0.4275,1.9692,-0.10875,0.04436,0.056563,0.57108,-0.19036,-1.9578,0.76144,-3.5094e-07,-0.9789,0,0,0.5,-0,-0,0.66667
0.18942,0.54934,0.37884,0.074005,0.33778,7.4124,-0.074762,0.024921,-1.9801,-0.099682,-4.1323e-10,-0.99004,0,0,0.5,-2.9606e-16,0,0.66667
0.96519,0.74377,1.9304,0.36566,-0.029178,0.22612,-1.8823,0.62743,-1.5246,-2.5097,-4.465e-09,-0.76232,0,0,0.5,-5.9212e-16,0,0.66667
0.65272,0.27386,1.3054,-0.33921,-0.88097,2.1883,1.1808,-0.39361,-1.5908,1.5745,-1.5248e-10,-0.79539,0,0,0.5,5.9212e-16,0,0.66667
0.12873,0.62091,0.25746,0.18136,0.85164,8.2179,-0.12452,0.041506,-1.8834,-0.16603,1.5743e-09,-0.94169,0,0,0.5,-7.4015e-17,0,0.66667
0.77193,0.10576,1.5439,-0.59136,-1.1441,1.3988,2.4346,-0.81153,-0.75603,3.2461,-1.219e-09,-0.37801,0,0,0.5,1.1842e-15,0,0.66667
0.95178,0.8465,1.9036,0.51975,0.10332,0.38959,-2.6383,0.87944,-1.0402,-3.5178,3.7271e-08,-0.5201,0,0,0.5,-0,-0,0.66667
0.56278,0.8287,1.1256,0.49305,1.6334,3.1023,-1.4799,0.49329,-1.1353,-1.9732,3.217e-11,-0.56765,0,0,0.5,-0,-0,0.66667
0.68856,0.084959,1.3771,-0.62256,-1.6332,2.0469,2.2862,-0.76208,-0.62182,3.0483,-1.4512e-10,-0.31091,0,0,0.5,-0,-0,0.66667
0.026348,0.2432,0.052696,-0.3852,-1.8876,9.5923,0.05413,-0.018043,-1.4723,0.072173,8.6061e-10,-0.73617,0,0,0.5,-1.8504e-17,0,0.66667
0.98908,0.41068,1.9782,-0.13399,0.060132,0.048001,0.70679,-0.2356,-1.9364,0.94238,8.2905e-07,-0.96821,0,0,0.5,-0,-0,0.66667
0.31846,0.66236,0.63691,0.24353,1.04,5.7769,-0.41363,0.13788,-1.7891,-0.5515,-1.3299e-10,-0.89455,0,0,0.5,-0,-0,0.66667
0.023904,0.55138,0.047808,0.077066,0.36631,9.6219,-0.0098279,0.0032755,-1.9783,-0.013104,-7.2357e-07,-0.98917,0,0,0.5,-3.7007e-17,0,0.66667
0.80856,0.51856,1.6171,0.027847,0.035202,0.90892,-0.12009,0.040029,-1.9967,-0.16012,2.342e-10,-0.99835,0,0,0.5,-0,-0,0.66667
0.97325,0.66548,1.9465,0.24822,-0.059067,0.13665,-1.2884,0.42947,-1.7806,-1.7179,1.6468e-07,-0.8903,0,0,0.5,-0,-0,0.66667
0.73759,0.58605,1.4752,0.12907,0.24082,1.4247,-0.50775,0.16925,-1.9406,-0.677,1.1524e-10,-0.97032,0,0,0.5,-1.1842e-15,0,0.66667
0.0027358,0.94114,0.0054716,0.66171,3.4436,9.9086,-0.0096548,0.0032151,-0.44361,-0.012875,-4.7617e-06,-0.2218,0,0,0.5,9.2519e-18,2.824e-15,0.66667
0.063361,0.84953,0.12672,0.5243,2.6286,9.1055,-0.17717,0.059057,-1.0229,-0.23623,4.6997e-08,-0.51144,0,0,0.5,-0,-0,0.66667
0.58427,0.26975,1.1685,-0.34538,-1.0545,2.8279,1.0762,-0.35874,-1.5753,1.435,-6.518e-11,-0.78766,0,0,0.5,5.9212e-16,0,0.66667
0.33572,0.56652,0.67143,0.099784,0.41502,5.5498,-0.17866,0.059554,-1.9649,-0.23822,-5.818e-11,-0.98243,0,0,0.5,-0,-0,0.66667
0.88183,0.85003,1.7637,0.52504,0.4665,0.69396,-2.4693,0.82311,-1.0198,-3.2924,-2.0526e-09,-0.50989,0,0,0.5,-0,-0,0.66667
0.87367,0.84528,1.7473,0.51792,0.49578,0.72931,-2.4133,0.80443,-1.0472,-3.2177,-1.7247e-09,-0.5236,0,0,0.5,-0,-0,0.66667
0.98752,0.56755,1.975,0.10132,-0.044626,0.046027,-0.53364,0.17788,-1.9637,-0.71152,2.3626e-06,-0.98186,0,0,0.5,-2.3685e-15,0,0.66667
0.71583,0.72078,1.4317,0.33118,0.70569,1.6547,-1.2644,0.42145,-1.6108,-1.6858,2.2223e-10,-0.80539,0,0,0.5,2.3685e-15,0,0.66667
0.87688,0.53042,1.7538,0.045626,0.029714,0.5055,-0.21338,0.071126,-1.9936,-0.28451,1.3377e-08,-0.99682,0,0,0.5,-8.8818e-16,0,0.66667
0.31965,0.95201,0.6393,0.67802,3.1743,5.8759,-1.1559,0.38529,-0.36483,-1.5412,-4.4076e-11,-0.18241,0,0,0.5,-0,-0,0.66667
0.11118,0.94499,0.22235,0.66749,3.435,8.4925,-0.39578,0.13193,-0.41582,-0.52771,-1.5278e-08,-0.20791,0,0,0.5,-0,-0,0.66667
0.86536,0.52211,1.7307,0.033162,0.025117,0.56699,-0.15305,0.051018,-1.9957,-0.20407,1.7818e-09,-0.99786,0,0,0.5,-0,-0,0.66667
0.30347,0.93564,0.60695,0.65346,3.0723,6.0621,-1.0576,0.35255,-0.4824,-1.4102,-1.0301e-10,-0.2412,0,0,0.5,6.6613e-16,0,0.66667
0.41933,0.99204,0.83866,0.73806,3.2306,4.7487,-1.6506,0.55021,-0.063055,-2.2008,-1.4111e-13,-0.031527,0,0,0.5,2.9606e-16,4.4963e-16,0.66667
0.64603,0.073512,1.2921,-0.63973,-1.8863,2.4167,2.2042,-0.73473,-0.54437,2.9389,-4.2903e-11,-0.27218,0,0,0.5,-1.1842e-15,0,0.66667
0.6051,0.14723,1.2102,-0.52916,-1.6338,2.714,1.7077,-0.56923,-1.0041,2.2769,-6.0171e-11,-0.50205,0,0,0.5,-5.9212e-16,0,0.66667
0.42092,0.13332,0.84185,-0.55001,-2.2654,4.6403,1.2347,-0.41158,-0.92434,1.6463,3.0643e-11,-0.46217,0,0,0.5,-0,-0,0.66667
0.38615,0.62572,0.7723,0.18858,0.75276,4.9483,-0.38838,0.12946,-1.8745,-0.51785,-6.5657e-11,-0.93724,0,0,0.5,-0,-0,0.66667
0.12268,0.35356,0.24536,-0.21966,-1.0368,8.3001,0.14372,-0.047908,-1.8282,0.19163,-1.2919e-10,-0.91408,0,0,0.5,2.9606e-16,0,0.66667
0.53386,0.87758,1.0677,0.56637,2.0177,3.4305,-1.6126,0.53753,-0.86014,-2.1501,8.4036e-12,-0.43007,0,0,0.5,-0,-0,0.66667
0.23285,0.67426,0.46571,0.26138,1.1845,6.8599,-0.32461,0.1082,-1.7566,-0.43281,-3.4866e-11,-0.87832,0,0,0.5,-0,-0,0.66667
0.75481,0.99197,1.5096,0.73796,1.6797,1.649,-2.9708,0.99026,-0.063465,-3.961,1.7296e-11,-0.031733,0,0,0.5,-0,-0,0.66667
0.67487,0.33042,1.3497,-0.25437,-0.60744,1.9654,0.91555,-0.30518,-1.7694,1.2207,-1.3497e-10,-0.88471,0,0,0.5,-1.1842e-15,0,0.66667
0.071927,0.85321,0.14385,0.52982,2.6563,8.9927,-0.20324,0.067748,-1.0015,-0.27099,1.3301e-08,-0.50076,0,0,0.5,-0,-0,0.66667
0.98926,0.6389,1.9785,0.20835,-0.088429,0.069811,-1.0993,0.36642,-1.845,-1.4657,-4.9576e-08,-0.92252,0,0,0.5,-0,-0,0.66667
0.78046,0.28548,1.5609,-0.32179,-0.51769,1.1704,1.3394,-0.44647,-1.6323,1.7859,-2.5804e-11,-0.81616,0,0,0.5,-2.3685e-15,0,0.66667
0.22783,0.58834,0.45565,0.13252,0.59519,6.9144,-0.16102,0.053673,-1.9376,-0.21469,-1.5831e-10,-0.96881,0,0,0.5,2.9606e-16,0,0.66667
0.030743,0.30867,0.061486,-0.287,-1.3863,9.5318,0.047057,-0.015686,-1.7077,0.062742,-3.9292e-08,-0.85386,0,0,0.5,-5.5511e-17,0,0.66667
0.47837,0.3079,0.95674,-0.28816,-1.0419,3.911,0.73518,-0.24506,-1.705,0.98024,1.408e-11,-0.85248,0,0,0.5,8.8818e-16,0,0.66667
0.35274,0.37965,0.70548,-0.18053,-0.74381,5.3487,0.33962,-0.11321,-1.8843,0.45283,8.4477e-11,-0.94215,0,0,0.5,-0,-0,0.66667
0.54651,0.75877,1.093,0.38815,1.2861,3.2201,-1.1314,0.37712,-1.4643,-1.5085,3.1187e-11,-0.73213,0,0,0.5,-0,-0,0.66667
0.65966,0.95569,1.3193,0.68353,1.9916,2.3336,-2.4048,0.8016,-0.33826,-3.2064,2.2836e-11,-0.16913,0,0,0.5,-0,-0,0.66667
0.79722,0.53956,1.5944,0.059346,0.080943,0.986,-0.25233,0.08411,-1.9875,-0.33644,2.6356e-10,-0.99374,0,0,0.5,-0,-0,0.66667
0.013544,0.95853,0.027089,0.68779,3.6037,9.7673,-0.04968,0.016559,-0.31773,-0.066241,-2.0617e-06,-0.15886,0,0,0.5,-0,-0,0.66667
0.7143,0.74003,1.4286,0.36004,0.77886,1.6796,-1.3716,0.4572,-1.5387,-1.8288,2.6951e-10,-0.76935,0,0,0.5,-0,-0,0.66667
0.29531,0.23865,0.59063,-0.39202,-1.7422,6.0896,0.61744,-0.20581,-1.4532,0.82325,2.9836e-10,-0.72662,0,0,0.5,-0,-0,0.66667
0.9864,0.49396,1.9728,-0.009055,0.0039821,0.040558,0.047641,-0.015893,-1.9999,0.063515,-1.9132e-05,-0.99993,0,0,0.5,-1.7764e-15,0,0.66667
0.84624,0.47034,1.6925,-0.044487,-0.041496,0.67639,0.20078,-0.066928,-1.9938,0.26771,-2.4487e-09,-0.99691,0,0,0.5,-0,-0,0.66667
0.5604,0.53674,1.1208,0.055103,0.16961,3.0063,-0.16469,0.054897,-1.9894,-0.21959,1.0362e-11,-0.99471,0,0,0.5,-0,-0,0.66667
0.59777,0.074711,1.1955,-0.63793,-2.0837,2.8503,2.0338,-0.67793,-0.55252,2.7117,-1.5203e-11,-0.27626,0,0,0.5,-1.1842e-15,0,0.66667
0.19208,0.76766,0.38415,0.4015,1.8952,7.4041,-0.41129,0.1371,-1.4263,-0.54839,-2.07e-10,-0.71313,0,0,0.5,-2.9606e-16,0,0.66667
0.22625,0.24048,0.4525,-0.38927,-1.8039,6.9617,0.46973,-0.15658,-1.4608,0.6263,3.5854e-10,-0.7304,0,0,0.5,-0,-0,0.66667
0.15401,0.19809,0.30803,-0.45286,-2.1901,7.9063,0.37198,-0.12399,-1.2705,0.49597,-1.0566e-12,-0.63524,0,0,0.5,-0,-0,0.66667
0.37781,0.86326,0.75563,0.54489,2.3412,5.1354,-1.098,0.36599,-0.94389,-1.4639,-7.4924e-11,-0.47195,0,0,0.5,5.9212e-16,0,0.66667
0.11196,0.70221,0.22391,0.30331,1.4494,8.4472,-0.1811,0.060368,-1.6724,-0.24147,1.5631e-09,-0.83619,0,0,0.5,-0,-0,0.66667
0.51127,0.8317,1.0225,0.49755,1.7974,3.63,-1.3567,0.45224,-1.1193,-1.8089,4.7307e-12,-0.55964,0,0,0.5,5.9212e-16,0,0.66667
0.63848,0.68781,1.277,0.28172,0.74885,2.2955,-0.95931,0.31977,-1.7189,-1.2791,1.1417e-10,-0.85947,0,0,0.5,-0,-0,0.66667
0.12221,0.059733,0.24442,-0.6604,-3.383,8.3484,0.43045,-0.14348,-0.44993,0.57393,2.1621e-08,-0.22497,0,0,0.5,7.4015e-17,0,0.66667
0.3442,0.67316,0.68839,0.25974,1.0878,5.4634,-0.47681,0.15894,-1.7597,-0.63575,-1.2252e-10,-0.87987,0,0,0.5,-5.9212e-16,0,0.66667
0.070348,0.47901,0.1407,-0.031482,-0.14875,8.996,0.011812,-0.0039372,-1.996,0.015749,7.5673e-08,-0.998,0,0,0.5,-0,-0,0.66667
0.52576,0.68992,1.0515,0.28488,0.95717,3.4013,-0.79882,0.26627,-1.712,-1.0651,1.682e-11,-0.85601,0,0,0.5,-0,-0,0.66667
0.65029,0.34471,1.3006,-0.23294,-0.59422,2.1746,0.80789,-0.2693,-1.8079,1.0772,-1.0687e-10,-0.90396,0,0,0.5,-0,-0,0.66667
0.61547,0.05929,1.2309,-0.66107,-2.1041,2.7036,2.17,-0.72332,-0.44661,2.8933,-1.3053e-11,-0.22331,0,0,0.5,5.9212e-16,0,0.66667
0.81387,0.55144,1.6277,0.077167,0.094414,0.87829,-0.33495,0.11165,-1.9785,-0.4466,4.4119e-10,-0.98926,0,0,0.5,-1.1842e-15,0,0.66667
0.23557,0.0050586,0.47113,-0.74241,-3.7311,6.9262,0.93273,-0.31091,-0.040602,1.2436,-1.3915e-11,-0.020301,0,0,0.5,-0,-0,0.66667
0.61818,0.93901,1.2364,0.65851,2.0819,2.6772,-2.1711,0.72369,-0.45892,-2.8948,1.4378e-11,-0.22946,0,0,0.5,-0,-0,0.66667
0.30283,0.13792,0.60566,-0.54312,-2.4803,6.0344,0.87718,-0.29239,-0.95058,1.1696,3.1446e-10,-0.47529,0,0,0.5,-5.9212e-16,0,0.66667
0.088768,0.53462,0.17754,0.051934,0.24464,8.7488,-0.024587,0.0081956,-1.9908,-0.032783,-8.5236e-08,-0.99541,0,0,0.5,-0,-0,0.66667
0.30526,0.22629,0.61052,-0.41057,-1.8179,5.9703,0.66843,-0.22281,-1.4004,0.89124,2.9125e-10,-0.70022,0,0,0.5,-0,-0,0.66667
0.071356,0.71687,0.14271,0.3253,1.572,8.9891,-0.1238,0.041266,-1.6244,-0.16506,5.6672e-09,-0.8122,0,0,0.5,8.4578e-17,0,0.66667
0.95857,0.85906,1.9171,0.53859,0.0809,0.38259,-2.7535,0.91782,-0.96797,-3.6713,-5.5161e-08,-0.48399,0,0,0.5,-0,-0,0.66667
0.72717,0.20937,1.4543,-0.43594,-0.92723,1.6177,1.6907,-0.56356,-1.3239,2.2542,-4.5855e-10,-0.66194,0,0,0.5,-0,-0,0.66667
0.10146,0.13603,0.20292,-0.54595,-2.732,8.6053,0.29543,-0.098475,-0.9397,0.3939,-8.249e-09,-0.46985,0,0,0.5,-0,-0,0.66667
0.78627,0.78415,1.5725,0.42623,0.69954,1.1851,-1.7874,0.59579,-1.3545,-2.3832,5.7484e-10,-0.67727,0,0,0.5,2.3685e-15,0,0.66667
0.35216,0.82593,0.70431,0.4889,2.1201,5.4204,-0.91823,0.30608,-1.1495,-1.2243,-1.5306e-10,-0.57475,0,0,0.5,-0,-0,0.66667
0.91144,0.56666,1.8229,0.09999,0.032982,0.34023,-0.48605,0.16202,-1.9647,-0.64807,-4.7013e-08,-0.98237,0,0,0.5,-2.3685e-15,0,0.66667
0.4955,0.889,0.99099,0.58349,2.2136,3.8377,-1.542,0.51399,-0.78886,-2.056,-8.7363e-13,-0.39443,0,0,0.5,-0,-0,0.66667
0.87269,0.78984,1.7454,0.43476,0.38441,0.67287,-2.0235,0.67451,-1.3278,-2.698,-2.2319e-09,-0.66389,0,0,0.5,-0,-0,0.66667
0.22053,0.91023,0.44106,0.61535,3.0049,7.0797,-0.72375,0.24125,-0.65414,-0.965,-1.3315e-09,-0.32707,0,0,0.5,5.9212e-16,0,0.66667
0.36719,0.030129,0.73438,-0.70481,-3.2041,5.3255,1.3803,-0.46009,-0.23456,1.8404,3.2061e-12,-0.11728,0,0,0.5,-0,-0,0.66667
0.36684,0.64267,0.73367,0.214,0.87309,5.1826,-0.41869,0.13956,-1.8365,-0.55825,-8.6901e-11,-0.91826,0,0,0.5,-0,-0,0.66667
0.097133,0.2981,0.19427,-0.30285,-1.4521,8.6443,0.15689,-0.052296,-1.6733,0.20918,5.8588e-10,-0.83667,0,0,0.5,1.4803e-16,0,0.66667
0.33101,0.16031,0.66203,-0.50953,-2.2597,5.6811,0.89954,-0.29985,-1.0773,1.1994,2.1104e-10,-0.53864,0,0,0.5,-0,-0,0.66667
0.65971,0.87449,1.3194,0.56174,1.5482,2.2443,-1.9765,0.65882,-0.87906,-2.6353,1.3962e-10,-0.43953,0,0,0.5,-3.3307e-16,0,0.66667
0.46654,0.36704,0.93309,-0.19944,-0.72405,4.0237,0.49626,-0.16542,-1.8585,0.66168,1.7965e-11,-0.92923,0,0,0.5,-2.9606e-16,0,0.66667
0.87923,0.12808,1.7585,-0.55787,-0.52989,0.73472,2.616,-0.872,-0.89392,3.488,-6.1019e-09,-0.44696,0,0,0.5,-0,-0,0.66667
0.26967,0.82695,0.53934,0.49043,2.2616,6.4313,-0.70535,0.23512,-1.1442,-0.94047,-5.8016e-10,-0.57211,0,0,0.5,-0,-0,0.66667
0.35482,0.63572,0.70964,0.20358,0.83906,5.3263,-0.38525,0.12842,-1.8522,-0.51367,-9.196e-11,-0.92609,0,0,0.5,-0,-0,0.66667
0.32035,0.41546,0.64071,-0.12681,-0.53505,5.7411,0.21666,-0.07222,-1.9424,0.28888,7.8594e-11,-0.97122,0,0,0.5,-5.9212e-16,0,0.66667
0.55174,0.82339,1.1035,0.48509,1.635,3.2086,-1.4274,0.4758,-1.1629,-1.9032,2.6103e-11,-0.58144,0,0,0.5,-0,-0,0.66667
0.18822,0.16183,0.37644,-0.50726,-2.449,7.4702,0.50921,-0.16974,-1.0854,0.67894,1.7609e-09,-0.54271,0,0,0.5,-0,-0,0.66667
0.17324,0.74696,0.34649,0.37045,1.753,7.6453,-0.34228,0.11409,-1.5127,-0.45637,3.7969e-10,-0.75636,0,0,0.5,7.4015e-17,0,0.66667
0.93948,0.53816,1.879,0.057246,0.0026316,0.21248,-0.28684,0.095613,-1.9884,-0.38245,3.7762e-07,-0.99419,0,0,0.5,-0,-0,0.66667
0.37665,0.70871,0.7533,0.31306,1.282,5.0825,-0.62888,0.20963,-1.6513,-0.8385,-1.055e-10,-0.82563,0,0,0.5,-0,-0,0.66667
0.5871,0.90861,1.1742,0.61292,2.0234,2.9342,-1.9192,0.63972,-0.66486,-2.5589,1.7482e-11,-0.33243,0,0,0.5,2.3685e-15,0,0.66667
0.055152,0.95702,0.1103,0.68553,3.5793,9.2235,-0.20165,0.067215,-0.32847,-0.26886,2.2944e-07,-0.16423,0,0,0.5,7.4015e-17,0,0.66667
0.14086,0.28325,0.28172,-0.32512,-1.5456,8.066,0.24425,-0.081415,-1.6251,0.32566,-1.2416e-09,-0.81255,0,0,0.5,-0,-0,0.66667
0.096359,0.44133,0.19272,-0.088012,-0.41441,8.6474,0.045231,-0.015077,-1.9729,0.060307,-1.1184e-08,-0.98645,0,0,0.5,2.9606e-16,0,0.66667
0.81212,0.68719,1.6242,0.28078,0.36902,0.94221,-1.2162,0.40539,-1.7209,-1.6215,-3.7965e-10,-0.86047,0,0,0.5,4.4409e-16,0,0.66667
0.10315,0.74702,0.20629,0.37053,1.7917,8.5685,-0.20383,0.067944,-1.5123,-0.27178,1.906e-09,-0.75616,0,0,0.5,2.2204e-16,0,0.66667
0.51632,0.57336,1.0326,0.11004,0.36761,3.4691,-0.30301,0.101,-1.9567,-0.40401,5.2544e-12,-0.97835,0,0,0.5,-1.1842e-15,0,0.66667
0.15558,0.22373,0.31116,-0.41441,-1.9888,7.8813,0.34385,-0.11462,-1.3898,0.45847,-6.5177e-10,-0.69489,0,0,0.5,5.9212e-16,0,0.66667
0.27882,0.89741,0.55763,0.59612,2.8041,6.3456,-0.88644,0.29548,-0.73631,-1.1819,-3.8797e-10,-0.36815,0,0,0.5,-0,-0,0.66667
0.8826,0.3607,1.7652,-0.20895,-0.13387,0.50814,0.98359,-0.32786,-1.8441,1.3115,2.7752e-09,-0.92205,0,0,0.5,-0,-0,0.66667
0.63159,0.41182,1.2632,-0.13227,-0.34927,2.3236,0.44554,-0.14851,-1.9378,0.59405,-5.7072e-11,-0.96892,0,0,0.5,-0,-0,0.66667
0.96366,0.48145,1.9273,-0.02782,0.0056166,0.11753,0.14298,-0.047661,-1.9967,0.19064,-5.6985e-07,-0.99834,0,0,0.5,-0,-0,0.66667
0.59971,0.20392,1.1994,-0.44412,-1.3485,2.7204,1.4205,-0.47351,-1.298,1.894,-7.6833e-11,-0.64901,0,0,0.5,-0,-0,0.66667
0.0095197,0.90442,0.019039,0.60663,3.1127,9.819,-0.0308,0.010267,-0.69223,-0.041067,-3.7357e-07,-0.34611,0,0,0.5,-3.2167e-18,0,0.66667
0.41564,0.27589,0.83128,-0.33617,-1.3265,4.6304,0.74521,-0.2484,-1.5983,0.99361,6.5113e-11,-0.79913,0,0,0.5,8.8818e-16,0,0.66667
0.022442,0.69757,0.044884,0.29636,1.4339,9.6433,-0.035471,0.011824,-1.6873,-0.047294,6.4733e-08,-0.84363,0,0,0.5,-0,-0,0.66667
0.31398,0.27115,0.62797,-0.34327,-1.492,5.8486,0.57483,-0.19161,-1.5808,0.76644,2.0688e-10,-0.79039,0,0,0.5,-0,-0,0.66667
0.48162,0.09111,0.96325,-0.61333,-2.3938,4.0008,1.5755,-0.52515,-0.66311,2.1006,2.1871e-12,-0.33156,0,0,0.5,2.9606e-16,6.7947e-16,0.66667
0.57546,0.42752,1.1509,-0.10873,-0.32575,2.8594,0.3337,-0.11123,-1.9577,0.44493,-2.5392e-11,-0.97883,0,0,0.5,5.9212e-16,0,0.66667
0.23865,0.34422,0.4773,-0.23366,-1.0522,6.7826,0.29741,-0.099136,-1.8069,0.39655,4.9824e-11,-0.90343,0,0,0.5,-0,-0,0.66667
0.55829,0.65889,1.1166,0.23833,0.74993,3.0545,-0.70964,0.23655,-1.7986,-0.94619,3.6428e-11,-0.8993,0,0,0.5,2.3685e-15,0,0.66667
0.39492,0.11675,0.78984,-0.57488,-2.4495,4.948,1.2108,-0.40361,-0.8247,1.6145,4.1819e-11,-0.41235,0,0,0.5,-0,-0,0.66667
0.50658,0.6597,1.0132,0.23955,0.82425,3.5937,-0.64721,0.21574,-1.7963,-0.86294,3.9049e-12,-0.89817,0,0,0.5,-0,-0,0.66667
0.19597,0.40206,0.39193,-0.14691,-0.67099,7.3294,0.15354,-0.05118,-1.9235,0.20472,1.6487e-10,-0.96175,0,0,0.5,5.6012e-16,0,0.66667
0.15675,0.35344,0.3135,-0.21984,-1.0264,7.8487,0.18379,-0.061262,-1.828,0.24505,-3.7772e-10,-0.91401,0,0,0.5,-2.9606e-16,0,0.66667
0.75452,0.037676,1.509,-0.69349,-1.5343,1.6083,2.7907,-0.93022,-0.29002,3.7209,-1.7081e-10,-0.14501,0,0,0.5,2.3685e-15,0,0.66667
0.32997,0.30211,0.65995,-0.29684,-1.2647,5.6434,0.5224,-0.17413,-1.6864,0.69653,1.5426e-10,-0.8432,0,0,0.5,-0,-0,0.66667
0.6442,0.52222,1.2884,0.03333,0.084593,2.199,-0.11451,0.038171,-1.9958,-0.15268,1.7196e-11,-0.99789,0,0,0.5,-0,-0,0.66667
0.56546,0.57795,1.1309,0.11692,0.35766,2.9605,-0.35261,0.11754,-1.9508,-0.47015,2.3189e-11,-0.97542,0,0,0.5,-0,-0,0.66667
0.89953,0.93405,1.7991,0.65108,0.56912,0.72767,-3.1236,1.0412,-0.49315,-4.1647,2.0436e-08,-0.24657,0,0,0.5,-1.214e-15,0,0.66667
0.88068,0.73,1.7614,0.34499,0.25421,0.57705,-1.6204,0.54014,-1.5763,-2.1606,-7.3232e-10,-0.78815,0,0,0.5,-0,-0,0.66667
0.44311,0.61645,0.88622,0.17468,0.65232,4.2838,-0.4128,0.1376,-1.8912,-0.5504,-2.8366e-11,-0.94561,0,0,0.5,-5.9212e-16,0,0.66667
0.20474,0.85457,0.40947,0.53186,2.5635,7.2625,-0.58075,0.19358,-0.99391,-0.77433,-1.7967e-09,-0.49696,0,0,0.5,-0,-0,0.66667
0.63219,0.11451,1.2644,-0.57823,-1.7145,2.4961,1.9496,-0.64987,-0.81071,2.5995,-7.0142e-11,-0.40536,0,0,0.5,-5.9212e-16,0,0.66667
0.63684,0.6087,1.2737,0.16304,0.42629,2.2805,-0.55377,0.18459,-1.9049,-0.73836,7.1329e-11,-0.95245,0,0,0.5,-0,-0,0.66667
0.69242,0.17986,1.3848,-0.4802,-1.1679,1.9191,1.7733,-0.59111,-1.1799,2.3644,-3.2065e-10,-0.58996,0,0,0.5,-5.9212e-16,0,0.66667
0.90747,0.84591,1.8149,0.51887,0.33059,0.56783,-2.5112,0.83708,-1.0436,-3.3483,-2.0779e-08,-0.52179,0,0,0.5,2.3685e-15,0,0.66667
0.78258,0.79663,1.5652,0.44494,0.7515,1.2214,-1.8571,0.61903,-1.2956,-2.4761,7.5512e-10,-0.64782,0,0,0.5,1.1842e-15,0,0.66667
0.62529,0.025064,1.2506,-0.7124,-2.2733,2.6544,2.3758,-0.79193,-0.19574,3.1677,-2.3841e-12,-0.097868,0,0,0.5,-1.1842e-15,0,0.66667
0.60097,0.25755,1.2019,-0.36368,-1.0769,2.6738,1.1656,-0.38855,-1.5295,1.5542,-8.418e-11,-0.76476,0,0,0.5,-0,-0,0.66667
0.21276,0.05614,0.42552,-0.66579,-3.3078,7.1903,0.75548,-0.25183,-0.42385,1.0073,9.2019e-10,-0.21192,0,0,0.5,2.7401e-16,0,0.66667
0.65137,0.27906,1.3027,-0.33141,-0.86204,2.1972,1.1513,-0.38377,-1.6101,1.5351,-1.4772e-10,-0.80505,0,0,0.5,-2.9606e-16,0,0.66667
0.8145,0.42002,1.629,-0.11997,-0.14717,0.88035,0.52113,-0.17371,-1.9484,0.69484,-3.8178e-10,-0.97418,0,0,0.5,-1.1842e-15,0,0.66667
0.92232,0.14444,1.8446,-0.53334,-0.27095,0.51598,2.6235,-0.8745,-0.98834,3.498,5.1657e-09,-0.49417,0,0,0.5,1.1842e-15,0,0.66667
0.91665,0.8757,1.8333,0.56355,0.33702,0.56697,-2.7551,0.91836,-0.87172,-3.6734,-8.6227e-09,-0.43586,0,0,0.5,-0,-0,0.66667
0.5611,0.10312,1.1222,-0.59532,-2.047,3.1745,1.7815,-0.59384,-0.73971,2.3753,-1.2719e-11,-0.36985,0,0,0.5,-0,5.5047e-16,0.66667
0.25983,0.23635,0.51967,-0.39548,-1.8003,6.5352,0.54804,-0.18268,-1.4433,0.73072,3.9296e-10,-0.72164,0,0,0.5,2.9606e-16,0,0.66667
0.3338,0.068058,0.66759,-0.64791,-2.9746,5.695,1.1535,-0.38448,-0.50746,1.5379,5.7062e-11,-0.25373,0,0,0.5,-0,-0,0.66667
0.99776,0.75501,1.9955,0.38251,-0.15598,0.13616,-2.0355,0.6785,-1.48,-2.714,1.0986e-08,-0.74002,0,0,0.5,-0,-0,0.66667
0.5256,0.8604,1.0512,0.5406,1.9352,3.5017,-1.5154,0.50513,-0.96025,-2.0205,8.0149e-12,-0.48013,0,0,0.5,-0,-0,0.66667
0.81591,0.42173,1.6318,-0.11741,-0.14252,0.87091,0.51089,-0.1703,-1.9504,0.68119,-3.8616e-10,-0.97521,0,0,0.5,-0,-0,0.66667
0.59702,0.8014,1.194,0.4521,1.3839,2.7498,-1.4395,0.47984,-1.2729,-1.9193,7.2111e-11,-0.63643,0,0,0.5,5.9212e-16,0,0.66667
0.50693,0.080306,1.0139,-0.62954,-2.3862,3.7427,1.702,-0.56735,-0.59022,2.2694,-6.9567e-13,-0.29511,0,0,0.5,5.9212e-16,0,0.66667
0.34854,0.985,0.69708,0.7275,3.3836,5.5537,-1.3523,0.45078,-0.11755,-1.8031,-3.0986e-12,-0.058775,0,0,0.5,-5.9212e-16,0,0.66667
0.53777,0.72092,1.0755,0.33139,1.1007,3.29,-0.95045,0.31682,-1.6101,-1.2673,2.5829e-11,-0.80507,0,0,0.5,-0,-0,0.66667
0.0067347,0.70592,0.013469,0.30887,1.4976,9.8541,-0.011094,0.0036981,-1.6602,-0.014792,-2.3331e-09,-0.83009,0,0,0.5,-0,-0,0.66667
0.87669,0.31612,1.7534,-0.27582,-0.2013,0.56421,1.2896,-0.42987,-1.73,1.7195,2.2752e-09,-0.86502,0,0,0.5,-0,-0,0.66667
0.56149,0.035161,1.123,-0.69726,-2.4911,3.2364,2.088,-0.696,-0.27192,2.784,-1.0461e-12,-0.13596,0,0,0.5,-0,-2.5931e-16,0.66667
0.024281,0.35853,0.048563,-0.2122,-1.0172,9.6177,0.02748,-0.0091601,-1.8392,0.03664,-2.5584e-07,-0.91962,0,0,0.5,-3.7007e-17,0,0.66667
0.81817,0.11886,1.6363,-0.57171,-0.86829,1.0841,2.4947,-0.83157,-0.83783,3.3263,-3.2149e-09,-0.41892,0,0,0.5,5.9212e-16,0,0.66667
0.13535,0.077722,0.27071,-0.63342,-3.2104,8.1742,0.45726,-0.15242,-0.57281,0.60968,9.6698e-09,-0.2864,0,0,0.5,2.9606e-16,0,0.66667
0.030639,0.14839,0.061277,-0.52741,-2.6547,9.5385,0.086182,-0.028727,-1.011,0.11491,-7.745e-08,-0.5055,0,0,0.5,1.8504e-17,0,0.66667
0.46234,0.58827,0.92467,0.13241,0.48042,4.0615,-0.3265,0.10883,-1.9377,-0.43533,-1.4644e-11,-0.96886,0,0,0.5,-8.8818e-16,0,0.66667
0.96066,0.28815,1.9213,-0.31778,0.021351,0.21399,1.6281,-0.54271,-1.6408,2.1708,1.6285e-09,-0.8204,0,0,0.5,-2.3685e-15,0,0.66667
0.093614,0.20254,0.18723,-0.44619,-2.1907,8.7001,0.22277,-0.074257,-1.2918,0.29703,-4.9431e-09,-0.64589,0,0,0.5,1.4803e-16,0,0.66667
0.065599,0.53313,0.1312,0.049695,0.23504,9.06,-0.017386,0.0057953,-1.992,-0.023182,-1.6007e-07,-0.99599,0,0,0.5,-1.4803e-16,0,0.66667
0.87994,0.49529,1.7599,-0.0070684,-0.0043813,0.48783,0.033172,-0.011057,-2,0.044229,1.4495e-08,-1,0,0,0.5,-1.1842e-15,0,0.66667
0.82137,0.55112,1.6427,0.076686,0.088802,0.83049,-0.33593,0.11198,-1.9785,-0.44791,5.8971e-10,-0.98927,0,0,0.5,-0,-0,0.66667
0.81997,0.68595,1.6399,0.27893,0.34722,0.89176,-1.2198,0.4066,-1.7241,-1.6264,-4.6952e-10,-0.86204,0,0,0.5,-1.3589e-15,0,0.66667
0.46782,0.12852,0.93564,-0.55723,-2.1759,4.122,1.3903,-0.46343,-0.89659,1.8537,8.717e-12,-0.4483,0,0,0.5,-1.1842e-15,0,0.66667
0.42749,0.71754,0.85498,0.32631,1.268,4.4915,-0.74397,0.24799,-1.6222,-0.99196,-5.3952e-11,-0.81111,0,0,0.5,2.2204e-16,0,0.66667
0.40107,0.85402,0.80214,0.53103,2.2221,4.8599,-1.1359,0.37863,-0.99694,-1.5145,-5.2799e-11,-0.49847,0,0,0.5,-0,-0,0.66667
0.58222,0.013568,1.1644,-0.72965,-2.5496,3.0618,2.2657,-0.75522,-0.10649,3.0209,-4.3543e-13,-0.053247,0,0,0.5,-2.3685e-15,0,0.66667
0.72897,0.23493,1.4579,-0.39761,-0.82695,1.5831,1.5458,-0.51528,-1.4373,2.0611,-3.7374e-10,-0.71863,0,0,0.5,-8.6327e-16,0,0.66667
0.78429,0.54908,1.5686,0.073622,0.1086,1.0756,-0.30795,0.10265,-1.9802,-0.41061,2.1621e-10,-0.9901,0,0,0.5,1.1842e-15,0,0.66667
0.6548,0.36977,1.3096,-0.19535,-0.48891,2.1251,0.6822,-0.2274,-1.8646,0.9096,-9.5213e-11,-0.93231,0,0,0.5,1.1842e-15,0,0.66667
0.56247,0.5296,1.1249,0.044395,0.13606,2.9848,-0.13318,0.044392,-1.994,-0.17757,8.7474e-12,-0.997,0,0,0.5,-8.8818e-16,0,0.66667
0.41239,0.46755,0.82479,-0.048671,-0.18716,4.6274,0.10705,-0.035683,-1.9924,0.14273,1.3858e-11,-0.99619,0,0,0.5,-7.4015e-17,0,0.66667
0.31992,0.81286,0.63983,0.4693,2.0802,5.8046,-0.80072,0.26691,-1.2179,-1.0676,-2.6821e-10,-0.60894,0,0,0.5,1.1842e-15,0,0.66667
0.28625,0.61132,0.5725,0.16698,0.72502,6.1706,-0.25492,0.084974,-1.9003,-0.3399,-1.0986e-10,-0.95013,0,0,0.5,-0,-0,0.66667
0.29618,0.59724,0.59235,0.14587,0.62784,6.044,-0.23041,0.076804,-1.925,-0.30722,-1.0029e-10,-0.96248,0,0,0.5,-0,-0,0.66667
0.68275,0.51705,1.3655,0.025582,0.057933,1.8593,-0.093154,0.031051,-1.9971,-0.1242,1.8642e-11,-0.99853,0,0,0.5,-0,-0,0.66667
0.76244,0.018706,1.5249,-0.72194,-1.5812,1.5806,2.9357,-0.97856,-0.14635,3.9142,-8.0909e-11,-0.073175,0,0,0.5,-0,-0,0.66667
0.59762,0.58582,1.1952,0.12873,0.36848,2.6443,-0.41031,0.13677,-1.9409,-0.54708,3.9439e-11,-0.97045,0,0,0.5,5.9212e-16,0,0.66667
0.22286,0.38373,0.44573,-0.1744,-0.78771,6.9812,0.20729,-0.069098,-1.8916,0.27639,8.965e-11,-0.94579,0,0,0.5,-0,-0,0.66667
0.1944,0.80605,0.38879,0.45908,2.1884,7.3826,-0.47596,0.15865,-1.2506,-0.63461,-8.9897e-10,-0.62529,0,0,0.5,1.4803e-16,0,0.66667
0.76569,0.602,1.5314,0.153,0.25206,1.2197,-0.62481,0.20827,-1.9168,-0.83308,1.2923e-10,-0.95839,0,0,0.5,-0,-0,0.66667
0.97869,0.68049,1.9574,0.27073,-0.07647,0.12894,-1.4131,0.47105,-1.7393,-1.8842,8.633e-09,-0.86963,0,0,0.5,-1.1842e-15,0,0.66667
0.01591,0.40263,0.03182,-0.14605,-0.69677,9.73,0.012392,-0.0041307,-1.9248,0.016522,-9.2582e-08,-0.96239,0,0,0.5,1.8504e-17,0,0.66667
0.2489,0.9486,0.4978,0.6729,3.2899,6.7393,-0.89325,0.29775,-0.38977,-1.191,-2.9529e-10,-0.19488,0,0,0.5,-0,-0,0.66667
0.79231,0.16239,1.5846,-0.50642,-0.84467,1.1973,2.14,-0.71332,-1.0881,2.8533,-1.4782e-09,-0.54407,0,0,0.5,2.3685e-15,0,0.66667
0.71917,0.3993,1.4383,-0.15105,-0.3044,1.5728,0.57936,-0.19312,-1.919,0.77248,-1.0878e-10,-0.95951,0,0,0.5,5.9212e-16,0,0.66667
0.24598,0.85955,0.49196,0.53933,2.5504,6.7402,-0.70754,0.23585,-0.96519,-0.94338,-9.1768e-10,-0.48259,0,0,0.5,-0,-0,0.66667
0.55489,0.017995,1.1098,-0.72301,-2.6389,3.3187,2.1397,-0.71323,-0.14073,2.8529,-3.3595e-13,-0.070367,0,0,0.5,-1.1842e-15,0,0.66667
0.58559,0.028822,1.1712,-0.70677,-2.4307,3.013,2.2073,-0.73577,-0.22447,2.9431,-9.3059e-13,-0.11224,0,0,0.5,1.1842e-15,0,0.66667
0.72138,0.0046581,1.4428,-0.74301,-1.8925,1.8945,2.8587,-0.95288,-0.037398,3.8115,2.9678e-12,-0.018699,0,0,0.5,4.737e-15,0,0.66667
0.46367,0.96224,0.92735,0.69336,2.8441,4.2374,-1.7146,0.57154,-0.29061,-2.2862,-6.5858e-13,-0.14531,0,0,0.5,5.9212e-16,0,0.66667
0.40485,0.39068,0.8097,-0.16398,-0.64014,4.7246,0.35407,-0.11802,-1.9039,0.47209,4.7255e-11,-0.95197,0,0,0.5,5.9212e-16,0,0.66667
0.30801,0.84948,0.61602,0.52422,2.3742,5.9655,-0.86114,0.28705,-1.023,-1.1482,-3.0544e-10,-0.51149,0,0,0.5,-0,-0,0.66667
0.23831,0.48299,0.47662,-0.025513,-0.11348,6.7755,0.032426,-0.010809,-1.9971,0.043235,5.8063e-11,-0.99855,0,0,0.5,5.9212e-16,0,0.66667
0.092503,0.70356,0.18501,0.30534,1.4659,8.7061,-0.15064,0.050213,-1.6681,-0.20085,8.3898e-10,-0.83403,0,0,0.5,-0,-0,0.66667
0.64588,0.27362,1.2918,-0.33957,-0.89804,2.2492,1.1697,-0.3899,-1.5898,1.5596,-1.4228e-10,-0.79492,0,0,0.5,-0,-0,0.66667
0.66957,0.9191,1.3391,0.62865,1.7406,2.2078,-2.2449,0.74831,-0.59439,-2.9932,8.736e-11,-0.29719,0,0,0.5,-0,-7.7873e-16,0.66667
0.68734,0.37769,1.3747,-0.18346,-0.41558,1.8405,0.67253,-0.22418,-1.8811,0.89671,-1.0731e-10,-0.94057,0,0,0.5,2.3685e-15,0,0.66667
0.0031457,0.66448,0.0062914,0.24672,1.1875,9.9021,-0.0041392,0.0013798,-1.7834,-0.005519,7.5466e-08,-0.8917,0,0,0.5,-0,-0,0.66667
0.43825,0.44637,0.87651,-0.080445,-0.30025,4.3298,0.18803,-0.062676,-1.9769,0.2507,1.5332e-11,-0.98845,0,0,0.5,1.1842e-15,0,0.66667
0.12255,0.69273,0.24511,0.28909,1.3751,8.3056,-0.18896,0.062985,-1.7031,-0.25194,2.1914e-09,-0.85154,0,0,0.5,-2.9606e-16,0,0.66667
0.52661,0.36666,1.0532,-0.20001,-0.66253,3.3732,0.56175,-0.18725,-1.8575,0.749,-1.4266e-11,-0.92875,0,0,0.5,-0,-0,0.66667
0.97974,0.81182,1.9595,0.46773,-0.066666,0.25228,-2.444,0.81468,-1.2231,-3.2587,1.021e-07,-0.61154,0,0,0.5,-7.4015e-17,0,0.66667
0.49928,0.56382,0.99855,0.095735,0.32837,3.6508,-0.25492,0.084975,-1.9684,-0.3399,-2.997e-13,-0.98422,0,0,0.5,1.1842e-15,0,0.66667
0.37465,0.44306,0.7493,-0.085413,-0.34242,5.0761,0.17067,-0.056889,-1.9744,0.22756,3.6086e-11,-0.98719,0,0,0.5,-0,-0,0.66667
0.81384,0.48757,1.6277,-0.018645,-0.022706,0.87442,0.08093,-0.026977,-1.9984,0.10791,-6.5317e-11,-0.99919,0,0,0.5,-0,-0,0.66667
0.9682,0.31474,1.9364,-0.27789,0.047087,0.16722,1.4349,-0.47831,-1.7263,1.9132,4.3581e-08,-0.86315,0,0,0.5,2.3685e-15,0,0.66667
0.28712,0.88204,0.57425,0.57307,2.6653,6.2363,-0.87755,0.29252,-0.8322,-1.1701,-3.8038e-10,-0.4161,0,0,0.5,-0,-0,0.66667
0.803,0.64524,1.606,0.21786,0.29634,0.97882,-0.93302,0.31101,-1.8307,-1.244,-1.2309e-10,-0.91536,0,0,0.5,-1.1842e-15,0,0.66667
0.99614,0.49506,1.9923,-0.0074053,0.0040201,0.011139,0.039341,-0.013057,-2,0.052484,8.5468e-05,-0.99998,0,0,0.5,-0,-0,0.66667
0.11182,0.90163,0.22365,0.60245,3.0482,8.4759,-0.3593,0.11977,-0.70984,-0.47907,-1.1744e-08,-0.35492,0,0,0.5,-0,-0,0.66667
0.53105,0.46964,1.0621,-0.045537,-0.14791,3.3088,0.12897,-0.042991,-1.9938,0.17196,-4.3868e-12,-0.99689,0,0,0.5,-0,-0,0.66667
0.81353,0.69091,1.6271,0.28636,0.37378,0.93549,-1.2425,0.41415,-1.709,-1.6566,-3.8855e-10,-0.85452,0,0,0.5,-0,-0,0.66667
0.37629,0.50666,0.75259,0.0099884,0.039898,5.054,-0.020046,0.0066819,-1.9998,-0.026728,-4.4206e-12,-0.99988,0,0,0.5,-0,-0,0.66667
0.44577,0.54931,0.89155,0.07397,0.27339,4.2436,-0.17586,0.05862,-1.9799,-0.23448,-1.2393e-11,-0.98996,0,0,0.5,-0,-0,0.66667
0.7509,0.28924,1.5018,-0.31614,-0.58374,1.3794,1.2661,-0.42203,-1.6446,1.6881,-1.6173e-10,-0.82231,0,0,0.5,-0,-0,0.66667
0.098346,0.82575,0.19669,0.48862,2.4167,8.641,-0.25629,0.085429,-1.1505,-0.34172,4.0777e-09,-0.57527,0,0,0.5,-1.4803e-16,0,0.66667
0.36053,0.12265,0.72105,-0.56603,-2.4843,5.3466,1.0884,-0.36279,-0.86164,1.4511,9.0347e-11,-0.43082,0,0,0.5,-2.2204e-16,0,0.66667
0.56371,0.36723,1.1274,-0.19915,-0.61665,2.9912,0.59874,-0.19958,-1.859,0.79832,-3.5419e-11,-0.92948,0,0,0.5,-0,-0,0.66667
0.23859,0.27512,0.47717,-0.33732,-1.5396,6.796,0.42922,-0.14307,-1.5955,0.57229,1.7827e-10,-0.79773,0,0,0.5,-2.9606e-16,0,0.66667
0.83995,0.80416,1.6799,0.45624,0.5489,0.86752,-2.0438,0.68128,-1.2597,-2.7251,1.8242e-10,-0.62984,0,0,0.5,5.9212e-16,0,0.66667
0.76585,0.22319,1.5317,-0.41521,-0.74765,1.3199,1.6959,-0.56531,-1.3875,2.2612,-5.139e-10,-0.69377,0,0,0.5,-0,-0,0.66667
0.96554,0.61717,1.9311,0.17575,-0.033403,0.13666,-0.90506,0.30169,-1.89,-1.2067,-1.0551e-07,-0.94501,0,0,0.5,5.9212e-16,0,0.66667
0.52299,0.88229,1.046,0.57344,2.0829,3.5456,-1.5995,0.53316,-0.83064,-2.1326,5.1004e-12,-0.41532,0,0,0.5,1.1842e-15,0,0.66667
0.10652,0.22447,0.21305,-0.41329,-2.0113,8.5268,0.2348,-0.078267,-1.3928,0.31307,-1.6337e-09,-0.69641,0,0,0.5,-2.9606e-16,0,0.66667
0.93662,0.71312,1.8732,0.31967,0.056684,0.30661,-1.5969,0.53229,-1.6369,-2.1291,8.4354e-09,-0.81847,0,0,0.5,-1.1842e-15,0,0.66667
0.83424,0.32772,1.6685,-0.25842,-0.28621,0.79608,1.1498,-0.38326,-1.7619,1.533,6.0943e-10,-0.88095,0,0,0.5,-0,-0,0.66667
0.54442,0.65691,1.0888,0.23536,0.75943,3.1953,-0.68338,0.22779,-1.8041,-0.91117,2.7115e-11,-0.90204,0,0,0.5,-0,-0,0.66667
0.8363,0.67029,1.6726,0.25544,0.27779,0.78255,-1.1393,0.37977,-1.7673,-1.5191,-6.5562e-10,-0.88367,0,0,0.5,1.1842e-15,0,0.66667
0.88169,0.6626,1.7634,0.24389,0.16235,0.52524,-1.1469,0.38229,-1.7884,-1.5292,1.0714e-09,-0.89422,0,0,0.5,-0,-0,0.66667
0.77608,0.26882,1.5522,-0.34678,-0.57649,1.2123,1.4353,-0.47845,-1.5719,1.9138,-1.4513e-10,-0.78593,0,0,0.5,-0,-0,0.66667
0.57125,0.88668,1.1425,0.58002,1.948,3.0662,-1.7671,0.58905,-0.80325,-2.3562,1.9486e-11,-0.40163,0,0,0.5,-0,-0,0.66667
0.6153,0.65155,1.2306,0.22733,0.63298,2.4944,-0.74599,0.24866,-1.8164,-0.99466,7.7072e-11,-0.90822,0,0,0.5,-8.1991e-16,0,0.66667
0.84439,0.16263,1.6888,-0.50605,-0.61381,0.87799,2.279,-0.75965,-1.0897,3.0386,-1.3538e-09,-0.54483,0,0,0.5,-0,-0,0.66667
0.62222,0.23257,1.2444,-0.40114,-1.1441,2.49,1.3312,-0.44373,-1.4273,1.7749,-1.1399e-10,-0.71367,0,0,0.5,-0,-0,0.66667
0.20648,0.93416,0.41296,0.65125,3.2318,7.2661,-0.71717,0.23906,-0.49249,-0.95623,-1.3354e-09,-0.24625,0,0,0.5,3.7007e-16,0,0.66667
0.69149,0.20646,1.383,-0.44031,-1.0571,1.9041,1.6238,-0.54128,-1.3102,2.1651,-3.0133e-10,-0.65508,0,0,0.5,1.1842e-15,0,0.66667
0.53201,0.87383,1.064,0.56075,1.9999,3.4464,-1.5911,0.53035,-0.88306,-2.1214,8.3413e-12,-0.44153,0,0,0.5,-8.1416e-16,0,0.66667
0.26325,0.39347,0.52649,-0.1598,-0.7042,6.4614,0.22435,-0.074784,-1.9087,0.29913,1.1442e-10,-0.95437,0,0,0.5,2.9606e-16,0,0.66667
0.00078654,0.50475,0.0015731,0.0071234,0.033832,9.9338,-3.2281e-05,0.00012018,-2.0002,1.167e-05,0.00016414,-1.0001,0,0,0.5,-0,-0,0.66667
0.2355,0.038739,0.471,-0.69189,-3.4253,6.9119,0.86901,-0.28967,-0.29793,1.1587,2.4266e-10,-0.14897,0,0,0.5,-0,-0,0.66667
0.67357,0.21411,1.3471,-0.42884,-1.0811,2.0479,1.5406,-0.51352,-1.3465,2.0541,-2.3458e-10,-0.67324,0,0,0.5,-1.1842e-15,0,0.66667
0.87832,0.45599,1.7566,-0.06602,-0.04226,0.49968,0.30926,-0.10309,-1.984,0.41235,-6.4397e-09,-0.99199,0,0,0.5,-1.1842e-15,0,0.66667
0.8307,0.70722,1.6614,0.31083,0.36363,0.83949,-1.3771,0.45904,-1.6561,-1.8362,-5.8101e-10,-0.82803,0,0,0.5,-1.1842e-15,0,0.66667
0.10811,0.54864,0.21621,0.072964,0.34244,8.49,-0.042069,0.014023,-1.9806,-0.056092,-7.6541e-09,-0.99032,0,0,0.5,-0,-0,0.66667
0.071125,0.11008,0.14225,-0.58488,-2.9699,9.0072,0.22186,-0.073955,-0.78303,0.29582,-6.7303e-09,-0.39152,0,0,0.5,-2.3226e-16,0,0.66667
0.76159,0.35928,1.5232,-0.21108,-0.35941,1.2637,0.85735,-0.28578,-1.841,1.1431,-7.0053e-11,-0.92049,0,0,0.5,-0,-0,0.66667
0.28483,0.901,0.56967,0.60151,2.8226,6.273,-0.91376,0.30459,-0.71373,-1.2183,-3.2692e-10,-0.35687,0,0,0.5,-0,-0,0.66667
0.2718,0.18837,0.54361,-0.46745,-2.1421,6.3993,0.67763,-0.22588,-1.2239,0.9035,5.382e-10,-0.61197,0,0,0.5,-0,-0,0.66667
0.0020003,0.0071759,0.0040006,-0.73924,-3.9303,9.9184,0.007869,-0.0025442,-0.056973,0.010531,0.00011823,-0.028486,0,0,0.5,-9.2519e-18,0,0.66667
0.098539,0.62422,0.19708,0.18633,0.88215,8.6206,-0.097926,0.032642,-1.8775,-0.13057,1.4483e-09,-0.93873,0,0,0.5,4.6259e-17,0,0.66667
0.1356,0.41263,0.27119,-0.13105,-0.61197,8.1248,0.094772,-0.031591,-1.9389,0.12636,-8.6827e-10,-0.96945,0,0,0.5,-0,-0,0.66667
0.15936,0.67684,0.31872,0.26526,1.2434,7.8174,-0.22545,0.075149,-1.7494,-0.3006,7.3794e-10,-0.87472,0,0,0.5,1.4803e-16,0,0.66667
0.44531,0.34086,0.89063,-0.23871,-0.89551,4.2692,0.56694,-0.18898,-1.7979,0.75592,3.4019e-11,-0.89893,0,0,0.5,2.9606e-16,0,0.66667
0.81414,0.92379,1.6283,0.63569,1.0387,1.1647,-2.7602,0.92007,-0.56275,-3.6803,2.6851e-09,-0.28138,0,0,0.5,-0,-0,0.66667
0.8123,0.092795,1.6246,-0.61081,-0.98818,1.1535,2.6462,-0.88206,-0.67461,3.5282,-3.0449e-09,-0.33731,0,0,0.5,-5.181e-16,-7.016e-17,0.66667
0.90999,0.89039,1.82,0.58558,0.40357,0.61623,-2.842,0.94733,-0.78018,-3.7893,-7.8837e-09,-0.39009,0,0,0.5,-1.1842e-15,0,0.66667
0.44359,0.03121,0.88718,-0.70318,-2.9627,4.4613,1.6636,-0.55454,-0.24293,2.2181,3.3007e-13,-0.12146,0,0,0.5,-1.9018e-16,0,0.66667
0.70871,0.38419,1.4174,-0.17371,-0.36524,1.6615,0.6566,-0.21887,-1.8923,0.87547,-1.1042e-10,-0.94617,0,0,0.5,-0,-0,0.66667
0.48833,0.87911,0.97667,0.56867,2.1686,3.9064,-1.4811,0.49369,-0.8505,-1.9748,-2.6822e-12,-0.42525,0,0,0.5,1.1842e-15,0,0.66667
0.049843,0.39337,0.099685,-0.15994,-0.76184,9.2731,0.042516,-0.014172,-1.9085,0.056689,9.2541e-08,-0.95427,0,0,0.5,-7.4015e-17,0,0.66667
0.080431,0.2615,0.16086,-0.35774,-1.7344,8.8696,0.15346,-0.051154,-1.5446,0.20461,1.1054e-09,-0.77228,0,0,0.5,-0,-0,0.66667
0.24594,0.87117,0.49188,0.55676,2.644,6.7449,-0.7303,0.24343,-0.89821,-0.97373,-9.3547e-10,-0.44911,0,0,0.5,-3.7007e-16,0,0.66667
0.98162,0.37245,1.9632,-0.19133,0.067186,0.087592,1.0017,-0.33389,-1.8705,1.3356,4.1215e-07,-0.93525,0,0,0.5,1.4803e-15,0,0.66667
0.69192,0.28051,1.3838,-0.32923,-0.76022,1.848,1.2149,-0.40498,-1.6155,1.6199,-2.0136e-10,-0.80777,0,0,0.5,3.7007e-16,0,0.66667
0.26801,0.50003,0.53602,4.1974e-05,0.00018325,6.3948,-5.9996e-05,1.9999e-05,-2.0012,-7.9995e-05,-1.7157e-12,-1.0006,0,0,0.5,-0,-0,0.66667
0.70626,0.83926,1.4125,0.50889,1.2001,1.8251,-1.9169,0.63895,-1.0795,-2.5558,4.038e-10,-0.53976,0,0,0.5,-5.9212e-16,0,0.66667
0.66135,0.53672,1.3227,0.055081,0.13332,2.0465,-0.19428,0.06476,-1.9893,-0.25904,3.2649e-11,-0.99465,0,0,0.5,-2.3685e-15,0,0.66667
0.04329,0.19648,0.08658,-0.45528,-2.2559,9.3683,0.10511,-0.035038,-1.2627,0.14015,-2.4808e-08,-0.63137,0,0,0.5,-0,-0,0.66667
0.36149,0.42846,0.72298,-0.10731,-0.43622,5.236,0.20689,-0.068964,-1.9589,0.27585,5.0132e-11,-0.97943,0,0,0.5,-0,-0,0.66667
0.77373,0.27243,1.5475,-0.34136,-0.5728,1.2262,1.4086,-0.46954,-1.5853,1.8782,-1.3636e-10,-0.79267,0,0,0.5,-0,-0,0.66667
0.078523,0.1796,0.15705,-0.48061,-2.3822,8.9022,0.20127,-0.067091,-1.1788,0.26836,-1.618e-08,-0.58938,0,0,0.5,-7.4015e-17,0,0.66667
0.88438,0.88156,1.7688,0.57234,0.52558,0.72217,-2.6996,0.89985,-0.83521,-3.5994,4.1176e-09,-0.41761,0,0,0.5,-0,-0,0.66667
0.93087,0.21978,1.8617,-0.42033,-0.13106,0.39187,2.0868,-0.6956,-1.3726,2.7824,-2.0876e-09,-0.68631,0,0,0.5,-0,-0,0.66667
0.85309,0.51708,1.7062,0.025622,0.022275,0.63571,-0.11658,0.038859,-1.997,-0.15543,5.0743e-10,-0.99851,0,0,0.5,-0,-0,0.66667
0.11738,0.68085,0.23476,0.27127,1.2893,8.3733,-0.16982,0.056606,-1.7382,-0.22643,1.3025e-09,-0.86912,0,0,0.5,-0,-0,0.66667
0.56517,0.32986,1.1303,-0.25521,-0.79472,2.9892,0.76928,-0.25643,-1.7679,1.0257,-4.2773e-11,-0.88395,0,0,0.5,1.1842e-15,0,0.66667
0.70756,0.59401,1.4151,0.14102,0.29622,1.6644,-0.53217,0.17739,-1.9303,-0.70956,1.0067e-10,-0.96516,0,0,0.5,-2.3685e-15,0,0.66667
0.88798,0.39999,1.776,-0.15002,-0.085199,0.464,0.71047,-0.23682,-1.9201,0.9473,2.5813e-09,-0.96003,0,0,0.5,-0,-0,0.66667
0.095776,0.57822,0.19155,0.11733,0.55327,8.6558,-0.059935,0.019978,-1.9506,-0.079913,-3.139e-09,-0.97528,0,0,0.5,1.4803e-16,0,0.66667
0.81577,0.54341,1.6315,0.06511,0.078465,0.86485,-0.28328,0.094426,-1.9844,-0.3777,5.3207e-10,-0.99222,0,0,0.5,-0,-0,0.66667
0.27802,0.97921,0.55603,0.71882,3.5032,6.3953,-1.0658,0.35528,-0.16247,-1.4211,-2.8395e-11,-0.081234,0,0,0.5,-0,-0,0.66667
0.59229,0.4139,1.1846,-0.12915,-0.37408,2.6961,0.40798,-0.13599,-1.9407,0.54397,-3.7172e-11,-0.97034,0,0,0.5,-1.1842e-15,0,0.66667
0.7198,0.32524,1.4396,-0.26214,-0.5395,1.5971,1.0063,-0.33544,-1.7553,1.3418,-1.4635e-10,-0.87765,0,0,0.5,1.1842e-15,0,0.66667
0.77702,0.94369,1.554,0.66553,1.3239,1.4286,-2.758,0.91934,-0.42514,-3.6774,6.8958e-10,-0.21257,0,0,0.5,-0,2.3219e-17,0.66667
0.29466,0.88692,0.58933,0.58039,2.6908,6.1457,-0.9121,0.30403,-0.8019,-1.2161,-3.093e-10,-0.40095,0,0,0.5,-0,-0,0.66667
0.60738,0.23086,1.2148,-0.40372,-1.1916,2.6295,1.3078,-0.43593,-1.4201,1.7437,-9.1862e-11,-0.71004,0,0,0.5,-0,-0,0.66667
0.28747,0.85008,0.57495,0.52512,2.413,6.2185,-0.80511,0.26837,-1.0195,-1.0735,-4.4133e-10,-0.50974,0,0,0.5,-0,-0,0.66667
0.99832,0.9494,1.9966,0.67409,-0.063476,0.40803,-3.5891,1.1964,-0.38395,-4.7855,-9.1826e-06,-0.19197,0,0,0.5,-0,-0,0.66667
0.81451,0.47683,1.629,-0.034749,-0.042156,0.87077,0.15095,-0.050317,-1.9956,0.20127,-3.8351e-10,-0.9978,0,0,0.5,-0,-0,0.66667
0.41398,0.67123,0.82796,0.25685,1.0028,4.6323,-0.56709,0.18903,-1.7648,-0.75612,-5.9062e-11,-0.88238,0,0,0.5,5.9212e-16,0,0.66667
0.87914,0.064453,1.7583,-0.65332,-0.69942,0.8255,3.0633,-1.0211,-0.48309,4.0843,-2.3515e-08,-0.24155,0,0,0.5,-0,-0,0.66667
0.7325,0.067974,1.465,-0.64804,-1.506,1.7266,2.5317,-0.84389,-0.50706,3.3756,-2.7903e-10,-0.25353,0,0,0.5,-0,-0,0.66667
0.92875,0.4071,1.8575,-0.13935,-0.023658,0.27078,0.69026,-0.23009,-1.9318,0.92035,8.032e-08,-0.9659,0,0,0.5,-0,-0,0.66667
0.17161,0.74723,0.34322,0.37085,1.7562,7.6666,-0.33942,0.11314,-1.5118,-0.45256,4.1437e-10,-0.7559,0,0,0.5,-7.4015e-17,0,0.66667
0.29484,0.49468,0.58967,-0.0079807,-0.034204,6.0553,0.012549,-0.0041831,-2,0.016732,7.683e-12,-1,0,0,0.5,-5.9212e-16,0,0.66667
0.093737,0.61069,0.18747,0.16603,0.78561,8.6842,-0.083004,0.027668,-1.9016,-0.11067,7.8189e-09,-0.95082,0,0,0.5,-0,-0,0.66667
0.31798,0.069938,0.63596,-0.64509,-2.9947,5.8836,1.094,-0.36467,-0.52019,1.4587,8.7601e-11,-0.2601,0,0,0.5,-0,-0,0.66667
0.38119,0.056603,0.76238,-0.6651,-2.9489,5.1452,1.3521,-0.45071,-0.42719,1.8029,1.3249e-11,-0.2136,0,0,0.5,2.9606e-16,0,0.66667
0.63271,0.45312,1.2654,-0.070319,-0.18424,2.3062,0.23729,-0.079097,-1.9817,0.31639,-3.1988e-11,-0.99087,0,0,0.5,1.1842e-15,0,0.66667
0.47152,0.25066,0.94304,-0.37401,-1.3873,4.0103,0.94055,-0.31352,-1.5037,1.2541,1.8764e-11,-0.75183,0,0,0.5,-0,-0,0.66667
0.71767,0.51415,1.4353,0.021222,0.042517,1.5705,-0.081228,0.027076,-1.998,-0.1083,2.262e-11,-0.99899,0,0,0.5,-0,-0,0.66667
0.26922,0.0027919,0.53845,-0.74581,-3.6845,6.5124,1.0709,-0.35696,-0.022842,1.4278,-1.1311e-11,-0.011421,0,0,0.5,-0,-0,0.66667
0.17306,0.095606,0.34611,-0.60659,-3.0159,7.6832,0.55986,-0.18662,-0.69261,0.74649,4.4569e-09,-0.3463,0,0,0.5,-0,-0,0.66667
0.37912,0.55089,0.75825,0.07633,0.30452,5.022,-0.15434,0.051446,-1.9788,-0.20578,-3.1034e-11,-0.9894,0,0,0.5,-0,-0,0.66667
0.43808,0.74618,0.87616,0.36927,1.4283,4.3824,-0.86277,0.28759,-1.5157,-1.1504,-4.4502e-11,-0.75787,0,0,0.5,1.4803e-16,0,0.66667
0.42213,0.089047,0.84425,-0.61643,-2.5851,4.6558,1.3878,-0.4626,-0.6494,1.8504,1.3586e-11,-0.3247,0,0,0.5,-5.9212e-16,0,0.66667
0.91357,0.6794,1.8271,0.2691,0.10061,0.38108,-1.3112,0.43705,-1.7422,-1.7482,-1.0562e-09,-0.87112,0,0,0.5,5.9212e-16,0,0.66667
0.26957,0.055595,0.53913,-0.66661,-3.2152,6.4814,0.95838,-0.31946,-0.41997,1.2778,1.9386e-10,-0.20998,0,0,0.5,-4.4409e-16,0,0.66667
0.35204,0.29457,0.70409,-0.30814,-1.2904,5.3767,0.57856,-0.19285,-1.6618,0.77141,1.3409e-10,-0.83088,0,0,0.5,-5.9212e-16,0,0.66667
0.21521,0.32759,0.43042,-0.25861,-1.1825,7.0873,0.29683,-0.098943,-1.7616,0.39577,-6.2864e-11,-0.88081,0,0,0.5,2.9606e-16,0,0.66667
0.37192,0.22084,0.74385,-0.41875,-1.7563,5.1644,0.83062,-0.27687,-1.3773,1.1075,1.2458e-10,-0.68863,0,0,0.5,-1.1842e-15,0,0.66667
0.38986,0.3029,0.77971,-0.29565,-1.1915,4.9224,0.61472,-0.20491,-1.6891,0.81962,8.7375e-11,-0.84453,0,0,0.5,5.9212e-16,0,0.66667
0.57543,0.20341,1.1509,-0.44489,-1.4189,2.9549,1.3653,-0.45511,-1.2957,1.8204,-5.022e-11,-0.64787,0,0,0.5,1.1842e-15,0,0.66667
0.27836,0.34648,0.55673,-0.23028,-1.0113,6.2763,0.34188,-0.11396,-1.8121,0.45584,1.2471e-10,-0.90603,0,0,0.5,1.1842e-15,0,0.66667
0.25949,0.0021308,0.51898,-0.7468,-3.7111,6.6321,1.0335,-0.34452,-0.017622,1.3781,-1.8123e-11,-0.0088109,0,0,0.5,-0,-0,0.66667
0.71906,0.90357,1.4381,0.60536,1.4362,1.7933,-2.3215,0.77385,-0.69784,-3.0954,3.4738e-10,-0.34892,0,0,0.5,-1.6283e-15,0,0.66667
0.91018,0.030298,1.8204,-0.70455,-0.59641,0.73958,3.4201,-1.14,-0.23595,4.5601,2.3063e-08,-0.11798,0,0,0.5,-0,-0,0.66667
0.1221,0.40545,0.24419,-0.14182,-0.66535,8.3048,0.092354,-0.030785,-1.9295,0.12314,5.097e-09,-0.96474,0,0,0.5,2.7756e-17,0,0.66667
0.18229,0.24035,0.36458,-0.38947,-1.8422,7.5297,0.37865,-0.12622,-1.4603,0.50486,-6.9357e-11,-0.73013,0,0,0.5,-2.9606e-16,0,0.66667
0.13311,0.3601,0.26622,-0.20985,-0.98654,8.1611,0.14898,-0.049659,-1.8427,0.19864,-4.4863e-10,-0.92137,0,0,0.5,-2.9606e-16,0,0.66667
0.68361,0.78134,1.3672,0.42201,1.0307,1.9598,-1.5386,0.51288,-1.3679,-2.0515,2.6549e-10,-0.68393,0,0,0.5,-0,-0,0.66667
0.21401,0.72615,0.42802,0.33923,1.569,7.1121,-0.38719,0.12906,-1.5907,-0.51626,-4.6937e-11,-0.79534,0,0,0.5,-0,-0,0.66667
0.60457,0.082913,1.2091,-0.62563,-2.0061,2.7788,2.0173,-0.67242,-0.60784,2.6897,-2.1913e-11,-0.30392,0,0,0.5,5.9212e-16,0,0.66667
0.20168,0.51455,0.40336,0.021827,0.098954,7.251,-0.023478,0.007826,-1.9979,-0.031304,-1.6095e-10,-0.99893,0,0,0.5,5.9212e-16,0,0.66667
0.81776,0.27441,1.6355,-0.33839,-0.44064,0.93233,1.4758,-0.49194,-1.5928,1.9678,3.1146e-10,-0.79638,0,0,0.5,-1.1842e-15,0,0.66667
0.31611,0.17578,0.63221,-0.48634,-2.1702,5.8558,0.81992,-0.27331,-1.1586,1.0932,2.7877e-10,-0.57928,0,0,0.5,2.9606e-16,0,0.66667
0.66962,0.74389,1.3392,0.36583,0.91364,2.0518,-1.3065,0.4355,-1.5243,-1.742,1.9463e-10,-0.76213,0,0,0.5,-5.9212e-16,0,0.66667
0.14873,0.14992,0.29747,-0.52512,-2.5825,7.9847,0.41655,-0.13885,-1.0195,0.5554,2.0499e-09,-0.50974,0,0,0.5,7.4015e-17,0,0.66667
0.30595,0.71867,0.61189,0.328,1.4309,5.9453,-0.53521,0.1784,-1.6185,-0.71361,-2.0254e-10,-0.80925,0,0,0.5,8.2625e-16,0,0.66667
0.29724,0.091263,0.59448,-0.61311,-2.8623,6.1244,0.97195,-0.32398,-0.6643,1.2959,2.2341e-10,-0.33215,0,0,0.5,4.4409e-16,0,0.66667
0.63508,0.65302,1.2702,0.22952,0.60906,2.3113,-0.77742,0.25914,-1.8131,-1.0366,9.3606e-11,-0.90656,0,0,0.5,-2.9606e-16,0,0.66667
0.68088,0.68528,1.3618,0.27792,0.65521,1.9216,-1.0092,0.3364,-1.726,-1.3456,1.5183e-10,-0.86298,0,0,0.5,4.4409e-16,0,0.66667
0.84525,0.36392,1.6905,-0.20412,-0.20061,0.71203,0.92016,-0.30672,-1.8515,1.2269,6.6029e-10,-0.92577,0,0,0.5,-1.1842e-15,0,0.66667
0.18335,0.93796,0.36669,0.65693,3.2967,7.5615,-0.64238,0.21413,-0.46657,-0.85651,-2.601e-09,-0.23328,0,0,0.5,-0,-0,0.66667
0.76043,0.21763,1.5209,-0.42355,-0.78443,1.3634,1.7178,-0.57259,-1.363,2.2904,-5.4926e-10,-0.68149,0,0,0.5,-1.6638e-15,0,0.66667
0.71194,0.29792,1.4239,-0.30312,-0.64929,1.6744,1.1509,-0.38365,-1.6726,1.5346,-1.885e-10,-0.83632,0,0,0.5,-8.4311e-16,0,0.66667
0.55754,0.24686,1.1151,-0.37971,-1.2309,3.1053,1.1291,-0.37636,-1.4878,1.5054,-4.044e-11,-0.74391,0,0,0.5,-0,-0,0.66667
0.65016,0.73326,1.3003,0.34989,0.91758,2.2152,-1.2133,0.40442,-1.5641,-1.6177,1.5226e-10,-0.78203,0,0,0.5,1.1842e-15,0,0.66667
0.089995,0.13806,0.17999,-0.5429,-2.7213,8.7557,0.26058,-0.08686,-0.95147,0.34744,-1.6577e-09,-0.47574,0,0,0.5,-1.4803e-16,0,0.66667
0.14688,0.48388,0.29375,-0.024173,-0.11205,7.973,0.018935,-0.0063118,-1.9973,0.025247,4.03e-10,-0.99863,0,0,0.5,-2.9606e-16,0,0.66667
0.41557,0.29715,0.83114,-0.30427,-1.1942,4.6236,0.67438,-0.22479,-1.6702,0.89917,6.302e-11,-0.83508,0,0,0.5,-0,-0,0.66667
0.71137,0.52401,1.4227,0.036014,0.07392,1.6217,-0.13663,0.045545,-1.9952,-0.18218,3.5518e-11,-0.9976,0,0,0.5,1.1842e-15,0,0.66667
0.16782,0.14053,0.33564,-0.53921,-2.6428,7.739,0.48262,-0.16087,-0.96562,0.64349,2.9111e-09,-0.48281,0,0,0.5,-2.9606e-16,0,0.66667
0.38898,0.83404,0.77796,0.50106,2.1062,4.9893,-1.0395,0.34649,-1.1071,-1.386,-7.7774e-11,-0.55355,0,0,0.5,-0,-0,0.66667
0.49795,0.92253,0.99589,0.63379,2.4364,3.839,-1.6832,0.56105,-0.57128,-2.2442,-1.7109e-13,-0.28564,0,0,0.5,-0,5.9109e-16,0.66667
0.93505,0.55284,1.8701,0.079267,0.007418,0.23329,-0.3953,0.13177,-1.9774,-0.52706,-7.8552e-08,-0.98869,0,0,0.5,-1.1842e-15,0,0.66667
0.055196,0.98,0.11039,0.72,3.7954,9.2253,-0.21195,0.070651,-0.15626,-0.28261,-1.9591e-07,-0.078129,0,0,0.5,-0,-0,0.66667
0.82901,0.96905,1.658,0.70357,1.1243,1.1434,-3.1108,1.0369,-0.24117,-4.1477,1.3212e-09,-0.12059,0,0,0.5,2.3685e-15,0,0.66667
0.98416,0.73062,1.9683,0.34593,-0.10088,0.15223,-1.8157,0.60524,-1.5742,-2.421,2.4908e-08,-0.78712,0,0,0.5,-0,-0,0.66667
0.26727,0.079996,0.53455,-0.63001,-3.0118,6.4984,0.89805,-0.29935,-0.58832,1.1974,3.6769e-10,-0.29416,0,0,0.5,2.9606e-16,0,0.66667
0.89006,0.15945,1.7801,-0.51082,-0.40638,0.64215,2.4249,-0.80828,-1.0729,3.2331,1.3916e-09,-0.53645,0,0,0.5,-0,-0,0.66667
0.2903,0.47104,0.5806,-0.043437,-0.18689,6.1129,0.067251,-0.022417,-1.9939,0.089669,4.2038e-11,-0.99693,0,0,0.5,-0,-0,0.66667
0.79901,0.91405,1.598,0.62108,1.0839,1.2455,-2.6466,0.88222,-0.62841,-3.5289,2.0591e-09,-0.3142,0,0,0.5,2.3685e-15,0,0.66667
0.45986,0.085968,0.91971,-0.62105,-2.4979,4.2398,1.5232,-0.50772,-0.62838,2.0309,4.9024e-12,-0.31419,0,0,0.5,-2.9606e-16,0,0.66667
0.59761,0.95646,1.1952,0.68469,2.281,2.8846,-2.1823,0.72743,-0.33264,-2.9097,5.0735e-12,-0.16632,0,0,0.5,5.9212e-16,0,0.66667
0.23667,0.95245,0.47333,0.67867,3.3451,6.8935,-0.85663,0.28554,-0.36182,-1.1422,-3.6016e-10,-0.18091,0,0,0.5,-0,-0,0.66667
0.68761,0.71755,1.3752,0.32633,0.7632,1.8827,-1.1967,0.39891,-1.6225,-1.5956,1.9385e-10,-0.81124,0,0,0.5,-1.5543e-15,0,0.66667
0.14868,0.1198,0.29737,-0.5703,-2.834,7.9919,0.45224,-0.15075,-0.84368,0.60298,5.1932e-09,-0.42184,0,0,0.5,-5.9991e-17,0,0.66667
0.55969,0.78058,1.1194,0.42086,1.3733,3.1002,-1.2563,0.41876,-1.3712,-1.675,3.9593e-11,-0.68562,0,0,0.5,3.0048e-16,0,0.66667
0.49433,0.88877,0.98866,0.58315,2.2156,3.8499,-1.5374,0.51247,-0.79026,-2.0499,-1.0931e-12,-0.39513,0,0,0.5,-0,-0,0.66667
0.83721,0.89265,1.6744,0.58897,0.80779,0.98674,-2.6298,0.8766,-0.766,-3.5064,4.8531e-09,-0.383,0,0,0.5,-1.1842e-15,0,0.66667
0.48147,0.80111,0.96294,0.45167,1.6826,3.9288,-1.1598,0.3866,-1.2742,-1.5464,-9.8376e-12,-0.63711,0,0,0.5,5.9212e-16,0,0.66667
0.78473,0.85756,1.5695,0.53634,0.94613,1.2694,-2.2447,0.74824,-0.97664,-2.993,1.5517e-09,-0.48832,0,0,0.5,1.1842e-15,0,0.66667
0.40029,0.63914,0.80059,0.20871,0.82246,4.784,-0.44559,0.14853,-1.8445,-0.59411,-6.0702e-11,-0.92223,0,0,0.5,-0,-0,0.66667
0.30791,0.64452,0.61581,0.21677,0.93063,5.9044,-0.35598,0.11866,-1.8324,-0.47464,-1.2382e-10,-0.9162,0,0,0.5,-3.6463e-16,0,0.66667
0.78723,0.13407,1.5745,-0.5489,-0.96455,1.2623,2.3046,-0.76819,-0.9284,3.0728,-1.7078e-09,-0.4642,0,0,0.5,-0,-0,0.66667
0.41846,0.55708,0.83693,0.085616,0.32737,4.5584,-0.19108,0.063693,-1.9741,-0.25477,-2.2239e-11,-0.98705,0,0,0.5,2.9606e-16,0,0.66667
0.49677,0.43418,0.99353,-0.098732,-0.34003,3.6783,0.26158,-0.087194,-1.9658,0.34878,9.1371e-13,-0.98292,0,0,0.5,-5.9212e-16,0,0.66667
0.57732,0.25909,1.1546,-0.36137,-1.1231,2.9018,1.1127,-0.37089,-1.5356,1.4836,-5.8584e-11,-0.76778,0,0,0.5,-0,-0,0.66667
0.81967,0.76601,1.6393,0.39901,0.53144,0.95298,-1.7443,0.58143,-1.4332,-2.3257,-2.6426e-11,-0.71662,0,0,0.5,1.1842e-15,0,0.66667
0.58132,0.42556,1.1626,-0.11166,-0.33057,2.8015,0.34617,-0.11539,-1.9552,0.46156,-2.8222e-11,-0.9776,0,0,0.5,-0,-0,0.66667
0.40614,0.76356,0.81229,0.39534,1.5941,4.7561,-0.85634,0.28545,-1.444,-1.1418,-7.5112e-11,-0.72198,0,0,0.5,-5.9212e-16,0,0.66667
0.16059,0.9862,0.32117,0.7293,3.7662,7.8672,-0.62462,0.20821,-0.10827,-0.83283,-6.1477e-10,-0.054134,0,0,0.5,-0,-0,0.66667
0.70211,0.45597,1.4042,-0.066047,-0.14037,1.6993,0.24732,-0.08244,-1.9841,0.32976,-5.489e-11,-0.99206,0,0,0.5,-0,-0,0.66667
0.88323,0.45637,1.7665,-0.065439,-0.038862,0.47398,0.30825,-0.10275,-1.9842,0.411,-8.0851e-09,-0.99209,0,0,0.5,1.1842e-15,0,0.66667
0.10838,0.86201,0.21676,0.54302,2.7114,8.5143,-0.31388,0.10463,-0.95119,-0.4185,2.8656e-09,-0.4756,0,0,0.5,-1.4803e-16,6.7751e-16,0.66667
0.46621,0.14011,0.93243,-0.53984,-2.1016,4.1316,1.3423,-0.44743,-0.96328,1.7897,1.0921e-11,-0.48164,0,0,0.5,-5.9212e-16,0,0.66667
0.93454,0.80444,1.8691,0.45665,0.14082,0.40343,-2.2761,0.75868,-1.2584,-3.0347,-6.9464e-09,-0.6292,0,0,0.5,-0,-0,0.66667
0.56351,0.462,1.127,-0.056998,-0.1744,2.9749,0.1713,-0.0571,-1.9886,0.2284,-1.1354e-11,-0.99428,0,0,0.5,-8.8818e-16,0,0.66667
0.54525,0.84944,1.0905,0.52416,1.808,3.2931,-1.5243,0.50809,-1.0234,-2.0324,1.7447e-11,-0.51168,0,0,0.5,1.1842e-15,0,0.66667
0.063476,0.28965,0.12695,-0.31553,-1.5246,9.0941,0.10682,-0.035606,-1.646,0.14242,7.7423e-09,-0.82298,0,0,0.5,-0,-0,0.66667
0.5353,0.3209,1.0706,-0.26865,-0.88562,3.2976,0.76697,-0.25566,-1.7432,1.0226,-2.272e-11,-0.87158,0,0,0.5,-0,-0,0.66667
0.65454,0.3904,1.3091,-0.16441,-0.40988,2.1209,0.57393,-0.19131,-1.9034,0.76523,-8.2252e-11,-0.95171,0,0,0.5,-0,-0,0.66667
0.14659,0.15396,0.29318,-0.51906,-2.5511,8.0118,0.40581,-0.13527,-1.0426,0.54108,1.5623e-09,-0.52132,0,0,0.5,-3.3307e-16,0,0.66667
0.95636,0.50805,1.9127,0.012075,-0.0015493,0.14377,-0.06159,0.020532,-1.9993,-0.08212,2.5006e-06,-0.99966,0,0,0.5,-0,-0,0.66667
0.19615,0.49968,0.3923,-0.00048224,-0.0021912,7.3232,0.00050449,-0.00016816,-2.001,0.00067266,1.3457e-10,-1.0005,0,0,0.5,9.7145e-16,0,0.66667
0.67393,0.52099,1.3479,0.031492,0.07334,1.9353,-0.11319,0.03773,-1.9962,-0.15092,2.1163e-11,-0.99809,0,0,0.5,1.1842e-15,0,0.66667
0.27434,0.58863,0.54868,0.13294,0.58054,6.3186,-0.19451,0.064836,-1.9373,-0.25935,-1.0794e-10,-0.96863,0,0,0.5,2.9606e-16,0,0.66667
0.10843,0.35218,0.21686,-0.22172,-1.0506,8.4899,0.12822,-0.042741,-1.8251,0.17096,-4.4115e-09,-0.91257,0,0,0.5,-0,-0,0.66667
0.2609,0.33691,0.5218,-0.24463,-1.0884,6.4993,0.3404,-0.11347,-1.7871,0.45386,1.1202e-10,-0.89357,0,0,0.5,-0,-0,0.66667
0.33415,0.77339,0.6683,0.41008,1.7752,5.616,-0.73082,0.24361,-1.4018,-0.97443,-2.0603e-10,-0.70092,0,0,0.5,-2.9606e-16,0,0.66667
0.46473,0.93001,0.92946,0.64502,2.5992,4.1993,-1.5987,0.53291,-0.52057,-2.1316,-2.6157e-12,-0.26029,0,0,0.5,5.9212e-16,0,0.66667
0.23436,0.72636,0.46871,0.33954,1.5539,6.8504,-0.42439,0.14146,-1.5902,-0.56585,-1.6772e-10,-0.7951,0,0,0.5,-0,-0,0.66667
0.7275,0.094182,1.455,-0.60873,-1.4071,1.7318,2.3619,-0.78729,-0.68343,3.1492,-4.1032e-10,-0.34172,0,0,0.5,-0,-0,0.66667
0.80719,0.53525,1.6144,0.052868,0.067557,0.91935,-0.2276,0.075866,-1.9904,-0.30347,3.5255e-10,-0.99518,0,0,0.5,2.3685e-15,0,0.66667
0.79098,0.92435,1.582,0.63652,1.167,1.3107,-2.6852,0.89507,-0.55881,-3.5803,1.445e-09,-0.2794,0,0,0.5,-1.1842e-15,0,0.66667
0.71575,0.49834,1.4315,-0.0024972,-0.0050364,1.5856,0.0095327,-0.0031776,-2.0008,0.01271,-2.9879e-12,-1.0004,0,0,0.5,3.5527e-15,0,0.66667
0.26964,0.72303,0.53929,0.33455,1.4982,6.4008,-0.48111,0.16037,-1.6024,-0.64148,-2.2881e-10,-0.80118,0,0,0.5,5.9212e-16,0,0.66667
0.21046,0.52258,0.42092,0.033873,0.15294,7.1366,-0.03802,0.012673,-1.9956,-0.050694,-1.5626e-10,-0.99779,0,0,0.5,-2.9606e-16,0,0.66667
0.10913,0.33713,0.21826,-0.24431,-1.1601,8.4816,0.14219,-0.047397,-1.788,0.18959,-3.2805e-09,-0.89399,0,0,0.5,-2.2204e-16,0,0.66667
0.39668,0.4187,0.79336,-0.12195,-0.4788,4.8164,0.258,-0.086,-1.9465,0.344,4.0028e-11,-0.97327,0,0,0.5,-5.9212e-16,0,0.66667
0.087267,0.25741,0.17453,-0.36388,-1.7636,8.779,0.16936,-0.056453,-1.529,0.22581,-2.9725e-10,-0.76451,0,0,0.5,-0,-0,0.66667
0.65539,0.69228,1.3108,0.28842,0.73414,2.1461,-1.0081,0.33605,-1.7046,-1.3442,1.3445e-10,-0.85232,0,0,0.5,-0,-0,0.66667
0.94983,0.2142,1.8997,-0.4287,-0.055292,0.32372,2.1717,-0.72389,-1.3468,2.8956,-3.7587e-09,-0.67342,0,0,0.5,2.3388e-15,0,0.66667
0.75563,0.7108,1.5113,0.31621,0.57185,1.3446,-1.2743,0.42478,-1.6443,-1.6991,1.4819e-10,-0.82213,0,0,0.5,-5.9212e-16,0,0.66667
0.11689,0.275,0.23378,-0.33749,-1.6184,8.3839,0.2104,-0.070134,-1.595,0.28053,-5.5853e-10,-0.79748,0,0,0.5,-2.2204e-16,0,0.66667
0.020481,0.45033,0.040962,-0.074498,-0.35413,9.6681,0.0081421,-0.0027131,-1.9797,0.010857,1.3399e-06,-0.98985,0,0,0.5,3.7007e-17,0,0.66667
0.33489,0.45488,0.66978,-0.067687,-0.28135,5.5583,0.12089,-0.040298,-1.9831,0.16119,4.0657e-11,-0.99153,0,0,0.5,1.9553e-16,0,0.66667
0.99288,0.53825,1.9858,0.057381,-0.028936,0.023628,-0.30385,0.10129,-1.9881,-0.40513,5.5985e-06,-0.99407,0,0,0.5,2.3685e-15,0,0.66667
0.31283,0.21314,0.62566,-0.43029,-1.9019,5.8816,0.71792,-0.23931,-1.342,0.95722,2.8072e-10,-0.671,0,0,0.5,2.9606e-16,0,0.66667
0.73751,0.49241,1.475,-0.011388,-0.021054,1.4145,0.044794,-0.014931,-1.9994,0.059725,-1.8362e-11,-0.99971,0,0,0.5,1.7764e-15,0,0.66667
0.71653,0.9375,1.4331,0.65624,1.6133,1.8536,-2.5078,0.83594,-0.46997,-3.3438,1.5848e-10,-0.23499,0,0,0.5,3.8408e-16,0,0.66667
0.57256,0.67636,1.1451,0.26453,0.81323,2.9179,-0.80779,0.26926,-1.7507,-1.0771,4.9241e-11,-0.87534,0,0,0.5,-0,-0,0.66667
0.36765,0.69952,0.73529,0.29928,1.2336,5.1872,-0.58681,0.1956,-1.681,-0.78242,-1.1251e-10,-0.84048,0,0,0.5,-0,-0,0.66667
0.20827,0.14151,0.41653,-0.53773,-2.5911,7.2185,0.59728,-0.19909,-0.97126,0.79638,1.7467e-09,-0.48563,0,0,0.5,-2.9606e-16,0,0.66667
0.98,0.36891,1.96,-0.19664,0.065295,0.09459,1.0278,-0.34259,-1.8625,1.3704,4.9969e-07,-0.93127,0,0,0.5,2.3566e-15,0,0.66667
0.065894,0.74339,0.13179,0.36508,1.7762,9.0637,-0.1283,0.042768,-1.5261,-0.17107,3.229e-09,-0.76304,0,0,0.5,3.7007e-17,0,0.66667
0.23623,0.81295,0.47246,0.46942,2.1973,6.8485,-0.59141,0.19714,-1.2176,-0.78855,-8.3342e-10,-0.60882,0,0,0.5,-5.9212e-16,0,0.66667
0.3089,0.77446,0.6178,0.41169,1.8184,5.9256,-0.67825,0.22608,-1.3973,-0.90434,-2.8085e-10,-0.69866,0,0,0.5,-0,-0,0.66667
0.9095,0.47248,1.819,-0.041282,-0.014042,0.3425,0.20025,-0.066749,-1.9944,0.26699,-6.7236e-08,-0.99718,0,0,0.5,-0,-0,0.66667
0.71337,0.74036,1.4267,0.36054,0.78262,1.6872,-1.3717,0.45724,-1.5374,-1.829,2.691e-10,-0.76871,0,0,0.5,-0,-0,0.66667
0.26537,0.87586,0.53074,0.56379,2.6521,6.5033,-0.79794,0.26598,-0.87098,-1.0639,-6.3286e-10,-0.43549,0,0,0.5,-0,-0,0.66667
0.1645,0.15509,0.329,-0.51737,-2.5264,7.7786,0.45391,-0.1513,-1.0491,0.60521,2.2325e-09,-0.52454,0,0,0.5,2.9606e-16,0,0.66667
0.8805,0.82132,1.761,0.48199,0.41263,0.66667,-2.2634,0.75447,-1.1737,-3.0179,-2.1008e-09,-0.58684,0,0,0.5,-0,-0,0.66667
0.79378,0.65352,1.5876,0.23028,0.33265,1.0441,-0.9749,0.32497,-1.8121,-1.2999,-1.0948e-10,-0.90603,0,0,0.5,1.7153e-15,0,0.66667
0.038387,0.32472,0.076775,-0.26292,-1.2656,9.4288,0.053827,-0.017942,-1.7536,0.07177,-1.9817e-08,-0.87681,0,0,0.5,7.4015e-17,0,0.66667
0.8793,0.76816,1.7586,0.40224,0.31947,0.61758,-1.8864,0.62878,-1.4242,-2.5151,-2.4715e-09,-0.71208,0,0,0.5,1.1842e-15,0,0.66667
0.58794,0.79362,1.1759,0.44043,1.3686,2.8312,-1.381,0.46034,-1.3097,-1.8414,6.351e-11,-0.65487,0,0,0.5,1.1842e-15,0,0.66667
0.45754,0.80761,0.91507,0.46142,1.7785,4.1948,-1.126,0.37532,-1.2432,-1.5013,-2.3102e-11,-0.62159,0,0,0.5,2.9606e-16,0,0.66667
0.67385,0.025757,1.3477,-0.71136,-2.0295,2.2385,2.5566,-0.85219,-0.20097,3.4087,-8.9238e-12,-0.10048,0,0,0.5,5.9212e-16,0,0.66667
0.039443,0.69116,0.078886,0.28674,1.3841,9.4151,-0.060319,0.020106,-1.708,-0.080425,-4.7702e-08,-0.854,0,0,0.5,-0,-0,0.66667
0.33032,0.82292,0.66064,0.48437,2.1368,5.6821,-0.85333,0.28444,-1.1655,-1.1378,-2.2222e-10,-0.58274,0,0,0.5,-0,-0,0.66667
0.088048,0.50142,0.1761,0.0021283,0.010019,8.7582,-0.00099944,0.00033323,-2.0007,-0.0013325,1.2627e-07,-1.0004,0,0,0.5,-0,-0,0.66667
0.68364,0.18775,1.3673,-0.46838,-1.1639,1.9847,1.7077,-0.56924,-1.2211,2.277,-2.8347e-10,-0.61053,0,0,0.5,-0,-0,0.66667
0.39801,0.78264,0.79602,0.42395,1.7346,4.8591,-0.89994,0.29998,-1.3617,-1.1999,-8.3536e-11,-0.68084,0,0,0.5,-1.1842e-15,0,0.66667
0.47895,0.36755,0.95791,-0.19868,-0.70877,3.886,0.5075,-0.16917,-1.8595,0.67667,1.1193e-11,-0.92974,0,0,0.5,-5.9212e-16,0,0.66667
0.2898,0.83643,0.57961,0.50465,2.3043,6.1842,-0.77999,0.26,-1.0943,-1.04,-4.2944e-10,-0.54716,0,0,0.5,4.6766e-16,0,0.66667
0.78829,0.78435,1.5766,0.42652,0.69288,1.1716,-1.7932,0.59774,-1.3536,-2.3909,5.7273e-10,-0.67679,0,0,0.5,-0,-0,0.66667
0.046513,0.38134,0.093025,-0.17799,-0.84925,9.3182,0.044154,-0.014718,-1.8876,0.058872,1.5721e-07,-0.94379,0,0,0.5,1.4803e-16,0,0.66667
0.28113,0.51985,0.56225,0.029777,0.12892,6.2285,-0.044646,0.014882,-1.9966,-0.059528,-3.2527e-11,-0.9983,0,0,0.5,-0,-0,0.66667
0.5906,0.81796,1.1812,0.47693,1.4907,2.8233,-1.5023,0.50076,-1.1914,-2.003,5.9833e-11,-0.5957,0,0,0.5,-0,-0,0.66667
0.79013,0.95734,1.5803,0.686,1.3092,1.3621,-2.8909,0.96362,-0.3262,-3.8545,6.2399e-10,-0.1631,0,0,0.5,-0,-0,0.66667
0.6016,0.47447,1.2032,-0.038298,-0.10805,2.5978,0.12288,-0.04096,-1.9948,0.16384,-1.2935e-11,-0.9974,0,0,0.5,-1.1842e-15,0,0.66667
0.73049,0.70496,1.461,0.30744,0.61553,1.5302,-1.1978,0.39926,-1.6633,-1.597,1.8625e-10,-0.83167,0,0,0.5,1.1842e-15,0,0.66667
0.023528,0.064396,0.047056,-0.65341,-3.391,9.6358,0.08199,-0.027329,-0.48264,0.10932,1.9864e-06,-0.24132,0,0,0.5,-7.4015e-17,0,0.66667
0.25492,0.46422,0.50985,-0.053665,-0.23647,6.5625,0.072963,-0.024321,-1.99,0.097284,8.2722e-11,-0.99499,0,0,0.5,2.9606e-16,0,0.66667
0.042092,0.78866,0.084184,0.43298,2.1368,9.3835,-0.0972,0.0324,-1.3333,-0.1296,-5.5579e-09,-0.66663,0,0,0.5,1.4803e-16,0,0.66667
0.50001,0.50244,1,0.0036639,0.012515,3.6388,-0.0097706,0.0032569,-2.0008,-0.013027,-2.8011e-14,-1.0004,0,0,0.5,-0,-0,0.66667
0.98914,0.90718,1.9783,0.61078,-0.049633,0.36002,-3.2221,1.074,-0.67449,-4.2961,6.5479e-07,-0.33724,0,0,0.5,2.3685e-15,0,0.66667
0.013531,0.76749,0.027061,0.40124,1.9725,9.7637,-0.028954,0.0096515,-1.4271,-0.038606,1.8045e-08,-0.71355,0,0,0.5,2.4804e-18,0,0.66667
0.44088,0.33311,0.88176,-0.25033,-0.94582,4.3218,0.58861,-0.1962,-1.7768,0.78481,3.7949e-11,-0.8884,0,0,0.5,-0,-0,0.66667
0.0047864,0.10515,0.0095728,-0.59228,-3.0287,9.8813,0.015119,-0.0050401,-0.75223,0.020159,-5.4712e-07,-0.37612,0,0,0.5,-0,-0,0.66667
0.61289,0.027611,1.2258,-0.70858,-2.3152,2.7625,2.3162,-0.77206,-0.21522,3.0882,-1.9023e-12,-0.10761,0,0,0.5,1.7764e-15,0,0.66667
0.18336,0.69746,0.36672,0.29619,1.3807,7.5053,-0.28965,0.09655,-1.6877,-0.3862,4.076e-10,-0.84385,0,0,0.5,-0,-0,0.66667
0.71274,0.82461,1.4255,0.48692,1.1133,1.76,-1.8509,0.61697,-1.1565,-2.4679,4.4025e-10,-0.57823,0,0,0.5,1.1842e-15,0,0.66667
0.15965,0.53158,0.3193,0.047376,0.21871,7.804,-0.040339,0.013446,-1.9931,-0.053785,-1.308e-09,-0.99654,0,0,0.5,-0,-0,0.66667
0.82858,0.085825,1.6572,-0.62126,-0.92489,1.0655,2.7454,-0.91513,-0.6277,3.6605,-4.3813e-09,-0.31385,0,0,0.5,-0,-0,0.66667
0.20618,0.40713,0.41236,-0.1393,-0.63291,7.1958,0.15318,-0.05106,-1.932,0.20424,1.9712e-10,-0.96598,0,0,0.5,-5.9212e-16,0,0.66667
0.35222,0.51707,0.70443,0.025604,0.1047,5.3451,-0.048097,0.016032,-1.997,-0.064129,-1.3688e-11,-0.9985,0,0,0.5,-0,-0,0.66667
0.23058,0.27093,0.46116,-0.34361,-1.5768,6.8994,0.42255,-0.14085,-1.5798,0.5634,1.6793e-10,-0.78991,0,0,0.5,-0,-0,0.66667
0.80768,0.74374,1.6154,0.3656,0.51529,1.0101,-1.5749,0.52497,-1.5247,-2.0999,-7.849e-11,-0.76236,0,0,0.5,-1.1842e-15,0,0.66667
0.49027,0.032144,0.98054,-0.70178,-2.7923,3.9594,1.835,-0.61167,-0.24975,2.4467,4.3299e-15,-0.12487,0,0,0.5,1.1842e-15,0,0.66667
0.87383,0.81098,1.7477,0.46648,0.42133,0.68914,-2.174,0.72466,-1.2273,-2.8986,-1.4229e-09,-0.61363,0,0,0.5,1.7764e-15,0,0.66667
0.13009,0.090971,0.26017,-0.61354,-3.0985,8.2396,0.42567,-0.14189,-0.66208,0.56756,1.0505e-08,-0.33104,0,0,0.5,-1.8504e-16,0,0.66667
0.49896,0.47162,0.99792,-0.042576,-0.14579,3.651,0.1133,-0.037767,-1.9943,0.15107,1.357e-13,-0.99713,0,0,0.5,-0,-0,0.66667
0.77661,0.80209,1.5532,0.45314,0.79129,1.2673,-1.8769,0.62562,-1.2695,-2.5025,8.0436e-10,-0.63475,0,0,0.5,-0,-0,0.66667
0.98121,0.96932,1.9624,0.70397,0.090914,0.48922,-3.684,1.228,-0.23895,-4.912,9.2847e-07,-0.11947,0,0,0.5,-0,-0,0.66667
0.67338,0.02095,1.3468,-0.71858,-2.0603,2.2485,2.5807,-0.86022,-0.16382,3.4409,-7.6052e-12,-0.081911,0,0,0.5,-0,-0,0.66667
0.183,0.38086,0.366,-0.1787,-0.82285,7.5009,0.17442,-0.058139,-1.8865,0.23256,-8.1865e-11,-0.94325,0,0,0.5,-0,-0,0.66667
0.75977,0.56098,1.5195,0.091473,0.15368,1.2526,-0.37066,0.12355,-1.971,-0.49421,1.5239e-10,-0.98549,0,0,0.5,5.9212e-16,0,0.66667
0.074635,0.33789,0.14927,-0.24317,-1.1627,8.9423,0.096794,-0.032265,-1.7898,0.12906,-2.2534e-08,-0.89492,0,0,0.5,-1.1102e-16,0,0.66667
0.76277,0.55075,1.5255,0.076118,0.12582,1.2289,-0.30966,0.10322,-1.979,-0.41287,1.414e-10,-0.98948,0,0,0.5,-0,-0,0.66667
0.82782,0.7945,1.6556,0.44176,0.5732,0.92954,-1.9504,0.65012,-1.3058,-2.6005,3.5588e-10,-0.6529,0,0,0.5,-0,-0,0.66667
0.55921,0.024074,1.1184,-0.71389,-2.5776,3.2702,2.1291,-0.70971,-0.18788,2.8389,-4.6541e-13,-0.093942,0,0,0.5,-0,-0,0.66667
0.49272,0.55737,0.98544,0.086054,0.298,3.7213,-0.22614,0.075379,-1.9738,-0.30152,-1.8911e-12,-0.98688,0,0,0.5,-8.8818e-16,0,0.66667
0.93653,0.075036,1.8731,-0.63745,-0.31465,0.56016,3.1839,-1.0613,-0.55489,4.2452,-1.429e-08,-0.27744,0,0,0.5,-0,-0,0.66667
9.6951e-05,0.66354,0.0001939,0.2453,1.1805,9.9431,-0.00012687,4.2378e-05,-1.7862,-0.00016912,1.312e-07,-0.89309,0,0,0.5,-0,-1.5433e-15,0.66667
0.0095669,0.8698,0.019134,0.55471,2.8116,9.8179,-0.028303,0.0094342,-0.90606,-0.037737,-1.2315e-07,-0.45303,0,0,0.5,-1.3878e-17,0,0.66667
0.25195,0.53254,0.5039,0.048806,0.21542,6.6005,-0.065583,0.021861,-1.9925,-0.087444,-8.536e-11,-0.99624,0,0,0.5,-0,-0,0.66667
0.50568,0.16472,1.0114,-0.50291,-1.8349,3.6913,1.3563,-0.45211,-1.1004,1.8084,-2.2851e-12,-0.55021,0,0,0.5,-1.1842e-15,0,0.66667
0.54042,0.17315,1.0808,-0.49027,-1.6874,3.3255,1.4131,-0.47103,-1.1447,1.8841,-1.8974e-11,-0.57235,0,0,0.5,5.9212e-16,0,0.66667
0.37129,0.02789,0.74258,-0.70817,-3.2114,5.2795,1.4023,-0.46744,-0.21736,1.8698,2.772e-12,-0.10868,0,0,0.5,-0,-2.2729e-16,0.66667
0.29271,0.66384,0.58542,0.24577,1.0705,6.0977,-0.38367,0.12789,-1.7851,-0.51156,-1.4021e-10,-0.89254,0,0,0.5,-0,-0,0.66667
0.20237,0.94452,0.40473,0.66678,3.329,7.3219,-0.71965,0.23988,-0.41933,-0.95953,-1.1995e-09,-0.20966,0,0,0.5,-0,-0,0.66667
0.80028,0.0095423,1.6006,-0.73569,-1.3945,1.348,3.14,-1.0467,-0.075295,4.1867,-3.7163e-11,-0.037647,0,0,0.5,-0,-0,0.66667
0.31592,0.62313,0.63185,0.18469,0.7855,5.8012,-0.31119,0.10373,-1.8795,-0.41492,-1.0652e-10,-0.93973,0,0,0.5,-0,-0,0.66667
0.49247,0.70933,0.98494,0.31399,1.1174,3.7639,-0.8247,0.2749,-1.649,-1.0996,-4.9613e-12,-0.82452,0,0,0.5,-0,-0,0.66667
0.81129,0.57736,1.6226,0.11603,0.14546,0.90034,-0.50206,0.16735,-1.9517,-0.66941,3.758e-10,-0.97584,0,0,0.5,-0,-0,0.66667
0.61236,0.76847,1.2247,0.40271,1.1752,2.5823,-1.3152,0.4384,-1.4229,-1.7536,9.8862e-11,-0.71144,0,0,0.5,-0,-0,0.66667
0.40861,0.58763,0.81722,0.13144,0.50967,4.6771,-0.28644,0.095482,-1.9387,-0.38193,-3.7449e-11,-0.96934,0,0,0.5,5.9212e-16,0,0.66667
0.1769,0.2461,0.35381,-0.38085,-1.8027,7.5987,0.35932,-0.11977,-1.4846,0.4791,-2.5326e-10,-0.74231,0,0,0.5,3.7007e-16,0,0.66667
0.39765,0.54835,0.7953,0.072522,0.28372,4.8016,-0.15381,0.051269,-1.9806,-0.20507,-2.431e-11,-0.99032,0,0,0.5,-5.9212e-16,0,0.66667
0.48521,0.072983,0.97043,-0.64053,-2.5108,3.9772,1.6576,-0.55252,-0.54102,2.2101,1.1279e-12,-0.27051,0,0,0.5,-0,-0,0.66667
0.99058,0.50395,1.9812,0.005929,-0.0028702,0.027648,-0.031325,0.010442,-2.0001,-0.041766,1.1773e-06,-1.0001,0,0,0.5,-0,-0,0.66667
0.2842,0.34423,0.56839,-0.23366,-1.0225,6.2032,0.35416,-0.11805,-1.8069,0.47221,1.2862e-10,-0.90347,0,0,0.5,1.1842e-15,0,0.66667
0.16564,0.37379,0.33128,-0.18931,-0.87857,7.7297,0.16724,-0.055747,-1.8734,0.22299,-3.0195e-11,-0.93668,0,0,0.5,4.0708e-16,0,0.66667
0.22058,0.77582,0.44115,0.41373,1.9313,7.0384,-0.48672,0.16224,-1.3916,-0.64895,-4.9674e-10,-0.69581,0,0,0.5,4.4409e-16,0,0.66667
0.21147,0.9348,0.42293,0.65219,3.2301,7.2032,-0.73556,0.24519,-0.48811,-0.98075,-1.1564e-09,-0.24405,0,0,0.5,7.4015e-17,0,0.66667
0.076048,0.51227,0.1521,0.018412,0.086895,8.9194,-0.0074677,0.0024891,-1.9984,-0.0099571,-1.8869e-07,-0.99919,0,0,0.5,-0,-0,0.66667
0.36491,0.34747,0.72982,-0.22879,-0.93669,5.2079,0.44526,-0.14842,-1.8142,0.59368,9.338e-11,-0.90711,0,0,0.5,-0,-0,0.66667
0.28473,0.46319,0.56947,-0.055211,-0.23855,6.1834,0.083842,-0.027947,-1.9893,0.11179,5.4764e-11,-0.99465,0,0,0.5,2.9606e-16,0,0.66667
0.88759,0.059514,1.7752,-0.66073,-0.66142,0.79267,3.1278,-1.0426,-0.44834,4.1703,-1.8299e-08,-0.22417,0,0,0.5,-1.1842e-15,0,0.66667
0.78026,0.49029,1.5605,-0.014563,-0.021888,1.1001,0.060603,-0.020201,-1.9991,0.080804,-4.264e-11,-0.99953,0,0,0.5,1.7764e-15,0,0.66667
0.10906,0.92227,0.21813,0.63341,3.2321,8.5156,-0.36844,0.12281,-0.5731,-0.49126,-1.8923e-08,-0.28655,0,0,0.5,-0,-5.9173e-16,0.66667
0.8505,0.95279,1.701,0.67918,0.9308,0.99882,-3.0808,1.0269,-0.3592,-4.1077,4.7503e-09,-0.1796,0,0,0.5,1.1842e-15,0,0.66667
0.1096,0.88191,0.2192,0.57287,2.8794,8.5015,-0.33486,0.11162,-0.8333,-0.44648,2.2709e-09,-0.41665,0,0,0.5,-0,-0,0.66667
0.72021,0.23833,1.4404,-0.39251,-0.84129,1.6485,1.5077,-0.50256,-1.4519,2.0102,-3.3983e-10,-0.72593,0,0,0.5,-1.1842e-15,0,0.66667
0.57282,0.33338,1.1456,-0.24993,-0.76598,2.9114,0.76356,-0.25452,-1.7774,1.0181,-4.7891e-11,-0.88872,0,0,0.5,-0,-0,0.66667
0.086808,0.87481,0.17362,0.56221,2.8322,8.7992,-0.26029,0.086764,-0.87715,-0.34706,-9.9988e-09,-0.43857,0,0,0.5,-7.1702e-17,0,0.66667
0.90533,0.45149,1.8107,-0.072758,-0.027954,0.36508,0.35131,-0.1171,-1.9808,0.46841,-7.1883e-11,-0.99039,0,0,0.5,-1.1842e-15,0,0.66667
0.87457,0.84426,1.7491,0.51639,0.48914,0.7235,-2.4086,0.80287,-1.0531,-3.2115,-2.4963e-09,-0.52655,0,0,0.5,-2.3685e-15,0,0.66667
0.84385,0.23736,1.6877,-0.39396,-0.43855,0.80538,1.7731,-0.59102,-1.4479,2.3641,6.3576e-10,-0.72393,0,0,0.5,-1.1842e-15,0,0.66667
0.36957,0.5191,0.73913,0.028647,0.11523,5.135,-0.056464,0.018821,-1.9965,-0.075286,-1.3096e-11,-0.99826,0,0,0.5,1.1842e-15,0,0.66667
0.22295,0.43047,0.4459,-0.10429,-0.46889,6.9762,0.12401,-0.041335,-1.9612,0.16534,2.0394e-10,-0.98062,0,0,0.5,-1.4803e-16,0,0.66667
0.99711,0.50527,1.9942,0.0079011,-0.0043705,0.008327,-0.042016,0.013935,-1.9999,-0.056057,-0.00010569,-0.99997,0,0,0.5,-0,-0,0.66667
0.81734,0.080668,1.6347,-0.629,-1.0048,1.1392,2.7419,-0.91396,-0.5927,3.6558,-3.0246e-09,-0.29635,0,0,0.5,1.1842e-15,0,0.66667
0.042128,0.96095,0.084256,0.69142,3.6205,9.3939,-0.15535,0.051783,-0.30001,-0.20714,-6.348e-07,-0.15,0,0,0.5,-7.4015e-17,0,0.66667
0.37328,0.13563,0.74656,-0.54655,-2.3593,5.1892,1.0881,-0.36269,-0.93759,1.4508,8.0726e-11,-0.4688,0,0,0.5,-5.9212e-16,0,0.66667
0.81219,0.50778,1.6244,0.011666,0.014367,0.88493,-0.050531,0.016844,-1.9996,-0.067375,-8.9436e-12,-0.99978,0,0,0.5,-0,-0,0.66667
0.52838,0.49377,1.0568,-0.0093479,-0.030479,3.3358,0.026343,-0.0087809,-1.9998,0.035124,-8.5133e-13,-0.99988,0,0,0.5,5.9212e-16,0,0.66667
0.24713,0.68265,0.49426,0.27397,1.2334,6.6783,-0.3611,0.12037,-1.7334,-0.48147,-9.1863e-11,-0.86669,0,0,0.5,-0,-0,0.66667
0.79289,0.23283,1.5858,-0.40076,-0.62665,1.126,1.6947,-0.5649,-1.4284,2.2596,-3.4097e-10,-0.71418,0,0,0.5,-1.1842e-15,0,0.66667
0.26175,0.72137,0.5235,0.33205,1.4939,6.5002,-0.46355,0.15452,-1.6086,-0.61807,-2.1621e-10,-0.80428,0,0,0.5,-0,-0,0.66667
0.00039838,0.38209,0.00079676,-0.17686,-0.84582,9.9391,0.00037514,-0.00012488,-1.8889,0.00050026,2.4849e-07,-0.94445,0,0,0.5,-0,-0,0.66667
0.23132,0.81532,0.46264,0.47298,2.2214,6.9116,-0.58351,0.1945,-1.2052,-0.77801,-8.9291e-10,-0.6026,0,0,0.5,5.9212e-16,0,0.66667
0.99337,0.47712,1.9867,-0.034323,0.017556,0.02029,0.18184,-0.060612,-1.9955,0.24246,4.3472e-06,-0.99777,0,0,0.5,-0,-0,0.66667
0.6562,0.28182,1.3124,-0.32727,-0.8393,2.1529,1.1454,-0.38179,-1.6204,1.5272,-1.5305e-10,-0.8102,0,0,0.5,-0,-0,0.66667
0.22067,0.98312,0.44134,0.72468,3.6487,7.1066,-0.85287,0.28429,-0.1323,-1.1372,-1.1875e-10,-0.066151,0,0,0.5,-0,-0,0.66667
0.68614,0.8728,1.3723,0.55921,1.4335,2.0208,-2.0464,0.68212,-0.88894,-2.7285,2.4024e-10,-0.44447,0,0,0.5,1.1842e-15,-5.1183e-16,0.66667
0.68694,0.31488,1.3739,-0.27768,-0.64235,1.8704,1.0173,-0.33911,-1.7267,1.3564,-1.5528e-10,-0.86334,0,0,0.5,-0,-0,0.66667
0.64074,0.58544,1.2815,0.12817,0.33034,2.2391,-0.43798,0.14599,-1.9416,-0.58397,5.9931e-11,-0.9708,0,0,0.5,-5.9212e-16,0,0.66667
0.070549,0.94505,0.1411,0.66758,3.4618,9.0212,-0.25118,0.083728,-0.41519,-0.33491,-1.0815e-08,-0.20759,0,0,0.5,-0,-0,0.66667
0.24296,0.21133,0.48593,-0.43301,-2.0047,6.7559,0.5611,-0.18703,-1.3331,0.74813,5.8853e-10,-0.66657,0,0,0.5,2.9606e-16,0,0.66667
0.87084,0.17019,1.7417,-0.49472,-0.47456,0.72571,2.2977,-0.7659,-1.1292,3.0636,4.8182e-10,-0.5646,0,0,0.5,-0,-0,0.66667
0.73474,0.14917,1.4695,-0.52624,-1.1356,1.6166,2.0621,-0.68738,-1.0155,2.7495,-6.5678e-10,-0.50775,0,0,0.5,-5.9212e-16,0,0.66667
0.16782,0.72634,0.33563,0.33951,1.6022,7.7129,-0.30386,0.10129,-1.59,-0.40515,6.1498e-10,-0.79501,0,0,0.5,5.9212e-16,0,0.66667
0.29859,0.30533,0.59718,-0.29201,-1.274,6.0308,0.46502,-0.15501,-1.6968,0.62002,1.739e-10,-0.84842,0,0,0.5,-2.9606e-16,0,0.66667
0.56272,0.36168,1.1254,-0.20748,-0.64439,3.0028,0.62268,-0.20756,-1.8466,0.83024,-3.5844e-11,-0.9233,0,0,0.5,-0,-0,0.66667
0.82645,0.99167,1.6529,0.73751,1.2326,1.194,-3.2507,1.0836,-0.065946,-4.3343,2.467e-11,-0.032973,0,0,0.5,-7.9765e-16,0,0.66667
0.20052,0.16403,0.40103,-0.50395,-2.4184,7.3114,0.53894,-0.17965,-1.0969,0.71858,1.5709e-09,-0.54845,0,0,0.5,-0,-0,0.66667
0.10167,0.99874,0.20333,0.74812,3.9465,8.6263,-0.40564,0.13521,-0.010804,-0.54085,4.7559e-08,-0.0054021,0,0,0.5,-1.8504e-17,0,0.66667
0.38187,0.53458,0.76374,0.051867,0.20617,4.9881,-0.10563,0.035212,-1.9908,-0.14085,-2.0811e-11,-0.99541,0,0,0.5,-0,-0,0.66667
0.91235,0.24369,1.8247,-0.38447,-0.17834,0.44775,1.8708,-0.62359,-1.4744,2.4944,3.1136e-09,-0.73719,0,0,0.5,-0,-0,0.66667
0.26051,0.52966,0.52103,0.044484,0.19529,6.4908,-0.061806,0.020602,-1.9937,-0.082408,-6.567e-11,-0.99685,0,0,0.5,3.7007e-16,0,0.66667
0.1083,0.56559,0.21661,0.098388,0.46217,8.4878,-0.056831,0.018944,-1.9662,-0.075775,-1.4923e-08,-0.98312,0,0,0.5,-2.9606e-16,0,0.66667
0.055943,0.15873,0.11189,-0.51191,-2.5621,9.2029,0.15273,-0.050912,-1.0688,0.20365,-7.1896e-08,-0.5344,0,0,0.5,-0,-0,0.66667
0.35167,0.32482,0.70334,-0.26277,-1.0937,5.3731,0.49285,-0.16428,-1.7539,0.65713,1.1698e-10,-0.87695,0,0,0.5,-5.9212e-16,0,0.66667
0.037627,0.37532,0.075254,-0.18702,-0.89371,9.4378,0.03753,-0.01251,-1.8766,0.050041,6.4423e-08,-0.93831,0,0,0.5,-0,-0,0.66667
0.58303,0.57185,1.1661,0.10778,0.31785,2.7842,-0.33515,0.11172,-1.9583,-0.44687,2.7953e-11,-0.97917,0,0,0.5,-0,-0,0.66667
0.67256,0.39057,1.3451,-0.16415,-0.3883,1.9627,0.5888,-0.19627,-1.9038,0.78506,-9.2058e-11,-0.95189,0,0,0.5,1.1842e-15,0,0.66667
0.46048,0.89103,0.92097,0.58654,2.332,4.2159,-1.4405,0.48016,-0.7761,-1.9207,-8.1144e-12,-0.38805,0,0,0.5,5.9212e-16,0,0.66667
0.74112,0.92567,1.4822,0.6385,1.4324,1.6553,-2.5238,0.84125,-0.54988,-3.365,3.999e-10,-0.27494,0,0,0.5,-1.1842e-15,0,0.66667
0.50102,0.1426,1.002,-0.53611,-1.9885,3.7558,1.4325,-0.47751,-0.9777,1.9101,-3.4395e-13,-0.48885,0,0,0.5,-0,-0,0.66667
0.70235,0.51993,1.4047,0.029896,0.063383,1.6951,-0.11199,0.037329,-1.9965,-0.14932,2.6644e-11,-0.99827,0,0,0.5,-0,-0,0.66667
0.23064,0.34984,0.46128,-0.22524,-1.0179,6.8848,0.27707,-0.092355,-1.8197,0.36942,2.9811e-11,-0.90983,0,0,0.5,-0,-0,0.66667
0.74461,0.047222,1.4892,-0.67917,-1.5426,1.6654,2.6972,-0.89905,-0.35929,3.5962,-2.1575e-10,-0.17964,0,0,0.5,-1.1842e-15,0,0.66667
0.50164,0.77911,1.0033,0.41867,1.5029,3.6993,-1.1201,0.37337,-1.3776,-1.4935,9.4835e-13,-0.68879,0,0,0.5,-7.4015e-16,0,0.66667
0.70537,0.68015,1.4107,0.27022,0.58697,1.7156,-1.0166,0.33886,-1.7403,-1.3554,1.5641e-10,-0.87017,0,0,0.5,-0,-0,0.66667
0.4467,0.08029,0.8934,-0.62956,-2.5792,4.3883,1.4999,-0.49996,-0.59012,1.9998,6.2216e-12,-0.29506,0,0,0.5,-5.9212e-16,0,0.66667
0.50594,0.34805,1.0119,-0.22793,-0.78378,3.5981,0.61504,-0.20501,-1.8155,0.82005,-3.4797e-12,-0.90776,0,0,0.5,1.1842e-15,0,0.66667
0.041535,0.68024,0.08307,0.27035,1.3022,9.3867,-0.059889,0.019963,-1.74,-0.079852,-1.998e-08,-0.86998,0,0,0.5,7.4015e-17,0,0.66667
0.48931,0.53802,0.97862,0.057029,0.19825,3.7567,-0.14883,0.049609,-1.9884,-0.19844,-1.901e-12,-0.99418,0,0,0.5,-1.1842e-15,0,0.66667
0.14229,0.87903,0.28458,0.56854,2.8298,8.0747,-0.43145,0.14382,-0.85116,-0.57526,-4.4581e-09,-0.42558,0,0,0.5,-0,-0,0.66667
0.1425,0.33311,0.28499,-0.25034,-1.1783,8.039,0.19025,-0.063417,-1.7769,0.25367,-8.4626e-10,-0.88843,0,0,0.5,-0,-0,0.66667
0.43335,0.40162,0.8667,-0.14758,-0.55651,4.392,0.34108,-0.11369,-1.9228,0.45477,2.9204e-11,-0.9614,0,0,0.5,-5.9212e-16,0,0.66667
0.57621,0.92844,1.1524,0.64267,2.1899,3.0573,-1.975,0.65833,-0.5313,-2.6333,8.3592e-12,-0.26565,0,0,0.5,-0,-0,0.66667
0.34305,0.49925,0.6861,-0.0011251,-0.0046369,5.4568,0.0020585,-0.00068617,-2.0011,0.0027447,7.2689e-13,-1.0006,0,0,0.5,-1.1842e-15,0,0.66667
0.16049,0.33873,0.32098,-0.2419,-1.1305,7.8009,0.20706,-0.069019,-1.7921,0.27607,-6.3478e-10,-0.89606,0,0,0.5,-7.4015e-17,0,0.66667
0.74141,0.77551,1.4828,0.41326,0.82463,1.497,-1.6341,0.5447,-1.3928,-2.1788,4.5542e-10,-0.69639,0,0,0.5,-5.9212e-16,0,0.66667
0.96309,0.98507,1.9262,0.72761,0.2562,0.57215,-3.7374,1.2458,-0.11699,-4.9831,-1.0357e-06,-0.058496,0,0,0.5,-0,-0,0.66667
0.73364,0.45643,1.4673,-0.065352,-0.12311,1.447,0.25571,-0.085236,-1.9845,0.34094,-7.8374e-11,-0.99224,0,0,0.5,-1.1842e-15,0,0.66667
0.077064,0.52718,0.15413,0.040764,0.19241,8.9058,-0.016754,0.0055849,-1.9946,-0.022339,6.8876e-08,-0.9973,0,0,0.5,-1.4803e-16,0,0.66667
0.84091,0.1331,1.6818,-0.55035,-0.71147,0.93281,2.4682,-0.82274,-0.92294,3.2909,-3.6349e-09,-0.46147,0,0,0.5,-2.3685e-15,0,0.66667
0.067514,0.3904,0.13503,-0.1644,-0.78153,9.0357,0.059198,-0.019733,-1.9033,0.07893,-2.561e-08,-0.95163,0,0,0.5,1.4803e-16,0,0.66667
0.43631,0.89494,0.87262,0.5924,2.4281,4.4857,-1.3785,0.45951,-0.75189,-1.838,-1.4059e-11,-0.37595,0,0,0.5,-0,-0,0.66667
0.92886,0.65588,1.8577,0.23382,0.047973,0.29939,-1.1583,0.38611,-1.8066,-1.5444,-2.8429e-08,-0.90328,0,0,0.5,-1.5543e-15,0,0.66667
0.26318,0.68553,0.52636,0.2783,1.2415,6.4744,-0.39062,0.13021,-1.7254,-0.52083,-1.3538e-10,-0.8627,0,0,0.5,-0,-0,0.66667
0.12795,0.10336,0.25591,-0.59497,-2.9926,8.2648,0.40602,-0.13534,-0.74109,0.54135,8.5074e-09,-0.37054,0,0,0.5,-0,-0,0.66667
0.76224,0.22871,1.5245,-0.40693,-0.74184,1.3411,1.6543,-0.55142,-1.4109,2.2057,-4.6901e-10,-0.70544,0,0,0.5,-0,-0,0.66667
0.92861,0.36518,1.8572,-0.20223,-0.039109,0.2891,1.0016,-0.33385,-1.8542,1.3354,-3.0424e-08,-0.92708,0,0,0.5,1.1842e-15,0,0.66667
0.32577,0.24551,0.65154,-0.38174,-1.6549,5.7117,0.66324,-0.22108,-1.4822,0.88432,2.134e-10,-0.74111,0,0,0.5,-4.4409e-16,0,0.66667
0.23246,0.2141,0.46492,-0.42885,-1.9952,6.8889,0.53167,-0.17722,-1.3465,0.7089,5.9731e-10,-0.67323,0,0,0.5,-0,-0,0.66667
0.18249,0.7706,0.36497,0.40591,1.9253,7.5292,-0.39505,0.13168,-1.4137,-0.52674,-7.3324e-11,-0.70686,0,0,0.5,1.4803e-16,0,0.66667
0.96324,0.61619,1.9265,0.17428,-0.029081,0.14441,-0.89533,0.29844,-1.8917,-1.1938,-2.6334e-08,-0.94584,0,0,0.5,-0,-0,0.66667
0.57663,0.98105,1.1533,0.72157,2.5375,3.1085,-2.2191,0.7397,-0.14836,-2.9588,5.6932e-13,-0.074181,0,0,0.5,-0,-0,0.66667
0.86009,0.31223,1.7202,-0.28165,-0.2498,0.65613,1.292,-0.43066,-1.7192,1.7226,2.957e-10,-0.8596,0,0,0.5,1.3138e-15,0,0.66667
0.30834,0.77585,0.61669,0.41378,1.8291,5.933,-0.68046,0.22682,-1.3914,-0.90729,-2.847e-10,-0.69568,0,0,0.5,-0,-0,0.66667
0.056436,0.24122,0.11287,-0.38818,-1.8979,9.1908,0.11684,-0.038946,-1.4639,0.15579,-4.9617e-09,-0.73196,0,0,0.5,-7.4015e-17,0,0.66667
0.4538,0.85581,0.90761,0.53372,2.1066,4.2653,-1.2918,0.43059,-0.98686,-1.7223,-1.6641e-11,-0.49343,0,0,0.5,-0,-0,0.66667
0.20711,0.3319,0.41422,-0.25215,-1.1566,7.1917,0.27852,-0.09284,-1.7734,0.37136,-1.152e-10,-0.88672,0,0,0.5,-2.9606e-16,0,0.66667
0.51898,0.38886,1.038,-0.16671,-0.55719,3.448,0.46143,-0.15381,-1.9006,0.61525,-8.8033e-12,-0.95032,0,0,0.5,-0,-0,0.66667
0.53799,0.30862,1.076,-0.28707,-0.94497,3.2747,0.82367,-0.27456,-1.7073,1.0982,-2.5268e-11,-0.85365,0,0,0.5,-4.3284e-16,0,0.66667
0.29429,0.54457,0.58858,0.066859,0.28701,6.0633,-0.10494,0.034979,-1.9836,-0.13992,-5.7326e-11,-0.99181,0,0,0.5,-5.9212e-16,0,0.66667
0.30745,0.34045,0.61491,-0.23933,-1.0304,5.9128,0.39244,-0.13081,-1.7968,0.52326,1.3463e-10,-0.89838,0,0,0.5,5.3511e-16,0,0.66667
0.024174,0.36262,0.048347,-0.20608,-0.98729,9.6191,0.026569,-0.0088565,-1.8484,0.035425,-3.9424e-07,-0.9242,0,0,0.5,3.7007e-17,0,0.66667
0.4204,0.86712,0.8408,0.55069,2.2699,4.6465,-1.2347,0.41157,-0.92171,-1.6463,-3.0843e-11,-0.46086,0,0,0.5,-0,-0,0.66667
0.32369,0.11956,0.64738,-0.57066,-2.5845,5.7889,0.98515,-0.32838,-0.84224,1.3135,1.8267e-10,-0.42112,0,0,0.5,2.9606e-16,0,0.66667
0.61949,0.2447,1.239,-0.38296,-1.0935,2.5074,1.2653,-0.42176,-1.4787,1.687,-1.0976e-10,-0.73933,0,0,0.5,-2.9606e-16,0,0.66667
0.85976,0.64633,1.7195,0.2195,0.18825,0.63412,-1.0065,0.33549,-1.8285,-1.342,-1.2924e-09,-0.91427,0,0,0.5,1.1842e-15,0,0.66667
0.49264,0.092421,0.98528,-0.61137,-2.3496,3.8826,1.6063,-0.53544,-0.67179,2.1418,8.904e-13,-0.33589,0,0,0.5,8.1416e-16,0,0.66667
0.082708,0.71921,0.16542,0.32881,1.5867,8.8378,-0.14504,0.048348,-1.6166,-0.19339,-6.369e-10,-0.80828,0,0,0.5,-0,-0,0.66667
0.93348,0.034588,1.867,-0.69812,-0.42448,0.63902,3.4756,-1.1585,-0.26759,4.6342,-3.7912e-08,-0.13379,0,0,0.5,-0,-2.3273e-16,0.66667
0.80833,0.59907,1.6167,0.1486,0.19142,0.92578,-0.64064,0.21355,-1.9216,-0.85418,1.9072e-10,-0.96081,0,0,0.5,-0,-0,0.66667
0.36552,0.88209,0.73104,0.57314,2.5093,5.2903,-1.1173,0.37243,-0.83189,-1.4897,-7.6945e-11,-0.41594,0,0,0.5,-0,-0,0.66667
0.33073,0.072396,0.66146,-0.64141,-2.9462,5.7292,1.1314,-0.37712,-0.53693,1.5085,7.0145e-11,-0.26847,0,0,0.5,-0,-0,0.66667
0.93793,0.86542,1.8759,0.54812,0.20266,0.46657,-2.7419,0.91396,-0.93164,-3.6558,6.661e-09,-0.46582,0,0,0.5,-1.1842e-15,0,0.66667
0.37489,0.79099,0.74979,0.43648,1.8323,5.1342,-0.87272,0.29091,-1.3225,-1.1636,-1.1696e-10,-0.66125,0,0,0.5,-0,-0,0.66667
0.6358,0.63864,1.2716,0.20796,0.54879,2.2994,-0.70519,0.23506,-1.8456,-0.94026,8.6741e-11,-0.92281,0,0,0.5,-0,-0,0.66667
0.98534,0.328,1.9707,-0.258,0.092654,0.1021,1.3559,-0.45195,-1.7629,1.8078,-1.0332e-07,-0.88145,0,0,0.5,-0,-0,0.66667
0.03674,0.65771,0.07348,0.23656,1.1357,9.4505,-0.046353,0.015451,-1.8018,-0.061804,4.303e-08,-0.90089,0,0,0.5,-1.4803e-16,0,0.66667
0.31463,0.0093527,0.62926,-0.73597,-3.5207,5.9592,1.235,-0.41166,-0.073891,1.6466,2.8818e-12,-0.036946,0,0,0.5,1.1842e-15,0,0.66667
0.23124,0.72638,0.46247,0.33958,1.5568,6.8904,-0.41879,0.1396,-1.5899,-0.55838,-1.5468e-10,-0.79494,0,0,0.5,5.9212e-16,0,0.66667
0.92237,0.61519,1.8447,0.17279,0.042093,0.30707,-0.85,0.28333,-1.8937,-1.1333,2.0715e-08,-0.94685,0,0,0.5,-1.1842e-15,0,0.66667
0.55114,0.35017,1.1023,-0.22475,-0.71523,3.1241,0.66062,-0.22021,-1.8204,0.88082,-3.047e-11,-0.91019,0,0,0.5,1.1842e-15,0,0.66667
0.053714,0.80622,0.10743,0.45934,2.2753,9.2299,-0.13159,0.043862,-1.2498,-0.17545,-1.8833e-08,-0.62488,0,0,0.5,7.4015e-17,0,0.66667
0.75525,0.52341,1.5105,0.035118,0.060027,1.2811,-0.14146,0.047152,-1.9954,-0.18861,7.0987e-11,-0.9977,0,0,0.5,-1.1842e-15,0,0.66667
0.68408,0.71792,1.3682,0.32688,0.77306,1.9125,-1.1926,0.39753,-1.621,-1.5901,1.9014e-10,-0.81052,0,0,0.5,2.2204e-16,0,0.66667
0.66217,0.34227,1.3243,-0.23659,-0.58426,2.0704,0.83553,-0.27851,-1.8017,1.114,-1.1727e-10,-0.90086,0,0,0.5,1.3323e-15,0,0.66667
0.95573,0.022927,1.9115,-0.71561,-0.29304,0.58107,3.6476,-1.2159,-0.17905,4.8635,-5.8073e-08,-0.089526,0,0,0.5,-0,-0,0.66667
0.8746,0.64374,1.7492,0.21561,0.15494,0.55215,-1.0057,0.33524,-1.8344,-1.341,-3.055e-10,-0.9172,0,0,0.5,-1.1842e-15,0,0.66667
0.75325,0.43548,1.5065,-0.096785,-0.16779,1.3014,0.38882,-0.12961,-1.9674,0.51843,-1.3648e-10,-0.98371,0,0,0.5,1.1842e-15,0,0.66667
0.22267,0.40135,0.44533,-0.14798,-0.66713,6.982,0.17573,-0.058578,-1.9223,0.23431,1.5013e-10,-0.96117,0,0,0.5,-4.4409e-16,0,0.66667
0.13801,0.47717,0.27603,-0.034245,-0.15923,8.0907,0.025207,-0.0084024,-1.9957,0.03361,1.0001e-09,-0.99783,0,0,0.5,-2.9606e-16,0,0.66667
0.22089,0.46397,0.44178,-0.054052,-0.24284,7.0013,0.063677,-0.021226,-1.9899,0.084902,1.7681e-10,-0.99496,0,0,0.5,-4.4409e-16,0,0.66667
0.20551,0.68147,0.41102,0.27221,1.2526,7.2145,-0.29835,0.099451,-1.7367,-0.39781,1.4592e-10,-0.86833,0,0,0.5,2.9606e-16,0,0.66667
0.56796,0.424,1.1359,-0.11399,-0.34688,2.9349,0.3453,-0.1151,-1.9532,0.4604,-2.3639e-11,-0.97659,0,0,0.5,-5.9212e-16,0,0.66667
0.66304,0.12591,1.3261,-0.56114,-1.533,2.2153,1.9843,-0.66144,-0.88127,2.6458,-1.4958e-10,-0.44064,0,0,0.5,-2.3685e-15,0,0.66667
0.52742,0.039493,1.0548,-0.69076,-2.5981,3.5696,1.943,-0.64768,-0.30326,2.5907,-5.6066e-13,-0.15163,0,0,0.5,-0,-0,0.66667
0.056349,0.29911,0.1127,-0.30134,-1.4546,9.1889,0.090562,-0.030187,-1.6765,0.12075,-1.516e-08,-0.83825,0,0,0.5,7.4015e-17,0,0.66667
0.36316,0.039103,0.72633,-0.69135,-3.1403,5.3663,1.339,-0.44635,-0.30042,1.7854,9.6138e-12,-0.15021,0,0,0.5,-0,-0,0.66667
0.96773,0.87059,1.9355,0.55588,0.042143,0.36823,-2.869,0.95634,-0.90176,-3.8254,2.2971e-07,-0.45088,0,0,0.5,5.9212e-16,2.9896e-16,0.66667
0.69551,0.87182,1.391,0.55772,1.3902,1.9436,-2.0688,0.68961,-0.89443,-2.7584,2.9034e-10,-0.44721,0,0,0.5,1.4803e-15,0,0.66667
0.36974,0.69169,0.73948,0.28754,1.1808,5.1598,-0.56701,0.189,-1.7063,-0.75601,-1.0714e-10,-0.85315,0,0,0.5,1.1842e-15,0,0.66667
0.67163,0.61842,1.3433,0.17763,0.42222,1.9735,-0.63626,0.21209,-1.888,-0.84835,9.7383e-11,-0.94401,0,0,0.5,-1.1842e-15,0,0.66667
0.26511,0.76073,0.53022,0.3911,1.7731,6.4678,-0.55298,0.18433,-1.4559,-0.73731,-3.6884e-10,-0.72796,0,0,0.5,-0,-0,0.66667
0.077478,0.81861,0.15496,0.47791,2.368,8.9159,-0.19748,0.065826,-1.1882,-0.2633,1.7507e-08,-0.59408,0,0,0.5,-0,-0,0.66667
0.52807,0.090709,1.0561,-0.61394,-2.2431,3.516,1.7291,-0.57635,-0.66039,2.3054,-3.5754e-12,-0.3302,0,0,0.5,-7.4015e-16,0,0.66667
0.28977,0.06578,0.57954,-0.65133,-3.0887,6.2283,1.0066,-0.33553,-0.49201,1.3421,1.5076e-10,-0.24601,0,0,0.5,-0,-0,0.66667
0.48165,0.58499,0.9633,0.12748,0.44996,3.8464,-0.32748,0.10916,-1.942,-0.43664,-6.8211e-12,-0.971,0,0,0.5,-5.9212e-16,0,0.66667
0.90199,0.6359,1.804,0.20385,0.092528,0.4101,-0.98064,0.32688,-1.8518,-1.3075,8.4068e-10,-0.9259,0,0,0.5,-2.3685e-15,0,0.66667
0.65174,0.1193,1.3035,-0.57105,-1.6119,2.3192,1.9849,-0.66165,-0.84061,2.6466,-1.1093e-10,-0.42031,0,0,0.5,-0,-0,0.66667
0.72332,0.28612,1.4466,-0.32082,-0.66295,1.5914,1.2376,-0.41254,-1.6342,1.6502,-2.0866e-10,-0.81711,0,0,0.5,-0,-0,0.66667
0.10259,0.07752,0.20517,-0.63372,-3.2385,8.6,0.34673,-0.11558,-0.57141,0.4623,1.563e-08,-0.28571,0,0,0.5,-1.4803e-16,0,0.66667
0.47966,0.16321,0.95932,-0.50519,-1.9135,3.9703,1.2924,-0.43079,-1.0925,1.7232,8.1303e-12,-0.54623,0,0,0.5,1.1842e-15,0,0.66667
0.40434,0.72655,0.80868,0.33982,1.3585,4.7624,-0.73282,0.24427,-1.5894,-0.97709,-7.7098e-11,-0.79468,0,0,0.5,-0,-0,0.66667
0.64686,0.2863,1.2937,-0.32055,-0.84143,2.2333,1.1059,-0.36862,-1.6348,1.4745,-1.374e-10,-0.81739,0,0,0.5,-0,-0,0.66667
0.28774,0.79918,0.57547,0.44878,2.0273,6.1962,-0.68869,0.22956,-1.2833,-0.91825,-4.0425e-10,-0.64164,0,0,0.5,2.9606e-16,0,0.66667
0.38306,0.18867,0.76613,-0.46699,-1.9583,5.0472,0.95406,-0.31802,-1.2254,1.2721,9.7787e-11,-0.6127,0,0,0.5,1.1842e-15,0,0.66667
0.98102,0.27259,1.962,-0.34111,0.08941,0.15907,1.7847,-0.59491,-1.5861,2.3796,-2.6229e-08,-0.79303,0,0,0.5,-1.1842e-15,0,0.66667
0.11481,0.20952,0.22962,-0.43572,-2.1248,8.4193,0.2668,-0.088933,-1.3246,0.35573,-2.3509e-09,-0.66231,0,0,0.5,-0,-0,0.66667
0.19991,0.41875,0.39982,-0.12187,-0.55479,7.2767,0.12994,-0.043312,-1.9467,0.17325,2.62e-10,-0.97335,0,0,0.5,-0,-0,0.66667
0.23905,0.42839,0.47809,-0.10741,-0.47874,6.7683,0.13694,-0.045646,-1.9587,0.18258,1.5079e-10,-0.97933,0,0,0.5,-2.9606e-16,0,0.66667
0.69665,0.5648,1.3933,0.097198,0.21105,1.7476,-0.36114,0.12038,-1.967,-0.48152,7.3362e-11,-0.98349,0,0,0.5,2.3685e-15,0,0.66667
0.71369,0.93119,1.4274,0.64679,1.5958,1.8676,-2.4619,0.82064,-0.51254,-3.2825,1.7972e-10,-0.25627,0,0,0.5,-1.1842e-15,0,0.66667
0.78475,0.092771,1.5695,-0.61084,-1.1316,1.3289,2.5566,-0.8522,-0.67424,3.4088,-1.565e-09,-0.33712,0,0,0.5,-2.2204e-16,0,0.66667
0.38104,0.80416,0.76209,0.45624,1.9123,5.0676,-0.92718,0.30906,-1.2596,-1.2362,-1.0288e-10,-0.62981,0,0,0.5,-0,-0,0.66667
0.8524,0.41338,1.7048,-0.12993,-0.11595,0.65192,0.59068,-0.19689,-1.9398,0.78758,-6.2041e-10,-0.9699,0,0,0.5,-0,-0,0.66667
0.69735,0.60291,1.3947,0.15437,0.33671,1.7508,-0.57414,0.19138,-1.9149,-0.76552,9.9973e-11,-0.95745,0,0,0.5,-0,-0,0.66667
0.71326,0.81707,1.4265,0.47561,1.0802,1.749,-1.8092,0.60308,-1.1959,-2.4123,4.4082e-10,-0.59797,0,0,0.5,-0,-0,0.66667
0.82199,0.10694,1.644,-0.58959,-0.88848,1.0763,2.5847,-0.86158,-0.76341,3.4463,-3.5489e-09,-0.3817,0,0,0.5,-1.1842e-15,0,0.66667
0.62892,0.28476,1.2578,-0.32287,-0.88741,2.3967,1.083,-0.36099,-1.6298,1.444,-1.1473e-10,-0.8149,0,0,0.5,-0,-0,0.66667
0.42223,0.39104,0.84446,-0.16344,-0.62546,4.522,0.36804,-0.12268,-1.9046,0.49072,3.7596e-11,-0.95232,0,0,0.5,5.9212e-16,0,0.66667
0.030799,0.44358,0.061598,-0.084627,-0.40218,9.529,0.013901,-0.0046345,-1.9748,0.018534,-1.2875e-06,-0.98739,0,0,0.5,-0,-0,0.66667
0.59546,0.31477,1.1909,-0.27785,-0.81662,2.6973,0.88239,-0.29413,-1.7263,1.1765,-7.0546e-11,-0.86314,0,0,0.5,-0,-0,0.66667
0.56376,0.1086,1.1275,-0.5871,-2.0034,3.1434,1.7652,-0.58842,-0.77402,2.3537,-1.5138e-11,-0.38701,0,0,0.5,-0,-0,0.66667
0.60081,0.042332,1.2016,-0.6865,-2.2748,2.8563,2.1998,-0.73326,-0.32379,2.933,-5.1057e-12,-0.16189,0,0,0.5,-0,-0,0.66667
0.32285,0.21016,0.64571,-0.43476,-1.9087,5.7598,0.74862,-0.24954,-1.3276,0.99815,2.468e-10,-0.66381,0,0,0.5,-0,-0,0.66667
0.55488,0.28243,1.1098,-0.32636,-1.0503,3.1135,0.96582,-0.32194,-1.6221,1.2878,-3.8895e-11,-0.81104,0,0,0.5,-2.3685e-15,0,0.66667
0.17166,0.64815,0.34331,0.22223,1.032,7.6526,-0.20345,0.067816,-1.8244,-0.27126,4.6447e-10,-0.91222,0,0,0.5,-0,-0,0.66667
0.64986,0.42536,1.2997,-0.11196,-0.28109,2.1544,0.38805,-0.12935,-1.9548,0.51739,-5.7121e-11,-0.97742,0,0,0.5,-1.1842e-15,0,0.66667
0.071673,0.80958,0.14335,0.46437,2.2969,8.9919,-0.17751,0.05917,-1.2337,-0.23668,2.0204e-08,-0.61687,0,0,0.5,-1.4531e-16,0,0.66667
0.87508,0.94955,1.7502,0.67433,0.76706,0.86718,-3.1472,1.0491,-0.38294,-4.1962,1.3671e-08,-0.19147,0,0,0.5,-0,-0,0.66667
0.21614,0.28575,0.43228,-0.32137,-1.4809,7.0823,0.37045,-0.12348,-1.6331,0.49394,1.1403e-12,-0.81656,0,0,0.5,-0,-0,0.66667
0.29384,0.91009,0.58769,0.61514,2.88,6.1666,-0.96403,0.32134,-0.65501,-1.2854,-2.3569e-10,-0.32751,0,0,0.5,-0,-0,0.66667
0.88474,0.87537,1.7695,0.56306,0.50904,0.71218,-2.6569,0.88562,-0.87372,-3.5425,3.3525e-09,-0.43686,0,0,0.5,-0,-0,0.66667
0.88359,0.66685,1.7672,0.25028,0.16294,0.51795,-1.1794,0.39314,-1.7768,-1.5726,4.3314e-10,-0.88839,0,0,0.5,2.3685e-15,0,0.66667
0.83627,0.8254,1.6725,0.4881,0.61854,0.91135,-2.177,0.72566,-1.1523,-2.9026,1.217e-09,-0.57615,0,0,0.5,1.1842e-15,0,0.66667
0.32694,0.67756,0.65387,0.26634,1.1329,5.6757,-0.4644,0.1548,-1.7476,-0.6192,-1.4002e-10,-0.87378,0,0,0.5,-0,-0,0.66667
0.90234,0.30937,1.8047,-0.28594,-0.14075,0.44068,1.3761,-0.4587,-1.7098,1.8348,3.0145e-10,-0.85489,0,0,0.5,5.6321e-16,0,0.66667
0.7718,0.9036,1.5436,0.6054,1.1824,1.4112,-2.492,0.83066,-0.69738,-3.3227,1.1778e-09,-0.34869,0,0,0.5,1.4803e-15,0,0.66667
0.65808,0.3206,1.3162,-0.2691,-0.6769,2.116,0.94449,-0.31483,-1.7424,1.2593,-1.2866e-10,-0.87121,0,0,0.5,-0,-0,0.66667
0.8998,0.67711,1.7996,0.26566,0.13419,0.44385,-1.2749,0.42497,-1.7486,-1.6999,-1.6578e-09,-0.87429,0,0,0.5,-1.1842e-15,0,0.66667
0.78313,0.19468,1.5663,-0.45798,-0.77701,1.2259,1.9128,-0.63761,-1.2543,2.5504,-8.804e-10,-0.62713,0,0,0.5,-0,-0,0.66667
0.42475,0.25533,0.8495,-0.367,-1.4414,4.5336,0.83137,-0.27712,-1.5213,1.1085,5.6506e-11,-0.76065,0,0,0.5,1.1842e-15,0,0.66667
0.32426,0.30159,0.64851,-0.29762,-1.2741,5.7137,0.51469,-0.17156,-1.6846,0.68625,1.6066e-10,-0.84231,0,0,0.5,2.9606e-16,0,0.66667
0.39388,0.39443,0.78776,-0.15835,-0.62526,4.8531,0.33265,-0.11088,-1.9104,0.44353,5.1991e-11,-0.95519,0,0,0.5,-0,-0,0.66667
0.061412,0.24962,0.12282,-0.37557,-1.8314,9.1239,0.12301,-0.041004,-1.4997,0.16402,-1.1287e-09,-0.74983,0,0,0.5,2.313e-17,0,0.66667
0.36343,0.10731,0.72686,-0.58904,-2.5949,5.3209,1.1417,-0.38058,-0.76577,1.5223,6.8912e-11,-0.38289,0,0,0.5,-0,-0,0.66667
0.35304,0.7713,0.70609,0.40695,1.7324,5.3868,-0.76624,0.25541,-1.4107,-1.0217,-1.6039e-10,-0.70537,0,0,0.5,-0,-0,0.66667
0.86562,0.6549,1.7312,0.23236,0.18814,0.60625,-1.0727,0.35757,-1.8088,-1.4303,-1.9727e-09,-0.9044,0,0,0.5,-1.4803e-16,0,0.66667
0.8887,0.57654,1.7774,0.11482,0.063317,0.453,-0.5442,0.1814,-1.9527,-0.7256,-7.7638e-10,-0.97633,0,0,0.5,-1.1842e-15,0,0.66667
0.96305,0.81396,1.9261,0.47094,0.015774,0.30893,-2.4189,0.8063,-1.2122,-3.2252,-2.1701e-08,-0.60609,0,0,0.5,-2.3685e-15,0,0.66667
0.3282,0.027373,0.6564,-0.70894,-3.3297,5.7861,1.2409,-0.41364,-0.2136,1.6546,8.2974e-12,-0.1068,0,0,0.5,-0,-0,0.66667
0.69332,0.95508,1.3866,0.68263,1.8223,2.0568,-2.5242,0.84139,-0.34255,-3.3655,5.3228e-11,-0.17128,0,0,0.5,-0,-0,0.66667
0.63307,0.5994,1.2661,0.1491,0.39296,2.3127,-0.50341,0.1678,-1.921,-0.67122,6.4142e-11,-0.96049,0,0,0.5,-0,-0,0.66667
0.24244,0.79486,0.48489,0.4423,2.052,6.7643,-0.5719,0.19063,-1.3038,-0.76254,-6.3851e-10,-0.6519,0,0,0.5,-0,-0,0.66667
0.86999,0.89016,1.74,0.58524,0.62532,0.80572,-2.7155,0.90515,-0.78159,-3.6206,7.4787e-09,-0.39079,0,0,0.5,1.1842e-15,0,0.66667
0.2141,0.29111,0.4282,-0.31333,-1.4436,7.1076,0.35778,-0.11926,-1.6505,0.47705,-2.7865e-11,-0.82527,0,0,0.5,-0,-0,0.66667
0.74771,0.97281,1.4954,0.70922,1.624,1.6709,-2.8282,0.94274,-0.21201,-3.771,6.9243e-11,-0.10601,0,0,0.5,-0,-2.6784e-16,0.66667
0.14466,0.96519,0.28933,0.69778,3.5889,8.0649,-0.53836,0.17945,-0.26924,-0.71782,-3.7694e-09,-0.13462,0,0,0.5,-7.4015e-17,0,0.66667
0.10682,0.12218,0.21364,-0.56673,-2.8462,8.5372,0.32287,-0.10762,-0.85864,0.43049,-7.9833e-09,-0.42932,0,0,0.5,-0,4.8161e-18,0.66667
0.72032,0.95738,1.4406,0.68608,1.6952,1.8504,-2.6357,0.87857,-0.32605,-3.5143,9.2905e-11,-0.16303,0,0,0.5,-0,-0,0.66667
0.52632,0.94254,1.0526,0.66382,2.4757,3.5637,-1.8633,0.62112,-0.43339,-2.4845,1.1291e-12,-0.2167,0,0,0.5,-0,-0,0.66667
0.44292,0.27849,0.88583,-0.33226,-1.2687,4.3175,0.78488,-0.26163,-1.608,1.0465,4.0655e-11,-0.80399,0,0,0.5,-1.4803e-16,0,0.66667
0.77818,0.95955,1.5564,0.68933,1.3877,1.4432,-2.8609,0.95364,-0.31022,-3.8146,3.9541e-10,-0.15511,0,0,0.5,-1.1842e-15,0,0.66667
0.35874,0.71202,0.71749,0.31804,1.3257,5.2978,-0.6085,0.20283,-1.6405,-0.81133,-1.2925e-10,-0.82026,0,0,0.5,5.0848e-16,0,0.66667
0.85335,0.49528,1.7067,-0.007086,-0.0061337,0.63373,0.03225,-0.01075,-2,0.043,5.4875e-10,-1,0,0,0.5,1.7764e-15,0,0.66667
0.96217,0.57067,1.9243,0.10601,-0.018643,0.13186,-0.544,0.18133,-1.9598,-0.72534,-3.7037e-08,-0.97988,0,0,0.5,-0,-0,0.66667
0.97913,0.85427,1.9583,0.53141,-0.037277,0.30954,-2.775,0.92501,-0.99546,-3.7,1.6329e-07,-0.49773,0,0,0.5,-0,-0,0.66667
0.27763,0.48881,0.55526,-0.016783,-0.072821,6.2726,0.02485,-0.0082833,-1.9986,0.033133,1.8595e-11,-0.99928,0,0,0.5,-0,-0,0.66667
0.41501,0.88573,0.83001,0.5786,2.4177,4.7195,-1.2807,0.42689,-0.80917,-1.7075,-2.6579e-11,-0.40458,0,0,0.5,-1.1842e-15,0,0.66667
0.72501,0.30149,1.45,-0.29776,-0.607,1.5689,1.1514,-0.38379,-1.6842,1.5352,-1.7772e-10,-0.84212,0,0,0.5,1.1842e-15,0,0.66667
0.89487,0.35344,1.7897,-0.21984,-0.11636,0.45009,1.0492,-0.34974,-1.8278,1.399,3.0123e-09,-0.9139,0,0,0.5,2.3685e-15,0,0.66667
0.71131,0.15703,1.4226,-0.51445,-1.1966,1.7887,1.9517,-0.65055,-1.0598,2.6022,-4.4322e-10,-0.52992,0,0,0.5,-0,-0,0.66667
0.75813,0.89858,1.5163,0.59787,1.2288,1.4999,-2.4174,0.8058,-0.72883,-3.2232,8.7498e-10,-0.36442,0,0,0.5,1.1842e-15,0,0.66667
0.8834,0.36374,1.7668,-0.20439,-0.129,0.50253,0.96298,-0.32099,-1.8509,1.284,3.321e-09,-0.92546,0,0,0.5,-1.1842e-15,0,0.66667
0.36695,0.32603,0.7339,-0.26096,-1.0706,5.1885,0.51071,-0.17024,-1.7572,0.68094,1.0189e-10,-0.87861,0,0,0.5,-5.9212e-16,0,0.66667
0.54254,0.69403,1.0851,0.29104,0.9511,3.2288,-0.84214,0.28071,-1.6988,-1.1229,2.8548e-11,-0.8494,0,0,0.5,-0,-0,0.66667
0.53477,0.56825,1.0695,0.10238,0.33126,3.2738,-0.292,0.097333,-1.9628,-0.38933,1.0575e-11,-0.98142,0,0,0.5,-0,-0,0.66667
0.64758,0.45064,1.2952,-0.074034,-0.1865,2.1708,0.2557,-0.085233,-1.9799,0.34093,-3.8334e-11,-0.98994,0,0,0.5,1.1842e-15,0,0.66667
0.89518,0.59869,1.7904,0.14804,0.073843,0.42751,-0.70679,0.2356,-1.9223,-0.94239,-1.4128e-08,-0.96113,0,0,0.5,-2.3685e-15,0,0.66667
0.60083,0.0087298,1.2017,-0.73691,-2.4965,2.8945,2.3613,-0.78712,-0.068886,3.1485,-3.6149e-13,-0.034443,0,0,0.5,-0,-0,0.66667
0.96994,0.18092,1.9399,-0.47863,0.014329,0.29222,2.4759,-0.82531,-1.1856,3.3013,-3.7175e-08,-0.5928,0,0,0.5,-1.1842e-15,0,0.66667
0.73214,0.71999,1.4643,0.32998,0.66133,1.5268,-1.2885,0.4295,-1.6138,-1.718,2.1651e-10,-0.80689,0,0,0.5,-0,-0,0.66667
0.41529,0.77649,0.83058,0.41473,1.6625,4.6562,-0.91859,0.3062,-1.3886,-1.2248,-6.3487e-11,-0.6943,0,0,0.5,-6.4228e-16,0,0.66667
0.58114,0.78705,1.1623,0.43058,1.3525,2.8927,-1.3345,0.44485,-1.3409,-1.7794,5.7964e-11,-0.67046,0,0,0.5,-1.1842e-15,0,0.66667
0.92232,0.76645,1.8446,0.39967,0.15136,0.41374,-1.966,0.65533,-1.4317,-2.6213,-2.8054e-09,-0.71583,0,0,0.5,-0,-0,0.66667
0.6185,0.055975,1.237,-0.66604,-2.1112,2.6798,2.197,-0.73235,-0.42265,2.9294,-1.3015e-11,-0.21132,0,0,0.5,-0,-0,0.66667
0.70993,0.86622,1.4199,0.54933,1.3046,1.823,-2.0799,0.69331,-0.92672,-2.7732,3.9458e-10,-0.46336,0,0,0.5,-5.9212e-16,0,0.66667
0.66129,0.83645,1.3226,0.50468,1.3535,2.1949,-1.78,0.59332,-1.0942,-2.3733,1.8565e-10,-0.54712,0,0,0.5,-0,-0,0.66667
0.33615,0.16339,0.67229,-0.50492,-2.2276,5.6177,0.9052,-0.30173,-1.0934,1.2069,1.9395e-10,-0.54669,0,0,0.5,-0,-0,0.66667
0.20333,0.68331,0.40667,0.27496,1.267,7.243,-0.29819,0.099395,-1.7317,-0.39758,1.6555e-10,-0.86586,0,0,0.5,7.4015e-17,0,0.66667
0.40781,0.60288,0.81563,0.15432,0.59994,4.6888,-0.33564,0.11188,-1.9152,-0.44752,-4.3403e-11,-0.95758,0,0,0.5,-1.1842e-15,0,0.66667
0.15077,0.59032,0.30154,0.13548,0.62967,7.9237,-0.10894,0.036312,-1.9351,-0.14525,-1.0027e-09,-0.96757,0,0,0.5,-2.5142e-16,0,0.66667
0.82633,0.26684,1.6527,-0.34973,-0.43195,0.88498,1.5413,-0.51377,-1.5646,2.0551,4.1748e-10,-0.78232,0,0,0.5,-0,-0,0.66667
0.71046,0.78904,1.4209,0.43356,0.97678,1.747,-1.6428,0.54761,-1.3314,-2.1904,3.7612e-10,-0.66569,0,0,0.5,-0,-0,0.66667
0.40106,0.61814,0.80211,0.17722,0.69553,4.7707,-0.37906,0.12635,-1.8882,-0.50541,-5.292e-11,-0.94412,0,0,0.5,2.3747e-16,0,0.66667
0.17138,0.049424,0.34277,-0.67586,-3.4246,7.7183,0.61777,-0.20592,-0.3755,0.82369,2.546e-09,-0.18775,0,0,0.5,2.9606e-16,5.7636e-16,0.66667
0.8758,0.63445,1.7516,0.20168,0.14145,0.54129,-0.94201,0.314,-1.8552,-1.256,-2.4265e-09,-0.92762,0,0,0.5,-0,-0,0.66667
0.63906,0.89305,1.2781,0.58958,1.7288,2.4425,-2.0095,0.66983,-0.76364,-2.6793,7.2157e-11,-0.38182,0,0,0.5,1.1842e-15,6.8341e-16,0.66667
0.9966,0.21687,1.9932,-0.4247,0.15294,0.16953,2.2573,-0.75245,-1.3594,3.0098,-1.8267e-08,-0.67972,0,0,0.5,1.3318e-15,0,0.66667
0.1011,0.98751,0.2022,0.73126,3.8391,8.6314,-0.39429,0.13143,-0.098096,-0.52572,1.3327e-08,-0.049048,0,0,0.5,-2.9606e-16,0,0.66667
0.24485,0.66684,0.4897,0.25026,1.125,6.7048,-0.3268,0.10893,-1.7769,-0.43573,-7.8658e-11,-0.88843,0,0,0.5,-0,-0,0.66667
0.083655,0.23528,0.16731,-0.39709,-1.9363,8.8289,0.17716,-0.059055,-1.4387,0.23622,-4.945e-09,-0.71936,0,0,0.5,1.4803e-16,0,0.66667
0.74474,0.00090398,1.4895,-0.74864,-1.7766,1.7301,2.9736,-0.99119,-0.0080989,3.9648,2.7167e-11,-0.0040495,0,0,0.5,4.737e-15,0,0.66667
0.15958,0.2859,0.31915,-0.32115,-1.5162,7.8193,0.27332,-0.091108,-1.6336,0.36443,-6.8307e-10,-0.81678,0,0,0.5,-0,-0,0.66667
0.88166,0.70227,1.7633,0.30341,0.21231,0.55093,-1.4267,0.47556,-1.672,-1.9022,-1.7467e-09,-0.83601,0,0,0.5,-0,-0,0.66667
0.49148,0.99858,0.98296,0.74787,3.0227,3.9759,-1.9603,0.65345,-0.012061,-2.6138,1.2212e-14,-0.0060303,0,0,0.5,-1.4803e-16,0,0.66667
0.52617,0.41923,1.0523,-0.12116,-0.39845,3.366,0.33999,-0.11333,-1.9472,0.45333,-9.2952e-12,-0.97361,0,0,0.5,-0,-0,0.66667
0.04252,0.78422,0.085041,0.42633,2.1013,9.3776,-0.096681,0.032227,-1.3543,-0.12891,-1.4149e-08,-0.67713,0,0,0.5,-0,-0,0.66667
0.61405,0.85366,1.2281,0.53049,1.6078,2.6316,-1.7373,0.57911,-0.999,-2.3164,7.0553e-11,-0.4995,0,0,0.5,-0,-0,0.66667
0.22761,0.71451,0.45523,0.32177,1.474,6.9345,-0.39061,0.1302,-1.6321,-0.52081,-7.9116e-11,-0.81606,0,0,0.5,7.4015e-17,0,0.66667
0.2135,0.71716,0.42701,0.32574,1.5039,7.1169,-0.37092,0.12364,-1.6235,-0.49456,1.3725e-11,-0.81173,0,0,0.5,-3.3307e-16,0,0.66667
0.89532,0.2267,1.7906,-0.40995,-0.26611,0.54315,1.9575,-0.65251,-1.4022,2.61,1.49e-09,-0.70112,0,0,0.5,-0,-0,0.66667
0.88801,0.79504,1.776,0.44257,0.33078,0.60068,-2.096,0.69867,-1.3031,-2.7947,-2.464e-09,-0.65154,0,0,0.5,-0,-0,0.66667
0.0052652,0.64798,0.01053,0.22198,1.0657,9.8736,-0.0062333,0.0020778,-1.8245,-0.008311,2.88e-08,-0.91227,0,0,0.5,-4.6259e-18,0,0.66667
0.8323,0.28814,1.6646,-0.31778,-0.36869,0.83305,1.4106,-0.47021,-1.6409,1.8808,6.242e-10,-0.82043,0,0,0.5,-0,-0,0.66667
0.9023,0.90172,1.8046,0.60259,0.47271,0.66655,-2.8998,0.9666,-0.70921,-3.8664,6.1497e-09,-0.3546,0,0,0.5,-0,-0,0.66667
0.51195,0.85414,1.0239,0.53122,1.9362,3.6386,-1.4504,0.48348,-0.99626,-1.9339,3.9674e-12,-0.49813,0,0,0.5,-0,-0,0.66667
0.65617,0.66839,1.3123,0.25258,0.63646,2.1278,-0.88394,0.29465,-1.7729,-1.1786,1.1969e-10,-0.88644,0,0,0.5,1.1842e-15,0,0.66667
0.76779,0.41411,1.5356,-0.12883,-0.20913,1.1999,0.52755,-0.17585,-1.9409,0.7034,-1.5237e-10,-0.97045,0,0,0.5,-0,-0,0.66667
0.68544,0.83276,1.3709,0.49915,1.2492,1.9878,-1.8247,0.60824,-1.1138,-2.433,2.8327e-10,-0.55689,0,0,0.5,-0,-0,0.66667
0.45912,0.97478,0.91823,0.71217,2.9568,4.2974,-1.7438,0.58128,-0.19665,-2.3251,-2.4403e-13,-0.098324,0,0,0.5,-0,-0,0.66667
0.57345,0.11401,1.1469,-0.57899,-1.936,3.0442,1.7708,-0.59026,-0.80761,2.361,-2.0711e-11,-0.4038,0,0,0.5,5.9212e-16,0,0.66667
0.57406,0.77051,1.1481,0.40576,1.2835,2.9513,-1.2423,0.4141,-1.4142,-1.6564,5.3295e-11,-0.70708,0,0,0.5,5.9212e-16,0,0.66667
0.84213,0.47502,1.6843,-0.037463,-0.036312,0.7002,0.16826,-0.056086,-1.9951,0.22434,-1.2537e-09,-0.99757,0,0,0.5,-0,-0,0.66667
0.24044,0.97903,0.48088,0.71854,3.5763,6.8583,-0.92143,0.30714,-0.16378,-1.2286,-8.4888e-11,-0.081891,0,0,0.5,-5.9212e-16,0,0.66667
0.75723,0.56479,1.5145,0.097187,0.16538,1.272,-0.39249,0.13083,-1.967,-0.52333,1.4556e-10,-0.98349,0,0,0.5,2.3685e-15,0,0.66667
0.81234,0.75023,1.6247,0.37534,0.51672,0.98559,-1.6262,0.54205,-1.5004,-2.1682,-1.1399e-10,-0.75019,0,0,0.5,-0,-0,0.66667
0.79703,0.80607,1.5941,0.45911,0.72565,1.1341,-1.9516,0.65054,-1.2508,-2.6021,9.173e-10,-0.62539,0,0,0.5,5.9212e-16,0,0.66667
0.80771,0.26664,1.6154,-0.35005,-0.48924,1.0019,1.5079,-0.50264,-1.5637,2.0106,1.4478e-10,-0.78185,0,0,0.5,-9.5652e-16,0,0.66667
0.82928,0.93794,1.6586,0.65691,1.0049,1.095,-2.9054,0.96847,-0.46684,-3.8739,3.4753e-09,-0.23342,0,0,0.5,-0,-0,0.66667
0.41752,0.65419,0.83503,0.23129,0.89642,4.5866,-0.51502,0.17167,-1.8105,-0.68669,-5.2782e-11,-0.90524,0,0,0.5,-8.1416e-16,0,0.66667
0.61789,0.76972,1.2358,0.40459,1.1667,2.5316,-1.3333,0.44443,-1.4174,-1.7777,1.0705e-10,-0.70872,0,0,0.5,-0,-0,0.66667
0.75525,0.51887,1.5105,0.028308,0.048373,1.2809,-0.11402,0.038008,-1.9966,-0.15203,5.5506e-11,-0.99829,0,0,0.5,-0,-0,0.66667
0.76977,0.0099375,1.5395,-0.73509,-1.5806,1.5441,3.0179,-1.006,-0.07833,4.0238,-3.2381e-11,-0.039165,0,0,0.5,-0,-0,0.66667
0.9586,0.017567,1.9172,-0.72365,-0.28377,0.58152,3.6997,-1.2332,-0.13744,4.9329,1.0062e-06,-0.068722,0,0,0.5,-2.2704e-15,0,0.66667
0.97508,0.037552,1.9502,-0.69367,-0.12363,0.49425,3.6074,-1.2025,-0.28907,4.8098,3.679e-06,-0.14454,0,0,0.5,-0,-0,0.66667
0.56473,0.92279,1.1295,0.63418,2.1982,3.1628,-1.9101,0.6367,-0.56948,-2.5468,7.6311e-12,-0.28474,0,0,0.5,-0,-0,0.66667
0.46574,0.80396,0.93148,0.45595,1.7366,4.1022,-1.1325,0.37751,-1.2606,-1.5101,-1.8504e-11,-0.63032,0,0,0.5,-5.9212e-16,0,0.66667
0.83553,0.050552,1.6711,-0.67417,-1.01,1.0763,3.0042,-1.0014,-0.38339,4.0056,-3.2907e-09,-0.19169,0,0,0.5,1.1842e-15,0,0.66667
0.21996,0.088681,0.43992,-0.61698,-3.015,7.0872,0.72379,-0.24126,-0.64687,0.96506,1.3299e-09,-0.32344,0,0,0.5,-0,-0,0.66667
0.7664,0.7811,1.5328,0.42165,0.75972,1.3197,-1.7235,0.5745,-1.3691,-2.298,5.4899e-10,-0.68456,0,0,0.5,2.313e-16,0,0.66667
0.19201,0.95311,0.38402,0.67967,3.4204,7.4563,-0.69602,0.23201,-0.35691,-0.92803,-1.2692e-09,-0.17845,0,0,0.5,-0,-0,0.66667
0.59163,0.43464,1.1833,-0.098046,-0.28366,2.6988,0.30937,-0.10312,-1.9665,0.41249,-2.8723e-11,-0.98323,0,0,0.5,7.4015e-16,0,0.66667
0.60683,0.4064,1.2137,-0.1404,-0.39404,2.5574,0.4544,-0.15147,-1.9311,0.60587,-4.7537e-11,-0.96553,0,0,0.5,-0,-0,0.66667
0.44184,0.77908,0.88369,0.41861,1.6286,4.3551,-0.98647,0.32882,-1.3776,-1.3153,-3.8495e-11,-0.68879,0,0,0.5,-0,-0,0.66667
0.86455,0.66916,1.7291,0.25373,0.21069,0.62011,-1.1699,0.38998,-1.7705,-1.5599,-1.3763e-09,-0.88525,0,0,0.5,-0,-0,0.66667
0.54348,0.82878,1.087,0.49316,1.69,3.2957,-1.4295,0.47649,-1.1347,-1.906,2.0291e-11,-0.56734,0,0,0.5,-1.1842e-15,0,0.66667
0.49273,0.55387,0.98546,0.080802,0.27973,3.7208,-0.21234,0.070779,-1.9765,-0.28312,-1.8203e-12,-0.98823,0,0,0.5,5.9212e-16,0,0.66667
0.41813,0.22147,0.83625,-0.41779,-1.6706,4.6245,0.93167,-0.31056,-1.38,1.2422,6.0321e-11,-0.68998,0,0,0.5,-1.1842e-15,0,0.66667
0.062225,0.86446,0.12445,0.54669,2.7549,9.1218,-0.18143,0.060476,-0.93716,-0.2419,5.7093e-10,-0.46858,0,0,0.5,-7.4015e-17,5.9682e-16,0.66667
0.36215,0.97278,0.7243,0.70917,3.2424,5.3862,-1.3697,0.45658,-0.21223,-1.8263,-3.576e-12,-0.10612,0,0,0.5,-0,-0,0.66667
0.092815,0.84327,0.18563,0.51491,2.5637,8.7162,-0.25489,0.084962,-1.0585,-0.33985,2.1349e-08,-0.52925,0,0,0.5,-3.7007e-17,0,0.66667
0.56564,0.81434,1.1313,0.47151,1.5438,3.0636,-1.4224,0.47414,-1.2103,-1.8966,3.7973e-11,-0.60514,0,0,0.5,-0,-0,0.66667
0.6405,0.12523,1.281,-0.56215,-1.6245,2.4119,1.9203,-0.64011,-0.87768,2.5604,-9.5074e-11,-0.43884,0,0,0.5,-2.3685e-15,0,0.66667
0.76778,0.55578,1.5356,0.083668,0.13499,1.1934,-0.34261,0.1142,-1.9752,-0.45681,1.6944e-10,-0.98758,0,0,0.5,5.9212e-16,0,0.66667
0.63254,0.38361,1.2651,-0.17458,-0.46226,2.3222,0.58896,-0.19632,-1.8913,0.78528,-7.2933e-11,-0.94565,0,0,0.5,-1.1842e-15,0,0.66667
0.18706,0.16559,0.37412,-0.50162,-2.42,7.4842,0.50044,-0.16681,-1.1052,0.66725,1.6602e-09,-0.55262,0,0,0.5,-0,-0,0.66667
0.75024,0.28735,1.5005,-0.31897,-0.59124,1.3855,1.2763,-0.42544,-1.6385,1.7018,-1.6756e-10,-0.81925,0,0,0.5,-0,-0,0.66667
0.54886,0.83253,1.0977,0.49879,1.6966,3.2441,-1.4601,0.4867,-1.115,-1.9468,2.2583e-11,-0.55752,0,0,0.5,-5.9212e-16,0,0.66667
0.10217,0.51943,0.20434,0.029144,0.13684,8.569,-0.015881,0.0052937,-1.9964,-0.021175,-1.4384e-08,-0.9982,0,0,0.5,-0,-0,0.66667
0.024827,0.7116,0.049654,0.3174,1.5398,9.6116,-0.042027,0.014009,-1.6416,-0.056036,-3.9599e-09,-0.82082,0,0,0.5,3.7007e-17,0,0.66667
0.29875,0.048527,0.59749,-0.67721,-3.2165,6.128,1.079,-0.35967,-0.3689,1.4387,7.4445e-11,-0.18445,0,0,0.5,5.9212e-16,0,0.66667
0.69002,0.60901,1.38,0.16351,0.366,1.8137,-0.60173,0.20058,-1.9044,-0.8023,1.002e-10,-0.95221,0,0,0.5,-1.1842e-15,0,0.66667
0.93279,0.52742,1.8656,0.041127,0.0045799,0.23894,-0.2046,0.068201,-1.9943,-0.2728,8.6479e-08,-0.99717,0,0,0.5,-1.1842e-15,0,0.66667
0.9665,0.089648,1.933,-0.61553,-0.099066,0.43226,3.1728,-1.0576,-0.65331,4.2304,5.5029e-07,-0.32665,0,0,0.5,1.7764e-15,0,0.66667
0.76455,0.44707,1.5291,-0.079398,-0.13014,1.2163,0.32375,-0.10792,-1.9774,0.43167,-1.521e-10,-0.9887,0,0,0.5,-0,-0,0.66667
0.29325,0.24457,0.5865,-0.38314,-1.7025,6.1135,0.59923,-0.19974,-1.4782,0.79897,2.9095e-10,-0.7391,0,0,0.5,-2.7045e-16,0,0.66667
0.62207,0.93099,1.2441,0.64648,2.0167,2.6335,-2.1448,0.71494,-0.51404,-2.8598,2.1604e-11,-0.25702,0,0,0.5,5.9212e-16,0,0.66667
0.2311,0.31647,0.46219,-0.2753,-1.2509,6.8841,0.33931,-0.1131,-1.7309,0.45241,2.6641e-11,-0.86546,0,0,0.5,5.9212e-16,0,0.66667
0.75069,0.24721,1.5014,-0.37919,-0.71802,1.4102,1.5181,-0.50605,-1.4895,2.0242,-3.3942e-10,-0.74476,0,0,0.5,5.9212e-16,0,0.66667
0.16587,0.0021379,0.33173,-0.74679,-3.8696,7.8037,0.66063,-0.22021,-0.017679,0.88084,-1.0571e-09,-0.0088395,0,0,0.5,-1.1842e-15,0,0.66667
0.75647,0.56323,1.5129,0.094842,0.16193,1.2773,-0.38264,0.12755,-1.9689,-0.51019,1.4464e-10,-0.98445,0,0,0.5,-0,-0,0.66667
0.86859,0.77441,1.7372,0.41161,0.37127,0.67927,-1.9068,0.6356,-1.3975,-2.5424,-1.3966e-09,-0.69874,0,0,0.5,1.6985e-15,0,0.66667
0.51951,0.49522,1.039,-0.0071758,-0.023752,3.4296,0.019882,-0.0066273,-2,0.026509,-4.4233e-13,-1,0,0,0.5,-8.8818e-16,0,0.66667
0.065635,0.96551,0.13127,0.69826,3.6538,9.0878,-0.24443,0.081476,-0.26693,-0.3259,6.5456e-09,-0.13346,0,0,0.5,3.7007e-17,0,0.66667
0.44889,0.18768,0.89778,-0.46848,-1.8284,4.2936,1.1216,-0.37386,-1.2207,1.4955,2.7945e-11,-0.61035,0,0,0.5,-0,-0,0.66667
0.83783,0.79776,1.6757,0.44664,0.54182,0.87341,-1.9958,0.66526,-1.2901,-2.661,8.7272e-11,-0.64503,0,0,0.5,-0,-0,0.66667
0.17975,0.31887,0.35951,-0.27169,-1.2645,7.5502,0.26047,-0.086822,-1.7375,0.34729,-4.3154e-10,-0.86873,0,0,0.5,-0,-0,0.66667
0.038559,0.64731,0.077118,0.22097,1.0591,9.4258,-0.045443,0.015148,-1.826,-0.06059,-3.7306e-09,-0.91301,0,0,0.5,-3.7007e-17,0,0.66667
0.73269,0.46514,1.4654,-0.052295,-0.098817,1.4534,0.20435,-0.068118,-1.9908,0.27247,-6.6775e-11,-0.9954,0,0,0.5,1.4803e-15,0,0.66667
0.56304,0.50767,1.1261,0.011504,0.035189,2.9781,-0.034544,0.011515,-1.9996,-0.046059,2.2749e-12,-0.99979,0,0,0.5,-0,-0,0.66667
0.042061,0.4233,0.084121,-0.11506,-0.54701,9.3774,0.02581,-0.0086033,-1.9523,0.034413,2.12e-08,-0.97616,0,0,0.5,-0,-0,0.66667
0.98489,0.79755,1.9698,0.44633,-0.096737,0.21964,-2.3444,0.78148,-1.2913,-3.1259,5.5354e-08,-0.64566,0,0,0.5,-1.1842e-15,0,0.66667
0.56933,0.96942,1.1387,0.70413,2.4894,3.1655,-2.138,0.71268,-0.23807,-2.8507,5.8042e-13,-0.11903,0,0,0.5,-0,-0,0.66667
0.58516,0.34209,1.1703,-0.23686,-0.70631,2.7864,0.7392,-0.2464,-1.8012,0.9856,-5.5607e-11,-0.90061,0,0,0.5,-1.4803e-15,0,0.66667
0.78991,0.25661,1.5798,-0.36508,-0.5697,1.1267,1.538,-0.51267,-1.526,2.0507,-1.2537e-10,-0.763,0,0,0.5,-0,-0,0.66667
0.90263,0.44197,1.8053,-0.087045,-0.035913,0.37978,0.41904,-0.13968,-1.9733,0.55872,5.1505e-09,-0.98667,0,0,0.5,-2.3685e-15,0,0.66667
0.060751,0.48691,0.1215,-0.019642,-0.092918,9.1251,0.0063639,-0.0021215,-1.9982,0.0084851,-3.2117e-07,-0.9991,0,0,0.5,7.4015e-17,0,0.66667
0.34851,0.42516,0.69703,-0.11226,-0.46198,5.3939,0.20866,-0.069555,-1.9546,0.27822,5.7975e-11,-0.97732,0,0,0.5,-0,-0,0.66667
0.20009,0.85509,0.40018,0.53263,2.573,7.3221,-0.5684,0.18947,-0.99087,-0.75787,-1.9249e-09,-0.49543,0,0,0.5,-0,-0,0.66667
0.46515,0.11181,0.9303,-0.58229,-2.2987,4.1629,1.4446,-0.48152,-0.7939,1.9261,7.3099e-12,-0.39695,0,0,0.5,5.9212e-16,0,0.66667
0.091468,0.023298,0.18294,-0.71505,-3.7437,8.7539,0.34882,-0.11627,-0.18194,0.4651,1.3475e-08,-0.090969,0,0,0.5,-0,4.4933e-16,0.66667
0.068086,0.34419,0.13617,-0.23372,-1.1176,9.0297,0.084869,-0.02829,-1.8067,0.11316,-1.1205e-08,-0.90337,0,0,0.5,-0,-0,0.66667
0.30089,0.64732,0.60178,0.22098,0.95414,5.9924,-0.35461,0.1182,-1.8261,-0.47282,-1.2695e-10,-0.91305,0,0,0.5,-2.9606e-16,0,0.66667
0.90435,0.165,1.8087,-0.50251,-0.32666,0.56849,2.4237,-0.80789,-1.102,3.2316,8.0668e-09,-0.55101,0,0,0.5,-0,-0,0.66667
0.97554,0.09895,1.9511,-0.60157,-0.029878,0.38944,3.1299,-1.0433,-0.71336,4.1732,1.2284e-06,-0.35668,0,0,0.5,-0,-0,0.66667
0.76372,0.42414,1.5274,-0.11379,-0.18805,1.2268,0.46348,-0.15449,-1.9535,0.61798,-1.5443e-10,-0.97675,0,0,0.5,-0,-0,0.66667
0.00074091,0.7009,0.0014818,0.30134,1.4598,9.9345,-0.0011908,0.00039689,-1.6767,-0.0015877,-6.4879e-08,-0.83837,0,0,0.5,-1.1565e-18,0,0.66667
0.73522,0.5078,1.4704,0.011694,0.021831,1.4322,-0.045854,0.015285,-1.9995,-0.061139,1.7735e-11,-0.99976,0,0,0.5,-0,-0,0.66667
0.021993,0.48901,0.043985,-0.016483,-0.078254,9.6476,0.0019283,-0.00064427,-1.9985,0.0025703,-2.2526e-06,-0.99926,0,0,0.5,-2.6044e-17,0,0.66667
0.16857,0.88915,0.33713,0.58373,2.8905,7.7369,-0.52478,0.17493,-0.78792,-0.69971,-4.1724e-09,-0.39396,0,0,0.5,-0,-0,0.66667
0.010514,0.5907,0.021028,0.13605,0.64877,9.8027,-0.0076277,0.0025431,-1.9347,-0.01017,8.6096e-07,-0.96733,0,0,0.5,1.2365e-17,0,0.66667
0.14913,0.66125,0.29825,0.24188,1.1349,7.9508,-0.19238,0.064126,-1.7921,-0.2565,4.1483e-10,-0.89605,0,0,0.5,-0,-0,0.66667
0.68751,0.849,1.375,0.52349,1.3157,1.986,-1.9195,0.63983,-1.026,-2.5593,2.8338e-10,-0.51301,0,0,0.5,-2.3685e-15,0,0.66667
0.70202,0.66322,1.404,0.24483,0.53464,1.7347,-0.91666,0.30555,-1.787,-1.2222,1.3944e-10,-0.89348,0,0,0.5,-0,-0,0.66667
0.37108,0.62406,0.74215,0.18608,0.75392,5.128,-0.36827,0.12276,-1.8778,-0.49103,-7.4884e-11,-0.9389,0,0,0.5,-7.4015e-17,0,0.66667
0.73119,0.38961,1.4624,-0.16559,-0.3191,1.4811,0.64576,-0.21525,-1.9019,0.86101,-1.1298e-10,-0.95097,0,0,0.5,1.1842e-15,0,0.66667
0.8473,0.93495,1.6946,0.65242,0.88892,0.98927,-2.9483,0.98276,-0.48717,-3.931,7.2474e-09,-0.24359,0,0,0.5,-0,-0,0.66667
0.13036,0.34722,0.26072,-0.22917,-1.0803,8.1986,0.15933,-0.053109,-1.8137,0.21244,-1.0571e-09,-0.90683,0,0,0.5,2.9606e-16,0,0.66667
0.087407,0.31784,0.17481,-0.27324,-1.3079,8.7726,0.12738,-0.042459,-1.7346,0.16984,-4.3545e-09,-0.86731,0,0,0.5,-2.9606e-16,0,0.66667
0.37192,0.38719,0.74384,-0.16922,-0.68399,5.1159,0.33566,-0.11189,-1.8977,0.44755,6.83e-11,-0.94885,0,0,0.5,-0,-0,0.66667
0.40388,0.36851,0.80777,-0.19723,-0.77322,4.7402,0.42485,-0.14162,-1.8617,0.56647,5.5723e-11,-0.93087,0,0,0.5,-2.9606e-16,0,0.66667
0.2764,0.26887,0.55281,-0.3467,-1.5488,6.3176,0.51109,-0.17036,-1.5721,0.68145,2.5479e-10,-0.78603,0,0,0.5,-2.9606e-16,0,0.66667
0.75417,0.94955,1.5083,0.67432,1.4755,1.5931,-2.7123,0.90409,-0.38273,-3.6164,3.1143e-10,-0.19136,0,0,0.5,-0,-0,0.66667
0.32179,0.38059,0.64357,-0.17911,-0.75782,5.728,0.30739,-0.10246,-1.886,0.40985,1.0137e-10,-0.94299,0,0,0.5,-0,-0,0.66667
0.80014,0.32556,1.6003,-0.26167,-0.36802,1.0126,1.1166,-0.37222,-1.756,1.4889,1.8721e-10,-0.87802,0,0,0.5,1.1842e-15,0,0.66667
0.91131,0.010434,1.8226,-0.73435,-0.64623,0.76955,3.5692,-1.1897,-0.082149,4.7589,-9.3836e-08,-0.041075,0,0,0.5,-4.737e-15,0,0.66667
0.51315,0.34174,1.0263,-0.23739,-0.8081,3.5231,0.6497,-0.21657,-1.8004,0.86626,-7.8478e-12,-0.9002,0,0,0.5,-7.4015e-16,0,0.66667
0.42942,0.85161,0.85884,0.52741,2.1386,4.535,-1.2079,0.40263,-1.0107,-1.6105,-3.0726e-11,-0.50536,0,0,0.5,-0,-0,0.66667
0.091595,0.89346,0.18319,0.59018,2.9902,8.739,-0.28831,0.096103,-0.76109,-0.38441,8.6216e-09,-0.38054,0,0,0.5,-0,6.7193e-16,0.66667
0.27368,0.57463,0.54735,0.11194,0.48846,6.3257,-0.16339,0.054464,-1.9549,-0.21786,-1.0055e-10,-0.97743,0,0,0.5,-0,-0,0.66667
0.88665,0.22596,1.7733,-0.41106,-0.30109,0.58621,1.9438,-0.64794,-1.3991,2.5918,2.8628e-09,-0.69956,0,0,0.5,2.3685e-15,0,0.66667
0.24594,0.84764,0.49189,0.52147,2.4558,6.7365,-0.68401,0.228,-1.0335,-0.91201,-9.1535e-10,-0.51676,0,0,0.5,-0,-0,0.66667
0.62119,0.40113,1.2424,-0.14831,-0.40262,2.4228,0.49134,-0.16378,-1.922,0.65512,-5.7384e-11,-0.96099,0,0,0.5,-0,-0,0.66667
0.49501,0.13347,0.99001,-0.5498,-2.0654,3.8261,1.4515,-0.48383,-0.92496,1.9353,1.3367e-12,-0.46248,0,0,0.5,-0,-0,0.66667
0.094373,0.39387,0.18875,-0.15919,-0.75279,8.6755,0.080125,-0.026708,-1.9096,0.10683,-2.4845e-09,-0.95478,0,0,0.5,1.4803e-16,0,0.66667
0.89937,0.2333,1.7987,-0.40005,-0.24084,0.51746,1.9189,-0.63963,-1.4303,2.5585,1.3175e-09,-0.71515,0,0,0.5,-0,-0,0.66667
0.067771,0.42028,0.13554,-0.11958,-0.56685,9.0315,0.043221,-0.014407,-1.9485,0.057628,8.2152e-09,-0.97427,0,0,0.5,-0,-0,0.66667
0.6807,0.99542,1.3614,0.74312,2.119,2.2105,-2.6978,0.89928,-0.03669,-3.5971,-9.841e-13,-0.018345,0,0,0.5,-0,-0,0.66667
0.972,0.03792,1.944,-0.69312,-0.14513,0.5027,3.5931,-1.1977,-0.29185,4.7908,3.4424e-06,-0.14592,0,0,0.5,-0,-0,0.66667
0.70937,0.60707,1.4187,0.16061,0.33614,1.6534,-0.60762,0.20254,-1.9077,-0.81017,1.0676e-10,-0.95383,0,0,0.5,-0,-0,0.66667
0.32591,0.44267,0.65182,-0.085998,-0.36044,5.6699,0.14948,-0.049827,-1.974,0.19931,5.4993e-11,-0.98698,0,0,0.5,-0,-0,0.66667
0.07344,0.089115,0.14688,-0.61633,-3.1526,8.9792,0.2414,-0.080468,-0.64961,0.32187,4.3802e-08,-0.3248,0,0,0.5,-7.4015e-17,0,0.66667
0.57974,0.45462,1.1595,-0.068069,-0.20164,2.8132,0.21046,-0.070155,-1.9831,0.28062,-1.726e-11,-0.99153,0,0,0.5,-0,-0,0.66667
0.73352,0.54604,1.467,0.069061,0.1302,1.4483,-0.27017,0.090058,-1.9826,-0.36023,8.1487e-11,-0.99131,0,0,0.5,1.1842e-15,0,0.66667
0.35885,0.30163,0.71769,-0.29756,-1.2364,5.2926,0.56949,-0.18983,-1.6849,0.75931,1.2217e-10,-0.84247,0,0,0.5,-0,-0,0.66667
0.65375,0.45072,1.3075,-0.073922,-0.18305,2.1154,0.25774,-0.085914,-1.9801,0.34365,-4.0314e-11,-0.99004,0,0,0.5,-0,-0,0.66667
0.56659,0.28236,1.1332,-0.32645,-1.0278,2.9959,0.98648,-0.32883,-1.6219,1.3153,-4.8726e-11,-0.81097,0,0,0.5,2.3685e-15,0,0.66667
0.034106,0.81002,0.068213,0.46503,2.3103,9.4907,-0.084589,0.028196,-1.2318,-0.11279,2.401e-09,-0.61588,0,0,0.5,-8.3267e-17,0,0.66667
0.92069,0.71045,1.8414,0.31568,0.10494,0.37157,-1.5501,0.5167,-1.6456,-2.0668,-4.2694e-09,-0.8228,0,0,0.5,1.1842e-15,0,0.66667
0.38001,0.39284,0.76001,-0.16074,-0.64404,5.0182,0.32578,-0.10859,-1.9075,0.43437,6.0642e-11,-0.95376,0,0,0.5,-5.9212e-16,0,0.66667
0.3794,0.47358,0.7588,-0.039633,-0.1579,5.0172,0.080196,-0.026732,-1.9946,0.10693,1.6373e-11,-0.99731,0,0,0.5,-0,-0,0.66667
0.84636,0.95139,1.6927,0.67708,0.95134,1.0191,-3.0563,1.0188,-0.36946,-4.0751,4.5192e-09,-0.18473,0,0,0.5,-1.1842e-15,0,0.66667
0.48428,0.74198,0.96856,0.36298,1.3197,3.8672,-0.9375,0.3125,-1.5316,-1.25,-1.0313e-11,-0.7658,0,0,0.5,5.9212e-16,0,0.66667
0.45107,0.58382,0.90214,0.12573,0.46287,4.1877,-0.30248,0.10083,-1.9435,-0.40331,-1.8286e-11,-0.97176,0,0,0.5,-0,-0,0.66667
0.63986,0.077903,1.2797,-0.63315,-1.8881,2.4658,2.1607,-0.72022,-0.57426,2.8809,-4.2107e-11,-0.28713,0,0,0.5,1.1842e-15,0,0.66667
0.21177,0.37721,0.42354,-0.18419,-0.83733,7.1257,0.20803,-0.069344,-1.88,0.27738,3.7887e-11,-0.93998,0,0,0.5,-0,-0,0.66667
0.5283,0.65954,1.0566,0.2393,0.79468,3.3635,-0.67426,0.22475,-1.7969,-0.89901,1.7078e-11,-0.89845,0,0,0.5,1.1842e-15,0,0.66667
0.66857,0.73875,1.3371,0.35812,0.89498,2.0575,-1.277,0.42565,-1.5436,-1.7026,1.8796e-10,-0.77178,0,0,0.5,-0,-0,0.66667
0.53878,0.53461,1.0776,0.051909,0.16635,3.2283,-0.14916,0.04972,-1.9908,-0.19888,6.1656e-12,-0.9954,0,0,0.5,-0,-0,0.66667
0.70876,0.51033,1.4175,0.015493,0.032083,1.6422,-0.058563,0.019521,-1.9987,-0.078084,1.4978e-11,-0.99935,0,0,0.5,2.3685e-15,0,0.66667
0.59854,0.27236,1.1971,-0.34145,-1.0108,2.6886,1.09,-0.36333,-1.5851,1.4533,-8.0239e-11,-0.79257,0,0,0.5,-0,-0,0.66667
0.84141,0.97782,1.6828,0.71673,1.0801,1.0877,-3.2163,1.0721,-0.17328,-4.2884,1.2818e-09,-0.08664,0,0,0.5,-0,-0,0.66667
0.87917,0.69178,1.7583,0.28767,0.20524,0.55647,-1.3488,0.44962,-1.7061,-1.7985,-2.4625e-09,-0.85303,0,0,0.5,-0,-0,0.66667
0.097839,0.91423,0.19568,0.62134,3.1684,8.6605,-0.32422,0.10807,-0.62713,-0.4323,-9.1525e-09,-0.31356,0,0,0.5,-0,-0,0.66667
0.25859,0.81313,0.51719,0.46969,2.171,6.5656,-0.64778,0.21593,-1.2165,-0.86371,-6.4468e-10,-0.60826,0,0,0.5,-0,-0,0.66667
0.054656,0.72675,0.10931,0.34013,1.651,9.2128,-0.099147,0.033049,-1.5884,-0.1322,-1.2145e-08,-0.7942,0,0,0.5,-0,-0,0.66667
0.22889,0.72613,0.45778,0.3392,1.5569,6.9205,-0.41408,0.13803,-1.5907,-0.5521,-1.4168e-10,-0.79537,0,0,0.5,-0,-0,0.66667
0.72092,0.92251,1.4418,0.63376,1.5177,1.8016,-2.4367,0.81225,-0.57139,-3.249,2.6358e-10,-0.2857,0,0,0.5,-0,-0,0.66667
0.078545,0.26805,0.15709,-0.34793,-1.6849,8.8943,0.14575,-0.048584,-1.5692,0.19433,2.2158e-10,-0.78462,0,0,0.5,1.4803e-16,0,0.66667
0.15512,0.29818,0.31024,-0.30273,-1.4279,7.8762,0.25045,-0.083484,-1.6737,0.33394,-7.9037e-10,-0.83686,0,0,0.5,2.9606e-16,0,0.66667
0.77077,0.53238,1.5415,0.04857,0.076933,1.1688,-0.19966,0.066554,-1.9924,-0.26621,1.272e-10,-0.99622,0,0,0.5,-2.3685e-15,0,0.66667
0.44433,0.61235,0.88865,0.16852,0.62801,4.2692,-0.39936,0.13312,-1.8984,-0.53247,-2.6897e-11,-0.94921,0,0,0.5,5.9212e-16,0,0.66667
0.29012,0.25853,0.58024,-0.36221,-1.6072,6.1485,0.56045,-0.18682,-1.5332,0.74726,2.6663e-10,-0.76661,0,0,0.5,-0,-0,0.66667
0.64398,0.052056,1.288,-0.67192,-2.02,2.4587,2.3078,-0.76925,-0.39439,3.077,-2.1195e-11,-0.19719,0,0,0.5,5.9212e-16,0,0.66667
0.88694,0.78263,1.7739,0.42394,0.31408,0.59325,-2.0054,0.66846,-1.3618,-2.6739,-2.5363e-09,-0.6809,0,0,0.5,-2.3685e-15,0,0.66667
0.037605,0.21276,0.075211,-0.43086,-2.1263,9.4432,0.086415,-0.028805,-1.3399,0.11522,2.1341e-09,-0.66996,0,0,0.5,1.8504e-17,0,0.66667
0.69309,0.34974,1.3862,-0.22539,-0.50503,1.8028,0.83316,-0.27772,-1.8194,1.1109,-1.277e-10,-0.90969,0,0,0.5,-0,-0,0.66667
0.66855,0.79927,1.3371,0.4489,1.156,2.1012,-1.6006,0.53353,-1.283,-2.1341,2.2122e-10,-0.64149,0,0,0.5,-1.1842e-15,0,0.66667
0.86801,0.95452,1.736,0.68178,0.82745,0.91025,-3.1562,1.0521,-0.34664,-4.2083,8.6857e-09,-0.17332,0,0,0.5,1.5631e-16,0,0.66667
0.19637,0.81264,0.39274,0.46895,2.238,7.3587,-0.49114,0.16371,-1.2191,-0.65486,-1.0293e-09,-0.60954,0,0,0.5,-0,-0,0.66667
0.71279,0.15627,1.4256,-0.5156,-1.1941,1.7778,1.9601,-0.65336,-1.0558,2.6135,-4.5583e-10,-0.52791,0,0,0.5,-0,-0,0.66667
0.1039,0.056099,0.2078,-0.66585,-3.4306,8.5867,0.36897,-0.12299,-0.42356,0.49197,1.6024e-08,-0.21178,0,0,0.5,7.4015e-17,0,0.66667
0.056626,0.54676,0.11325,0.070139,0.33232,9.1809,-0.021183,0.0070607,-1.9819,-0.028244,-1.9086e-07,-0.99093,0,0,0.5,-0,-0,0.66667
0.6808,0.40741,1.3616,-0.13889,-0.31918,1.8873,0.50429,-0.1681,-1.9322,0.67239,-8.5582e-11,-0.9661,0,0,0.5,-0,-0,0.66667
0.022635,0.96403,0.045269,0.69604,3.654,9.6487,-0.084025,0.02801,-0.27759,-0.11203,3.1524e-06,-0.13879,0,0,0.5,-0,-0,0.66667
0.044299,0.56065,0.088598,0.090972,0.43195,9.347,-0.021494,0.0071643,-1.9714,-0.028658,-3.9697e-07,-0.98569,0,0,0.5,9.2519e-17,0,0.66667
0.036953,0.65012,0.073906,0.22519,1.0798,9.4474,-0.04438,0.014793,-1.8197,-0.059174,-3.2885e-09,-0.90984,0,0,0.5,3.7007e-17,0,0.66667
0.46541,0.98725,0.93082,0.73087,3.0322,4.2408,-1.8142,0.60472,-0.1002,-2.4189,-1.2568e-13,-0.050101,0,0,0.5,-0,-0,0.66667
0.75787,0.97817,1.5157,0.71726,1.5925,1.6075,-2.8992,0.96638,-0.17038,-3.8655,8.3919e-11,-0.085191,0,0,0.5,-2.3685e-15,0,0.66667
0.9922,0.35965,1.9844,-0.21052,0.095679,0.061835,1.114,-0.37134,-1.8417,1.4854,5.4777e-09,-0.92087,0,0,0.5,-1.1842e-15,0,0.66667
0.22661,0.051699,0.45322,-0.67245,-3.3253,7.0177,0.81271,-0.2709,-0.3917,1.0836,5.463e-10,-0.19585,0,0,0.5,-2.9606e-16,0,0.66667
0.79238,0.9928,1.5848,0.73919,1.4548,1.4011,-3.1239,1.0413,-0.057093,-4.1651,3.1551e-11,-0.028546,0,0,0.5,5.9212e-16,4.5159e-16,0.66667
0.79525,0.63474,1.5905,0.20211,0.28688,1.0257,-0.85721,0.28574,-1.8545,-1.1429,-2.4022e-11,-0.92727,0,0,0.5,-0,-0,0.66667
0.87224,0.73008,1.7445,0.34512,0.28157,0.62101,-1.6055,0.53516,-1.5761,-2.1406,-1.4406e-09,-0.78805,0,0,0.5,-0,-0,0.66667
0.31426,0.1988,0.62851,-0.4518,-2.0037,5.8694,0.75723,-0.25241,-1.2739,1.0096,2.8435e-10,-0.63694,0,0,0.5,-0,-0,0.66667
0.13293,0.97676,0.26585,0.71514,3.7088,8.2187,-0.50699,0.169,-0.18134,-0.67598,-4.0463e-09,-0.090668,0,0,0.5,-0,-0,0.66667
0.7967,0.4663,1.5934,-0.050555,-0.069126,0.9888,0.21481,-0.071604,-1.9918,0.28642,-2.4101e-10,-0.99588,0,0,0.5,-2.9606e-16,0,0.66667
0.56746,0.72882,1.1349,0.34323,1.0828,2.9928,-1.0388,0.34626,-1.5807,-1.385,4.9363e-11,-0.79036,0,0,0.5,-0,-0,0.66667
0.41465,0.95374,0.82931,0.68061,2.9358,4.7708,-1.5052,0.50172,-0.35227,-2.0069,-4.301e-12,-0.17613,0,0,0.5,5.9212e-16,0,0.66667
0.058642,0.28368,0.11728,-0.32448,-1.5707,9.159,0.10148,-0.033827,-1.6263,0.13531,1.3039e-08,-0.81314,0,0,0.5,-1.4803e-16,0,0.66667
0.0065569,0.5739,0.013114,0.11085,0.52791,9.856,-0.0038761,0.0012928,-1.9558,-0.0051677,1.1477e-06,-0.97789,0,0,0.5,-0,-0,0.66667
0.31602,0.75669,0.63205,0.38504,1.683,5.832,-0.64896,0.21632,-1.4729,-0.86528,-2.3811e-10,-0.73643,0,0,0.5,-0,-0,0.66667
0.27146,0.081049,0.54292,-0.62843,-2.9954,6.4462,0.90982,-0.30327,-0.59524,1.2131,3.3897e-10,-0.29762,0,0,0.5,-0,-0,0.66667
0.47572,0.10702,0.95145,-0.58947,-2.3009,4.0519,1.4956,-0.49853,-0.76389,1.9941,4.4544e-12,-0.38195,0,0,0.5,-0,-0,0.66667
0.92361,0.70004,1.8472,0.30007,0.088136,0.35101,-1.4781,0.4927,-1.6794,-1.9708,3.4615e-09,-0.83972,0,0,0.5,-0,-0,0.66667
0.41668,0.22976,0.83337,-0.40536,-1.6192,4.6373,0.90084,-0.30028,-1.4153,1.2011,6.2571e-11,-0.70763,0,0,0.5,-0,-0,0.66667
0.28788,0.10823,0.57577,-0.58766,-2.7421,6.2312,0.90228,-0.30076,-0.77145,1.203,3.382e-10,-0.38573,0,0,0.5,-0,-0,0.66667
0.84525,0.91623,1.6905,0.62435,0.83905,0.97362,-2.8145,0.93818,-0.61377,-3.7527,6.0263e-09,-0.30688,0,0,0.5,-0,-0,0.66667
0.30695,0.78329,0.6139,0.42494,1.8845,5.9527,-0.69566,0.23189,-1.3586,-0.92754,-2.993e-10,-0.6793,0,0,0.5,-0,-0,0.66667
0.91558,0.72742,1.8312,0.34113,0.13637,0.40776,-1.6658,0.55526,-1.5859,-2.221,2.1291e-09,-0.79296,0,0,0.5,-0,-0,0.66667
0.86341,0.41234,1.7268,-0.13149,-0.10415,0.59021,0.6055,-0.20183,-1.9386,0.80734,1.0113e-09,-0.96928,0,0,0.5,-0,-0,0.66667
0.63882,0.45407,1.2776,-0.068897,-0.17765,2.25,0.23474,-0.078245,-1.9826,0.31298,-3.314e-11,-0.99132,0,0,0.5,-1.1842e-15,0,0.66667
0.74768,0.11919,1.4954,-0.57122,-1.2035,1.5538,2.2778,-0.75926,-0.84001,3.0371,-7.9367e-10,-0.42001,0,0,0.5,5.9212e-16,0,0.66667
0.15732,0.51803,0.31465,0.02704,0.12489,7.8345,-0.022688,0.0075627,-1.997,-0.030251,-6.7736e-10,-0.9985,0,0,0.5,5.9212e-16,0,0.66667
0.60287,0.40279,1.2057,-0.14582,-0.41318,2.5961,0.46885,-0.15628,-1.9248,0.62513,-4.6931e-11,-0.96238,0,0,0.5,7.7061e-16,0,0.66667
0.32704,0.77317,0.65407,0.40975,1.7839,5.7026,-0.71469,0.23823,-1.403,-0.95292,-2.2522e-10,-0.7015,0,0,0.5,-0,-0,0.66667
0.48868,0.32935,0.97736,-0.25597,-0.90724,3.7907,0.66713,-0.22238,-1.7664,0.88951,6.9445e-12,-0.88322,0,0,0.5,5.9212e-16,0,0.66667
0.22539,0.050825,0.45077,-0.67376,-3.335,7.0334,0.8099,-0.26997,-0.38537,1.0799,5.508e-10,-0.19269,0,0,0.5,-2.9606e-16,0,0.66667
0.90196,0.60304,1.8039,0.15455,0.067374,0.39612,-0.74347,0.24782,-1.9147,-0.99129,-6.3897e-09,-0.95737,0,0,0.5,2.3685e-15,0,0.66667
0.41153,0.42271,0.82307,-0.11593,-0.44756,4.6415,0.25445,-0.084815,-1.9516,0.33926,3.2021e-11,-0.97579,0,0,0.5,5.9212e-16,0,0.66667
0.47673,0.70617,0.95347,0.30926,1.1248,3.9343,-0.78632,0.26211,-1.6593,-1.0484,-1.5414e-11,-0.82966,0,0,0.5,-5.9212e-16,0,0.66667
0.7214,0.15836,1.4428,-0.51246,-1.1514,1.7088,1.9717,-0.65723,-1.067,2.6289,-5.2658e-10,-0.5335,0,0,0.5,-0,-0,0.66667
0.1222,0.17644,0.24439,-0.48533,-2.3852,8.3269,0.3163,-0.10543,-1.1621,0.42173,-1.6796e-09,-0.58105,0,0,0.5,1.4803e-16,0,0.66667
0.50307,0.68793,1.0061,0.28189,0.98173,3.6413,-0.75631,0.2521,-1.7185,-1.0084,1.9904e-12,-0.85926,0,0,0.5,-0,-0,0.66667
0.81315,0.36156,1.6263,-0.20766,-0.26336,0.9098,0.90056,-0.30019,-1.8463,1.2007,1.571e-10,-0.92316,0,0,0.5,-0,-0,0.66667
0.67734,0.69818,1.3547,0.29728,0.7119,1.9585,-1.0739,0.35797,-1.6853,-1.4319,1.6203e-10,-0.84265,0,0,0.5,-0,-0,0.66667
0.32165,0.80098,0.6433,0.45147,1.9908,5.7788,-0.77448,0.25816,-1.2747,-1.0326,-2.5531e-10,-0.63737,0,0,0.5,-0,-0,0.66667
0.71067,0.039029,1.4213,-0.69146,-1.7648,1.9286,2.6208,-0.87359,-0.2998,3.4944,-5.9392e-11,-0.1499,0,0,0.5,-0,-0,0.66667
0.93444,0.58484,1.8689,0.12727,0.013985,0.24405,-0.63426,0.21142,-1.9422,-0.84567,2.8877e-08,-0.97108,0,0,0.5,-0,-0,0.66667
0.89478,0.50953,1.7896,0.014295,0.0068601,0.41225,-0.068216,0.022739,-1.9989,-0.090955,3.6656e-08,-0.99946,0,0,0.5,-0,-0,0.66667
0.74223,0.14996,1.4845,-0.52505,-1.1014,1.56,2.0785,-0.69282,-1.0197,2.7713,-7.4681e-10,-0.50987,0,0,0.5,-5.9212e-16,0,0.66667
0.2661,0.93073,0.5322,0.64609,3.1046,6.5178,-0.91694,0.30565,-0.51595,-1.2226,-2.9867e-10,-0.25797,0,0,0.5,-2.9606e-16,0,0.66667
0.37249,0.86234,0.74497,0.54351,2.346,5.1974,-1.0797,0.35992,-0.94919,-1.4397,-8.362e-11,-0.4746,0,0,0.5,-4.4111e-16,0,0.66667
0.55842,0.31668,1.1168,-0.27499,-0.87042,3.0625,0.81897,-0.27299,-1.7315,1.092,-3.9492e-11,-0.86573,0,0,0.5,-0,-0,0.66667
0.38105,0.070133,0.7621,-0.6448,-2.8415,5.1378,1.3104,-0.4368,-0.5215,1.7472,2.0962e-11,-0.26075,0,0,0.5,1.1842e-15,0,0.66667
0.45575,0.84494,0.91149,0.51742,2.0282,4.2369,-1.2577,0.41922,-1.049,-1.6769,-1.7834e-11,-0.52452,0,0,0.5,-0,-0,0.66667
0.79353,0.18086,1.5871,-0.47872,-0.77999,1.1701,2.026,-0.67533,-1.1852,2.7013,-1.1431e-09,-0.59258,0,0,0.5,1.1842e-15,0,0.66667
0.10394,0.71371,0.20788,0.32057,1.5384,8.5547,-0.17771,0.059235,-1.6348,-0.23694,1.9102e-09,-0.81738,0,0,0.5,1.4803e-16,0,0.66667
0.973,0.92263,1.946,0.63395,0.074544,0.4318,-3.2897,1.0966,-0.57047,-4.3863,7.9473e-07,-0.28523,0,0,0.5,-0,-0,0.66667
0.70462,0.8528,1.4092,0.52921,1.2661,1.8514,-1.9887,0.66291,-1.0041,-2.6517,3.7852e-10,-0.50204,0,0,0.5,-0,-0,0.66667
0.86473,0.52076,1.7295,0.031139,0.023763,0.5704,-0.14361,0.04787,-1.9961,-0.19148,2.0109e-09,-0.99805,0,0,0.5,-0,-0,0.66667
0.78168,0.68811,1.5634,0.28216,0.44406,1.1453,-1.1763,0.39211,-1.7181,-1.5684,-6.2985e-11,-0.85906,0,0,0.5,-0,-0,0.66667
0.43218,0.39892,0.86437,-0.15162,-0.57275,4.4058,0.34947,-0.11649,-1.9181,0.46596,3.0376e-11,-0.95905,0,0,0.5,-5.9212e-16,0,0.66667
0.94251,0.66326,1.885,0.24489,0.018227,0.2477,-1.231,0.41034,-1.7866,-1.6413,5.1621e-08,-0.89332,0,0,0.5,-0,-0,0.66667
0.25309,0.76368,0.50617,0.39553,1.8078,6.6206,-0.53388,0.17796,-1.4432,-0.71184,-4.0363e-10,-0.72162,0,0,0.5,-0,-0,0.66667
0.046248,0.68612,0.092497,0.27918,1.3455,9.3236,-0.068862,0.022954,-1.7239,-0.091816,-4.402e-08,-0.86195,0,0,0.5,2.535e-17,0,0.66667
0.096878,0.058385,0.19376,-0.66242,-3.4148,8.6776,0.34226,-0.11409,-0.44018,0.45635,4.1139e-08,-0.22009,0,0,0.5,3.7007e-17,0,0.66667
0.20074,0.92202,0.40147,0.63304,3.134,7.3348,-0.67773,0.22591,-0.57464,-0.90363,-1.8487e-09,-0.28732,0,0,0.5,-2.9606e-16,0,0.66667
0.53908,0.92003,1.0782,0.63004,2.2755,3.4141,-1.8114,0.60381,-0.58797,-2.4152,4.1398e-12,-0.29398,0,0,0.5,-0,-0,0.66667
0.2236,0.96428,0.44721,0.69642,3.4726,7.062,-0.83052,0.27684,-0.27577,-1.1074,-2.7736e-10,-0.13789,0,0,0.5,-4.4409e-16,0,0.66667
0.83532,0.38831,1.6706,-0.16754,-0.17721,0.76082,0.74639,-0.2488,-1.8996,0.99519,4.0737e-11,-0.94978,0,0,0.5,-1.1842e-15,0,0.66667
0.0093387,0.58342,0.018677,0.12514,0.59638,9.8185,-0.0062314,0.0020774,-1.9439,-0.0083084,4.0097e-07,-0.97193,0,0,0.5,-9.2519e-18,0,0.66667
0.7459,0.015099,1.4918,-0.72735,-1.6957,1.7011,2.8935,-0.9645,-0.11837,3.858,-3.8942e-11,-0.059184,0,0,0.5,2.3685e-15,0,0.66667
0.96901,0.0082624,1.938,-0.73761,-0.22596,0.56657,3.812,-1.2707,-0.065559,5.0826,-3.1052e-06,-0.032779,0,0,0.5,-0,-0,0.66667
0.26718,0.74307,0.53437,0.36461,1.6433,6.4369,-0.51956,0.17319,-1.5274,-0.69274,-2.9667e-10,-0.7637,0,0,0.5,-4.4409e-16,0,0.66667
0.62382,0.32965,1.2476,-0.25552,-0.7007,2.4223,0.85012,-0.28337,-1.7674,1.1335,-9.1733e-11,-0.88371,0,0,0.5,-0,-0,0.66667
0.71478,0.52636,1.4296,0.039541,0.080146,1.5944,-0.15074,0.050246,-1.9946,-0.20098,4.094e-11,-0.99732,0,0,0.5,5.9212e-16,0,0.66667
0.32696,0.7978,0.65391,0.4467,1.9596,5.7128,-0.77894,0.25965,-1.2901,-1.0386,-2.3589e-10,-0.64504,0,0,0.5,2.0492e-16,0,0.66667
0.43313,0.90443,0.86625,0.60665,2.5061,4.5278,-1.4014,0.46712,-0.6922,-1.8685,-1.2075e-11,-0.3461,0,0,0.5,2.2204e-16,0,0.66667
0.73441,0.54863,1.4688,0.072945,0.13706,1.4418,-0.28571,0.095238,-1.9807,-0.38095,8.6189e-11,-0.99037,0,0,0.5,-0,-0,0.66667
0.13115,0.57227,0.2623,0.10841,0.50633,8.1833,-0.075831,0.025277,-1.9578,-0.10111,-2.3984e-09,-0.97889,0,0,0.5,-0,-0,0.66667
0.14369,0.47577,0.28737,-0.036347,-0.1687,8.0154,0.027854,-0.0092847,-1.9953,0.037139,1.102e-09,-0.99763,0,0,0.5,-0,-0,0.66667
0.37541,0.69567,0.75081,0.2935,1.1998,5.0933,-0.58764,0.19588,-1.6937,-0.78352,-1.0245e-10,-0.84686,0,0,0.5,-0,-0,0.66667
0.22841,0.19772,0.45682,-0.45343,-2.1243,6.945,0.55236,-0.18412,-1.2685,0.73647,7.8144e-10,-0.63427,0,0,0.5,5.9212e-16,0,0.66667
0.30699,0.88371,0.61397,0.57556,2.6423,5.9934,-0.94234,0.31411,-0.82184,-1.2565,-2.4776e-10,-0.41092,0,0,0.5,-5.9212e-16,0,0.66667
0.15007,0.072026,0.30013,-0.64196,-3.2466,7.9855,0.51379,-0.17126,-0.5343,0.68506,7.3089e-09,-0.26715,0,0,0.5,-0,-0,0.66667
0.096636,0.18496,0.19327,-0.47256,-2.3306,8.6622,0.24356,-0.081185,-1.2066,0.32474,-3.6837e-09,-0.60332,0,0,0.5,1.8504e-16,0,0.66667
0.91598,0.64756,1.832,0.22134,0.072159,0.35112,-1.0813,0.36043,-1.8255,-1.4417,-3.0269e-09,-0.91275,0,0,0.5,1.1842e-15,0,0.66667
0.34589,0.11261,0.69179,-0.58109,-2.5929,5.5258,1.072,-0.35733,-0.79898,1.4293,1.0679e-10,-0.39949,0,0,0.5,-5.9212e-16,0,0.66667
0.56597,0.13305,1.1319,-0.55042,-1.8471,3.1009,1.6614,-0.55381,-0.92262,2.2153,-2.3109e-11,-0.46131,0,0,0.5,-1.1842e-15,0,0.66667
0.5472,0.55488,1.0944,0.082323,0.26015,3.1431,-0.24025,0.080083,-1.976,-0.32033,1.1854e-11,-0.98799,0,0,0.5,-0,-0,0.66667
0.45036,0.74018,0.90072,0.36028,1.3701,4.2414,-0.86535,0.28845,-1.5382,-1.1538,-3.4452e-11,-0.76909,0,0,0.5,-0,-0,0.66667
0.74782,0.86528,1.4956,0.54792,1.139,1.5354,-2.1853,0.72843,-0.93232,-2.9137,8.233e-10,-0.46616,0,0,0.5,-5.9212e-16,0,0.66667
0.33158,0.45399,0.66315,-0.069014,-0.28769,5.5992,0.12205,-0.040682,-1.9825,0.16273,4.2587e-11,-0.99125,0,0,0.5,-5.9212e-16,0,0.66667
0.89248,0.95819,1.785,0.68728,0.68163,0.79827,-3.2714,1.0905,-0.32019,-4.3619,2.3473e-08,-0.1601,0,0,0.5,1.1842e-15,0,0.66667
0.068033,0.51241,0.13607,0.018622,0.088,9.0271,-0.006757,0.0022522,-1.9982,-0.0090094,-1.4431e-07,-0.99909,0,0,0.5,-0,-0,0.66667
0.57489,0.96135,1.1498,0.69202,2.411,3.1037,-2.1218,0.70726,-0.29717,-2.8291,2.1012e-12,-0.14859,0,0,0.5,-0,-4.2814e-16,0.66667
0.33905,0.43135,0.67811,-0.10297,-0.42712,5.509,0.18621,-0.062069,-1.9623,0.24827,5.8038e-11,-0.98115,0,0,0.5,2.9606e-16,0,0.66667
0.3639,0.66764,0.7278,0.25147,1.0334,5.2236,-0.48805,0.16268,-1.7747,-0.65073,-1.0174e-10,-0.88733,0,0,0.5,-0,-0,0.66667
0.3051,0.37781,0.6102,-0.18329,-0.78601,5.9357,0.29824,-0.099414,-1.881,0.39766,1.0998e-10,-0.94051,0,0,0.5,1.1842e-15,0,0.66667
0.60359,0.94863,1.2072,0.67295,2.205,2.8209,-2.1663,0.72211,-0.3893,-2.8884,8.0898e-12,-0.19465,0,0,0.5,-0,-0,0.66667
0.23441,0.46749,0.46882,-0.048765,-0.21746,6.8262,0.060965,-0.020322,-1.9926,0.081287,1.1671e-10,-0.99632,0,0,0.5,2.9606e-16,0,0.66667
0.29431,0.43836,0.58861,-0.092459,-0.39729,6.0642,0.14513,-0.048375,-1.9706,0.1935,7.7074e-11,-0.9853,0,0,0.5,1.1842e-15,0,0.66667
0.28549,0.42049,0.57099,-0.11926,-0.5164,6.1766,0.18159,-0.06053,-1.9488,0.24212,9.4433e-11,-0.97442,0,0,0.5,-0,-0,0.66667
0.0067954,0.58364,0.013591,0.12547,0.59798,9.8528,-0.0045467,0.001516,-1.9436,-0.0060621,6.2823e-07,-0.97179,0,0,0.5,-9.2519e-18,0,0.66667
0.37162,0.0048918,0.74324,-0.74266,-3.4054,5.2923,1.4719,-0.49064,-0.039176,1.9626,-1.8452e-13,-0.019588,0,0,0.5,-0,-3.1272e-16,0.66667
0.048897,0.076676,0.097795,-0.63499,-3.2736,9.3023,0.1656,-0.055199,-0.56589,0.22079,5.21e-08,-0.28294,0,0,0.5,-0,-0,0.66667
0.87438,0.14969,1.7488,-0.52546,-0.50382,0.73182,2.4504,-0.81681,-1.0184,3.2672,1.07e-09,-0.50922,0,0,0.5,-5.9212e-16,0,0.66667
0.72182,0.92676,1.4436,0.64014,1.5339,1.8,-2.4644,0.82145,-0.54263,-3.2858,2.448e-10,-0.27131,0,0,0.5,5.9212e-16,0,0.66667
0.59531,0.62135,1.1906,0.18202,0.52683,2.6754,-0.57792,0.19264,-1.8827,-0.77056,5.1841e-11,-0.94136,0,0,0.5,1.1842e-15,0,0.66667
0.74388,0.72732,1.4878,0.34099,0.65447,1.4425,-1.3528,0.45094,-1.5863,-1.8037,2.3363e-10,-0.79314,0,0,0.5,-0,-0,0.66667
0.90109,0.89498,1.8022,0.59247,0.46421,0.66229,-2.8473,0.9491,-0.75143,-3.7964,8.2434e-09,-0.37571,0,0,0.5,-1.1842e-15,0,0.66667
0.69409,0.53893,1.3882,0.058402,0.12755,1.7653,-0.21619,0.072065,-1.9876,-0.28826,4.5748e-11,-0.99382,0,0,0.5,-0,-0,0.66667
0.59076,0.78029,1.1815,0.42044,1.2916,2.7951,-1.3247,0.44156,-1.3724,-1.7662,7.0051e-11,-0.68622,0,0,0.5,-1.3323e-15,0,0.66667
0.12426,0.25482,0.24852,-0.36778,-1.7682,8.2887,0.24373,-0.081244,-1.5195,0.32498,-1.6341e-09,-0.75974,0,0,0.5,-0,-0,0.66667
0.40458,0.13421,0.80917,-0.54868,-2.2985,4.8263,1.1839,-0.39464,-0.92941,1.5786,4.3204e-11,-0.4647,0,0,0.5,-0,-0,0.66667
0.57895,0.47578,1.1579,-0.036332,-0.10768,2.8193,0.11218,-0.037394,-1.9954,0.14958,-9.2821e-12,-0.9977,0,0,0.5,-0,-0,0.66667
0.60284,0.39327,1.2057,-0.16009,-0.45439,2.5988,0.51472,-0.17157,-1.9083,0.6863,-5.0609e-11,-0.95413,0,0,0.5,-1.8981e-15,0,0.66667
0.96078,0.57742,1.9216,0.11613,-0.018486,0.13884,-0.59507,0.19836,-1.9514,-0.79343,2.0671e-08,-0.97569,0,0,0.5,-0,-0,0.66667
0.2055,0.25097,0.411,-0.37355,-1.7443,7.2265,0.40941,-0.13647,-1.5049,0.54588,1.121e-10,-0.75243,0,0,0.5,-0,-0,0.66667
0.66315,0.28458,1.3263,-0.32312,-0.81196,2.0904,1.1428,-0.38094,-1.6292,1.5238,-1.6056e-10,-0.81458,0,0,0.5,-2.3685e-15,0,0.66667
0.25643,0.71292,0.51286,0.31938,1.4389,6.5659,-0.4368,0.1456,-1.6373,-0.58239,-1.8508e-10,-0.81866,0,0,0.5,-0,-0,0.66667
0.41776,0.90282,0.83552,0.60424,2.5365,4.6995,-1.3463,0.44876,-0.7023,-1.795,-1.7813e-11,-0.35115,0,0,0.5,-6.1647e-16,0,0.66667
0.97195,0.79455,1.9439,0.44182,-0.037954,0.25643,-2.2903,0.76343,-1.3054,-3.0537,1.0592e-08,-0.6527,0,0,0.5,-0,-0,0.66667
0.33108,0.21938,0.66215,-0.42092,-1.8307,5.6561,0.74325,-0.24775,-1.3711,0.99099,2.1957e-10,-0.68553,0,0,0.5,1.1842e-15,0,0.66667
0.36202,0.80588,0.72405,0.45882,1.9589,5.2936,-0.88589,0.2953,-1.2515,-1.1812,-1.3909e-10,-0.62576,0,0,0.5,5.9212e-16,0,0.66667
0.43957,0.88818,0.87914,0.58227,2.3705,4.4447,-1.3651,0.45502,-0.79407,-1.8201,-1.48e-11,-0.39703,0,0,0.5,-1.1842e-15,0,0.66667
0.040668,0.2298,0.081336,-0.4053,-1.9907,9.4016,0.087908,-0.029303,-1.4154,0.11721,1.2386e-08,-0.7077,0,0,0.5,-0,-0,0.66667
0.39857,0.98348,0.79714,0.72522,3.2259,4.9752,-1.5416,0.51387,-0.1293,-2.0555,-1.0121e-12,-0.064649,0,0,0.5,9.44e-16,0,0.66667
0.61899,0.75301,1.238,0.37952,1.0839,2.5106,-1.2529,0.41763,-1.4883,-1.6705,1.0907e-10,-0.74416,0,0,0.5,-0,-0,0.66667
0.57808,0.34732,1.1562,-0.22902,-0.69213,2.8542,0.70609,-0.23536,-1.8142,0.94146,-4.9227e-11,-0.90708,0,0,0.5,-0,-0,0.66667
0.87341,0.69227,1.7468,0.2884,0.2214,0.58695,-1.3434,0.44781,-1.7046,-1.7912,-1.3072e-09,-0.85231,0,0,0.5,-0,-0,0.66667
0.64119,0.48266,1.2824,-0.02601,-0.066536,2.2261,0.088944,-0.029648,-1.9972,0.11859,-1.3071e-11,-0.99861,0,0,0.5,-0,-0,0.66667
0.55696,0.28943,1.1139,-0.31585,-1.0104,3.0892,0.93821,-0.31274,-1.645,1.2509,-4.0126e-11,-0.82252,0,0,0.5,-1.1842e-15,0,0.66667
0.64065,0.67751,1.2813,0.26626,0.70149,2.271,-0.90976,0.30325,-1.7478,-1.213,1.1095e-10,-0.8739,0,0,0.5,5.9212e-16,0,0.66667
0.047617,0.81433,0.095234,0.47149,2.3426,9.3114,-0.11974,0.039913,-1.2105,-0.15965,2.7493e-08,-0.60525,0,0,0.5,-1.4803e-16,0,0.66667
0.99612,0.68887,1.9922,0.28331,-0.12998,0.082215,-1.5051,0.5017,-1.7155,-2.0068,4.8034e-08,-0.85773,0,0,0.5,2.3685e-15,0,0.66667
0.15171,0.22945,0.30341,-0.40583,-1.9472,7.931,0.32836,-0.10945,-1.414,0.43781,-8.5386e-10,-0.70698,0,0,0.5,-0,-0,0.66667
0.41845,0.81781,0.83689,0.47671,1.9316,4.6405,-1.0639,0.35463,-1.1921,-1.4185,-5.0674e-11,-0.59607,0,0,0.5,-0,-0,0.66667
0.29525,0.80281,0.5905,0.45422,2.0436,6.1042,-0.71525,0.23842,-1.2662,-0.95367,-3.7276e-10,-0.6331,0,0,0.5,-0,-0,0.66667
0.57722,0.81039,1.1544,0.46559,1.4889,2.947,-1.4333,0.47777,-1.2301,-1.9111,4.8853e-11,-0.61505,0,0,0.5,1.3323e-15,0,0.66667
0.55956,0.38471,1.1191,-0.17294,-0.53802,3.0282,0.5161,-0.17203,-1.8934,0.68813,-2.9502e-11,-0.94668,0,0,0.5,-1.1842e-15,0,0.66667
0.35211,0.38676,0.70423,-0.16986,-0.69962,5.3552,0.319,-0.10633,-1.8968,0.42533,8.0547e-11,-0.94842,0,0,0.5,-0,-0,0.66667
0.97363,0.5925,1.9473,0.13875,-0.039651,0.098727,-0.72047,0.24016,-1.9324,-0.96063,1.431e-06,-0.96618,0,0,0.5,-1.3323e-15,0,0.66667
0.75127,0.074357,1.5025,-0.63846,-1.3807,1.5821,2.5582,-0.85273,-0.55027,3.4109,-5.1552e-10,-0.27514,0,0,0.5,1.1842e-15,0,0.66667
0.88984,0.47627,1.7797,-0.035598,-0.018811,0.4378,0.16894,-0.056313,-1.9955,0.22525,1.6974e-10,-0.99777,0,0,0.5,-0,-0,0.66667
0.45541,0.35388,0.91082,-0.21918,-0.80959,4.1517,0.53236,-0.17745,-1.8289,0.70981,2.5824e-11,-0.91444,0,0,0.5,1.1842e-15,0,0.66667
0.59941,0.38751,1.1988,-0.16873,-0.48313,2.6334,0.5394,-0.1798,-1.8982,0.71921,-5.0928e-11,-0.94909,0,0,0.5,-0,-0,0.66667
0.41345,0.26606,0.82691,-0.3509,-1.3917,4.6594,0.77377,-0.25792,-1.5615,1.0317,6.7545e-11,-0.78076,0,0,0.5,-0,-0,0.66667
0.30426,0.81819,0.60851,0.47729,2.1442,5.9988,-0.77449,0.25816,-1.19,-1.0327,-3.3829e-10,-0.59502,0,0,0.5,-0,-0,0.66667
0.52547,0.88331,1.0509,0.57497,2.0815,3.5209,-1.6113,0.53712,-0.8243,-2.1485,5.6419e-12,-0.41215,0,0,0.5,-0,-0,0.66667
0.19097,0.46084,0.38193,-0.058738,-0.26779,7.3917,0.059824,-0.019941,-1.9876,0.079766,3.946e-10,-0.99379,0,0,0.5,1.4803e-16,0,0.66667
0.2141,0.36253,0.4282,-0.2062,-0.93813,7.0971,0.23545,-0.078485,-1.8483,0.31394,-1.2e-13,-0.92413,0,0,0.5,-2.9606e-16,0,0.66667
0.51079,0.3033,1.0216,-0.29505,-1.0175,3.5622,0.80376,-0.26792,-1.6901,1.0717,-7.0239e-12,-0.84507,0,0,0.5,-5.9212e-16,0,0.66667
0.013852,0.4555,0.027704,-0.066746,-0.31728,9.7575,0.0049357,-0.0016464,-1.9837,0.0065804,-1.6596e-06,-0.99186,0,0,0.5,-0,-0,0.66667
0.44549,0.60343,0.89097,0.15514,0.57658,4.2542,-0.36861,0.12287,-1.914,-0.49147,-2.458e-11,-0.957,0,0,0.5,-0,-0,0.66667
0.9967,0.13602,1.9934,-0.54597,0.13052,0.27355,2.9022,-0.96741,-0.93972,3.8697,-1.5169e-07,-0.46986,0,0,0.5,-0,-5.4067e-16,0.66667
0.82268,0.39534,1.6454,-0.157,-0.18304,0.83597,0.68884,-0.22961,-1.9119,0.91846,-1.7614e-10,-0.95594,0,0,0.5,-0,-0,0.66667
0.083461,0.43763,0.16692,-0.093562,-0.44179,8.8204,0.041647,-0.013882,-1.9699,0.055529,-2.294e-08,-0.98496,0,0,0.5,-0,-0,0.66667
0.65589,0.91258,1.3118,0.61887,1.7655,2.3164,-2.1649,0.72162,-0.63845,-2.8865,7.3391e-11,-0.31922,0,0,0.5,-0,3.8255e-16,0.66667
0.22539,0.92737,0.45079,0.64106,3.1445,7.0247,-0.77061,0.25687,-0.53837,-1.0275,-8.9674e-10,-0.26918,0,0,0.5,-2.9606e-16,0,0.66667
0.11796,0.88753,0.23591,0.5813,2.9217,8.3933,-0.36569,0.1219,-0.79793,-0.48759,-5.681e-09,-0.39897,0,0,0.5,-0,-0,0.66667
0.34868,0.49436,0.69735,-0.0084663,-0.034721,5.388,0.015744,-0.005248,-1.9998,0.020992,4.6773e-12,-0.9999,0,0,0.5,2.9606e-16,0,0.66667
0.67717,0.62839,1.3543,0.19259,0.45119,1.9291,-0.69553,0.23184,-1.8685,-0.92738,1.069e-10,-0.93427,0,0,0.5,-2.3685e-15,0,0.66667
0.55076,0.47968,1.1015,-0.030475,-0.095487,3.1036,0.089518,-0.029839,-1.9963,0.11936,-4.8599e-12,-0.99813,0,0,0.5,-0,-0,0.66667
0.043963,0.78433,0.087925,0.42649,2.1019,9.3584,-0.099998,0.033333,-1.3538,-0.13333,-1.409e-08,-0.67691,0,0,0.5,-0,-0,0.66667
0.85675,0.0087876,1.7135,-0.73682,-1.0302,1.0277,3.3668,-1.1223,-0.069476,4.489,-1.7655e-10,-0.034738,0,0,0.5,-0,-4.7873e-16,0.66667
0.4776,0.76365,0.95519,0.39548,1.4616,3.9506,-1.0073,0.33578,-1.4433,-1.3431,-1.4068e-11,-0.72163,0,0,0.5,-0,-0,0.66667
0.85678,0.40213,1.7136,-0.1468,-0.12586,0.63057,0.67082,-0.22361,-1.9238,0.89443,2.4517e-10,-0.96188,0,0,0.5,-1.4803e-15,0,0.66667
0.18765,0.18459,0.37531,-0.47311,-2.2682,7.4719,0.4735,-0.15783,-1.2049,0.63133,1.1088e-09,-0.60246,0,0,0.5,-3.7007e-16,0,0.66667
0.083733,0.59121,0.16747,0.13681,0.64741,8.8175,-0.061098,0.020366,-1.934,-0.081464,-4.002e-10,-0.967,0,0,0.5,1.6653e-16,0,0.66667
0.51597,0.75327,1.0319,0.37991,1.322,3.5335,-1.0454,0.34848,-1.4875,-1.3939,1.0251e-11,-0.74376,0,0,0.5,-0,-0,0.66667
0.45454,0.079215,0.90909,-0.63118,-2.5634,4.303,1.5301,-0.51004,-0.58307,2.0402,4.8679e-12,-0.29153,0,0,0.5,-5.9212e-16,0,0.66667
0.013894,0.80385,0.027789,0.45578,2.2627,9.7594,-0.033775,0.011258,-1.2612,-0.045033,-7.4626e-08,-0.63062,0,0,0.5,9.2519e-18,0,0.66667
0.039355,0.13732,0.078709,-0.54401,-2.7465,9.4237,0.11418,-0.038061,-0.94713,0.15225,-8.8556e-08,-0.47356,0,0,0.5,-0,-0,0.66667
0.093633,0.42198,0.18727,-0.11702,-0.55206,8.6845,0.058439,-0.01948,-1.9509,0.077919,1.0518e-09,-0.97547,0,0,0.5,-0,-0,0.66667
0.040677,0.40013,0.081355,-0.14981,-0.71377,9.3963,0.032501,-0.010834,-1.9202,0.043335,-1.613e-07,-0.96008,0,0,0.5,3.7007e-17,0,0.66667
0.17574,0.76862,0.35148,0.40294,1.9154,7.6166,-0.37766,0.12589,-1.4222,-0.50355,9.0635e-11,-0.7111,0,0,0.5,-0,-0,0.66667
0.57554,0.29493,1.1511,-0.3076,-0.94787,2.9009,0.94418,-0.31473,-1.6631,1.2589,-5.53e-11,-0.83154,0,0,0.5,-0,-0,0.66667
0.47675,0.54357,0.95351,0.065361,0.23152,3.8954,-0.16619,0.055397,-1.9842,-0.22159,-4.6556e-12,-0.9921,0,0,0.5,-0,-0,0.66667
0.97977,0.095186,1.9595,-0.60722,-0.0076823,0.38277,3.173,-1.0577,-0.68979,4.2307,9.5695e-07,-0.34489,0,0,0.5,-0,-0,0.66667
0.070737,0.36442,0.14147,-0.20337,-0.96928,8.9934,0.076723,-0.025574,-1.8525,0.1023,2.806e-08,-0.92623,0,0,0.5,7.4015e-17,0,0.66667
0.86742,0.45709,1.7348,-0.06437,-0.047724,0.55807,0.29779,-0.099264,-1.9847,0.39705,-1.3103e-09,-0.99235,0,0,0.5,-0,-0,0.66667
0.57852,0.75118,1.157,0.37678,1.1726,2.8959,-1.1625,0.38751,-1.4963,-1.55,5.9825e-11,-0.74817,0,0,0.5,-0,-0,0.66667
0.87648,0.76618,1.753,0.39927,0.32669,0.63024,-1.8664,0.62214,-1.4327,-2.4886,-1.9678e-09,-0.71636,0,0,0.5,1.1842e-15,0,0.66667
0.055714,0.13538,0.11143,-0.54694,-2.7586,9.2077,0.16252,-0.054172,-0.93591,0.21669,4.5527e-08,-0.46795,0,0,0.5,-0,-0,0.66667
0.099154,0.065607,0.19831,-0.65159,-3.3478,8.6468,0.34457,-0.11486,-0.49087,0.45943,2.5873e-08,-0.24544,0,0,0.5,2.9606e-16,0,0.66667
0.86309,0.33672,1.7262,-0.24493,-0.20555,0.62472,1.1274,-0.37581,-1.7866,1.5032,1.6947e-09,-0.89332,0,0,0.5,5.9212e-16,0,0.66667
0.57038,0.17495,1.1408,-0.48757,-1.5902,3.0246,1.4832,-0.49441,-1.1541,1.9776,-3.8713e-11,-0.57707,0,0,0.5,-0,-0,0.66667
0.55849,0.65161,1.117,0.22742,0.71413,3.0498,-0.67741,0.2258,-1.8163,-0.90321,3.5496e-11,-0.90817,0,0,0.5,-0,-0,0.66667
0.013013,0.89615,0.026025,0.59422,3.0396,9.7729,-0.041239,0.013746,-0.74421,-0.054986,2.9515e-08,-0.37211,0,0,0.5,-1.8504e-17,0,0.66667
0.64225,0.11172,1.2845,-0.58241,-1.6901,2.4096,1.995,-0.66499,-0.7935,2.66,-8.2794e-11,-0.39675,0,0,0.5,-0,-0,0.66667
0.84766,0.59015,1.6953,0.13523,0.12669,0.68036,-0.61136,0.20379,-1.9354,-0.81515,1.0494e-09,-0.9677,0,0,0.5,-1.4803e-15,0,0.66667
0.99613,0.38683,1.9923,-0.16975,0.086944,0.036648,0.90182,-0.30061,-1.8971,1.2024,-3.1667e-07,-0.94853,0,0,0.5,-2.3685e-15,0,0.66667
0.43295,0.31054,0.86591,-0.28419,-1.0896,4.4192,0.65622,-0.21874,-1.7135,0.87496,4.6842e-11,-0.85676,0,0,0.5,-8.1416e-16,0,0.66667
0.31141,0.19017,0.62282,-0.46475,-2.0713,5.9076,0.77188,-0.25729,-1.2328,1.0292,3.0362e-10,-0.61638,0,0,0.5,-0,-0,0.66667
0.40477,0.16796,0.80954,-0.49806,-2.0587,4.8051,1.0752,-0.3584,-1.1176,1.4336,5.9117e-11,-0.55882,0,0,0.5,-0,-0,0.66667
0.22803,0.4193,0.45605,-0.12104,-0.54323,6.9112,0.1472,-0.049068,-1.9473,0.19627,1.6819e-10,-0.97364,0,0,0.5,-0,-0,0.66667
0.2261,0.81613,0.4522,0.4742,2.2337,6.9784,-0.57181,0.1906,-1.2008,-0.76242,-9.4662e-10,-0.60041,0,0,0.5,-0,-0,0.66667
0.43364,0.22349,0.86729,-0.41477,-1.6282,4.4465,0.95927,-0.31976,-1.3886,1.279,4.5571e-11,-0.69428,0,0,0.5,-0,-0,0.66667
0.68454,0.32333,1.3691,-0.265,-0.61578,1.8864,0.96749,-0.3225,-1.7499,1.29,-1.468e-10,-0.87496,0,0,0.5,-0,-0,0.66667
0.66074,0.85717,1.3215,0.53576,1.4569,2.2187,-1.888,0.62933,-0.97883,-2.5173,1.6337e-10,-0.48941,0,0,0.5,-1.1842e-15,0,0.66667
0.77249,0.27764,1.545,-0.33354,-0.56127,1.2312,1.3742,-0.45806,-1.6048,1.8322,-1.0994e-10,-0.80239,0,0,0.5,-2.9606e-16,0,0.66667
0.21681,0.25066,0.43363,-0.37401,-1.737,7.0806,0.43249,-0.14416,-1.5037,0.57665,2.0728e-10,-0.75185,0,0,0.5,5.9212e-16,0,0.66667
0.72871,0.40707,1.4574,-0.1394,-0.27016,1.4953,0.54175,-0.18058,-1.9318,0.72234,-1.1272e-10,-0.9659,0,0,0.5,-2.3685e-15,0,0.66667
0.79525,0.59001,1.5905,0.13502,0.18849,1.0096,-0.57267,0.19089,-1.9357,-0.76355,2.0225e-10,-0.96785,0,0,0.5,2.9606e-16,0,0.66667
0.56181,0.50053,1.1236,0.00080059,0.0024542,2.9905,-0.0023988,0.00079961,-2.0012,-0.0031984,2.5391e-13,-1.0006,0,0,0.5,-4.737e-15,0,0.66667
0.46567,0.96338,0.93134,0.69507,2.846,4.2169,-1.7263,0.57542,-0.28239,-2.3017,-5.5234e-13,-0.1412,0,0,0.5,2.9606e-16,3.3694e-16,0.66667
0.1582,0.082714,0.3164,-0.62593,-3.1439,7.8779,0.52812,-0.17604,-0.60663,0.70416,5.6158e-09,-0.30332,0,0,0.5,-0,-0,0.66667
0.046453,0.33579,0.092906,-0.24631,-1.1826,9.3202,0.061023,-0.020341,-1.7843,0.081364,-3.2128e-08,-0.89216,0,0,0.5,7.4015e-17,0,0.66667
0.46383,0.13498,0.92766,-0.54753,-2.1428,4.1611,1.3545,-0.45149,-0.93367,1.806,1.0971e-11,-0.46684,0,0,0.5,-0,-0,0.66667
0.6543,0.80689,1.3086,0.46033,1.2367,2.2306,-1.6064,0.53546,-1.2468,-2.1418,1.7938e-10,-0.62339,0,0,0.5,3.8742e-16,0,0.66667
0.21255,0.23422,0.42509,-0.39868,-1.8634,7.1392,0.45193,-0.15064,-1.4342,0.60257,3.623e-10,-0.7171,0,0,0.5,-0,-0,0.66667
0.39995,0.31306,0.7999,-0.28042,-1.1156,4.8005,0.59815,-0.19938,-1.7213,0.79753,7.5237e-11,-0.86067,0,0,0.5,-0,-0,0.66667
0.49764,0.13385,0.99528,-0.54923,-2.0552,3.7979,1.4577,-0.48589,-0.92727,1.9436,6.0563e-13,-0.46364,0,0,0.5,-0,-0,0.66667
0.9549,0.56247,1.9098,0.093712,-0.0097504,0.15659,-0.47726,0.15909,-1.97,-0.63635,3.9303e-07,-0.985,0,0,0.5,1.5728e-16,0,0.66667
0.87745,0.93564,1.7549,0.65347,0.71009,0.83395,-3.058,1.0193,-0.48252,-4.0774,2.2339e-08,-0.24126,0,0,0.5,-1.7764e-15,0,0.66667
0.87405,0.9128,1.7481,0.61921,0.6645,0.81685,-2.8865,0.96216,-0.63689,-3.8487,9.3876e-09,-0.31844,0,0,0.5,-0,-0,0.66667
0.9966,0.1661,1.9932,-0.50086,0.14373,0.23198,2.6621,-0.88738,-1.1077,3.5495,-5.4276e-08,-0.55386,0,0,0.5,-0,-5.1113e-16,0.66667
0.77345,0.46386,1.5469,-0.054206,-0.084692,1.15,0.2236,-0.074535,-1.9897,0.29814,-1.4359e-10,-0.99484,0,0,0.5,2.9606e-16,0,0.66667
0.20306,0.40338,0.40612,-0.14493,-0.65971,7.2367,0.15696,-0.05232,-1.9261,0.20928,1.6979e-10,-0.96305,0,0,0.5,7.4015e-17,0,0.66667
0.83989,0.6164,1.6798,0.1746,0.178,0.73527,-0.78212,0.26071,-1.8914,-1.0428,-2.4154e-10,-0.94568,0,0,0.5,-1.1842e-15,0,0.66667
0.16625,0.80773,0.3325,0.4616,2.2265,7.7479,-0.40928,0.13643,-1.2426,-0.5457,-4.2723e-10,-0.62129,0,0,0.5,1.4803e-16,0,0.66667
0.88909,0.90186,1.7782,0.6028,0.54912,0.72778,-2.8583,0.95278,-0.70846,-3.8111,1.3229e-08,-0.35423,0,0,0.5,1.4803e-15,0,0.66667
0.33858,0.2391,0.67716,-0.39135,-1.6818,5.5577,0.70668,-0.23556,-1.455,0.94225,1.8825e-10,-0.72748,0,0,0.5,-0,-0,0.66667
0.28794,0.9023,0.57589,0.60344,2.8274,6.2353,-0.92671,0.3089,-0.70554,-1.2356,-3.0006e-10,-0.35277,0,0,0.5,2.9606e-16,0,0.66667
0.60622,0.68511,1.2124,0.27767,0.7969,2.5941,-0.89776,0.29925,-1.7265,-1.197,8.0569e-11,-0.86326,0,0,0.5,-1.4803e-15,0,0.66667
0.060612,0.36258,0.12122,-0.20613,-0.98415,9.1293,0.066633,-0.022211,-1.8485,0.088844,-3.0176e-08,-0.92426,0,0,0.5,7.4015e-17,0,0.66667
0.90709,0.46791,1.8142,-0.048132,-0.017523,0.35435,0.23285,-0.077617,-1.9929,0.31047,-7.6546e-08,-0.99644,0,0,0.5,4.4409e-16,0,0.66667
0.38107,0.19756,0.76214,-0.45366,-1.9004,5.0665,0.92201,-0.30734,-1.2678,1.2294,1.0317e-10,-0.63389,0,0,0.5,1.1842e-15,0,0.66667
0.78998,0.8593,1.58,0.53894,0.92851,1.2365,-2.2707,0.7569,-0.96658,-3.0276,1.7073e-09,-0.48329,0,0,0.5,-0,-0,0.66667
0.71055,0.77097,1.4211,0.40645,0.90584,1.7319,-1.5403,0.51343,-1.4121,-2.0537,3.3754e-10,-0.70607,0,0,0.5,-0,-0,0.66667
0.70415,0.27606,1.4083,-0.3359,-0.74658,1.7504,1.2615,-0.42049,-1.5992,1.682,-2.2181e-10,-0.79958,0,0,0.5,2.9606e-16,0,0.66667
0.53263,0.1956,1.0653,-0.45659,-1.5767,3.3899,1.297,-0.43235,-1.2587,1.7294,-1.7551e-11,-0.62934,0,0,0.5,1.1842e-15,0,0.66667
0.46668,0.88395,0.93335,0.57593,2.2648,4.1433,-1.4334,0.47782,-0.82046,-1.9113,-7.512e-12,-0.41023,0,0,0.5,-0,-0,0.66667
0.6454,0.052621,1.2908,-0.67107,-2.0102,2.4458,2.3099,-0.76997,-0.39842,3.0799,-2.2314e-11,-0.19921,0,0,0.5,-0,-0,0.66667
0.69158,0.00065314,1.3832,-0.74902,-2.083,2.1291,2.7627,-0.9209,-0.0061871,3.6836,6.4975e-12,-0.0030935,0,0,0.5,-0,-0,0.66667
0.23582,0.80525,0.47164,0.45787,2.1386,6.8515,-0.57586,0.19195,-1.2546,-0.76782,-7.6626e-10,-0.62731,0,0,0.5,1.4803e-16,0,0.66667
0.75381,0.46888,1.5076,-0.046674,-0.08036,1.2925,0.18765,-0.062548,-1.9933,0.25019,-9.5464e-11,-0.99667,0,0,0.5,-0,-0,0.66667
0.93662,0.86543,1.8732,0.54814,0.2099,0.47168,-2.7381,0.91271,-0.93153,-3.6508,-8.7901e-09,-0.46576,0,0,0.5,1.1842e-15,-5.5877e-16,0.66667
0.8151,0.45436,1.6302,-0.068458,-0.082935,0.86949,0.2976,-0.0992,-1.9828,0.3968,-4.9941e-10,-0.99141,0,0,0.5,-0,-0,0.66667
0.73061,0.045553,1.4612,-0.68167,-1.6258,1.7696,2.6562,-0.8854,-0.34725,3.5416,-1.3967e-10,-0.17362,0,0,0.5,-0,-0,0.66667
0.82171,0.12038,1.6434,-0.56942,-0.84567,1.0609,2.4955,-0.83182,-0.84732,3.3273,-3.3729e-09,-0.42366,0,0,0.5,-2.9606e-16,0,0.66667
0.0069549,0.31145,0.01391,-0.28282,-1.3668,9.851,0.010491,-0.0034969,-1.7164,0.013988,-3.8952e-09,-0.8582,0,0,0.5,-2.8912e-18,0,0.66667
0.17482,0.55718,0.34965,0.085764,0.39406,7.6045,-0.079966,0.026655,-1.974,-0.10662,-7.542e-10,-0.98702,0,0,0.5,-1.4803e-16,0,0.66667
0.34198,0.2631,0.68396,-0.35535,-1.5128,5.5083,0.64812,-0.21604,-1.5506,0.86416,1.6769e-10,-0.77529,0,0,0.5,-0,-0,0.66667
0.73352,0.46297,1.467,-0.055542,-0.10461,1.4472,0.21728,-0.072428,-1.9893,0.28971,-7.0098e-11,-0.99465,0,0,0.5,5.9212e-16,0,0.66667
0.97837,0.14085,1.9567,-0.53873,0.02918,0.31863,2.8111,-0.93703,-0.96742,3.7481,-3.0657e-07,-0.48371,0,0,0.5,-0,-0,0.66667
0.73288,0.21193,1.4658,-0.43211,-0.89837,1.5718,1.689,-0.56299,-1.3362,2.252,-4.7752e-10,-0.66809,0,0,0.5,-5.9212e-16,0,0.66667
0.47899,0.50457,0.95799,0.006852,0.024158,3.8688,-0.017504,0.0058347,-2,-0.023339,-3.9945e-13,-1,0,0,0.5,-0,-0,0.66667
0.92105,0.61173,1.8421,0.1676,0.042685,0.31142,-0.8233,0.27443,-1.8997,-1.0977,1.0992e-08,-0.94987,0,0,0.5,-0,-0,0.66667
0.3777,0.35179,0.7554,-0.22231,-0.89822,5.0537,0.44782,-0.14927,-1.8241,0.59709,8.1111e-11,-0.91207,0,0,0.5,-0,-0,0.66667
0.64169,0.93411,1.2834,0.65117,1.9494,2.463,-2.2285,0.74284,-0.49298,-2.9714,2.9762e-11,-0.24649,0,0,0.5,-2.9606e-16,0,0.66667
0.0015045,0.80301,0.0030089,0.45452,2.2564,9.9244,-0.003647,0.0012157,-1.2653,-0.0048627,5.5456e-08,-0.63263,0,0,0.5,-2.313e-18,1.0014e-15,0.66667
0.17936,0.05775,0.35872,-0.66338,-3.34,7.6138,0.63457,-0.21152,-0.43547,0.8461,2.5978e-09,-0.21773,0,0,0.5,7.4015e-17,0,0.66667
0.29484,0.44,0.58968,-0.089995,-0.38651,6.0574,0.14152,-0.047172,-1.9719,0.18869,7.4697e-11,-0.98595,0,0,0.5,1.1842e-15,0,0.66667
0.38699,0.65195,0.77398,0.22793,0.9129,4.944,-0.47044,0.15681,-1.8156,-0.62725,-7.5444e-11,-0.9078,0,0,0.5,-0,-0,0.66667
0.45982,0.095491,0.91964,-0.60676,-2.4296,4.233,1.488,-0.496,-0.69165,1.984,5.9389e-12,-0.34583,0,0,0.5,1.1842e-15,0,0.66667
0.79672,0.59366,1.5934,0.14049,0.19458,1.0009,-0.59695,0.19898,-1.9311,-0.79593,1.8319e-10,-0.96557,0,0,0.5,-3.7933e-16,0,0.66667
0.27985,0.23424,0.55969,-0.39865,-1.7928,6.284,0.59499,-0.19833,-1.4345,0.79331,3.5259e-10,-0.71725,0,0,0.5,-5.9212e-16,0,0.66667
0.082662,0.06807,0.16532,-0.6479,-3.3359,8.8614,0.28563,-0.095211,-0.50758,0.38084,4.4197e-08,-0.25379,0,0,0.5,-0,-0,0.66667
0.52137,0.56691,1.0427,0.10036,0.33227,3.4145,-0.27908,0.093026,-1.9644,-0.3721,6.3771e-12,-0.98221,0,0,0.5,-1.1842e-15,0,0.66667
0.98115,0.53115,1.9623,0.046732,-0.017848,0.059071,-0.24454,0.081512,-1.9933,-0.32606,-2.4662e-06,-0.99667,0,0,0.5,-1.3508e-15,0,0.66667
0.40076,0.89873,0.80152,0.59809,2.5505,4.8905,-1.2783,0.42612,-0.72794,-1.7045,-2.8438e-11,-0.36397,0,0,0.5,2.9606e-16,0,0.66667
0.25719,0.32695,0.51438,-0.25957,-1.1595,6.5483,0.35605,-0.11868,-1.7598,0.47474,1.1436e-10,-0.87988,0,0,0.5,-0,-0,0.66667
0.77634,0.79751,1.5527,0.44627,0.77744,1.2649,-1.8478,0.61592,-1.2913,-2.4637,7.4756e-10,-0.64563,0,0,0.5,-1.1842e-15,0,0.66667
0.61558,0.36792,1.2312,-0.19812,-0.54872,2.485,0.65045,-0.21682,-1.8603,0.86726,-6.9281e-11,-0.93014,0,0,0.5,-0,-0,0.66667
0.0075483,0.74472,0.015097,0.36707,1.7948,9.8434,-0.014778,0.0049259,-1.521,-0.019703,-4.938e-09,-0.76049,0,0,0.5,4.6259e-18,0,0.66667
0.98621,0.73741,1.9724,0.35612,-0.10886,0.15228,-1.8731,0.62436,-1.5487,-2.4974,1.8646e-08,-0.77433,0,0,0.5,1.1842e-15,0,0.66667
0.48892,0.69282,0.97784,0.28922,1.0302,3.7959,-0.75417,0.25139,-1.7027,-1.0056,-7.1842e-12,-0.85135,0,0,0.5,-1.1842e-15,0,0.66667
0.30402,0.41774,0.60804,-0.12339,-0.52721,5.9442,0.20006,-0.066688,-1.9453,0.26675,8.5308e-11,-0.97266,0,0,0.5,-0,-0,0.66667
0.66508,0.70055,1.3302,0.30082,0.74746,2.0654,-1.067,0.35568,-1.6776,-1.4227,1.5115e-10,-0.83881,0,0,0.5,1.1842e-15,0,0.66667
0.28556,0.65862,0.57112,0.23793,1.0407,6.1865,-0.36237,0.12079,-1.7993,-0.48316,-1.3241e-10,-0.89966,0,0,0.5,-0,-0,0.66667
0.46354,0.45538,0.92709,-0.066924,-0.2415,4.0426,0.16545,-0.055151,-1.9835,0.2206,7.3864e-12,-0.99173,0,0,0.5,-5.9212e-16,0,0.66667
0.65182,0.80568,1.3036,0.45852,1.2389,2.2513,-1.594,0.53133,-1.2524,-2.1253,1.7246e-10,-0.62621,0,0,0.5,-0,-0,0.66667
0.12188,0.20821,0.24376,-0.43769,-2.1313,8.3262,0.28452,-0.094839,-1.3185,0.37936,-2.3822e-09,-0.65923,0,0,0.5,-0,-0,0.66667
0.46722,0.709,0.93445,0.3135,1.1561,4.0404,-0.78119,0.2604,-1.6503,-1.0416,-2.2068e-11,-0.82516,0,0,0.5,-0,-0,0.66667
0.73521,0.73287,1.4704,0.3493,0.6964,1.5119,-1.3696,0.45655,-1.5658,-1.8262,2.6157e-10,-0.78289,0,0,0.5,-1.1842e-15,0,0.66667
0.96052,0.8993,1.921,0.59895,0.12071,0.43456,-3.0683,1.0228,-0.72433,-4.091,7.1467e-08,-0.36216,0,0,0.5,-1.7764e-15,0,0.66667
0.021389,0.63735,0.042779,0.20602,0.98716,9.6565,-0.023502,0.0078343,-1.8485,-0.031336,4.0908e-07,-0.92425,0,0,0.5,-3.7007e-17,0,0.66667
0.83248,0.66735,1.665,0.25102,0.28095,0.80389,-1.1145,0.3715,-1.7755,-1.486,-6.1163e-10,-0.88775,0,0,0.5,-0,-0,0.66667
0.93915,0.50438,1.8783,0.00657,0.00029805,0.21115,-0.032908,0.010969,-2.0003,-0.043877,-7.3297e-07,-1.0001,0,0,0.5,-0,-0,0.66667
0.98582,0.81944,1.9716,0.47916,-0.093456,0.24351,-2.5193,0.83976,-1.1837,-3.359,-4.8646e-09,-0.59186,0,0,0.5,-0,-0,0.66667
0.93783,0.14503,1.8757,-0.53245,-0.18805,0.45285,2.6632,-0.88773,-0.99174,3.5509,3.966e-08,-0.49587,0,0,0.5,-0,-0,0.66667
0.12925,0.31695,0.2585,-0.27458,-1.3013,8.2159,0.18928,-0.063093,-1.7322,0.25237,-1.1398e-09,-0.8661,0,0,0.5,-2.9606e-16,0,0.66667
0.88602,0.45458,1.772,-0.068132,-0.038697,0.45991,0.32196,-0.10732,-1.9829,0.42927,-7.3577e-09,-0.99144,0,0,0.5,-1.1842e-15,0,0.66667
0.15286,0.39646,0.30572,-0.15531,-0.72225,7.8968,0.12662,-0.042207,-1.9139,0.16883,4.4107e-10,-0.95695,0,0,0.5,1.4803e-16,0,0.66667
0.36052,0.3097,0.72103,-0.28545,-1.1821,5.2702,0.54886,-0.18295,-1.711,0.73181,1.1642e-10,-0.8555,0,0,0.5,-7.4015e-16,0,0.66667
0.36116,0.066237,0.72232,-0.65064,-2.9236,5.3722,1.2533,-0.41776,-0.4953,1.671,2.8252e-11,-0.24765,0,0,0.5,-0,-0,0.66667
0.27979,0.66117,0.55957,0.24175,1.062,6.2597,-0.36074,0.12025,-1.7925,-0.48098,-1.3212e-10,-0.89627,0,0,0.5,-0,-0,0.66667
0.3548,0.85379,0.70961,0.53068,2.3194,5.4022,-1.0042,0.33474,-0.99827,-1.3389,-1.2578e-10,-0.49913,0,0,0.5,-0,-0,0.66667
0.543,0.856,1.086,0.53399,1.8547,3.3208,-1.5465,0.51548,-0.98562,-2.0619,1.5246e-11,-0.49281,0,0,0.5,-0,-0,0.66667
0.078517,0.23343,0.15703,-0.39986,-1.9525,8.8973,0.16744,-0.055815,-1.4311,0.22326,-3.567e-09,-0.71557,0,0,0.5,-0,-0,0.66667
0.37287,0.14908,0.74574,-0.52638,-2.2612,5.1869,1.0468,-0.34893,-1.0148,1.3957,9.2344e-11,-0.50742,0,0,0.5,-0,-0,0.66667
0.58322,0.82772,1.1664,0.49158,1.5664,2.9016,-1.5291,0.50969,-1.1401,-2.0388,4.8729e-11,-0.57007,0,0,0.5,-0,-0,0.66667
0.13425,0.012047,0.2685,-0.73193,-3.8129,8.2046,0.52406,-0.17469,-0.094641,0.69875,-1.3415e-09,-0.04732,0,0,0.5,-0,-0,0.66667
0.24299,0.89676,0.48598,0.59514,2.8581,6.7916,-0.77126,0.25709,-0.74026,-1.0283,-8.6215e-10,-0.37013,0,0,0.5,-0,-0,0.66667
0.31278,0.075172,0.62556,-0.63724,-2.9628,5.9436,1.063,-0.35434,-0.55586,1.4174,1.1396e-10,-0.27793,0,0,0.5,5.9212e-16,0,0.66667
0.074534,0.26455,0.14907,-0.35318,-1.7128,8.948,0.14039,-0.046797,-1.5559,0.18719,-2.824e-09,-0.77796,0,0,0.5,-0,-0,0.66667
0.80769,0.34351,1.6154,-0.23473,-0.31169,0.95363,1.0112,-0.33705,-1.8051,1.3482,2.3343e-10,-0.90256,0,0,0.5,-1.4803e-15,0,0.66667
0.2634,0.12764,0.52679,-0.55854,-2.6271,6.5266,0.78463,-0.26154,-0.89146,1.0462,6.617e-10,-0.44573,0,0,0.5,-0,-4.9623e-16,0.66667
0.4106,0.45806,0.8212,-0.062905,-0.24249,4.6489,0.13775,-0.045918,-1.9855,0.18367,1.8122e-11,-0.99274,0,0,0.5,-0,-0,0.66667
0.40541,0.83519,0.81083,0.50278,2.0793,4.7994,-1.0871,0.36237,-1.1011,-1.4495,-5.7199e-11,-0.55056,0,0,0.5,2.9606e-16,0,0.66667
0.30474,0.99385,0.60947,0.74077,3.5733,6.0798,-1.2039,0.40131,-0.04888,-1.6053,-7.1332e-13,-0.02444,0,0,0.5,5.9212e-16,0,0.66667
0.12774,0.27162,0.25548,-0.34257,-1.6391,8.2407,0.23339,-0.077795,-1.5824,0.31118,-1.3856e-09,-0.79122,0,0,0.5,-1.4803e-16,0,0.66667
0.89356,0.27205,1.7871,-0.34193,-0.20955,0.51101,1.6295,-0.54318,-1.584,2.1727,2.3151e-09,-0.79202,0,0,0.5,-1.1842e-15,0,0.66667
0.68139,0.3169,1.3628,-0.27465,-0.64596,1.9162,0.99809,-0.3327,-1.732,1.3308,-1.5039e-10,-0.86601,0,0,0.5,-0,-0,0.66667
0.26689,0.1912,0.53378,-0.46321,-2.1273,6.4599,0.65934,-0.21978,-1.2377,0.87912,5.6296e-10,-0.61883,0,0,0.5,-0,-0,0.66667
0.092431,0.84151,0.18486,0.51226,2.5493,8.721,-0.25253,0.084176,-1.0678,-0.3367,2.0285e-08,-0.53388,0,0,0.5,2.3091e-16,0,0.66667
0.1235,0.73021,0.24699,0.34532,1.6549,8.297,-0.22744,0.075813,-1.5757,-0.30325,1.0993e-09,-0.78784,0,0,0.5,-0,-0,0.66667
0.27644,0.3347,0.55287,-0.24795,-1.0925,6.3028,0.36556,-0.12185,-1.7811,0.48741,1.344e-10,-0.89054,0,0,0.5,-0,-0,0.66667
0.049043,0.94023,0.098087,0.66035,3.4268,9.3018,-0.17272,0.057575,-0.4502,-0.2303,2.3108e-07,-0.2251,0,0,0.5,-0,-0,0.66667
0.14515,0.37122,0.29029,-0.19317,-0.9033,8.0006,0.14953,-0.049844,-1.8677,0.19938,-7.4129e-10,-0.93385,0,0,0.5,3.7007e-16,0,0.66667
0.47503,0.7379,0.95006,0.35685,1.3127,3.9664,-0.90407,0.30136,-1.5467,-1.2054,-1.6539e-11,-0.77333,0,0,0.5,-0,-0,0.66667
0.93598,0.14027,1.872,-0.5396,-0.20486,0.46642,2.6936,-0.89787,-0.96427,3.5915,2.9883e-08,-0.48213,0,0,0.5,-0,1.549e-16,0.66667
0.43407,0.47495,0.86814,-0.037572,-0.14077,4.3759,0.086981,-0.028994,-1.995,0.11597,7.8184e-12,-0.99751,0,0,0.5,-0,-0,0.66667
0.70914,0.71212,1.4183,0.31818,0.69139,1.7028,-1.2034,0.40112,-1.64,-1.6045,2.0442e-10,-0.81998,0,0,0.5,5.9212e-16,0,0.66667
0.57031,0.50896,1.1406,0.01344,0.040525,2.9049,-0.040881,0.013627,-1.999,-0.054508,2.9472e-12,-0.9995,0,0,0.5,2.3685e-15,0,0.66667
0.97624,0.55261,1.9525,0.078916,-0.025761,0.078682,-0.41088,0.13696,-1.9774,-0.54784,4.7773e-07,-0.98871,0,0,0.5,-0,-0,0.66667
0.17821,0.58353,0.35642,0.1253,0.57598,7.5612,-0.11909,0.039697,-1.9437,-0.15879,-3.7859e-10,-0.97186,0,0,0.5,-1.4803e-16,0,0.66667
0.73911,0.70115,1.4782,0.30173,0.58261,1.4619,-1.1894,0.39646,-1.6757,-1.5858,1.6668e-10,-0.83785,0,0,0.5,-1.1842e-15,0,0.66667
0.35041,0.64576,0.70081,0.21864,0.9062,5.3818,-0.4086,0.1362,-1.8295,-0.5448,-1.0082e-10,-0.91477,0,0,0.5,-0,-0,0.66667
0.99121,0.38334,1.9824,-0.17499,0.080186,0.052699,0.9251,-0.30837,-1.8908,1.2335,-1.2696e-07,-0.94541,0,0,0.5,-0,-0,0.66667
0.35281,0.13027,0.70562,-0.55459,-2.443,5.4341,1.0435,-0.34785,-0.9065,1.3914,1.1362e-10,-0.45325,0,0,0.5,-0,-0,0.66667
0.97878,0.15083,1.9576,-0.52375,0.039257,0.30354,2.7341,-0.91136,-1.0247,3.6454,2.6244e-08,-0.51236,0,0,0.5,-0,-0,0.66667
0.86037,0.64047,1.7207,0.2107,0.17869,0.62784,-0.96682,0.32227,-1.8417,-1.2891,-8.3264e-10,-0.92086,0,0,0.5,-0,-0,0.66667
0.59774,0.91003,1.1955,0.61505,1.9908,2.8353,-1.9607,0.65358,-0.65536,-2.6143,2.1607e-11,-0.32768,0,0,0.5,-0,-0,0.66667
0.027448,0.32369,0.054896,-0.26446,-1.2743,9.5757,0.038714,-0.012905,-1.7509,0.051619,2.0986e-08,-0.87544,0,0,0.5,-0,-0,0.66667
0.18553,0.038911,0.37106,-0.69163,-3.5014,7.5414,0.68437,-0.22812,-0.29912,0.9125,1.0358e-09,-0.14956,0,0,0.5,-0,-4.3829e-16,0.66667
0.056512,0.027569,0.11302,-0.70865,-3.7231,9.2074,0.21358,-0.071195,-0.21481,0.28478,-2.2358e-07,-0.1074,0,0,0.5,-1.1102e-16,0,0.66667
0.79246,0.66157,1.5849,0.24235,0.35422,1.057,-1.0243,0.34143,-1.7913,-1.3657,-1.0811e-10,-0.89565,0,0,0.5,-0,-0,0.66667
0.073951,0.96627,0.1479,0.69941,3.6566,8.9797,-0.27585,0.09195,-0.26134,-0.3678,-2.1401e-07,-0.13067,0,0,0.5,-7.4015e-17,5.0189e-16,0.66667
0.78646,0.98878,1.5729,0.73317,1.4727,1.4326,-3.0752,1.0251,-0.088265,-4.1003,1.0281e-10,-0.044133,0,0,0.5,1.1842e-15,0,0.66667
0.027952,0.91755,0.055904,0.62633,3.2272,9.5769,-0.093371,0.031124,-0.60477,-0.12449,-3.777e-08,-0.30238,0,0,0.5,-0,-0,0.66667
0.25521,0.65201,0.51041,0.22802,1.0162,6.5701,-0.31036,0.10345,-1.8154,-0.41381,-9.6305e-11,-0.9077,0,0,0.5,2.9606e-16,0,0.66667
0.29758,0.77834,0.59517,0.41751,1.8615,6.0669,-0.66264,0.22088,-1.3809,-0.88352,-3.2644e-10,-0.69046,0,0,0.5,-0,-0,0.66667
0.56461,0.38915,1.1292,-0.16628,-0.5119,2.9761,0.50071,-0.1669,-1.9012,0.66761,-3.117e-11,-0.9506,0,0,0.5,1.1842e-15,0,0.66667
0.56206,0.93534,1.1241,0.653,2.2903,3.201,-1.9575,0.65249,-0.48475,-2.61,4.3128e-12,-0.24237,0,0,0.5,-5.9212e-16,1.5271e-16,0.66667
0.8874,0.7612,1.7748,0.3918,0.2779,0.57028,-1.8543,0.61811,-1.4538,-2.4724,-2.6168e-09,-0.72688,0,0,0.5,-0,-0,0.66667
0.63738,0.98187,1.2748,0.7228,2.2588,2.5565,-2.457,0.81901,-0.14192,-3.2761,2.6317e-12,-0.07096,0,0,0.5,1.1842e-15,0,0.66667
0.16146,0.39915,0.32292,-0.15127,-0.70109,7.783,0.13027,-0.043422,-1.9185,0.17369,7.2979e-11,-0.95925,0,0,0.5,9.5605e-17,0,0.66667
0.026995,0.37125,0.05399,-0.19313,-0.92408,9.581,0.027805,-0.0092689,-1.8678,0.037074,-6.2085e-07,-0.93388,0,0,0.5,-9.2519e-18,0,0.66667
0.76198,0.9189,1.524,0.62835,1.2962,1.4982,-2.5536,0.85119,-0.59565,-3.4048,7.6027e-10,-0.29782,0,0,0.5,1.1842e-15,9.7047e-17,0.66667
0.53557,0.25423,1.0711,-0.36866,-1.2391,3.3252,1.053,-0.35101,-1.5171,1.404,-2.3851e-11,-0.75853,0,0,0.5,-0,-0,0.66667
0.57863,0.89551,1.1573,0.59327,1.9752,3.0028,-1.8308,0.61028,-0.74833,-2.4411,1.9477e-11,-0.37417,0,0,0.5,5.9212e-16,0,0.66667
0.41411,0.023823,0.82821,-0.71427,-3.1174,4.7943,1.5775,-0.52583,-0.18583,2.1033,8.4355e-13,-0.092916,0,0,0.5,5.9212e-16,0,0.66667
0.58982,0.11237,1.1796,-0.58144,-1.8869,2.8887,1.829,-0.60968,-0.79742,2.4387,-2.8608e-11,-0.39871,0,0,0.5,5.9212e-16,0,0.66667
0.40563,0.5458,0.81126,0.068703,0.26639,4.7074,-0.14863,0.049544,-1.9828,-0.19817,-2.1055e-11,-0.99141,0,0,0.5,-0,-0,0.66667
0.44569,0.43046,0.89138,-0.10431,-0.38614,4.2467,0.24795,-0.08265,-1.9612,0.3306,1.714e-11,-0.98058,0,0,0.5,-2.9606e-16,0,0.66667
0.59274,0.62907,1.1855,0.19361,0.56438,2.7027,-0.61206,0.20402,-1.8672,-0.81607,5.2807e-11,-0.93361,0,0,0.5,-0,-0,0.66667
0.49234,0.31065,0.98469,-0.28402,-1.0057,3.7574,0.74579,-0.2486,-1.7138,0.99438,4.8944e-12,-0.85692,0,0,0.5,6.6613e-16,0,0.66667
0.059103,0.71322,0.11821,0.31983,1.5472,9.1527,-0.10082,0.033606,-1.6364,-0.13442,-8.83e-09,-0.81821,0,0,0.5,1.1102e-16,0,0.66667
0.97679,0.42932,1.9536,-0.10602,0.034671,0.081222,0.55232,-0.1841,-1.9597,0.73642,1.78e-06,-0.97987,0,0,0.5,1.1842e-15,0,0.66667
0.85514,0.54424,1.7103,0.066367,0.05671,0.62682,-0.30268,0.10089,-1.9838,-0.40358,1.9334e-09,-0.99189,0,0,0.5,-0,-0,0.66667
0.37909,0.50191,0.75817,0.0028618,0.011398,5.0205,-0.005786,0.0019287,-2.0007,-0.0077146,-1.3266e-12,-1.0003,0,0,0.5,-0,-0,0.66667
0.54652,0.047108,1.093,-0.67934,-2.4698,3.371,1.9801,-0.66004,-0.35873,2.6402,-1.6075e-12,-0.17936,0,0,0.5,-1.1842e-15,0,0.66667
0.93287,0.63826,1.8657,0.20739,0.031781,0.27284,-1.0318,0.34395,-1.8465,-1.3758,1.7288e-08,-0.92324,0,0,0.5,2.3685e-15,0,0.66667
0.39797,0.71966,0.79593,0.32949,1.3238,4.8344,-0.69933,0.23311,-1.6148,-0.93244,-8.375e-11,-0.80742,0,0,0.5,1.1842e-15,0,0.66667
0.94477,0.71087,1.8895,0.3163,0.029498,0.27243,-1.5938,0.53126,-1.644,-2.125,3.3458e-10,-0.82201,0,0,0.5,5.9212e-16,0,0.66667
0.030486,0.42722,0.060973,-0.10918,-0.51939,9.5333,0.017752,-0.005918,-1.9574,0.023669,-1.0184e-06,-0.9787,0,0,0.5,-3.7007e-17,0,0.66667
0.7458,0.91331,1.4916,0.61997,1.3528,1.6059,-2.466,0.822,-0.63328,-3.288,5.6389e-10,-0.31664,0,0,0.5,-0,-0,0.66667
0.79701,0.45601,1.594,-0.06599,-0.090185,0.98802,0.2805,-0.093501,-1.9842,0.37401,-2.8396e-10,-0.99211,0,0,0.5,-0,-0,0.66667
0.19384,0.65975,0.38767,0.23962,1.1044,7.3635,-0.24772,0.082573,-1.7962,-0.33029,2.3305e-10,-0.8981,0,0,0.5,-5.9212e-16,0,0.66667
0.16287,0.049645,0.32573,-0.67553,-3.4329,7.8272,0.58678,-0.19559,-0.37683,0.78238,3.4125e-09,-0.18841,0,0,0.5,-2.9606e-16,0,0.66667
0.59108,0.052066,1.1822,-0.6719,-2.2541,2.9363,2.1181,-0.70604,-0.3945,2.8241,-6.1087e-12,-0.19725,0,0,0.5,5.9212e-16,-5.2676e-16,0.66667
0.47969,0.053234,0.95938,-0.67015,-2.6729,4.0526,1.7145,-0.57149,-0.40286,2.286,7.4185e-13,-0.20143,0,0,0.5,-5.9212e-16,5.2055e-17,0.66667
0.58654,0.50702,1.1731,0.010534,0.030705,2.7437,-0.032953,0.010984,-1.9994,-0.043937,2.9529e-12,-0.99972,0,0,0.5,-0,-0,0.66667
0.13227,0.082697,0.26454,-0.62595,-3.1692,8.2131,0.44158,-0.14719,-0.60634,0.58877,1.0381e-08,-0.30317,0,0,0.5,1.4803e-16,0,0.66667
0.27774,0.69664,0.55547,0.29496,1.3063,6.2926,-0.43691,0.14564,-1.6904,-0.58255,-1.7566e-10,-0.84519,0,0,0.5,5.9212e-16,0,0.66667
0.069672,0.33608,0.13934,-0.24588,-1.177,9.0088,0.091364,-0.030455,-1.7848,0.12182,-1.7661e-08,-0.89241,0,0,0.5,-0,-0,0.66667
0.108,0.11412,0.21599,-0.57882,-2.9145,8.5231,0.33339,-0.11113,-0.80847,0.44452,5.939e-10,-0.40424,0,0,0.5,1.4803e-16,0,0.66667
0.71638,0.17926,1.4328,-0.48111,-1.0839,1.7279,1.8382,-0.61273,-1.1769,2.4509,-4.6397e-10,-0.58843,0,0,0.5,-5.9212e-16,0,0.66667
0.026402,0.13146,0.052804,-0.5528,-2.799,9.5953,0.077841,-0.025947,-0.9134,0.10379,4.9673e-07,-0.4567,0,0,0.5,-0,-0,0.66667
0.53965,0.9154,1.0793,0.6231,2.2428,3.4042,-1.7934,0.59779,-0.61914,-2.3912,4.7253e-12,-0.30957,0,0,0.5,-1.1842e-15,0,0.66667
0.29866,0.76246,0.59733,0.39369,1.746,6.0484,-0.62709,0.20903,-1.4485,-0.83612,-2.9143e-10,-0.72426,0,0,0.5,-0,-0,0.66667
0.8685,0.39235,1.737,-0.16147,-0.12177,0.56909,0.74792,-0.24931,-1.9067,0.99722,1.1593e-09,-0.95333,0,0,0.5,-0,-0,0.66667
0.54504,0.88012,1.0901,0.57018,1.9972,3.3196,-1.6575,0.55248,-0.84434,-2.2099,1.1366e-11,-0.42217,0,0,0.5,-0,7.385e-16,0.66667
0.99755,0.020554,1.9951,-0.71917,0.014997,0.46562,3.8262,-1.2754,-0.16075,5.1015,-2.9274e-05,-0.080373,0,0,0.5,-0,-1.5996e-15,0.66667
0.56108,0.72499,1.1222,0.33748,1.0763,3.0547,-1.0099,0.33663,-1.5952,-1.3465,4.3961e-11,-0.7976,0,0,0.5,-0,-0,0.66667
0.5621,0.31103,1.1242,-0.28346,-0.89239,3.0277,0.84976,-0.28325,-1.7153,1.133,-4.2997e-11,-0.85767,0,0,0.5,1.2583e-15,0,0.66667
0.33511,0.77139,0.67021,0.40708,1.7598,5.6037,-0.72756,0.24252,-1.4103,-0.97007,-2.0227e-10,-0.70517,0,0,0.5,-2.9606e-16,0,0.66667
0.25232,0.21904,0.50465,-0.42145,-1.9364,6.635,0.56715,-0.18905,-1.3696,0.75621,5.0389e-10,-0.6848,0,0,0.5,-0,-0,0.66667
0.42737,0.8209,0.85474,0.48135,1.9332,4.5405,-1.0972,0.36572,-1.1759,-1.4629,-4.1768e-11,-0.58794,0,0,0.5,-0,-0,0.66667
0.22718,0.12757,0.45435,-0.55865,-2.6806,6.9823,0.67686,-0.22562,-0.89086,0.90249,1.3516e-09,-0.44543,0,0,0.5,5.9212e-16,0,0.66667
0.070876,0.2131,0.14175,-0.43035,-2.1153,9.0006,0.16268,-0.054225,-1.3415,0.2169,-2.0336e-09,-0.67076,0,0,0.5,-3.7007e-17,0,0.66667
0.42505,0.76592,0.8501,0.39888,1.5762,4.5394,-0.90424,0.30141,-1.4337,-1.2057,-5.4637e-11,-0.71686,0,0,0.5,-0,-0,0.66667
0.10642,0.55692,0.21283,0.085385,0.40107,8.5128,-0.048461,0.016154,-1.9742,-0.064615,-1.6125e-08,-0.98712,0,0,0.5,1.4803e-16,0,0.66667
0.72312,0.39708,1.4462,-0.15438,-0.30658,1.5421,0.59539,-0.19846,-1.9149,0.79385,-1.1069e-10,-0.95747,0,0,0.5,5.9212e-16,0,0.66667
0.29839,0.56864,0.59679,0.10296,0.44128,6.0134,-0.16385,0.054616,-1.9625,-0.21846,-7.9192e-11,-0.98124,0,0,0.5,-5.9212e-16,0,0.66667
0.49036,0.24559,0.98072,-0.38162,-1.3809,3.8073,0.99804,-0.33268,-1.4824,1.3307,6.0909e-12,-0.74121,0,0,0.5,-3.0177e-16,0,0.66667
0.19558,0.42938,0.39117,-0.10593,-0.48277,7.3326,0.11049,-0.036831,-1.9598,0.14732,3.8378e-10,-0.97991,0,0,0.5,-2.9606e-16,0,0.66667
0.68083,0.02707,1.3617,-0.7094,-1.9861,2.1799,2.5759,-0.85862,-0.21094,3.4345,-1.1278e-11,-0.10547,0,0,0.5,-1.1842e-15,0,0.66667
0.83083,0.60977,1.6617,0.16466,0.18057,0.78741,-0.72961,0.2432,-1.9031,-0.97281,3.6457e-11,-0.95153,0,0,0.5,-0,-0,0.66667
0.22041,0.50139,0.44081,0.0020806,0.0093416,7.007,-0.0024457,0.00081524,-2.0009,-0.003261,5.0899e-12,-1.0005,0,0,0.5,-0,-0,0.66667
0.0078087,0.61138,0.015617,0.16707,0.79835,9.8392,-0.006958,0.0023193,-1.9001,-0.0092774,-6.2584e-08,-0.95005,0,0,0.5,-9.2519e-18,0,0.66667
0.2509,0.1504,0.50181,-0.5244,-2.4644,6.6747,0.70173,-0.23391,-1.0225,0.93564,8.4353e-10,-0.51124,0,0,0.5,-0,-0,0.66667
0.62764,0.88734,1.2553,0.58102,1.7425,2.5388,-1.9449,0.6483,-0.79926,-2.5932,6.2275e-11,-0.39963,0,0,0.5,1.1842e-15,0,0.66667
0.31082,0.28871,0.62163,-0.31694,-1.3752,5.8829,0.52539,-0.17513,-1.6428,0.70051,1.8827e-10,-0.82142,0,0,0.5,-0,-0,0.66667
0.83621,0.88998,1.6724,0.58498,0.80468,0.98898,-2.6089,0.86962,-0.78263,-3.4785,4.6164e-09,-0.39131,0,0,0.5,-1.1842e-15,0,0.66667
0.85274,0.33432,1.7055,-0.24851,-0.23256,0.68401,1.1302,-0.37674,-1.78,1.507,5.626e-10,-0.89,0,0,0.5,-0,-0,0.66667
0.37174,0.67645,0.74348,0.26467,1.0813,5.1317,-0.52474,0.17491,-1.7505,-0.69965,-9.8522e-11,-0.87526,0,0,0.5,-0,-0,0.66667
0.36533,0.17567,0.73067,-0.48649,-2.0839,5.2627,0.9479,-0.31597,-1.1579,1.2639,1.235e-10,-0.57897,0,0,0.5,-0,-0,0.66667
0.016563,0.1602,0.033125,-0.5097,-2.5576,9.7247,0.045024,-0.015008,-1.0768,0.060031,-1.6836e-07,-0.53841,0,0,0.5,-0,-0,0.66667
0.54968,0.67011,1.0994,0.25516,0.81807,3.1461,-0.74804,0.24935,-1.768,-0.99739,3.1728e-11,-0.88399,0,0,0.5,-0,-0,0.66667
0.15427,0.22486,0.30854,-0.4127,-1.9809,7.8982,0.33956,-0.11319,-1.3945,0.45275,-7.2337e-10,-0.69727,0,0,0.5,-0,-0,0.66667
0.11268,0.77965,0.22536,0.41948,2.0407,8.446,-0.25209,0.08403,-1.3752,-0.33612,2.6252e-09,-0.68758,0,0,0.5,-0,-0,0.66667
0.053338,0.17701,0.10668,-0.48449,-2.4119,9.236,0.13782,-0.045941,-1.1649,0.18376,-1.7662e-08,-0.58246,0,0,0.5,-0,-0,0.66667
0.17928,0.97401,0.35857,0.71102,3.6282,7.6252,-0.67986,0.22662,-0.20257,-0.90648,-7.1614e-10,-0.10128,0,0,0.5,-0,-0,0.66667
0.15593,0.26048,0.31186,-0.35928,-1.7081,7.8708,0.29879,-0.099596,-1.5408,0.39838,-8.137e-10,-0.77042,0,0,0.5,-0,-0,0.66667
0.03549,0.11481,0.070981,-0.57778,-2.9406,9.476,0.10936,-0.036455,-0.81264,0.14582,2.3835e-08,-0.40632,0,0,0.5,-0,-0,0.66667
0.98243,0.08499,1.9649,-0.62252,-0.0026639,0.39146,3.2618,-1.0873,-0.62197,4.349,-7.4501e-07,-0.31098,0,0,0.5,-1.1842e-15,-4.7782e-16,0.66667
0.6583,0.74969,1.3166,0.37453,0.96786,2.1538,-1.315,0.43832,-1.5024,-1.7533,1.7703e-10,-0.7512,0,0,0.5,-3.1456e-16,0,0.66667
0.38699,0.55282,0.77399,0.07923,0.31358,4.9283,-0.16353,0.05451,-1.9773,-0.21804,-2.9765e-11,-0.98867,0,0,0.5,-0,-0,0.66667
0.062485,0.063575,0.12497,-0.65464,-3.3868,9.1256,0.21816,-0.07272,-0.47739,0.29088,2.4851e-07,-0.2387,0,0,0.5,-0,7.8656e-17,0.66667
0.047245,0.75793,0.094491,0.38689,1.8932,9.3133,-0.097488,0.032496,-1.4678,-0.12998,3.8302e-09,-0.7339,0,0,0.5,-0,-0,0.66667
0.80495,0.90286,1.6099,0.60428,1.0109,1.1933,-2.5942,0.86475,-0.70202,-3.459,2.59e-09,-0.35101,0,0,0.5,-0,-0,0.66667
0.42278,0.45365,0.84556,-0.069521,-0.2643,4.5074,0.15676,-0.052253,-1.9824,0.20901,1.6969e-11,-0.9912,0,0,0.5,5.9212e-16,0,0.66667
0.10826,0.93002,0.21652,0.64504,3.3019,8.5275,-0.37244,0.12415,-0.52067,-0.49658,-1.5118e-08,-0.26033,0,0,0.5,-0,-4.3109e-16,0.66667
0.16703,0.48184,0.33407,-0.027247,-0.12539,7.7062,0.024273,-0.0080908,-1.9968,0.032363,6.2389e-10,-0.99839,0,0,0.5,-2.9606e-16,0,0.66667
0.68019,0.93436,1.3604,0.65155,1.774,2.1374,-2.3636,0.78787,-0.49104,-3.1515,7.2816e-11,-0.24552,0,0,0.5,-1.1842e-15,0,0.66667
0.42723,0.51986,0.85447,0.029795,0.11255,4.4544,-0.06789,0.02263,-1.9963,-0.09052,-6.9658e-12,-0.99816,0,0,0.5,-0,-0,0.66667
0.096808,0.74691,0.19362,0.37036,1.7934,8.6526,-0.19122,0.06374,-1.5128,-0.25496,2.1499e-09,-0.75642,0,0,0.5,1.8504e-16,0,0.66667
0.39201,0.345,0.78402,-0.2325,-0.92685,4.8853,0.48609,-0.16203,-1.8088,0.64812,7.2642e-11,-0.9044,0,0,0.5,-0,-0,0.66667
0.044756,0.050428,0.089512,-0.67436,-3.514,9.3587,0.16097,-0.053656,-0.38267,0.21462,-1.8353e-07,-0.19133,0,0,0.5,-0,-0,0.66667
0.27103,0.50175,0.54205,0.00262,0.011416,6.3564,-0.0037872,0.0012624,-2.0007,-0.0050496,-3.8134e-12,-1.0003,0,0,0.5,-0,-0,0.66667
0.50308,0.93003,1.0062,0.64504,2.4716,3.7916,-1.7307,0.5769,-0.52053,-2.3076,2.2338e-13,-0.26026,0,0,0.5,-8.8818e-16,0,0.66667
0.45748,0.73319,0.91496,0.34979,1.3155,4.1587,-0.85345,0.28448,-1.5644,-1.1379,-2.9142e-11,-0.78218,0,0,0.5,-5.9212e-16,0,0.66667
0.76863,0.51012,1.5373,0.015173,0.024263,1.1826,-0.062201,0.020734,-1.9988,-0.082935,5.0791e-11,-0.99942,0,0,0.5,-0,-0,0.66667
0.16023,0.065735,0.32046,-0.6514,-3.2916,7.8564,0.55666,-0.18555,-0.49179,0.74221,5.218e-09,-0.24589,0,0,0.5,-5.9212e-16,0,0.66667
0.51004,0.47306,1.0201,-0.040405,-0.13594,3.5314,0.10991,-0.036637,-1.9944,0.14655,-1.2697e-12,-0.99722,0,0,0.5,1.1842e-15,0,0.66667
0.14153,0.57578,0.28305,0.11367,0.52929,8.0455,-0.085796,0.028599,-1.9537,-0.11439,-9.46e-10,-0.97684,0,0,0.5,-0,-0,0.66667
0.18937,0.87093,0.37874,0.55639,2.7151,7.4642,-0.56194,0.18731,-0.89976,-0.74925,-2.6757e-09,-0.44988,0,0,0.5,-3.7007e-16,0,0.66667
0.4099,0.99863,0.8198,0.74795,3.3164,4.8595,-1.6351,0.54504,-0.011774,-2.1801,3.0131e-13,-0.0058868,0,0,0.5,-2.9606e-16,0,0.66667
0.14586,0.053295,0.29173,-0.67006,-3.4187,8.0445,0.52126,-0.17375,-0.40329,0.69501,6.4384e-09,-0.20164,0,0,0.5,-0,-0,0.66667
0.56233,0.039981,1.1247,-0.69003,-2.4547,3.2232,2.0695,-0.68982,-0.30703,2.7593,-1.7202e-12,-0.15351,0,0,0.5,1.1842e-15,0,0.66667
0.45523,0.75448,0.91046,0.38172,1.4489,4.1932,-0.92677,0.30892,-1.4823,-1.2357,-3.0214e-11,-0.74115,0,0,0.5,-0,-0,0.66667
0.9421,0.96945,1.8842,0.70417,0.37366,0.61437,-3.5381,1.1794,-0.23791,-4.7175,-4.2424e-07,-0.11895,0,0,0.5,-0,-0,0.66667
0.66999,0.20952,1.34,-0.43573,-1.1123,2.0819,1.557,-0.51899,-1.3247,2.076,-2.243e-10,-0.66237,0,0,0.5,-5.9212e-16,0,0.66667
0.10314,0.39609,0.20628,-0.15587,-0.73545,8.5582,0.085741,-0.02858,-1.9132,0.11432,-9.9162e-09,-0.95658,0,0,0.5,-1.4803e-16,0,0.66667
0.60711,0.34802,1.2142,-0.22797,-0.64701,2.5722,0.73814,-0.24605,-1.8156,0.98418,-7.0802e-11,-0.9078,0,0,0.5,-0,-0,0.66667
0.42033,0.68516,0.84066,0.27774,1.0798,4.5629,-0.62263,0.20754,-1.7265,-0.83017,-5.6735e-11,-0.86325,0,0,0.5,7.4015e-16,0,0.66667
0.50063,0.38817,1.0013,-0.16774,-0.57743,3.6446,0.44787,-0.14929,-1.8996,0.59715,-3.3465e-13,-0.9498,0,0,0.5,1.1842e-15,0,0.66667
0.65581,0.97596,1.3116,0.71395,2.131,2.391,-2.4971,0.83237,-0.18777,-3.3295,5.1514e-12,-0.093883,0,0,0.5,-0,-0,0.66667
0.18572,0.4786,0.37144,-0.032101,-0.14661,7.4602,0.031796,-0.010599,-1.9961,0.042395,3.2767e-10,-0.99804,0,0,0.5,-0,-0,0.66667
0.35953,0.58538,0.71907,0.12807,0.52222,5.2612,-0.24557,0.081858,-1.9417,-0.32743,-5.983e-11,-0.97084,0,0,0.5,-5.9212e-16,0,0.66667
0.48038,0.92355,0.96076,0.63532,2.5018,4.0258,-1.6277,0.54257,-0.56428,-2.1703,-1.716e-12,-0.28214,0,0,0.5,2.3235e-17,0,0.66667
0.61478,0.10255,1.2296,-0.59617,-1.8498,2.6653,1.9547,-0.65158,-0.73598,2.6063,-4.0377e-11,-0.36799,0,0,0.5,1.1842e-15,0,0.66667
0.28556,0.84647,0.57111,0.51971,2.3882,6.2408,-0.7915,0.26383,-1.0402,-1.0553,-4.6404e-10,-0.52011,0,0,0.5,-1.1842e-15,0,0.66667
0.50277,0.28156,1.0055,-0.32766,-1.1511,3.6569,0.8786,-0.29287,-1.6194,1.1715,-1.846e-12,-0.80969,0,0,0.5,-1.1842e-15,0,0.66667
0.27855,0.93816,0.55709,0.65723,3.1443,6.3679,-0.97637,0.32546,-0.46519,-1.3018,-1.7718e-10,-0.23259,0,0,0.5,-1.1842e-15,0,0.66667
0.57239,0.9367,1.1448,0.65505,2.2583,3.1023,-1.9997,0.66656,-0.47525,-2.6663,5.2022e-12,-0.23762,0,0,0.5,-3.3307e-16,0,0.66667
0.34229,0.29746,0.68458,-0.30381,-1.2823,5.4942,0.55461,-0.18487,-1.6714,0.73949,1.4413e-10,-0.83568,0,0,0.5,-0,-0,0.66667
0.83916,0.90905,1.6783,0.61358,0.84964,0.99768,-2.7461,0.91536,-0.66194,-3.6614,5.6696e-09,-0.33097,0,0,0.5,2.3685e-15,0,0.66667
0.68591,0.55116,1.3718,0.076742,0.17244,1.8356,-0.28074,0.093579,-1.9787,-0.37432,5.4324e-11,-0.98936,0,0,0.5,-0,-0,0.66667
0.81613,0.50449,1.6323,0.0067357,0.0080627,0.85953,-0.029319,0.0097728,-2.0001,-0.039091,-2.1096e-10,-1.0001,0,0,0.5,-4.737e-15,0,0.66667
0.15425,0.59451,0.30849,0.14176,0.65833,7.8779,-0.11662,0.038873,-1.9296,-0.15549,-1.037e-09,-0.9648,0,0,0.5,5.9212e-16,0,0.66667
0.18519,0.774,0.37039,0.41099,1.949,7.4947,-0.40594,0.13531,-1.3994,-0.54125,-1.64e-10,-0.69969,0,0,0.5,1.4803e-16,0,0.66667
0.54259,0.58437,1.0852,0.12656,0.40455,3.1951,-0.36625,0.12208,-1.9427,-0.48833,1.5857e-11,-0.97135,0,0,0.5,-0,-0,0.66667
0.061398,0.40484,0.1228,-0.14274,-0.67816,9.1175,0.046742,-0.01558,-1.9285,0.062322,1.7535e-07,-0.96427,0,0,0.5,-8.343e-17,0,0.66667
0.53806,0.35769,1.0761,-0.21347,-0.69445,3.2563,0.61257,-0.20419,-1.8373,0.81676,-2.1493e-11,-0.91866,0,0,0.5,-0,-0,0.66667
0.336,0.87976,0.67199,0.56965,2.5545,5.6403,-1.0208,0.34027,-0.84638,-1.3611,-1.4347e-10,-0.42319,0,0,0.5,-0,-0,0.66667
0.32445,0.50967,0.64891,0.014503,0.060746,5.6858,-0.025097,0.0083655,-1.9989,-0.033462,-9.9917e-12,-0.99946,0,0,0.5,-0,-0,0.66667
0.22985,0.82909,0.45971,0.49364,2.3304,6.9344,-0.60514,0.20171,-1.133,-0.80686,-1.0321e-09,-0.56649,0,0,0.5,-0,-0,0.66667
0.0046867,0.61641,0.0093735,0.17461,0.8349,9.8813,-0.0043644,0.0014547,-1.8913,-0.0058193,-1.707e-07,-0.94566,0,0,0.5,4.6259e-18,0,0.66667
0.68707,0.89772,1.3741,0.59658,1.5519,2.0395,-2.1861,0.7287,-0.73453,-2.9148,1.8458e-10,-0.36726,0,0,0.5,-5.9212e-16,4.7011e-16,0.66667
0.75278,0.68346,1.5056,0.2752,0.49708,1.3493,-1.1049,0.36829,-1.7311,-1.4732,9.2176e-11,-0.86556,0,0,0.5,-1.7764e-15,0,0.66667
0.33828,0.13222,0.67657,-0.55167,-2.4579,5.6068,0.99532,-0.33177,-0.91774,1.3271,1.5324e-10,-0.45887,0,0,0.5,-0,-0,0.66667
0.4698,0.51337,0.93961,0.02006,0.071677,3.9709,-0.050262,0.016754,-1.9982,-0.067016,-1.8992e-12,-0.99909,0,0,0.5,-0,-0,0.66667
0.79738,0.22182,1.5948,-0.41728,-0.64242,1.1058,1.7746,-0.59152,-1.3816,2.3661,-4.3695e-10,-0.69081,0,0,0.5,-0,-0,0.66667
0.64747,0.62309,1.2949,0.18463,0.47073,2.1883,-0.63756,0.21252,-1.8794,-0.85008,8.6258e-11,-0.93972,0,0,0.5,-2.9606e-16,0,0.66667
0.022978,0.49389,0.045956,-0.0091693,-0.043524,9.6343,0.0011206,-0.00037576,-1.9997,0.0014931,-3.3201e-06,-0.99983,0,0,0.5,-5.5511e-17,0,0.66667
0.28397,0.53922,0.56794,0.05883,0.25435,6.1931,-0.089099,0.0297,-1.9876,-0.1188,-5.7995e-11,-0.99378,0,0,0.5,-0,-0,0.66667
0.95439,0.38983,1.9088,-0.16526,0.013162,0.17423,0.84118,-0.28039,-1.9025,1.1216,-5.8123e-08,-0.95123,0,0,0.5,-0,-0,0.66667
0.88315,0.60933,1.7663,0.16399,0.10136,0.49213,-0.77242,0.25747,-1.9037,-1.0299,3.4299e-10,-0.95185,0,0,0.5,-0,-0,0.66667
0.32522,0.93694,0.65044,0.65541,3.0354,5.8005,-1.1368,0.37893,-0.47372,-1.5157,-5.7737e-11,-0.23686,0,0,0.5,8.5117e-16,0,0.66667
0.91063,0.54656,1.8213,0.069836,0.023211,0.3398,-0.33917,0.11306,-1.982,-0.45223,2.5554e-08,-0.99102,0,0,0.5,-0,-0,0.66667
0.47918,0.33199,0.95835,-0.25202,-0.90506,3.8938,0.64405,-0.21468,-1.7736,0.85874,1.2789e-11,-0.88682,0,0,0.5,-0,-0,0.66667
0.20207,0.0064462,0.40414,-0.74033,-3.7762,7.3443,0.79785,-0.26595,-0.051393,1.0638,-4.2591e-11,-0.025696,0,0,0.5,-0,-3.8779e-16,0.66667
0.27145,0.14925,0.5429,-0.52613,-2.4434,6.4178,0.76169,-0.2539,-1.0156,1.0156,5.8641e-10,-0.50782,0,0,0.5,-0,-0,0.66667
0.24098,0.060174,0.48196,-0.65974,-3.2272,6.8342,0.84792,-0.28264,-0.45299,1.1306,4.599e-10,-0.2265,0,0,0.5,-7.4015e-17,0,0.66667
0.055575,0.050093,0.11115,-0.67486,-3.5132,9.2173,0.20003,-0.066677,-0.38007,0.26671,-6.8289e-08,-0.19004,0,0,0.5,-0,-0,0.66667
0.43714,0.88836,0.87427,0.58254,2.3784,4.472,-1.3581,0.45271,-0.79307,-1.8108,-1.5643e-11,-0.39654,0,0,0.5,-0,-5.7966e-16,0.66667
0.90458,0.38064,1.8092,-0.17904,-0.075046,0.39015,0.86375,-0.28792,-1.8863,1.1517,1.1698e-08,-0.94313,0,0,0.5,-0,-0,0.66667
0.52576,0.082671,1.0515,-0.62599,-2.305,3.5466,1.7553,-0.5851,-0.60619,2.3404,-2.781e-12,-0.3031,0,0,0.5,-0,-0,0.66667
0.54546,0.030784,1.0909,-0.70382,-2.5879,3.398,2.0475,-0.6825,-0.23984,2.73,-2.5713e-13,-0.11992,0,0,0.5,-5.9212e-16,-3.4825e-17,0.66667
0.227,0.55039,0.454,0.07558,0.33869,6.9227,-0.091502,0.030501,-1.9791,-0.122,-1.7091e-10,-0.98955,0,0,0.5,-0,-0,0.66667
0.046401,0.57717,0.092802,0.11575,0.55011,9.3189,-0.028646,0.0095486,-1.952,-0.038194,1.4408e-07,-0.97599,0,0,0.5,7.4015e-17,0,0.66667
0.12581,0.61854,0.25162,0.17781,0.8354,8.2567,-0.1193,0.039768,-1.8878,-0.15907,2.8911e-09,-0.94388,0,0,0.5,2.2204e-16,0,0.66667
0.21513,0.41516,0.43025,-0.12727,-0.57525,7.0787,0.14602,-0.048673,-1.9421,0.19469,2.0409e-10,-0.97107,0,0,0.5,-0,-0,0.66667
0.87339,0.74188,1.7468,0.36282,0.29685,0.62468,-1.69,0.56334,-1.5319,-2.2534,-1.6321e-09,-0.76594,0,0,0.5,-0,-0,0.66667
0.98833,0.9501,1.9767,0.67514,0.008866,0.43496,-3.5587,1.1862,-0.37878,-4.745,-8.6907e-07,-0.18939,0,0,0.5,-0,-0,0.66667
0.017766,0.46314,0.035532,-0.055283,-0.26267,9.7047,0.0052398,-0.0017477,-1.9893,0.0069859,-1.6807e-06,-0.99466,0,0,0.5,1.8504e-17,0,0.66667
0.44331,0.1646,0.88662,-0.5031,-1.9945,4.3693,1.1895,-0.3965,-1.0998,1.586,2.6447e-11,-0.54989,0,0,0.5,-0,-0,0.66667
0.3692,0.049496,0.73839,-0.67576,-3.0386,5.2891,1.3306,-0.44353,-0.37576,1.7741,1.4288e-11,-0.18788,0,0,0.5,-5.9212e-16,0,0.66667
0.53646,0.41015,1.0729,-0.13478,-0.43586,3.2598,0.38561,-0.12854,-1.9357,0.51415,-1.4373e-11,-0.96787,0,0,0.5,-0,-0,0.66667
0.61652,0.96458,1.233,0.69687,2.2484,2.7207,-2.2914,0.76379,-0.27359,-3.0552,4.2728e-12,-0.13679,0,0,0.5,1.4803e-15,0,0.66667
0.396,0.60956,0.792,0.16433,0.64775,4.8287,-0.34707,0.11569,-1.9033,-0.46276,-5.2505e-11,-0.95167,0,0,0.5,5.9212e-16,0,0.66667
0.18386,0.15177,0.36773,-0.52235,-2.5348,7.529,0.51222,-0.17074,-1.0302,0.68296,2.096e-09,-0.51508,0,0,0.5,2.9606e-16,0,0.66667
0.58527,0.1641,1.1705,-0.50386,-1.6055,2.8881,1.5728,-0.52426,-1.0971,2.097,-4.7651e-11,-0.54855,0,0,0.5,-0,-0,0.66667
0.033297,0.65908,0.066594,0.23861,1.1461,9.4968,-0.042374,0.014125,-1.7982,-0.056499,-5.9984e-08,-0.8991,0,0,0.5,-0,-0,0.66667
0.89398,0.57297,1.788,0.10945,0.054727,0.42558,-0.52185,0.17395,-1.957,-0.6958,8.5839e-09,-0.97851,0,0,0.5,-0,-0,0.66667
0.64441,0.81161,1.2888,0.46741,1.2909,2.3215,-1.6064,0.53548,-1.2241,-2.1419,1.5319e-10,-0.61206,0,0,0.5,-1.4803e-15,0,0.66667
0.094544,0.090236,0.18909,-0.61465,-3.1311,8.7029,0.30993,-0.10331,-0.65736,0.41324,-8.9428e-09,-0.32868,0,0,0.5,-3.7007e-17,0,0.66667
0.55137,0.38788,1.1027,-0.16818,-0.53109,3.1107,0.49455,-0.16485,-1.8989,0.6594,-2.4604e-11,-0.94943,0,0,0.5,-1.1842e-15,0,0.66667
0.12897,0.86454,0.25795,0.54682,2.7184,8.2452,-0.37614,0.12538,-0.93644,-0.50151,-2.3522e-09,-0.46822,0,0,0.5,-0,-0,0.66667
0.11882,0.62957,0.23764,0.19435,0.91613,8.3503,-0.12316,0.041054,-1.8659,-0.16422,4.9023e-09,-0.93295,0,0,0.5,-0,-0,0.66667
0.26555,0.068562,0.5311,-0.64716,-3.1117,6.525,0.91654,-0.30551,-0.51117,1.2221,2.9733e-10,-0.25558,0,0,0.5,-5.9212e-16,-3.7031e-16,0.66667
0.76291,0.97716,1.5258,0.71575,1.5583,1.5714,-2.9123,0.97075,-0.17834,-3.883,9.8382e-11,-0.08917,0,0,0.5,-0,-0,0.66667
0.69822,0.50659,1.3964,0.0098848,0.021248,1.7288,-0.036809,0.01227,-1.9996,-0.049079,8.448e-12,-0.9998,0,0,0.5,-0,-0,0.66667
0.55885,0.20512,1.1177,-0.44233,-1.454,3.1177,1.3184,-0.43946,-1.3038,1.7578,-3.6435e-11,-0.65189,0,0,0.5,-0,-0,0.66667
0.25523,0.70714,0.51045,0.31071,1.3991,6.5799,-0.42295,0.14098,-1.6562,-0.56393,-1.6959e-10,-0.8281,0,0,0.5,-0,-0,0.66667
0.51787,0.62492,1.0357,0.18738,0.62887,3.4632,-0.51755,0.17252,-1.8763,-0.69006,9.1379e-12,-0.93817,0,0,0.5,-1.2906e-15,0,0.66667
0.92975,0.75604,1.8595,0.38405,0.11238,0.37234,-1.9044,0.6348,-1.4755,-2.5392,9.9759e-10,-0.73777,0,0,0.5,-2.3685e-15,0,0.66667
0.18532,0.29997,0.37064,-0.30005,-1.3983,7.4801,0.29656,-0.098852,-1.6795,0.39541,-3.6504e-10,-0.83973,0,0,0.5,-0,-0,0.66667
0.73421,0.71474,1.4684,0.32211,0.63862,1.5076,-1.2613,0.42043,-1.6317,-1.6817,2.0176e-10,-0.81584,0,0,0.5,-0,-0,0.66667
0.87218,0.66614,1.7444,0.24921,0.18873,0.57713,-1.1592,0.38641,-1.7789,-1.5456,-1.0885e-09,-0.88943,0,0,0.5,-2.3685e-15,0,0.66667
0.66946,0.85609,1.3389,0.53414,1.4185,2.1433,-1.9071,0.63571,-0.98513,-2.5428,1.9403e-10,-0.49256,0,0,0.5,-0,-0,0.66667
0.2037,0.15554,0.40739,-0.51669,-2.483,7.2729,0.56132,-0.18711,-1.0519,0.74842,1.7004e-09,-0.52597,0,0,0.5,-3.5157e-16,0,0.66667
0.12917,0.18059,0.25833,-0.47912,-2.3472,8.2347,0.33006,-0.11002,-1.1837,0.44008,-1.0822e-09,-0.59186,0,0,0.5,-1.4803e-16,0,0.66667
0.51503,0.26628,1.0301,-0.35058,-1.214,3.5335,0.96299,-0.321,-1.5626,1.284,-9.9125e-12,-0.7813,0,0,0.5,-0,-0,0.66667
0.13031,0.5904,0.26062,0.13561,0.63444,8.1953,-0.094244,0.031415,-1.935,-0.12566,1.5395e-10,-0.96751,0,0,0.5,1.4803e-16,0,0.66667
0.8257,0.050328,1.6514,-0.67451,-1.0695,1.133,2.9704,-0.99012,-0.38192,3.9605,-2.4065e-09,-0.19096,0,0,0.5,-0,-0,0.66667
0.52364,0.82894,1.0473,0.49341,1.7467,3.4991,-1.378,0.45933,-1.1337,-1.8373,1.0373e-11,-0.56686,0,0,0.5,-6.2012e-16,0,0.66667
0.29142,0.8793,0.58285,0.56895,2.6358,6.1821,-0.88429,0.29476,-0.84931,-1.1791,-3.5754e-10,-0.42465,0,0,0.5,-0,-0,0.66667
0.56813,0.71415,1.1363,0.32122,1.0072,2.9788,-0.97331,0.32444,-1.6333,-1.2978,4.9655e-11,-0.81666,0,0,0.5,5.9212e-16,0,0.66667
0.26064,0.35571,0.52127,-0.21643,-0.96014,6.4996,0.30085,-0.10028,-1.8329,0.40113,1.0702e-10,-0.91645,0,0,0.5,-0,-0,0.66667
0.58447,0.10427,1.1689,-0.5936,-1.955,2.9471,1.8503,-0.61678,-0.7467,2.4671,-2.206e-11,-0.37335,0,0,0.5,1.1842e-15,0,0.66667
0.23212,0.012567,0.46424,-0.73115,-3.6682,6.9656,0.90515,-0.30172,-0.098821,1.2069,5.1069e-11,-0.049411,0,0,0.5,-0,5.6943e-16,0.66667
0.21905,0.75306,0.4381,0.37959,1.7626,7.0527,-0.44347,0.14782,-1.4884,-0.59129,-2.5807e-10,-0.74421,0,0,0.5,-0,-0,0.66667
0.51851,0.65488,1.037,0.23231,0.78339,3.4651,-0.64243,0.21414,-1.809,-0.85657,1.0928e-11,-0.90449,0,0,0.5,2.2204e-16,0,0.66667
0.83542,0.9508,1.6708,0.67621,1.0156,1.079,-3.0129,1.0043,-0.37356,-4.0172,3.1632e-09,-0.18678,0,0,0.5,-0,-0,0.66667
0.64477,0.94235,1.2895,0.66352,1.9835,2.4454,-2.2817,0.76056,-0.43485,-3.0423,2.5004e-11,-0.21742,0,0,0.5,-0,-0,0.66667
0.094191,0.083239,0.18838,-0.62514,-3.1932,8.7086,0.31404,-0.10468,-0.61028,0.41872,3.5889e-09,-0.30514,0,0,0.5,-0,-0,0.66667
0.13407,0.96471,0.26814,0.69706,3.5954,8.201,-0.49842,0.16614,-0.27266,-0.66456,-7.3628e-09,-0.13633,0,0,0.5,-1.4803e-16,0,0.66667
0.3903,0.50048,0.7806,0.00071809,0.0028267,4.8868,-0.0014948,0.00049826,-2.0012,-0.001993,-4.6167e-13,-1.0006,0,0,0.5,-0,-0,0.66667
0.31956,0.072127,0.63913,-0.64181,-2.9732,5.8634,1.0939,-0.36462,-0.53497,1.4585,8.9963e-11,-0.26749,0,0,0.5,-5.9212e-16,0,0.66667
0.89122,0.96181,1.7824,0.69271,0.70067,0.80998,-3.2926,1.0975,-0.29401,-4.3901,2.4138e-08,-0.14701,0,0,0.5,-5.9212e-16,0,0.66667
0.89129,0.34245,1.7826,-0.23633,-0.13497,0.47374,1.1234,-0.37447,-1.8024,1.4979,5.8603e-09,-0.90122,0,0,0.5,-2.9606e-16,0,0.66667
0.029824,0.14414,0.059648,-0.53379,-2.6907,9.5495,0.084906,-0.028302,-0.98652,0.11321,2.0939e-08,-0.49326,0,0,0.5,3.7007e-17,0,0.66667
0.21052,0.79144,0.42104,0.43716,2.0598,7.1713,-0.49083,0.16361,-1.32,-0.65444,-6.8432e-10,-0.66002,0,0,0.5,-0,-0,0.66667
0.38835,0.20918,0.77671,-0.43623,-1.8073,4.9756,0.90352,-0.30117,-1.3231,1.2047,9.4838e-11,-0.66157,0,0,0.5,-2.9606e-16,0,0.66667
0.17637,0.45022,0.35275,-0.074676,-0.34275,7.5838,0.070245,-0.023415,-1.9796,0.09366,6.5331e-10,-0.98981,0,0,0.5,-0,-0,0.66667
0.91869,0.54374,1.8374,0.06561,0.016611,0.30252,-0.32147,0.10716,-1.9842,-0.42862,3.3772e-08,-0.9921,0,0,0.5,-0,-0,0.66667
0.1896,0.32043,0.3792,-0.26936,-1.2481,7.4213,0.27237,-0.090791,-1.7419,0.36316,-3.1928e-10,-0.87097,0,0,0.5,-0,-0,0.66667
0.73399,0.41842,1.468,-0.12237,-0.23156,1.4514,0.47902,-0.15967,-1.9465,0.63869,-1.1074e-10,-0.97323,0,0,0.5,-0,-0,0.66667
0.95692,0.78192,1.9138,0.42288,0.021899,0.2937,-2.1582,0.7194,-1.3651,-2.8776,1.7568e-08,-0.68257,0,0,0.5,2.3685e-15,0,0.66667
0.47772,0.45006,0.95544,-0.074904,-0.26506,3.8853,0.19084,-0.063614,-1.9794,0.25446,4.9867e-12,-0.98972,0,0,0.5,-0,-0,0.66667
0.81422,0.39825,1.6284,-0.15262,-0.189,0.88859,0.66275,-0.22092,-1.9171,0.88367,-2.2716e-10,-0.95855,0,0,0.5,-5.9212e-16,0,0.66667
0.42822,0.80021,0.85644,0.45031,1.7933,4.5199,-1.0284,0.34281,-1.2784,-1.3713,-4.6081e-11,-0.63921,0,0,0.5,-0,-0,0.66667
0.81345,0.93087,1.6269,0.6463,1.0691,1.1787,-2.8039,0.93463,-0.51498,-3.7385,2.4922e-09,-0.25749,0,0,0.5,1.1842e-15,0,0.66667
0.7617,0.55632,1.5234,0.084486,0.14051,1.2376,-0.34321,0.1144,-1.9746,-0.45762,1.4923e-10,-0.98732,0,0,0.5,-1.1842e-15,0,0.66667
0.9596,0.20572,1.9192,-0.44142,-0.018063,0.29783,2.2591,-0.75304,-1.3066,3.0122,9.2859e-09,-0.65329,0,0,0.5,-0,-0,0.66667
0.3366,0.22655,0.6732,-0.41017,-1.772,5.5863,0.73634,-0.24545,-1.4016,0.98179,1.997e-10,-0.70078,0,0,0.5,-0,-0,0.66667
0.76659,0.68871,1.5332,0.28306,0.48088,1.2518,-1.1573,0.38576,-1.7161,-1.5431,3.9914e-11,-0.85807,0,0,0.5,2.3685e-15,0,0.66667
0.92162,0.40088,1.8432,-0.14868,-0.036109,0.30401,0.73079,-0.2436,-1.9218,0.97438,3.7284e-08,-0.96088,0,0,0.5,-1.1842e-15,0,0.66667
0.81077,0.81939,1.6215,0.47909,0.71008,1.0594,-2.0716,0.69055,-1.184,-2.7622,1.2241e-09,-0.59198,0,0,0.5,-0,-0,0.66667
0.81434,0.89498,1.6287,0.59247,0.93448,1.1251,-2.5732,0.85773,-0.75156,-3.4309,3.069e-09,-0.37578,0,0,0.5,-0,-0,0.66667
0.9483,0.37711,1.8966,-0.18434,0.0019999,0.20315,0.9323,-0.31077,-1.8798,1.2431,1.524e-08,-0.93992,0,0,0.5,-2.3685e-15,0,0.66667
0.29068,0.29189,0.58137,-0.31216,-1.3736,6.1327,0.48395,-0.16132,-1.653,0.64526,1.9811e-10,-0.82652,0,0,0.5,5.9212e-16,0,0.66667
0.44015,0.95285,0.88029,0.67928,2.8498,4.4862,-1.5946,0.53153,-0.35885,-2.1261,-2.3523e-12,-0.17943,0,0,0.5,-0,-0,0.66667
0.10606,0.80128,0.21212,0.45191,2.2152,8.5362,-0.25562,0.085207,-1.2734,-0.34083,5.4477e-09,-0.63671,0,0,0.5,1.4803e-16,0,0.66667
0.87728,0.15756,1.7546,-0.51366,-0.47204,0.70751,2.4033,-0.80111,-1.0628,3.2044,3.8356e-09,-0.5314,0,0,0.5,-0,-0,0.66667
0.3437,0.89534,0.6874,0.59302,2.6595,5.5563,-1.087,0.36235,-0.74942,-1.4494,-9.9572e-11,-0.37471,0,0,0.5,-0,-0,0.66667
0.90524,0.92055,1.8105,0.63083,0.49973,0.68143,-3.0456,1.0152,-0.58467,-4.0608,1.311e-08,-0.29233,0,0,0.5,-0,-0,0.66667
0.20386,0.19547,0.40772,-0.45679,-2.1674,7.2603,0.49664,-0.16555,-1.2581,0.66219,8.9282e-10,-0.62905,0,0,0.5,-0,-0,0.66667
0.34961,0.80318,0.69921,0.45478,1.9613,5.441,-0.84796,0.28265,-1.2643,-1.1306,-1.6879e-10,-0.63213,0,0,0.5,-0,-0,0.66667
0.69048,0.77674,1.381,0.41511,0.99045,1.8992,-1.5287,0.50956,-1.3876,-2.0382,2.8215e-10,-0.69381,0,0,0.5,-8.8818e-16,0,0.66667
0.92271,0.56264,1.8454,0.093958,0.020522,0.28832,-0.46238,0.15413,-1.9699,-0.6165,8.6031e-08,-0.98494,0,0,0.5,-0,-0,0.66667
0.68795,0.53771,1.3759,0.056569,0.1261,1.8168,-0.20756,0.069185,-1.9888,-0.27674,4.2233e-11,-0.99441,0,0,0.5,-2.3685e-15,0,0.66667
0.34009,0.3772,0.68019,-0.1842,-0.76782,5.5033,0.33412,-0.11137,-1.88,0.44549,9.3739e-11,-0.94002,0,0,0.5,-0,-0,0.66667
0.040043,0.92407,0.080087,0.63611,3.283,9.4185,-0.13585,0.045283,-0.56068,-0.18113,2.5264e-07,-0.28034,0,0,0.5,-7.4015e-17,0,0.66667
0.33175,0.17309,0.6635,-0.49037,-2.1637,5.6665,0.86762,-0.28921,-1.1445,1.1568,2.1457e-10,-0.57223,0,0,0.5,5.9212e-16,0,0.66667
0.47616,0.25174,0.95232,-0.37238,-1.3721,3.9588,0.94568,-0.31523,-1.5076,1.2609,1.557e-11,-0.75381,0,0,0.5,-0,-0,0.66667
0.7304,0.22495,1.4608,-0.41258,-0.8587,1.58,1.6072,-0.53573,-1.3948,2.1429,-4.1736e-10,-0.69739,0,0,0.5,-0,-0,0.66667
0.89363,0.85203,1.7873,0.52805,0.41194,0.63929,-2.5167,0.8389,-1.0084,-3.3556,-9.0181e-10,-0.5042,0,0,0.5,-0,-0,0.66667
0.006309,0.32109,0.012618,-0.26836,-1.2947,9.8597,0.00903,-0.00301,-1.7436,0.01204,-2.0285e-09,-0.87181,0,0,0.5,-0,-0,0.66667
0.076734,0.73156,0.15347,0.34734,1.6824,8.9184,-0.14215,0.047383,-1.5706,-0.18953,1.7937e-09,-0.78532,0,0,0.5,-0,-0,0.66667
0.28179,0.26187,0.56358,-0.3572,-1.5927,6.2518,0.53683,-0.17894,-1.546,0.71578,2.6932e-10,-0.77302,0,0,0.5,5.9212e-16,0,0.66667
0.53562,0.1882,1.0712,-0.46771,-1.6121,3.3641,1.3361,-0.44536,-1.2232,1.7814,-1.8497e-11,-0.61158,0,0,0.5,2.3685e-15,0,0.66667
0.53579,0.95077,1.0716,0.67616,2.4971,3.4759,-1.9321,0.64405,-0.37384,-2.5762,1.2845e-12,-0.18692,0,0,0.5,-0,-0,0.66667
0.42526,0.96481,0.85053,0.69721,2.9907,4.6606,-1.5813,0.52711,-0.27202,-2.1084,-1.4471e-12,-0.13601,0,0,0.5,8.8818e-16,0,0.66667
0.88364,0.033297,1.7673,-0.70005,-0.76578,0.85345,3.2992,-1.0997,-0.25812,4.3989,-7.261e-09,-0.12906,0,0,0.5,-2.3685e-15,0,0.66667
0.72735,0.61572,1.4547,0.17358,0.34018,1.5128,-0.67337,0.22446,-1.8925,-0.89783,1.1263e-10,-0.94624,0,0,0.5,1.1842e-15,0,0.66667
0.13596,0.8092,0.27192,0.4638,2.2608,8.1439,-0.33632,0.11211,-1.2356,-0.44842,1.7505e-09,-0.61779,0,0,0.5,-1.8504e-16,0,0.66667
0.23514,0.12705,0.47027,-0.55942,-2.6738,6.8817,0.70155,-0.23385,-0.88817,0.93539,1.1661e-09,-0.44408,0,0,0.5,-5.9212e-16,0,0.66667
0.50531,0.11181,1.0106,-0.58228,-2.1776,3.7338,1.5692,-0.52307,-0.79389,2.0923,-1.0836e-12,-0.39694,0,0,0.5,5.9212e-16,0,0.66667
0.36252,0.11994,0.72504,-0.5701,-2.5005,5.3246,1.1022,-0.36741,-0.84463,1.4697,8.392e-11,-0.42231,0,0,0.5,-4.4409e-16,0,0.66667
0.80862,0.54022,1.6172,0.060326,0.076397,0.91062,-0.26016,0.086721,-1.9868,-0.34688,3.8422e-10,-0.99339,0,0,0.5,-0,-0,0.66667
0.41934,0.064992,0.83867,-0.65251,-2.7756,4.7043,1.4593,-0.48644,-0.48682,1.9458,6.9148e-12,-0.24341,0,0,0.5,-1.1842e-15,0,0.66667
0.94116,0.03024,1.8823,-0.70464,-0.381,0.61829,3.537,-1.179,-0.23552,4.7159,4.0637e-07,-0.11776,0,0,0.5,-1.3323e-15,0,0.66667
0.18246,0.41005,0.36491,-0.13493,-0.61952,7.5058,0.1313,-0.043767,-1.9356,0.17507,3.887e-10,-0.9678,0,0,0.5,-0,-0,0.66667
0.48279,0.038145,0.96557,-0.69278,-2.7743,4.0329,1.7838,-0.59461,-0.29358,2.3784,2.5113e-13,-0.14679,0,0,0.5,-0,4.0729e-16,0.66667
0.89425,0.90652,1.7885,0.60977,0.5309,0.71027,-2.9082,0.9694,-0.67903,-3.8776,2.5195e-08,-0.33951,0,0,0.5,-0,-0,0.66667
0.065736,0.63568,0.13147,0.20352,0.97077,9.0604,-0.071352,0.023784,-1.8523,-0.095136,-9.3121e-09,-0.92617,0,0,0.5,-0,-0,0.66667
0.27923,0.6332,0.55846,0.1998,0.87425,6.2621,-0.29755,0.099185,-1.8579,-0.39674,-1.1807e-10,-0.92897,0,0,0.5,-0,-0,0.66667
0.20277,0.21508,0.40555,-0.42737,-2.0173,7.2696,0.46219,-0.15406,-1.3512,0.61625,5.424e-10,-0.6756,0,0,0.5,-2.9606e-16,0,0.66667
0.98481,0.92867,1.9696,0.64301,0.003995,0.40741,-3.3773,1.1258,-0.52987,-4.503,-1.504e-07,-0.26493,0,0,0.5,-0,9.602e-16,0.66667
0.46845,0.39867,0.93691,-0.15199,-0.5477,3.9955,0.37974,-0.12658,-1.9179,0.50631,1.363e-11,-0.95897,0,0,0.5,2.9606e-16,0,0.66667
0.88817,0.87912,1.7763,0.56868,0.4994,0.70058,-2.6938,0.89792,-0.85056,-3.5917,-5.6558e-10,-0.42528,0,0,0.5,2.3685e-15,-1.028e-17,0.66667
0.85393,0.94951,1.7079,0.67427,0.89843,0.97549,-3.0708,1.0236,-0.38296,-4.0944,5.8718e-09,-0.19148,0,0,0.5,-0,-0,0.66667
0.10397,0.078431,0.20794,-0.63235,-3.2295,8.5818,0.35064,-0.11688,-0.57759,0.46752,1.6314e-08,-0.28879,0,0,0.5,-1.4803e-16,0,0.66667
0.34994,0.82452,0.69989,0.48679,2.1139,5.4463,-0.90852,0.30284,-1.1569,-1.2114,-1.5977e-10,-0.57845,0,0,0.5,-0,-0,0.66667
0.4967,0.0012393,0.99339,-0.74814,-3.0035,3.9219,1.9819,-0.66062,-0.010781,2.6425,-4.3965e-14,-0.0053904,0,0,0.5,-0,-0,0.66667
0.8789,0.34239,1.7578,-0.23642,-0.1627,0.53692,1.1082,-0.3694,-1.8021,1.4776,-1.9016e-09,-0.90105,0,0,0.5,-5.9212e-16,0,0.66667
0.98185,0.26024,1.9637,-0.35964,0.092567,0.16779,1.8833,-0.62776,-1.5398,2.511,-1.4653e-08,-0.7699,0,0,0.5,-0,-0,0.66667
0.33695,0.53122,0.6739,0.046824,0.19417,5.5323,-0.084145,0.028048,-1.9932,-0.11219,-2.8743e-11,-0.99662,0,0,0.5,-1.5728e-16,0,0.66667
0.78195,0.077452,1.5639,-0.63382,-1.2078,1.3673,2.6433,-0.8811,-0.57122,3.5244,-1.1804e-09,-0.28561,0,0,0.5,-0,-0,0.66667
0.85872,0.044453,1.7174,-0.68332,-0.88931,0.9596,3.1295,-1.0432,-0.33945,4.1727,-5.8839e-09,-0.16972,0,0,0.5,-0,-0,0.66667
0.28125,0.89533,0.5625,0.593,2.7828,6.3146,-0.88949,0.2965,-0.74951,-1.186,-3.7722e-10,-0.37476,0,0,0.5,-0,5.3843e-16,0.66667
0.19893,0.76491,0.39785,0.39737,1.8687,7.3148,-0.42159,0.14053,-1.438,-0.56212,-2.4998e-10,-0.71898,0,0,0.5,2.9606e-16,0,0.66667
0.64661,0.71678,1.2932,0.32517,0.8551,2.2372,-1.1214,0.37379,-1.6247,-1.4952,1.3888e-10,-0.81235,0,0,0.5,-4.4409e-16,0,0.66667
0.56414,0.77004,1.1283,0.40507,1.3054,3.0492,-1.2187,0.40625,-1.4163,-1.625,4.4337e-11,-0.70814,0,0,0.5,-0,-0,0.66667
0.15458,0.13706,0.30915,-0.54441,-2.6839,7.9115,0.44881,-0.1496,-0.94582,0.59841,3.5183e-09,-0.47291,0,0,0.5,2.9606e-16,-2.2323e-16,0.66667
0.74217,0.62283,1.4843,0.18425,0.3404,1.401,-0.72929,0.2431,-1.8799,-0.97239,1.0851e-10,-0.93995,0,0,0.5,1.3323e-15,0,0.66667
0.36009,0.84422,0.72019,0.51633,2.2382,5.3345,-0.99161,0.33054,-1.0533,-1.3221,-1.236e-10,-0.52665,0,0,0.5,-0,-0,0.66667
0.60467,0.055232,1.2093,-0.66715,-2.1759,2.8067,2.1515,-0.71717,-0.41731,2.8687,-9.2124e-12,-0.20866,0,0,0.5,-0,-3.203e-17,0.66667
0.006493,0.7986,0.012986,0.44789,2.2206,9.8579,-0.01551,0.0051701,-1.2861,-0.02068,-1.592e-08,-0.64304,0,0,0.5,-9.2519e-18,0,0.66667
0.59052,0.79943,1.181,0.44914,1.3921,2.8105,-1.4145,0.47151,-1.2822,-1.886,6.5007e-11,-0.64111,0,0,0.5,-0,-0,0.66667
0.73343,0.88798,1.4669,0.58197,1.2992,1.6667,-2.2764,0.75881,-0.7954,-3.0352,5.5481e-10,-0.3977,0,0,0.5,-0,5.7515e-16,0.66667
0.34567,0.39184,0.69135,-0.16224,-0.67166,5.4328,0.2991,-0.099699,-1.9059,0.3988,8.1224e-11,-0.95297,0,0,0.5,-5.9212e-16,0,0.66667
0.75933,0.75572,1.5187,0.38358,0.70098,1.3495,-1.5534,0.5178,-1.4769,-2.0712,3.5391e-10,-0.73844,0,0,0.5,-0,-0,0.66667
0.42697,0.74292,0.85394,0.36438,1.4267,4.5075,-0.82976,0.27659,-1.5278,-1.1063,-5.4464e-11,-0.7639,0,0,0.5,2.5282e-16,0,0.66667
0.4232,0.39173,0.8464,-0.16241,-0.62074,4.5107,0.36656,-0.12219,-1.9058,0.48875,3.6881e-11,-0.95289,0,0,0.5,-5.9212e-16,0,0.66667
0.29935,0.95199,0.59871,0.67798,3.2196,6.1209,-1.0824,0.36081,-0.36514,-1.4432,-7.2095e-11,-0.18257,0,0,0.5,-0,-0,0.66667
0.74106,0.040197,1.4821,-0.6897,-1.5963,1.7005,2.7259,-0.90864,-0.30829,3.6346,-1.4105e-10,-0.15415,0,0,0.5,-0,-0,0.66667
0.91708,0.19076,1.8342,-0.46386,-0.22617,0.48163,2.2688,-0.75627,-1.2354,3.0251,3.0923e-09,-0.6177,0,0,0.5,2.3685e-15,0,0.66667
0.4431,0.36569,0.8862,-0.20147,-0.75449,4.2879,0.47612,-0.15871,-1.8553,0.63482,3.1543e-11,-0.92765,0,0,0.5,-5.9212e-16,0,0.66667
0.98698,0.79473,1.974,0.4421,-0.10731,0.21015,-2.3272,0.77572,-1.3046,-3.1029,3.8965e-08,-0.65228,0,0,0.5,-0,-0,0.66667
0.79949,0.64503,1.599,0.21755,0.30242,1.0019,-0.92761,0.3092,-1.8313,-1.2368,-1.0438e-10,-0.91566,0,0,0.5,-1.1842e-15,0,0.66667
0.31124,0.50736,0.62247,0.011042,0.046743,5.85,-0.01833,0.0061099,-1.9996,-0.02444,-8.6064e-12,-0.9998,0,0,0.5,1.1842e-15,0,0.66667
0.23311,0.98419,0.46621,0.72628,3.6366,6.9519,-0.90293,0.30098,-0.12407,-1.2039,-7.1816e-11,-0.062033,0,0,0.5,-2.9606e-16,5.9203e-16,0.66667
0.35894,0.13272,0.71787,-0.55092,-2.4117,5.3601,1.0546,-0.35155,-0.92088,1.4062,1.0348e-10,-0.46044,0,0,0.5,-0,4.766e-16,0.66667
0.40467,0.41456,0.80934,-0.12817,-0.49904,4.7229,0.27662,-0.092205,-1.9415,0.36882,3.8284e-11,-0.97075,0,0,0.5,-1.1842e-15,0,0.66667
0.4959,0.6795,0.9918,0.26925,0.94605,3.7154,-0.71211,0.23737,-1.742,-0.94948,-2.5949e-12,-0.87102,0,0,0.5,5.9212e-16,0,0.66667
0.70153,0.37924,1.4031,-0.18114,-0.39114,1.7218,0.67775,-0.22592,-1.8838,0.90367,-1.111e-10,-0.94188,0,0,0.5,-0,-0,0.66667
0.841,0.2069,1.682,-0.43965,-0.51804,0.85038,1.972,-0.65733,-1.3123,2.6293,1.5805e-10,-0.65614,0,0,0.5,-1.1842e-15,0,0.66667
0.059074,0.43867,0.11815,-0.091996,-0.43608,9.1481,0.028984,-0.0096618,-1.9708,0.038646,-4.0972e-07,-0.9854,0,0,0.5,-1.4803e-16,0,0.66667
0.45307,0.78614,0.90614,0.42921,1.6509,4.2328,-1.0371,0.34571,-1.3454,-1.3829,-2.9017e-11,-0.67272,0,0,0.5,-1.1842e-15,0,0.66667
0.42756,0.30497,0.85511,-0.29255,-1.1303,4.4829,0.66709,-0.22236,-1.6955,0.88946,5.165e-11,-0.84775,0,0,0.5,2.9606e-16,0,0.66667
0.42403,0.4577,0.84806,-0.063455,-0.24082,4.4926,0.1435,-0.047835,-1.9853,0.19134,1.5233e-11,-0.99266,0,0,0.5,-0,-0,0.66667
0.56368,0.41811,1.1274,-0.12283,-0.37723,2.9792,0.36927,-0.12309,-1.946,0.49236,-2.3614e-11,-0.97301,0,0,0.5,-0,-0,0.66667
0.9398,0.21483,1.8796,-0.42776,-0.098041,0.36129,2.144,-0.71468,-1.3499,2.8587,1.1006e-08,-0.67493,0,0,0.5,1.4803e-15,0,0.66667
0.33032,0.68057,0.66064,0.27085,1.1495,5.6348,-0.47716,0.15905,-1.7392,-0.63621,-1.3963e-10,-0.86959,0,0,0.5,-2.9606e-16,0,0.66667
0.94897,0.44349,1.8979,-0.084761,0.0038457,0.17796,0.42899,-0.143,-1.9745,0.57199,-1.1537e-08,-0.98725,0,0,0.5,-2.3685e-15,0,0.66667
0.24588,0.58462,0.49177,0.12693,0.56411,6.6814,-0.16645,0.055484,-1.9424,-0.22194,-1.3438e-10,-0.9712,0,0,0.5,-0,-0,0.66667
0.54841,0.11128,1.0968,-0.58308,-2.04,3.2931,1.7054,-0.56847,-0.79072,2.2739,-1.0899e-11,-0.39536,0,0,0.5,-0,-0,0.66667
0.7134,0.87394,1.4268,0.5609,1.3248,1.804,-2.1341,0.71138,-0.88221,-2.8455,4.1314e-10,-0.44111,0,0,0.5,-1.4803e-16,0,0.66667
0.88062,0.85869,1.7612,0.53803,0.49188,0.7108,-2.5269,0.84232,-0.97009,-3.3693,1.2582e-09,-0.48505,0,0,0.5,-0,-0,0.66667
0.7817,0.32071,1.5634,-0.26893,-0.42116,1.1401,1.1212,-0.37373,-1.7428,1.4949,5.4066e-11,-0.87142,0,0,0.5,-2.3685e-15,0,0.66667
0.96576,0.29485,1.9315,-0.30772,0.038824,0.19066,1.585,-0.52833,-1.6628,2.1133,-1.6874e-08,-0.83139,0,0,0.5,-0,-0,0.66667
0.55114,0.15396,1.1023,-0.51907,-1.7697,3.2313,1.5258,-0.50859,-1.0427,2.0343,-2.1047e-11,-0.52133,0,0,0.5,-7.4015e-16,0,0.66667
0.90543,0.76401,1.8109,0.39601,0.21399,0.48657,-1.9123,0.63743,-1.442,-2.5497,-1.7062e-09,-0.72101,0,0,0.5,1.1842e-15,0,0.66667
0.65468,0.78061,1.3094,0.42091,1.1145,2.207,-1.4697,0.48989,-1.3712,-1.9596,1.8171e-10,-0.68559,0,0,0.5,-1.6653e-15,0,0.66667
0.16901,0.38375,0.33802,-0.17437,-0.80721,7.6845,0.15718,-0.052393,-1.8917,0.20957,4.4651e-11,-0.94584,0,0,0.5,-0,-0,0.66667
0.030661,0.79387,0.061321,0.4408,2.1804,9.5359,-0.072082,0.024027,-1.3088,-0.096109,3.9784e-09,-0.6544,0,0,0.5,-0,-0,0.66667
0.76078,0.52148,1.5216,0.03222,0.053625,1.2402,-0.13073,0.043578,-1.9959,-0.17431,7.2123e-11,-0.99796,0,0,0.5,1.1842e-15,0,0.66667
0.67762,0.93804,1.3552,0.65706,1.8061,2.1629,-2.3746,0.79153,-0.46591,-3.1661,5.987e-11,-0.23296,0,0,0.5,2.3685e-15,0,0.66667
0.28831,0.61978,0.57663,0.17967,0.7798,6.1457,-0.27627,0.092091,-1.8853,-0.36836,-1.1283e-10,-0.94265,0,0,0.5,2.9606e-16,0,0.66667
0.10602,0.11989,0.21203,-0.57016,-2.8663,8.5481,0.32238,-0.10746,-0.84434,0.42984,-5.773e-09,-0.42217,0,0,0.5,-1.4803e-16,0,0.66667
0.68946,0.0081631,1.3789,-0.73776,-2.0504,2.1356,2.7128,-0.90427,-0.064666,3.6171,-2.2651e-12,-0.032333,0,0,0.5,-0,-0,0.66667
0.74945,0.37868,1.4989,-0.18197,-0.3255,1.3456,0.72736,-0.24245,-1.8829,0.96981,-1.0371e-10,-0.94143,0,0,0.5,-0,-0,0.66667
0.55828,0.81749,1.1166,0.47623,1.5825,3.1389,-1.418,0.47266,-1.1938,-1.8906,3.1738e-11,-0.5969,0,0,0.5,1.1842e-15,0,0.66667
0.66524,0.27045,1.3305,-0.34432,-0.86518,2.0806,1.2216,-0.40721,-1.578,1.6288,-1.7448e-10,-0.78898,0,0,0.5,5.9212e-16,0,0.66667
0.40406,0.16452,0.80812,-0.50321,-2.0842,4.8151,1.0844,-0.36147,-1.0995,1.4459,5.8469e-11,-0.54976,0,0,0.5,-0,-0,0.66667
0.86609,0.64831,1.7322,0.22247,0.17815,0.60026,-1.0276,0.34254,-1.8238,-1.3702,-1.2322e-09,-0.91188,0,0,0.5,-5.9212e-16,0,0.66667
0.5324,0.2351,1.0648,-0.39735,-1.3518,3.3683,1.1283,-0.37609,-1.4382,1.5043,-2.0643e-11,-0.7191,0,0,0.5,-0,-0,0.66667
0.89484,0.3014,1.7897,-0.29791,-0.17023,0.48237,1.4217,-0.47392,-1.684,1.8957,-1.0536e-09,-0.84199,0,0,0.5,-0,-0,0.66667
0.73971,0.030675,1.4794,-0.70399,-1.6514,1.7233,2.7773,-0.92577,-0.23881,3.7031,-5.9529e-11,-0.11941,0,0,0.5,1.0362e-15,0,0.66667
0.5229,0.73523,1.0458,0.35284,1.207,3.4515,-0.98401,0.328,-1.5567,-1.312,1.5106e-11,-0.77834,0,0,0.5,-0,-0,0.66667
0.71966,0.35729,1.4393,-0.21406,-0.4357,1.5836,0.82162,-0.27387,-1.8367,1.0955,-1.22e-10,-0.91834,0,0,0.5,-0,-0,0.66667
0.88675,0.58768,1.7735,0.13152,0.075532,0.46617,-0.62202,0.20734,-1.9385,-0.82936,-2.6777e-09,-0.96927,0,0,0.5,-1.7764e-15,0,0.66667
0.19451,0.80572,0.38902,0.45858,2.1857,7.3811,-0.47573,0.15858,-1.2522,-0.63431,-8.9284e-10,-0.62608,0,0,0.5,1.4803e-16,0,0.66667
0.42981,0.76106,0.85961,0.39159,1.5365,4.483,-0.89764,0.29921,-1.4542,-1.1969,-5.0618e-11,-0.72712,0,0,0.5,-0,-0,0.66667
0.85935,0.051229,1.7187,-0.67316,-0.86254,0.94576,3.0852,-1.0284,-0.38862,4.1136,-6.7134e-09,-0.19431,0,0,0.5,-0,5.4614e-16,0.66667
0.030496,0.3059,0.060993,-0.29115,-1.4071,9.5351,0.047354,-0.015785,-1.6988,0.063139,-2.9151e-08,-0.84938,0,0,0.5,-1.8504e-17,0,0.66667
0.13308,0.81319,0.26616,0.46978,2.2946,8.1823,-0.33344,0.11115,-1.2162,-0.44458,1.8511e-09,-0.6081,0,0,0.5,-0,-0,0.66667
0.40535,0.062281,0.81069,-0.65658,-2.8369,4.8644,1.4194,-0.47314,-0.46846,1.8926,8.2765e-12,-0.23423,0,0,0.5,6.5688e-16,1.6445e-17,0.66667
0.11236,0.96136,0.22472,0.69205,3.5843,8.4805,-0.41471,0.13824,-0.29706,-0.55294,-1.5084e-08,-0.14853,0,0,0.5,7.4015e-17,0,0.66667
0.72615,0.042525,1.4523,-0.68621,-1.6648,1.8067,2.6576,-0.88586,-0.32519,3.5434,-1.0834e-10,-0.16259,0,0,0.5,-0,-0,0.66667
0.97481,0.36479,1.9496,-0.20282,0.055852,0.11372,1.0544,-0.35148,-1.8533,1.4059,4.479e-07,-0.92664,0,0,0.5,-0,-0,0.66667
0.48907,0.64006,0.97813,0.21009,0.73955,3.7772,-0.548,0.18267,-1.8424,-0.73066,-6.0465e-12,-0.92122,0,0,0.5,-0,-0,0.66667
0.96027,0.59781,1.9205,0.14672,-0.021369,0.14756,-0.75139,0.25046,-1.9237,-1.0019,-1.4305e-07,-0.96186,0,0,0.5,-0,-0,0.66667
0.13577,0.63742,0.27154,0.20613,0.96795,8.1256,-0.14926,0.049754,-1.8484,-0.19902,2.6443e-10,-0.92418,0,0,0.5,-0,-0,0.66667
0.70044,0.16041,1.4009,-0.50939,-1.2238,1.8719,1.9029,-0.63431,-1.0778,2.5372,-3.6571e-10,-0.5389,0,0,0.5,-0,-0,0.66667
0.58286,0.50707,1.1657,0.010607,0.03116,2.78,-0.032972,0.010991,-1.9995,-0.043963,2.8732e-12,-0.99974,0,0,0.5,-2.3685e-15,0,0.66667
0.79173,0.15422,1.5835,-0.51867,-0.87438,1.21,2.1901,-0.73004,-1.0441,2.9202,-1.606e-09,-0.52207,0,0,0.5,-1.0979e-15,0,0.66667
0.5377,0.032374,1.0754,-0.70144,-2.6081,3.4734,2.0115,-0.67051,-0.25141,2.6821,-2.7489e-13,-0.1257,0,0,0.5,-0,-0,0.66667
0.97989,0.7481,1.9598,0.37215,-0.084619,0.18188,-1.9449,0.64829,-1.5083,-2.5932,3.0724e-09,-0.75414,0,0,0.5,1.4803e-15,0,0.66667
0.43965,0.39214,0.87931,-0.16179,-0.60609,4.3215,0.37936,-0.12645,-1.9064,0.50581,2.8276e-11,-0.95322,0,0,0.5,-0,-0,0.66667
0.95027,0.5597,1.9005,0.089546,-0.0051701,0.17361,-0.45383,0.15128,-1.9721,-0.6051,3.4704e-09,-0.98605,0,0,0.5,2.9606e-16,0,0.66667
0.91828,0.069413,1.8366,-0.64588,-0.44266,0.64135,3.1632,-1.0544,-0.51671,4.2176,-3.5958e-08,-0.25835,0,0,0.5,2.3685e-15,0,0.66667
0.42387,0.83958,0.84774,0.50936,2.0684,4.5907,-1.1515,0.38383,-1.0779,-1.5353,-3.8676e-11,-0.53897,0,0,0.5,-0,-0,0.66667
0.41052,0.40633,0.82104,-0.1405,-0.54396,4.6556,0.30761,-0.10254,-1.9309,0.41015,3.8882e-11,-0.96545,0,0,0.5,-0,-0,0.66667
0.019947,0.15337,0.039894,-0.51994,-2.6144,9.68,0.055314,-0.018438,-1.0393,0.073752,-1.1067e-07,-0.51966,0,0,0.5,3.7007e-17,0,0.66667
0.44849,0.183,0.89699,-0.47549,-1.86,4.3007,1.1374,-0.37912,-1.1963,1.5165,2.7292e-11,-0.59817,0,0,0.5,2.9606e-16,0,0.66667
0.19941,0.66022,0.39882,0.24034,1.105,7.2908,-0.2556,0.085201,-1.795,-0.3408,1.9429e-10,-0.89749,0,0,0.5,-0,-0,0.66667
0.33593,0.65222,0.67185,0.22833,0.9595,5.5598,-0.40908,0.13636,-1.8149,-0.54544,-1.1499e-10,-0.90745,0,0,0.5,9.3906e-16,0,0.66667
0.28252,0.058519,0.56503,-0.66222,-3.1648,6.3208,0.9978,-0.3326,-0.44125,1.3304,1.4927e-10,-0.22063,0,0,0.5,-4.4409e-16,0,0.66667
0.6702,0.42633,1.3404,-0.11051,-0.26158,1.9744,0.39499,-0.13166,-1.9562,0.52666,-6.5926e-11,-0.97812,0,0,0.5,-0,-0,0.66667
0.44017,0.44975,0.88035,-0.075378,-0.2806,4.3076,0.17696,-0.058986,-1.9793,0.23594,1.3955e-11,-0.98967,0,0,0.5,-0,-0,0.66667
0.60025,0.34235,1.2005,-0.23648,-0.68258,2.6399,0.75705,-0.25235,-1.8019,1.0094,-6.7313e-11,-0.90095,0,0,0.5,-1.2583e-15,0,0.66667
0.84352,0.70547,1.687,0.3082,0.32476,0.76215,-1.3865,0.46218,-1.6619,-1.8487,-7.0101e-10,-0.83097,0,0,0.5,-0,-0,0.66667
0.83277,0.6182,1.6655,0.1773,0.19218,0.77875,-0.78746,0.26249,-1.8882,-1.0499,2.1554e-11,-0.94408,0,0,0.5,5.9212e-16,0,0.66667
0.58556,0.98599,1.1711,0.72899,2.5314,3.0299,-2.2766,0.75887,-0.10982,-3.0355,5.8376e-13,-0.054909,0,0,0.5,-1.1842e-15,0,0.66667
0.44054,0.038786,0.88107,-0.69182,-2.9135,4.4886,1.6255,-0.54182,-0.29815,2.1673,1.3398e-12,-0.14908,0,0,0.5,-0,-0,0.66667
0.40041,0.82476,0.80082,0.48715,2.0173,4.8516,-1.0403,0.34677,-1.1557,-1.3871,-6.7174e-11,-0.57783,0,0,0.5,-0,-0,0.66667
0.071127,0.73671,0.14225,0.35507,1.7234,8.9935,-0.13469,0.044898,-1.5511,-0.17959,4.2286e-09,-0.77555,0,0,0.5,-8.4231e-17,0,0.66667
0.46738,0.98111,0.93476,0.72167,2.9769,4.2142,-1.7989,0.59964,-0.14786,-2.3985,-1.4033e-13,-0.07393,0,0,0.5,-0,-0,0.66667
0.40304,0.4091,0.80609,-0.13636,-0.53219,4.7428,0.2931,-0.097702,-1.9345,0.39081,4.1358e-11,-0.96724,0,0,0.5,-0,-0,0.66667
0.20153,0.61706,0.40306,0.17558,0.80161,7.2584,-0.18872,0.062908,-1.8903,-0.25163,-7.3794e-11,-0.94516,0,0,0.5,-0,-0,0.66667
0.80272,0.92677,1.6054,0.64015,1.1128,1.2392,-2.7406,0.91354,-0.54247,-3.6541,1.8836e-09,-0.27124,0,0,0.5,-0,-0,0.66667
0.69815,0.77512,1.3963,0.41268,0.96034,1.835,-1.5366,0.5122,-1.3945,-2.0488,3.0495e-10,-0.69724,0,0,0.5,-0,-0,0.66667
0.97541,0.64526,1.9508,0.21789,-0.059917,0.11723,-1.1335,0.37783,-1.8307,-1.5113,-1.1554e-07,-0.91534,0,0,0.5,1.1842e-15,0,0.66667
0.38552,0.12996,0.77103,-0.55506,-2.3739,5.0493,1.1412,-0.38042,-0.90473,1.5217,5.9747e-11,-0.45236,0,0,0.5,1.1842e-15,0,0.66667
0.41693,0.73451,0.83386,0.35176,1.3899,4.6195,-0.78219,0.26073,-1.5594,-1.0429,-6.4112e-11,-0.7797,0,0,0.5,5.9212e-16,0,0.66667
0.51973,0.99757,1.0395,0.74636,2.9011,3.6845,-2.0688,0.68962,-0.019981,-2.7585,-3.0198e-14,-0.0099904,0,0,0.5,-1.9244e-15,0,0.66667
0.35329,0.024974,0.70658,-0.71254,-3.2854,5.4913,1.3426,-0.44752,-0.19475,1.7901,4.4028e-12,-0.097375,0,0,0.5,-5.9212e-16,0,0.66667
0.54525,0.83111,1.0905,0.49666,1.6987,3.2795,-1.4443,0.48143,-1.1225,-1.9257,2.0833e-11,-0.56126,0,0,0.5,5.9212e-16,0,0.66667
0.88975,0.49816,1.7795,-0.0027625,-0.0014555,0.43726,0.013109,-0.0043697,-2.0009,0.017479,-2.867e-08,-1.0004,0,0,0.5,1.7764e-15,0,0.66667
0.73052,0.93548,1.461,0.65321,1.5326,1.7456,-2.545,0.84833,-0.48359,-3.3933,2.4119e-10,-0.2418,0,0,0.5,-1.1842e-15,-5.1787e-16,0.66667
0.20651,0.14358,0.41302,-0.53462,-2.5763,7.2403,0.58883,-0.19628,-0.98323,0.78511,1.7702e-09,-0.49161,0,0,0.5,2.9606e-16,0,0.66667
0.80015,0.65123,1.6003,0.22685,0.31503,1.0005,-0.96806,0.32269,-1.8173,-1.2907,-1.5489e-10,-0.90863,0,0,0.5,-0,-0,0.66667
0.79531,0.20932,1.5906,-0.43601,-0.68617,1.1308,1.8494,-0.61647,-1.3239,2.4659,-6.5601e-10,-0.66193,0,0,0.5,-5.9212e-16,0,0.66667
0.79909,0.59601,1.5982,0.14402,0.19672,0.98569,-0.6138,0.2046,-1.927,-0.81839,1.6437e-10,-0.96349,0,0,0.5,2.3685e-15,0,0.66667
0.3168,0.49343,0.63361,-0.0098512,-0.041516,5.7807,0.016645,-0.0055482,-1.9996,0.022193,7.3135e-12,-0.99981,0,0,0.5,2.9606e-16,0,0.66667
0.61295,0.86959,1.2259,0.55439,1.6992,2.6559,-1.8123,0.60411,-0.90737,-2.4164,5.8306e-11,-0.45368,0,0,0.5,-2.9606e-16,0,0.66667
0.65229,0.99038,1.3046,0.73556,2.2375,2.439,-2.5589,0.85298,-0.07591,-3.4119,1.5206e-12,-0.037955,0,0,0.5,-1.7764e-15,0,0.66667
0.12023,0.84892,0.24045,0.52339,2.5944,8.3569,-0.3356,0.11187,-1.0262,-0.44746,2.5339e-09,-0.51308,0,0,0.5,-2.9606e-16,0,0.66667
0.91868,0.46765,1.8374,-0.04853,-0.012194,0.30098,0.23778,-0.079259,-1.9925,0.31704,-1.0277e-08,-0.99627,0,0,0.5,-2.9606e-16,0,0.66667
0.36814,0.84175,0.73627,0.51262,2.2041,5.238,-1.0065,0.33549,-1.0663,-1.342,-1.0801e-10,-0.53315,0,0,0.5,6.6613e-16,0,0.66667
0.68838,0.16083,1.3768,-0.50876,-1.2674,1.9695,1.8678,-0.62261,-1.0801,2.4904,-2.9682e-10,-0.54006,0,0,0.5,-0,-0,0.66667
0.92834,0.017931,1.8567,-0.7231,-0.50322,0.68798,3.5802,-1.1934,-0.14025,4.7736,6.8295e-08,-0.070124,0,0,0.5,-0,-0,0.66667
0.67487,0.62506,1.3497,0.18759,0.44223,1.9477,-0.67519,0.22506,-1.876,-0.90026,1.0346e-10,-0.93801,0,0,0.5,2.3685e-15,0,0.66667
0.93848,0.4245,1.877,-0.11325,-0.0074746,0.22456,0.56683,-0.18894,-1.954,0.75577,9.3643e-08,-0.97701,0,0,0.5,1.1842e-15,0,0.66667
0.69911,0.84806,1.3982,0.52209,1.2666,1.8908,-1.9467,0.64889,-1.0311,-2.5956,3.5031e-10,-0.51556,0,0,0.5,-0,-0,0.66667
0.17086,0.74637,0.34172,0.36955,1.7502,7.6763,-0.33675,0.11225,-1.515,-0.449,4.3257e-10,-0.7575,0,0,0.5,2.9606e-16,0,0.66667
0.72891,0.18436,1.4578,-0.47346,-1.0174,1.6264,1.8406,-0.61352,-1.2034,2.4541,-5.5035e-10,-0.60171,0,0,0.5,2.158e-16,0,0.66667
0.40572,0.53414,0.81144,0.05121,0.19843,4.7056,-0.11081,0.036937,-1.9914,-0.14775,-1.5925e-11,-0.99571,0,0,0.5,-0,-0,0.66667
0.31857,0.61105,0.63715,0.16657,0.70585,5.7665,-0.28301,0.094338,-1.9007,-0.37735,-9.7566e-11,-0.95035,0,0,0.5,-0,-0,0.66667
0.78065,0.35957,1.5613,-0.21064,-0.32562,1.128,0.877,-0.29233,-1.8418,1.1693,-1.5057e-11,-0.92092,0,0,0.5,1.1842e-15,0,0.66667
0.79049,0.36944,1.581,-0.19584,-0.28536,1.0561,0.82565,-0.27522,-1.8637,1.1009,-4.8218e-12,-0.93184,0,0,0.5,-5.9212e-16,0,0.66667
0.94901,0.35226,1.898,-0.22161,0.00052591,0.21315,1.1216,-0.37388,-1.8251,1.4955,2.7418e-08,-0.91257,0,0,0.5,-0,-0,0.66667
0.20319,0.74756,0.40637,0.37134,1.7352,7.2562,-0.4024,0.13413,-1.5106,-0.53654,-7.9258e-11,-0.75529,0,0,0.5,-2.9606e-16,0,0.66667
0.53266,0.3068,1.0653,-0.2898,-0.96324,3.3306,0.82328,-0.27443,-1.7016,1.0977,-2.1638e-11,-0.85081,0,0,0.5,8.8818e-16,0,0.66667
0.77212,0.48237,1.5442,-0.026439,-0.041542,1.158,0.10888,-0.036292,-1.9969,0.14517,-8.0133e-11,-0.99844,0,0,0.5,-0,-0,0.66667
0.51635,0.57954,1.0327,0.11931,0.39882,3.4697,-0.32855,0.10952,-1.949,-0.43807,5.6416e-12,-0.9745,0,0,0.5,-0,-0,0.66667
0.22879,0.53442,0.45757,0.051636,0.23099,6.8989,-0.063006,0.021002,-1.991,-0.084008,-1.3192e-10,-0.99548,0,0,0.5,-0,-0,0.66667
0.99529,0.92434,1.9906,0.63651,-0.071962,0.37201,-3.3787,1.1262,-0.55889,-4.505,3.2477e-06,-0.27945,0,0,0.5,-1.1842e-15,0,0.66667
0.88932,0.73493,1.7786,0.35239,0.23283,0.5376,-1.6714,0.55713,-1.558,-2.2285,-1.0359e-09,-0.77901,0,0,0.5,-0,-0,0.66667
0.57714,0.2361,1.1543,-0.39585,-1.2414,2.9169,1.2185,-0.40616,-1.4424,1.6246,-5.7032e-11,-0.72122,0,0,0.5,-1.1842e-15,0,0.66667
0.53805,0.24345,1.0761,-0.38483,-1.2929,3.3054,1.1043,-0.3681,-1.4734,1.4724,-2.5085e-11,-0.73668,0,0,0.5,-8.8818e-16,0,0.66667
0.83998,0.28499,1.68,-0.32251,-0.35311,0.78964,1.4448,-0.4816,-1.6306,1.9264,6.8871e-10,-0.81529,0,0,0.5,-0,-0,0.66667
0.91463,0.66044,1.8293,0.24067,0.083852,0.36448,-1.174,0.39133,-1.7943,-1.5653,1.0895e-08,-0.89715,0,0,0.5,-0,-0,0.66667
0.81959,0.85147,1.6392,0.5272,0.76746,1.04,-2.3045,0.76815,-1.0115,-3.0726,2.2897e-09,-0.50576,0,0,0.5,-0,-0,0.66667
0.43281,0.67654,0.86562,0.2648,1.0125,4.4168,-0.61125,0.20375,-1.7502,-0.815,-4.5205e-11,-0.8751,0,0,0.5,5.9212e-16,0,0.66667
0.85562,0.96994,1.7112,0.70491,0.95925,0.99862,-3.2167,1.0722,-0.23413,-4.289,3.4214e-09,-0.11707,0,0,0.5,-0,8.6648e-17,0.66667
0.22561,0.09507,0.45121,-0.60739,-2.9526,7.0136,0.73083,-0.24361,-0.68901,0.97445,1.248e-09,-0.34451,0,0,0.5,-5.9212e-16,0,0.66667
0.54052,0.4383,1.081,-0.092554,-0.29624,3.2131,0.26681,-0.088937,-1.9704,0.35575,-1.1411e-11,-0.98521,0,0,0.5,-2.3685e-15,0,0.66667
0.31515,0.66325,0.6303,0.24488,1.0487,5.818,-0.41159,0.1372,-1.7868,-0.54879,-1.3527e-10,-0.89339,0,0,0.5,-5.9212e-16,0,0.66667
0.11963,0.32401,0.23927,-0.26399,-1.2529,8.3429,0.16844,-0.056146,-1.7517,0.22459,-9.1052e-10,-0.87584,0,0,0.5,2.9606e-16,0,0.66667
0.14551,0.41987,0.29102,-0.12019,-0.55913,7.9929,0.093275,-0.031092,-1.948,0.12437,5.0647e-10,-0.97402,0,0,0.5,-2.9606e-16,0,0.66667
0.9366,0.14387,1.8732,-0.5342,-0.19625,0.45916,2.6684,-0.88948,-0.98501,3.5579,3.7013e-08,-0.49251,0,0,0.5,-1.1842e-15,0,0.66667
0.19499,0.99856,0.38998,0.74783,3.8343,7.4353,-0.77772,0.25924,-0.012265,-1.037,2.2319e-10,-0.0061327,0,0,0.5,-9.6219e-16,0,0.66667
0.64991,0.17651,1.2998,-0.48524,-1.3303,2.2827,1.6819,-0.56064,-1.1623,2.2426,-1.5999e-10,-0.58116,0,0,0.5,-0,-0,0.66667
0.23912,0.45247,0.47824,-0.071301,-0.31731,6.766,0.090931,-0.03031,-1.9813,0.12124,1.2998e-10,-0.99065,0,0,0.5,2.9606e-16,0,0.66667
0.52547,0.34398,1.0509,-0.23402,-0.78027,3.3921,0.65585,-0.21862,-1.8063,0.87447,-1.5175e-11,-0.90314,0,0,0.5,-2.3685e-15,0,0.66667
0.13063,0.85588,0.26127,0.53382,2.6448,8.2219,-0.37192,0.12397,-0.98622,-0.4959,-1.3588e-09,-0.49311,0,0,0.5,-0,-0,0.66667
0.28954,0.51812,0.57908,0.027185,0.117,6.1221,-0.041979,0.013993,-1.9967,-0.055972,-2.6568e-11,-0.99837,0,0,0.5,-0,-0,0.66667
0.40052,0.98596,0.80105,0.72894,3.2405,4.955,-1.5571,0.51904,-0.11011,-2.0761,-7.8881e-13,-0.055057,0,0,0.5,-0,-0,0.66667
0.70668,0.93804,1.4134,0.65705,1.6652,1.9303,-2.4764,0.82547,-0.466,-3.3019,1.2215e-10,-0.233,0,0,0.5,2.3685e-15,0,0.66667
0.90107,0.40516,1.8021,-0.14226,-0.062694,0.39746,0.68366,-0.22789,-1.9289,0.91154,7.1676e-09,-0.96444,0,0,0.5,-1.4803e-16,0,0.66667
0.42858,0.59949,0.85715,0.14924,0.56613,4.447,-0.34112,0.11371,-1.9208,-0.45483,-3.185e-11,-0.96041,0,0,0.5,-1.1842e-15,0,0.66667
0.71382,0.00089213,1.4276,-0.74866,-1.9568,1.9567,2.8502,-0.95006,-0.0080163,3.8003,1.1435e-11,-0.0040081,0,0,0.5,-0,-0,0.66667
0.13909,0.17137,0.27817,-0.49295,-2.4149,8.1064,0.36566,-0.12189,-1.1355,0.48755,1.6105e-10,-0.56777,0,0,0.5,-0,-0,0.66667
0.10058,0.26769,0.20115,-0.34847,-1.6803,8.6012,0.18692,-0.062306,-1.5676,0.24922,-2.6888e-09,-0.7838,0,0,0.5,-0,-0,0.66667
0.44811,0.26291,0.89622,-0.35564,-1.3551,4.2653,0.84994,-0.28331,-1.5497,1.1333,3.6205e-11,-0.77486,0,0,0.5,-1.1842e-15,0,0.66667
0.76051,0.36574,1.521,-0.20139,-0.34386,1.269,0.81685,-0.27228,-1.8554,1.0891,-8.0204e-11,-0.92772,0,0,0.5,-5.9212e-16,0,0.66667
0.23162,0.18404,0.46323,-0.47394,-2.226,6.9081,0.58545,-0.19515,-1.2018,0.7806,8.9544e-10,-0.60092,0,0,0.5,1.4259e-16,0,0.66667
0.80913,0.60592,1.6183,0.15888,0.20407,0.92281,-0.68562,0.22854,-1.9098,-0.91417,1.2458e-10,-0.95488,0,0,0.5,-1.1842e-15,0,0.66667
0.25241,0.45778,0.50482,-0.06333,-0.27956,6.595,0.085254,-0.028418,-1.9854,0.11367,9.5252e-11,-0.99268,0,0,0.5,-0,-0,0.66667
0.083801,0.94775,0.1676,0.67162,3.4792,8.8488,-0.30017,0.10006,-0.39574,-0.40023,-2.6108e-08,-0.19787,0,0,0.5,-0,-0,0.66667
0.513,0.18077,1.026,-0.47885,-1.7163,3.6035,1.3101,-0.43671,-1.1847,1.7469,-6.1096e-12,-0.59237,0,0,0.5,3.0376e-16,0,0.66667
0.00097781,0.69041,0.0019556,0.28562,1.3809,9.9313,-0.0014895,0.00049642,-1.7106,-0.001986,-1.0554e-07,-0.85532,0,0,0.5,-0,-1.3742e-15,0.66667
0.70811,0.81301,1.4162,0.46951,1.0819,1.7861,-1.7732,0.59106,-1.2172,-2.3642,4.0834e-10,-0.60858,0,0,0.5,-0,-0,0.66667
0.73906,0.29006,1.4781,-0.31491,-0.61084,1.4676,1.2413,-0.41375,-1.6471,1.655,-1.8648e-10,-0.82355,0,0,0.5,-0,-0,0.66667
0.97332,0.83098,1.9466,0.49647,-0.023296,0.29637,-2.5772,0.85906,-1.1231,-3.4363,-9.5806e-08,-0.56153,0,0,0.5,-1.1842e-15,0,0.66667
0.66316,0.7083,1.3263,0.31245,0.78292,2.0863,-1.1051,0.36837,-1.6524,-1.4735,1.5506e-10,-0.8262,0,0,0.5,-5.9212e-16,0,0.66667
0.49422,0.29566,0.98843,-0.30651,-1.0865,3.743,0.8079,-0.2693,-1.6653,1.0772,3.7415e-12,-0.83266,0,0,0.5,-0,-0,0.66667
0.073623,0.5094,0.14725,0.014096,0.066548,8.952,-0.0055349,0.0018448,-1.9989,-0.00738,-2.931e-07,-0.99947,0,0,0.5,-0,-0,0.66667
0.5343,0.45209,1.0686,-0.071862,-0.23232,3.2762,0.20478,-0.068259,-1.9811,0.27304,-7.5048e-12,-0.99054,0,0,0.5,-0,-0,0.66667
0.14183,0.40311,0.28366,-0.14533,-0.67792,8.0425,0.10993,-0.036645,-1.9255,0.14658,-7.1054e-10,-0.96277,0,0,0.5,-1.4803e-16,0,0.66667
0.80239,0.59772,1.6048,0.14658,0.1962,0.96432,-0.62727,0.20909,-1.9239,-0.83636,1.5911e-10,-0.96195,0,0,0.5,-0,-0,0.66667
0.57615,0.058198,1.1523,-0.6627,-2.2764,3.0714,2.0363,-0.67878,-0.43889,2.7151,-5.0058e-12,-0.21945,0,0,0.5,2.9606e-16,2.8115e-16,0.66667
0.21291,0.32221,0.42583,-0.26668,-1.2219,7.1179,0.30283,-0.10094,-1.7467,0.40377,-8.5806e-11,-0.87336,0,0,0.5,-0,-0,0.66667
0.70706,0.23416,1.4141,-0.39877,-0.89668,1.7559,1.5037,-0.50124,-1.434,2.005,-3.1469e-10,-0.71701,0,0,0.5,1.1842e-15,0,0.66667
0.33301,0.48022,0.66602,-0.029665,-0.1234,5.5804,0.052687,-0.017562,-1.9964,0.070249,1.8737e-11,-0.99818,0,0,0.5,-0,-0,0.66667
0.6691,0.6906,1.3382,0.2859,0.69962,2.0253,-1.0202,0.34008,-1.7099,-1.3603,1.4688e-10,-0.85496,0,0,0.5,2.3685e-15,0,0.66667
0.77955,0.074944,1.5591,-0.63758,-1.2309,1.3866,2.6508,-0.88361,-0.55421,3.5344,-1.0663e-09,-0.2771,0,0,0.5,1.1842e-15,-5.6757e-16,0.66667
0.086576,0.25356,0.17315,-0.36966,-1.7935,8.7885,0.17069,-0.056895,-1.5145,0.22758,-9.7038e-10,-0.75724,0,0,0.5,-2.9606e-16,0,0.66667
0.51066,0.065925,1.0213,-0.65111,-2.4735,3.7165,1.7733,-0.5911,-0.49304,2.3644,-5.9286e-13,-0.24652,0,0,0.5,-1.1842e-15,0,0.66667
0.10367,0.17119,0.20735,-0.49321,-2.4389,8.5712,0.27271,-0.090903,-1.1344,0.36361,-3.1777e-09,-0.56722,0,0,0.5,1.4803e-16,0,0.66667
0.64946,0.12302,1.2989,-0.56547,-1.6014,2.3353,1.9587,-0.65289,-0.86374,2.6115,-1.1068e-10,-0.43187,0,0,0.5,-1.4803e-15,0,0.66667
0.3155,0.033824,0.631,-0.69926,-3.3049,5.934,1.1766,-0.39221,-0.26207,1.5688,1.8653e-11,-0.13104,0,0,0.5,1.1842e-15,0,0.66667
0.6435,0.067169,1.287,-0.64925,-1.9339,2.4457,2.2282,-0.74274,-0.50155,2.971,-3.2754e-11,-0.25077,0,0,0.5,-0,-0,0.66667
0.048554,0.67673,0.097108,0.2651,1.2752,9.2924,-0.068649,0.022883,-1.7498,-0.091532,-2.5386e-08,-0.8749,0,0,0.5,-0,-0,0.66667
0.867,0.23599,1.734,-0.39602,-0.35787,0.67803,1.8312,-0.61039,-1.4417,2.4416,1.2445e-09,-0.72086,0,0,0.5,1.1842e-15,0,0.66667
0.47816,0.47888,0.95632,-0.031673,-0.11186,3.8784,0.080773,-0.026924,-1.996,0.1077,2.0851e-12,-0.99799,0,0,0.5,-0,-0,0.66667
0.79355,0.50768,1.5871,0.011514,0.016017,1.0084,-0.048729,0.016243,-1.9994,-0.064972,6.9903e-11,-0.9997,0,0,0.5,4.737e-15,0,0.66667
0.22664,0.019746,0.45327,-0.72038,-3.6122,7.0308,0.87075,-0.29025,-0.15429,1.161,1.2025e-10,-0.077145,0,0,0.5,-0,-0,0.66667
0.33497,0.25484,0.66995,-0.36774,-1.5783,5.5962,0.65698,-0.21899,-1.5193,0.87598,1.8665e-10,-0.75965,0,0,0.5,-1.1842e-15,0,0.66667
0.76377,0.9978,1.5275,0.7467,1.6554,1.5962,-3.0417,1.0139,-0.018315,-4.0556,-3.8892e-11,-0.0091577,0,0,0.5,-0,-0,0.66667
0.85342,0.91213,1.7068,0.61819,0.78007,0.92318,-2.8137,0.93791,-0.64123,-3.7516,7.5873e-09,-0.32061,0,0,0.5,-0,-0,0.66667
0.43712,0.35022,0.87425,-0.22467,-0.84999,4.3599,0.52378,-0.17459,-1.8207,0.69837,3.8029e-11,-0.91037,0,0,0.5,1.1842e-15,0,0.66667
0.93033,0.55636,1.8607,0.084533,0.011951,0.25387,-0.41943,0.13981,-1.9745,-0.55924,1.1856e-08,-0.98727,0,0,0.5,1.7764e-15,0,0.66667
0.57961,0.018522,1.1592,-0.72222,-2.5272,3.0807,2.2326,-0.74419,-0.14503,2.9768,-5.8376e-13,-0.072514,0,0,0.5,-0,-0,0.66667
0.049097,0.99358,0.098195,0.74037,3.9281,9.306,-0.19387,0.064624,-0.051088,-0.25849,6.2321e-07,-0.025544,0,0,0.5,2.2204e-16,0,0.66667
0.45286,0.070823,0.90572,-0.64377,-2.6304,4.3279,1.5549,-0.51829,-0.52645,2.0731,3.8559e-12,-0.26323,0,0,0.5,-0,-0,0.66667
0.1604,0.3685,0.3208,-0.19726,-0.91785,7.7993,0.16875,-0.056249,-1.8616,0.22499,-3.4002e-10,-0.93081,0,0,0.5,-2.9606e-16,0,0.66667
0.73282,0.089993,1.4656,-0.61501,-1.401,1.697,2.4037,-0.80124,-0.65567,3.2049,-4.3861e-10,-0.32783,0,0,0.5,-3.7516e-16,2.5053e-16,0.66667
0.34735,0.95256,0.69471,0.67885,3.1121,5.5465,-1.2576,0.4192,-0.3609,-1.6768,-2.2143e-11,-0.18045,0,0,0.5,-0,-0,0.66667
0.20118,0.56136,0.40236,0.092041,0.41814,7.259,-0.098755,0.032918,-1.9709,-0.13167,-4.0502e-10,-0.98543,0,0,0.5,3.5157e-16,0,0.66667
0.84279,0.57898,1.6856,0.11847,0.11567,0.70577,-0.53252,0.17751,-1.9497,-0.71003,7.8612e-10,-0.97484,0,0,0.5,-0,-0,0.66667
0.8178,0.15611,1.6356,-0.51584,-0.75264,1.0423,2.2499,-0.74996,-1.0549,2.9998,-1.9702e-09,-0.52747,0,0,0.5,-1.6376e-15,0,0.66667
0.34365,0.11076,0.68729,-0.58386,-2.612,5.5536,1.0701,-0.3567,-0.78759,1.4268,1.0908e-10,-0.39379,0,0,0.5,-5.9212e-16,5.8747e-16,0.66667
0.40362,0.40093,0.80725,-0.14861,-0.58016,4.7373,0.3199,-0.10663,-1.9217,0.42653,4.4251e-11,-0.96084,0,0,0.5,-8.8818e-16,0,0.66667
0.0606,0.29818,0.1212,-0.30274,-1.4608,9.1321,0.097844,-0.032615,-1.6737,0.13046,-5.2302e-09,-0.83683,0,0,0.5,-0,-0,0.66667
0.17888,0.86191,0.35777,0.54286,2.6519,7.5967,-0.51792,0.17264,-0.95155,-0.69056,-2.7641e-09,-0.47578,0,0,0.5,2.9606e-16,0,0.66667
0.73592,0.10824,1.4718,-0.58764,-1.3044,1.6525,2.3064,-0.76881,-0.77174,3.0752,-5.6521e-10,-0.38587,0,0,0.5,-0,-0,0.66667
0.56613,0.01939,1.1323,-0.72092,-2.5806,3.2084,2.1767,-0.72557,-0.15163,2.9023,-4.623e-13,-0.075813,0,0,0.5,-0,-0,0.66667
0.82324,0.18884,1.6465,-0.46673,-0.63542,0.97388,2.0492,-0.68308,-1.2262,2.7323,-8.4535e-10,-0.61312,0,0,0.5,-0,-0,0.66667
0.50115,0.43709,1.0023,-0.094362,-0.3227,3.6304,0.25221,-0.084071,-1.9695,0.33628,-4.0226e-13,-0.98476,0,0,0.5,-7.4015e-17,0,0.66667
0.76786,0.59669,1.5357,0.14503,0.236,1.2024,-0.59395,0.19798,-1.9258,-0.79193,1.3989e-10,-0.96291,0,0,0.5,-0,-0,0.66667
0.50992,0.59353,1.0198,0.1403,0.47472,3.5409,-0.38155,0.12718,-1.931,-0.50873,3.9705e-12,-0.96551,0,0,0.5,1.3693e-15,0,0.66667
0.56807,0.60153,1.1361,0.1523,0.46496,2.939,-0.46142,0.15381,-1.9173,-0.61523,3.0613e-11,-0.95865,0,0,0.5,1.1842e-15,0,0.66667
0.18462,0.82906,0.36924,0.49358,2.3795,7.5145,-0.486,0.162,-1.1332,-0.648,-1.5097e-09,-0.56662,0,0,0.5,-0,-0,0.66667
0.5444,0.11315,1.0888,-0.58028,-2.0417,3.3316,1.6848,-0.56161,-0.80232,2.2464,-1.0097e-11,-0.40116,0,0,0.5,5.9212e-16,8.5205e-17,0.66667
0.20103,0.12017,0.40207,-0.56975,-2.7753,7.3174,0.61087,-0.20362,-0.84612,0.8145,2.2216e-09,-0.42306,0,0,0.5,4.4409e-16,-7.328e-16,0.66667
0.55622,0.11992,1.1124,-0.57011,-1.9595,3.208,1.6912,-0.56375,-0.84446,2.255,-1.5228e-11,-0.42223,0,0,0.5,-2.9606e-16,0,0.66667
0.14144,0.22933,0.28288,-0.406,-1.9546,8.0658,0.30627,-0.10209,-1.4137,0.40836,-1.2109e-09,-0.70684,0,0,0.5,-0,-0,0.66667
0.18601,0.67068,0.37202,0.25602,1.1863,7.467,-0.25399,0.084662,-1.7665,-0.33865,3.141e-10,-0.88325,0,0,0.5,-2.9606e-16,0,0.66667
0.76478,0.26109,1.5296,-0.35837,-0.63207,1.2976,1.4617,-0.48724,-1.5431,1.949,-2.4154e-10,-0.77155,0,0,0.5,-0,-0,0.66667
0.070886,0.28377,0.14177,-0.32434,-1.5673,8.9954,0.12262,-0.040873,-1.6265,0.16349,-4.6703e-09,-0.81325,0,0,0.5,-0,-0,0.66667
0.36931,0.27069,0.73863,-0.34396,-1.4258,5.1766,0.67749,-0.22583,-1.5789,0.90332,1.2112e-10,-0.78943,0,0,0.5,2.9606e-16,0,0.66667
0.87788,0.1537,1.7558,-0.51945,-0.47768,0.70917,2.4321,-0.81069,-1.0413,3.2428,3.3173e-09,-0.52063,0,0,0.5,2.9606e-16,0,0.66667
0.10434,0.81473,0.20867,0.4721,2.3242,8.5606,-0.26271,0.087569,-1.2082,-0.35028,7.8115e-09,-0.60408,0,0,0.5,2.9606e-16,0,0.66667
0.35915,0.43564,0.71831,-0.096545,-0.3931,5.2636,0.18493,-0.061644,-1.9678,0.24657,4.6784e-11,-0.98391,0,0,0.5,2.9606e-16,0,0.66667
0.11396,0.97971,0.22792,0.71957,3.7545,8.4637,-0.43734,0.14578,-0.15855,-0.58313,-1.0603e-08,-0.079275,0,0,0.5,2.9606e-16,0,0.66667
0.87654,0.071392,1.7531,-0.64291,-0.69494,0.82774,3.0055,-1.0018,-0.53021,4.0074,-1.6931e-08,-0.26511,0,0,0.5,-0,-0,0.66667
0.12624,0.20061,0.25247,-0.44909,-2.1889,8.27,0.30236,-0.10079,-1.2825,0.40314,-2.1033e-09,-0.64125,0,0,0.5,-0,-0,0.66667
0.25456,0.13766,0.50911,-0.54352,-2.5604,6.6334,0.73789,-0.24596,-0.9491,0.98386,7.8469e-10,-0.47455,0,0,0.5,-0,-0,0.66667
0.42191,0.18885,0.84381,-0.46673,-1.8793,4.5974,1.0502,-0.35007,-1.2265,1.4003,4.9473e-11,-0.61327,0,0,0.5,-0,-0,0.66667
0.66526,0.27306,1.3305,-0.34041,-0.85436,2.0788,1.2078,-0.40259,-1.5877,1.6104,-1.7245e-10,-0.79385,0,0,0.5,-0,-0,0.66667
0.34471,0.26224,0.68941,-0.35664,-1.5151,5.4755,0.65566,-0.21855,-1.5474,0.87422,1.6352e-10,-0.7737,0,0,0.5,5.9212e-16,0,0.66667
0.2135,0.84467,0.427,0.517,2.4734,7.1475,-0.5887,0.19623,-1.0505,-0.78493,-1.4852e-09,-0.52525,0,0,0.5,-0,-0,0.66667
0.37339,0.58753,0.74677,0.1313,0.5284,5.0946,-0.26147,0.087156,-1.9388,-0.34862,-5.4269e-11,-0.96942,0,0,0.5,2.9606e-16,0,0.66667
0.57102,0.974,1.142,0.71101,2.5136,3.1542,-2.1653,0.72178,-0.20264,-2.8871,6.1839e-13,-0.10132,0,0,0.5,-0,-0,0.66667
0.99075,0.12581,1.9815,-0.56129,0.088921,0.30456,2.9658,-0.98861,-0.88072,3.9545,-8.4191e-08,-0.44036,0,0,0.5,2.3685e-15,0,0.66667
0.32717,0.63899,0.65433,0.20849,0.88071,5.6649,-0.36379,0.12126,-1.845,-0.48506,-1.1167e-10,-0.92252,0,0,0.5,-0,-0,0.66667
0.3622,0.55245,0.72441,0.078675,0.31917,5.2256,-0.15198,0.05066,-1.9777,-0.20264,-3.7379e-11,-0.98883,0,0,0.5,-0,-0,0.66667
0.70624,0.099204,1.4125,-0.60119,-1.4818,1.8896,2.2645,-0.75482,-0.71506,3.0193,-2.6844e-10,-0.35753,0,0,0.5,-2.3685e-15,0,0.66667
0.29894,0.44449,0.59787,-0.083263,-0.35642,6.0056,0.13275,-0.04425,-1.9754,0.177,6.6851e-11,-0.98769,0,0,0.5,-5.9212e-16,0,0.66667
0.3497,0.51382,0.6994,0.020736,0.08498,5.3757,-0.038674,0.012891,-1.9978,-0.051566,-1.1373e-11,-0.99892,0,0,0.5,-0,-0,0.66667
0.99471,0.016505,1.9894,-0.72524,-0.013363,0.48035,3.8475,-1.2825,-0.12925,5.13,-2.6881e-05,-0.064625,0,0,0.5,2.3685e-15,0,0.66667
0.60427,0.94035,1.2085,0.66053,2.15,2.8057,-2.1287,0.70957,-0.44923,-2.8383,1.0122e-11,-0.22462,0,0,0.5,-2.3685e-15,0,0.66667
0.82881,0.22529,1.6576,-0.41207,-0.52023,0.90489,1.8215,-0.60716,-1.3964,2.4286,1.029e-10,-0.69822,0,0,0.5,-0,-0,0.66667
0.031666,0.037053,0.063331,-0.69442,-3.6421,9.5306,0.11728,-0.039094,-0.28573,0.15637,-2.0542e-06,-0.14287,0,0,0.5,-7.4015e-17,0,0.66667
0.14549,0.46343,0.29098,-0.054849,-0.25451,7.9917,0.04256,-0.014187,-1.9894,0.056746,2.0386e-09,-0.99471,0,0,0.5,7.4015e-17,0,0.66667
0.72773,0.63177,1.4555,0.19765,0.38858,1.5157,-0.76712,0.25571,-1.861,-1.0228,1.1531e-10,-0.93049,0,0,0.5,-0,-0,0.66667
0.53974,0.8246,1.0795,0.4869,1.676,3.3307,-1.4016,0.4672,-1.1565,-1.8688,1.8917e-11,-0.57825,0,0,0.5,-0,-0,0.66667
0.99526,0.69767,1.9905,0.29651,-0.13099,0.091435,-1.5739,0.52464,-1.687,-2.0985,2.407e-08,-0.84349,0,0,0.5,-0,-0,0.66667
0.49563,0.63463,0.99126,0.20194,0.70319,3.7043,-0.53381,0.17794,-1.8546,-0.71174,-2.3842e-12,-0.92732,0,0,0.5,-0,-0,0.66667
0.3841,0.69951,0.76821,0.29927,1.2139,4.9911,-0.61307,0.20436,-1.681,-0.81743,-9.4156e-11,-0.84049,0,0,0.5,5.9212e-16,0,0.66667
0.19437,0.49297,0.38875,-0.010542,-0.047944,7.3465,0.010928,-0.0036427,-1.9994,0.014571,1.4182e-10,-0.99972,0,0,0.5,8.8818e-16,0,0.66667
0.59017,0.13924,1.1803,-0.54114,-1.7295,2.8617,1.7033,-0.56775,-0.95826,2.271,-4.1397e-11,-0.47913,0,0,0.5,-1.1842e-15,0,0.66667
0.76663,0.18293,1.5333,-0.47561,-0.87992,1.3511,1.9446,-0.6482,-1.1961,2.5928,-8.8824e-10,-0.59807,0,0,0.5,2.9606e-16,0,0.66667
0.92444,0.35378,1.8489,-0.21933,-0.053102,0.31298,1.0814,-0.36046,-1.8286,1.4418,9.7955e-09,-0.91432,0,0,0.5,-2.3685e-15,0,0.66667
0.13763,0.68109,0.27525,0.27163,1.2836,8.1048,-0.19938,0.06646,-1.7377,-0.26584,4.8233e-10,-0.86885,0,0,0.5,-7.4015e-17,0,0.66667
0.0080899,0.92709,0.01618,0.64064,3.3155,9.8382,-0.027642,0.0092132,-0.54025,-0.036856,-9.6234e-07,-0.27013,0,0,0.5,-9.2519e-18,0,0.66667
0.47796,0.63293,0.95592,0.1994,0.71242,3.8971,-0.50829,0.16943,-1.8584,-0.67772,-1.1769e-11,-0.92919,0,0,0.5,-0,-0,0.66667
0.18295,0.61762,0.3659,0.17643,0.81226,7.5015,-0.17215,0.057383,-1.8892,-0.22953,5.2559e-11,-0.94459,0,0,0.5,-0,-0,0.66667
0.61034,0.9303,1.2207,0.64544,2.0624,2.7393,-2.101,0.70034,-0.51883,-2.8013,1.6974e-11,-0.25942,0,0,0.5,-0,-0,0.66667
0.62027,0.93104,1.2405,0.64656,2.0248,2.6498,-2.1389,0.71296,-0.51359,-2.8519,2.0713e-11,-0.2568,0,0,0.5,5.9212e-16,0,0.66667
0.40963,0.15897,0.81926,-0.51155,-2.1109,4.7541,1.1176,-0.37253,-1.0702,1.4901,5.0512e-11,-0.53508,0,0,0.5,-0,-0,0.66667
0.67721,0.13441,1.3544,-0.54838,-1.4345,2.0874,1.9806,-0.6602,-0.9304,2.6408,-2.1012e-10,-0.4652,0,0,0.5,-0,-0,0.66667
0.19967,0.42881,0.39934,-0.10679,-0.48581,7.2792,0.11372,-0.037907,-1.9592,0.15163,3.4866e-10,-0.97961,0,0,0.5,2.9606e-16,0,0.66667
0.80858,0.53504,1.6172,0.052556,0.066526,0.91023,-0.22664,0.075548,-1.9906,-0.30219,3.9011e-10,-0.99528,0,0,0.5,-2.3685e-15,0,0.66667
0.05034,0.87518,0.10068,0.56276,2.8504,9.2795,-0.15109,0.050363,-0.87503,-0.20145,2.887e-08,-0.43752,0,0,0.5,-1.4803e-16,0,0.66667
0.17186,0.51451,0.34372,0.021767,0.099973,7.6424,-0.019951,0.0066504,-1.998,-0.026602,-4.7837e-10,-0.99899,0,0,0.5,-0,-0,0.66667
0.9806,0.35881,1.9612,-0.21179,0.070295,0.098043,1.1076,-0.36921,-1.8399,1.4768,3.0305e-07,-0.91997,0,0,0.5,-0,-0,0.66667
0.90038,0.13807,1.8008,-0.5429,-0.39742,0.6205,2.607,-0.869,-0.95143,3.476,8.0754e-09,-0.47571,0,0,0.5,-0,-0,0.66667
0.93973,0.94373,1.8795,0.66559,0.33253,0.57879,-3.3359,1.112,-0.42494,-4.4478,1.9952e-07,-0.21247,0,0,0.5,-2.3685e-15,0,0.66667
0.90844,0.39415,1.8169,-0.15877,-0.059488,0.36644,0.76925,-0.25642,-1.9099,1.0257,-5.9803e-09,-0.95497,0,0,0.5,-1.1842e-15,0,0.66667
0.44142,0.70962,0.88283,0.31443,1.199,4.3299,-0.74024,0.24675,-1.6482,-0.98699,-4.1437e-11,-0.82409,0,0,0.5,-0,-0,0.66667
0.9388,0.3666,1.8776,-0.2001,-0.018199,0.24593,1.0019,-0.33396,-1.8575,1.3359,4.9905e-08,-0.92877,0,0,0.5,1.1842e-15,0,0.66667
0.23741,0.2357,0.47483,-0.39645,-1.8286,6.8201,0.50199,-0.16733,-1.4406,0.66932,4.1564e-10,-0.7203,0,0,0.5,-0,-0,0.66667
0.049514,0.71385,0.099029,0.32078,1.5537,9.281,-0.08471,0.028237,-1.6344,-0.11295,6.49e-09,-0.8172,0,0,0.5,1.8504e-17,0,0.66667
0.55726,0.69712,1.1145,0.29569,0.94159,3.08,-0.8788,0.29293,-1.6887,-1.1717,3.9597e-11,-0.84437,0,0,0.5,-1.1842e-15,0,0.66667
0.31332,0.828,0.62664,0.49199,2.2029,5.8914,-0.82214,0.27405,-1.1389,-1.0962,-2.9083e-10,-0.56947,0,0,0.5,-5.9212e-16,0,0.66667
0.53208,0.21201,1.0642,-0.43198,-1.4833,3.3852,1.2259,-0.40862,-1.3366,1.6345,-1.8833e-11,-0.66832,0,0,0.5,5.9212e-16,0,0.66667
0.47161,0.23088,0.94322,-0.40368,-1.5069,4.019,1.0154,-0.33845,-1.4201,1.3538,1.7677e-11,-0.71007,0,0,0.5,-0,-0,0.66667
0.48313,0.64043,0.96626,0.21064,0.74801,3.8422,-0.54276,0.18092,-1.8418,-0.72368,-9.3191e-12,-0.9209,0,0,0.5,-5.9212e-16,0,0.66667
0.57008,0.15658,1.1402,-0.51513,-1.6958,3.0416,1.5662,-0.52207,-1.0574,2.0883,-3.3067e-11,-0.52872,0,0,0.5,-0,-0,0.66667
0.92344,0.43216,1.8469,-0.10176,-0.021647,0.28633,0.50119,-0.16706,-1.9634,0.66826,-5.6309e-08,-0.98172,0,0,0.5,-1.1842e-15,0,0.66667
0.23619,0.67009,0.47238,0.25513,1.1532,6.8164,-0.32139,0.10713,-1.7681,-0.42852,-4.8302e-11,-0.88405,0,0,0.5,-0,-0,0.66667
0.87608,0.80874,1.7522,0.46311,0.40708,0.67516,-2.1639,0.72129,-1.238,-2.8851,-1.2693e-09,-0.61899,0,0,0.5,1.7764e-15,0,0.66667
0.73384,0.74863,1.4677,0.37294,0.75414,1.5335,-1.4596,0.48653,-1.5065,-1.9461,3.1559e-10,-0.75325,0,0,0.5,-1.4803e-15,0,0.66667
0.079211,0.028411,0.15842,-0.70738,-3.7035,8.9121,0.29884,-0.099613,-0.22153,0.39845,1.1908e-07,-0.11077,0,0,0.5,-1.1102e-16,0,0.66667
0.83539,0.86492,1.6708,0.54738,0.7328,0.96207,-2.4388,0.81293,-0.93421,-3.2517,3.2422e-09,-0.4671,0,0,0.5,-0,-0,0.66667
0.39764,0.23577,0.79529,-0.39635,-1.613,4.8553,0.84057,-0.28019,-1.4408,1.1208,8.5331e-11,-0.72039,0,0,0.5,5.9212e-16,0,0.66667
0.33574,0.080976,0.67148,-0.62854,-2.8652,5.6644,1.1255,-0.37515,-0.59473,1.5006,7.7684e-11,-0.29737,0,0,0.5,-5.9212e-16,0,0.66667
0.000393,0.25022,0.00078601,-0.37467,-1.8342,9.9392,0.00078532,-0.00026177,-1.5021,0.0010471,2.2395e-09,-0.75107,0,0,0.5,-0,-3.2743e-17,0.66667
0.24581,0.10531,0.49161,-0.59204,-2.8366,6.7555,0.77614,-0.25871,-0.75325,1.0349,8.2106e-10,-0.37662,0,0,0.5,-0,-0,0.66667
0.68795,0.24636,1.3759,-0.38046,-0.90397,1.9033,1.3959,-0.46531,-1.486,1.8612,-2.4405e-10,-0.74298,0,0,0.5,5.9212e-16,0,0.66667
0.85117,0.098149,1.7023,-0.60278,-0.76121,0.92112,2.7364,-0.91212,-0.70833,3.6485,-6.5251e-09,-0.35417,0,0,0.5,-0,-0,0.66667
0.24105,0.64252,0.4821,0.21378,0.95934,6.7499,-0.27484,0.091612,-1.8369,-0.36645,-7.4423e-11,-0.91843,0,0,0.5,-2.9606e-16,0,0.66667
0.37094,0.38261,0.74188,-0.17608,-0.71282,5.1285,0.34834,-0.11611,-1.8896,0.46446,7.1363e-11,-0.94481,0,0,0.5,-0,-0,0.66667
0.15042,0.20899,0.30085,-0.43651,-2.107,7.9513,0.3502,-0.11673,-1.3221,0.46693,-4.984e-10,-0.66104,0,0,0.5,-0,-0,0.66667
0.8035,0.51627,1.607,0.024406,0.031908,0.94206,-0.10459,0.034863,-1.9972,-0.13945,1.9828e-10,-0.99861,0,0,0.5,-0,-0,0.66667
0.71702,0.198,1.434,-0.453,-1.006,1.7061,1.7323,-0.57745,-1.2701,2.3098,-4.3708e-10,-0.63503,0,0,0.5,-0,-0,0.66667
0.70048,0.76957,1.401,0.40436,0.9311,1.8119,-1.5106,0.50354,-1.4182,-2.0142,3.0233e-10,-0.70911,0,0,0.5,-1.1842e-15,0,0.66667
0.67885,0.33448,1.3577,-0.24828,-0.58497,1.9294,0.89891,-0.29964,-1.7804,1.1986,-1.3417e-10,-0.89022,0,0,0.5,-0,-0,0.66667
0.89205,0.13771,1.7841,-0.54343,-0.44142,0.65987,2.5854,-0.8618,-0.94958,3.4472,3.4263e-09,-0.47479,0,0,0.5,-0,-0,0.66667
0.88303,0.78875,1.7661,0.43313,0.3404,0.61891,-2.0398,0.67994,-1.3328,-2.7198,-2.5045e-09,-0.66638,0,0,0.5,-0,-0,0.66667
0.62537,0.21736,1.2507,-0.42396,-1.2085,2.4715,1.414,-0.47134,-1.362,1.8854,-1.1968e-10,-0.68098,0,0,0.5,-2.2204e-16,0,0.66667
0.28878,0.70249,0.57756,0.30374,1.3367,6.1552,-0.4678,0.15593,-1.6713,-0.62374,-1.8932e-10,-0.83565,0,0,0.5,-5.9212e-16,0,0.66667
0.4031,0.8038,0.80621,0.45569,1.8678,4.8099,-0.97969,0.32656,-1.2614,-1.3063,-7.1387e-11,-0.63072,0,0,0.5,2.9606e-16,0,0.66667
0.028957,0.47567,0.057915,-0.036499,-0.17326,9.5536,0.0056354,-0.0018779,-1.9953,0.0075142,9.0447e-07,-0.99764,0,0,0.5,-0,-0,0.66667
0.91648,0.81417,1.833,0.47126,0.23592,0.48988,-2.3035,0.76782,-1.2111,-3.0713,-4.4265e-09,-0.60554,0,0,0.5,-2.3685e-15,0,0.66667
0.68745,0.47236,1.3749,-0.041454,-0.092502,1.8201,0.15199,-0.050662,-1.9945,0.20265,-3.1844e-11,-0.99727,0,0,0.5,-0,-0,0.66667
0.90817,0.43877,1.8163,-0.091846,-0.033062,0.35418,0.44486,-0.14829,-1.971,0.59315,4.7019e-08,-0.98548,0,0,0.5,-0,-0,0.66667
0.30209,0.58412,0.60417,0.12619,0.54005,5.9686,-0.2033,0.067767,-1.943,-0.27107,-8.794e-11,-0.9715,0,0,0.5,-0,-0,0.66667
0.94483,0.029775,1.8897,-0.70534,-0.35611,0.60602,3.5543,-1.1848,-0.23183,4.739,2.9031e-07,-0.11591,0,0,0.5,-8.8818e-16,0,0.66667
0.86403,0.035656,1.7281,-0.69652,-0.88563,0.9461,3.2097,-1.0699,-0.27533,4.2795,-7.1571e-09,-0.13767,0,0,0.5,-0,-0,0.66667
0.88601,0.39178,1.772,-0.16234,-0.095869,0.47704,0.7671,-0.2557,-1.9057,1.0228,-3.0687e-10,-0.95284,0,0,0.5,-0,-0,0.66667
0.00014133,0.88439,0.00028266,0.57659,2.9376,9.9426,-0.00043494,0.00014537,-0.81786,-0.00057972,5.9033e-07,-0.40893,0,0,0.5,2.8912e-19,1.9914e-15,0.66667
0.37724,0.44442,0.75448,-0.083376,-0.33336,5.0449,0.16775,-0.055916,-1.9753,0.22366,3.4375e-11,-0.98765,0,0,0.5,-0,-0,0.66667
0.12233,0.68876,0.24465,0.28315,1.3459,8.3083,-0.18472,0.061575,-1.7159,-0.2463,2.6254e-09,-0.85793,0,0,0.5,2.9606e-16,0,0.66667
0.93281,0.82875,1.8656,0.49312,0.17825,0.43908,-2.4532,0.81775,-1.1348,-3.271,-5.5484e-10,-0.56739,0,0,0.5,-0,-0,0.66667
0.51371,0.7453,1.0274,0.36795,1.2816,3.5532,-1.0081,0.33603,-1.519,-1.3441,8.8796e-12,-0.75948,0,0,0.5,2.9606e-16,0,0.66667
0.48934,0.2351,0.97867,-0.39735,-1.445,3.8237,1.037,-0.34566,-1.438,1.3827,6.5498e-12,-0.719,0,0,0.5,-0,-0,0.66667
0.48692,0.82297,0.97384,0.48445,1.8065,3.8831,-1.2581,0.41936,-1.1652,-1.6774,-5.951e-12,-0.5826,0,0,0.5,-0,-0,0.66667
0.57029,0.091207,1.1406,-0.61319,-2.0881,3.0956,1.865,-0.62168,-0.66363,2.4867,-1.1936e-11,-0.33181,0,0,0.5,7.4015e-16,0,0.66667
0.54451,0.97621,1.089,0.71431,2.6414,3.4146,-2.0744,0.69146,-0.18577,-2.7658,2.6024e-13,-0.092885,0,0,0.5,-0,-4.3027e-16,0.66667
0.91711,0.83033,1.8342,0.4955,0.25706,0.50626,-2.4236,0.80787,-1.1265,-3.2315,-1.4677e-08,-0.56323,0,0,0.5,-0,-0,0.66667
0.88438,0.7742,1.7688,0.4113,0.31014,0.59764,-1.94,0.64666,-1.3984,-2.5866,-2.9721e-09,-0.69919,0,0,0.5,-0,-0,0.66667
0.78372,0.65947,1.5674,0.23921,0.36683,1.1156,-0.99985,0.33328,-1.7971,-1.3331,-4.425e-11,-0.89855,0,0,0.5,-0,-0,0.66667
0.32273,0.018392,0.64545,-0.72241,-3.4211,5.8568,1.2434,-0.41447,-0.14384,1.6579,7.7042e-12,-0.07192,0,0,0.5,1.1842e-15,0,0.66667
0.78444,0.93563,1.5689,0.65345,1.2487,1.3685,-2.7338,0.91127,-0.48257,-3.6451,1.0204e-09,-0.24129,0,0,0.5,-1.3323e-15,0,0.66667
0.14519,0.66161,0.29037,0.24242,1.139,8.0029,-0.18771,0.06257,-1.7912,-0.25028,7.0775e-10,-0.89558,0,0,0.5,-0,-0,0.66667
0.86023,0.71005,1.7205,0.31507,0.28557,0.67061,-1.4455,0.48184,-1.647,-1.9274,-1.1743e-09,-0.82348,0,0,0.5,-1.1842e-15,0,0.66667
0.773,0.017775,1.546,-0.72334,-1.5232,1.5107,2.9821,-0.99403,-0.13903,3.9761,-1.0578e-10,-0.069513,0,0,0.5,-0,-0,0.66667
0.77597,0.17559,1.5519,-0.48661,-0.86822,1.2935,2.0138,-0.67127,-1.1575,2.6851,-1.0552e-09,-0.57877,0,0,0.5,-1.1842e-15,0,0.66667
0.5287,0.12477,1.0574,-0.56285,-2.0194,3.4813,1.5871,-0.52903,-0.87472,2.1161,-7.2237e-12,-0.43736,0,0,0.5,7.4015e-17,3.3465e-20,0.66667
0.45019,0.82772,0.90037,0.49158,1.9269,4.288,-1.1803,0.39343,-1.1402,-1.5737,-2.4069e-11,-0.57012,0,0,0.5,-0,-0,0.66667
0.22663,0.51597,0.45326,0.023962,0.10727,6.9264,-0.028963,0.0096544,-1.9973,-0.038618,-7.6138e-11,-0.99864,0,0,0.5,-0,-0,0.66667
0.80868,0.1989,1.6174,-0.45165,-0.66562,1.0542,1.9479,-0.64931,-1.2743,2.5972,-7.8086e-10,-0.63713,0,0,0.5,-0,-0,0.66667
0.96593,0.60865,1.9319,0.16297,-0.03236,0.13158,-0.83958,0.27986,-1.905,-1.1194,6.3519e-08,-0.95251,0,0,0.5,-0,-0,0.66667
0.54353,0.27461,1.0871,-0.33809,-1.1133,3.2329,0.98007,-0.32669,-1.5936,1.3068,-3.0043e-11,-0.79679,0,0,0.5,-8.8818e-16,0,0.66667
0.90221,0.12983,1.8044,-0.55525,-0.40451,0.62301,2.6717,-0.89058,-0.90402,3.5623,5.959e-09,-0.45201,0,0,0.5,-0,-0,0.66667
0.28235,0.71523,0.5647,0.32284,1.4311,6.2389,-0.48616,0.16205,-1.63,-0.64821,-2.1123e-10,-0.815,0,0,0.5,-0,-0,0.66667
0.51776,0.9005,1.0355,0.60075,2.2195,3.6143,-1.6589,0.55296,-0.71699,-2.2118,2.7078e-12,-0.3585,0,0,0.5,-2.9606e-16,0,0.66667
0.32816,0.69209,0.65633,0.28813,1.2279,5.6641,-0.50428,0.16809,-1.7053,-0.67237,-1.5085e-10,-0.85266,0,0,0.5,-0,-0,0.66667
0.9918,0.18077,1.9836,-0.47885,0.12376,0.22609,2.5329,-0.84431,-1.1846,3.3772,-1.4452e-08,-0.5923,0,0,0.5,-5.9212e-16,0,0.66667
0.25032,0.96076,0.50063,0.69114,3.3943,6.7272,-0.92268,0.30756,-0.30165,-1.2302,-1.6465e-10,-0.15082,0,0,0.5,-0,-0,0.66667
0.67876,0.94686,1.3575,0.67029,1.8492,2.1642,-2.4265,0.80882,-0.40215,-3.2353,5.024e-11,-0.20108,0,0,0.5,-1.1842e-15,0,0.66667
0.7642,0.57436,1.5284,0.11153,0.18383,1.223,-0.45459,0.15153,-1.9554,-0.60611,1.5734e-10,-0.9777,0,0,0.5,-1.1842e-15,0,0.66667
0.032227,0.52775,0.064453,0.041622,0.19755,9.5096,-0.0071534,0.0023834,-1.9944,-0.0095383,-1.5375e-06,-0.99722,0,0,0.5,-1.8504e-17,0,0.66667
0.98227,0.045415,1.9645,-0.68188,-0.058831,0.45953,3.5722,-1.1907,-0.34633,4.763,1.4632e-06,-0.17316,0,0,0.5,-0,-5.8695e-16,0.66667
0.091323,0.52092,0.18265,0.031385,0.14772,8.7144,-0.015286,0.0050954,-1.9962,-0.020381,-1.5604e-08,-0.99809,0,0,0.5,-0,-0,0.66667
0.61407,0.67922,1.2281,0.26883,0.75644,2.5172,-0.88043,0.29348,-1.7428,-1.1739,8.5985e-11,-0.8714,0,0,0.5,-0,-0,0.66667
0.14935,0.55675,0.2987,0.085122,0.39485,7.941,-0.067803,0.022601,-1.9742,-0.090404,-8.8367e-10,-0.98712,0,0,0.5,-1.4803e-16,0,0.66667
0.5208,0.53773,1.0416,0.056594,0.18714,3.4174,-0.15719,0.052398,-1.9886,-0.20959,3.538e-12,-0.99428,0,0,0.5,-1.1842e-15,0,0.66667
0.093345,0.67424,0.18669,0.26135,1.2478,8.6928,-0.13011,0.043371,-1.7568,-0.17348,2.3273e-09,-0.87839,0,0,0.5,-0,-0,0.66667
0.7812,0.40491,1.5624,-0.14264,-0.21628,1.1075,0.59428,-0.19809,-1.9287,0.79237,-1.7954e-10,-0.96437,0,0,0.5,-0,-0,0.66667
0.77293,0.22062,1.5459,-0.41907,-0.73164,1.2724,1.7275,-0.57584,-1.3762,2.3034,-5.3916e-10,-0.68811,0,0,0.5,-0,-0,0.66667
0.59815,0.038863,1.1963,-0.69171,-2.3089,2.8847,2.2066,-0.73554,-0.29866,2.9422,-3.7805e-12,-0.14933,0,0,0.5,1.1842e-15,0,0.66667
0.014543,0.58802,0.029087,0.13202,0.62936,9.7483,-0.010238,0.0034132,-1.9383,-0.01365,9.3574e-07,-0.96914,0,0,0.5,9.2519e-18,0,0.66667
0.042024,0.38922,0.084048,-0.16617,-0.7925,9.3784,0.037244,-0.012415,-1.9012,0.049658,-1.6591e-09,-0.9506,0,0,0.5,-0,-0,0.66667
0.18097,0.21923,0.36194,-0.42116,-2.0044,7.5509,0.40649,-0.1355,-1.3703,0.54199,1.6083e-10,-0.68513,0,0,0.5,-0,-0,0.66667
0.97203,0.24904,1.9441,-0.37644,0.053535,0.20995,1.9515,-0.6505,-1.4971,2.602,-4.0875e-10,-0.74855,0,0,0.5,-2.9606e-16,0,0.66667
0.2546,0.50729,0.5092,0.010938,0.048171,6.566,-0.014852,0.0049508,-1.9994,-0.019803,-1.8704e-11,-0.99972,0,0,0.5,-1.1842e-15,0,0.66667
0.75101,0.64354,1.502,0.21531,0.38542,1.3428,-0.86242,0.28747,-1.8348,-1.1499,8.9595e-11,-0.9174,0,0,0.5,-1.1842e-15,0,0.66667
0.28124,0.96917,0.56247,0.70376,3.4075,6.3507,-1.0556,0.35186,-0.24027,-1.4074,-3.0799e-11,-0.12014,0,0,0.5,-1.1842e-15,-3.1652e-17,0.66667
0.25552,0.67688,0.51104,0.26532,1.1872,6.5702,-0.36156,0.12052,-1.7492,-0.48208,-1.1338e-10,-0.87462,0,0,0.5,2.9606e-16,0,0.66667
0.25786,0.27749,0.51573,-0.33377,-1.5056,6.5498,0.45902,-0.15301,-1.6042,0.61203,2.1578e-10,-0.80211,0,0,0.5,7.4015e-17,0,0.66667
0.29705,0.4832,0.59411,-0.025193,-0.10783,6.0276,0.039913,-0.013304,-1.9974,0.053217,2.2594e-11,-0.99869,0,0,0.5,5.9212e-16,0,0.66667
0.0089446,0.51066,0.017889,0.015989,0.075942,9.8237,-0.00076012,0.00025596,-1.9986,-0.0010122,3.8847e-06,-0.9993,0,0,0.5,-0,-0,0.66667
0.98718,0.13731,1.9744,-0.54404,0.076425,0.2978,2.8643,-0.95478,-0.94717,3.8191,-2.1703e-07,-0.47358,0,0,0.5,-0,-0,0.66667
0.56646,0.68432,1.1329,0.27648,0.86204,2.982,-0.83527,0.27842,-1.7287,-1.1137,4.5733e-11,-0.86435,0,0,0.5,2.9606e-16,0,0.66667
0.60184,0.57562,1.2037,0.11344,0.3212,2.6016,-0.36411,0.12137,-1.9536,-0.48548,3.6804e-11,-0.97681,0,0,0.5,1.1842e-15,0,0.66667
0.53826,0.63507,1.0765,0.2026,0.65791,3.252,-0.58161,0.19387,-1.8536,-0.77547,2.0816e-11,-0.9268,0,0,0.5,-0,-0,0.66667
0.043838,0.35541,0.087675,-0.21688,-1.0386,9.3548,0.050707,-0.016902,-1.8323,0.06761,-1.7053e-08,-0.91615,0,0,0.5,-0,-0,0.66667
0.47152,0.65166,0.94304,0.22749,0.82303,3.9733,-0.57208,0.19069,-1.8163,-0.76277,-1.6698e-11,-0.90815,0,0,0.5,-5.9212e-16,0,0.66667
0.53968,0.22309,1.0794,-0.41537,-1.4021,3.3004,1.1955,-0.39851,-1.3868,1.5941,-2.4858e-11,-0.69339,0,0,0.5,-0,-0,0.66667
0.67296,0.38852,1.3459,-0.16722,-0.39526,1.9599,0.60018,-0.20006,-1.9002,0.80023,-9.3553e-11,-0.95009,0,0,0.5,-1.1842e-15,0,0.66667
0.53417,0.35692,1.0683,-0.21463,-0.70311,3.297,0.61145,-0.20382,-1.8357,0.81526,-1.9304e-11,-0.91785,0,0,0.5,-0,-0,0.66667
0.055072,0.75775,0.11014,0.38662,1.8901,9.2089,-0.11356,0.037853,-1.4683,-0.15141,5.115e-09,-0.73414,0,0,0.5,-0,-0,0.66667
0.6201,0.41456,1.2402,-0.12816,-0.34812,2.43,0.42385,-0.14128,-1.9413,0.56513,-4.9853e-11,-0.97067,0,0,0.5,-0,-0,0.66667
0.58118,0.29494,1.1624,-0.30758,-0.93711,2.8454,0.95338,-0.31779,-1.6631,1.2712,-6.0337e-11,-0.83154,0,0,0.5,-0,-0,0.66667
0.5456,0.18404,1.0912,-0.47394,-1.6092,3.2653,1.3791,-0.4597,-1.2019,1.8388,-2.3802e-11,-0.60097,0,0,0.5,9.0168e-16,0,0.66667
0.84328,0.86172,1.6866,0.54257,0.68507,0.913,-2.4402,0.81341,-0.95294,-3.2536,3.2614e-09,-0.47647,0,0,0.5,-0,-0,0.66667
0.44739,0.99378,0.89477,0.74067,3.1489,4.4413,-1.7673,0.5891,-0.049397,-2.3564,-3.3973e-14,-0.024698,0,0,0.5,-2.9606e-16,0,0.66667
0.60357,0.14087,1.2071,-0.5387,-1.6743,2.7338,1.7341,-0.57803,-0.96753,2.3121,-5.4715e-11,-0.48377,0,0,0.5,-7.1477e-16,0,0.66667
0.12361,0.31378,0.24723,-0.27933,-1.3267,8.291,0.18415,-0.061385,-1.7236,0.24554,-2.4507e-09,-0.86178,0,0,0.5,-0,-0,0.66667
0.25238,0.80233,0.50476,0.45349,2.0968,6.6406,-0.61041,0.20347,-1.2685,-0.81388,-6.307e-10,-0.63423,0,0,0.5,-0,-0,0.66667
0.85035,0.95624,1.7007,0.68436,0.94383,1.005,-3.1037,1.0346,-0.33418,-4.1383,4.0529e-09,-0.16709,0,0,0.5,-1.1842e-15,0,0.66667
0.016224,0.75945,0.032449,0.38918,1.9092,9.7276,-0.033676,0.011225,-1.4613,-0.044901,9.3447e-09,-0.73067,0,0,0.5,-0,-0,0.66667
0.15625,0.92654,0.3125,0.63981,3.2274,7.9055,-0.53317,0.17772,-0.54433,-0.7109,-5.995e-09,-0.27217,0,0,0.5,-0,-0,0.66667
0.82338,0.089286,1.6468,-0.61607,-0.94123,1.0913,2.7054,-0.9018,-0.65075,3.6072,-3.8742e-09,-0.32538,0,0,0.5,1.4803e-15,0,0.66667
0.22934,0.86686,0.45868,0.55029,2.6323,6.953,-0.67307,0.22436,-0.92308,-0.89743,-1.2656e-09,-0.46154,0,0,0.5,-1.4803e-16,0,0.66667
0.25919,0.98398,0.51839,0.72597,3.585,6.6287,-1.0036,0.33452,-0.12546,-1.3381,-3.694e-11,-0.062732,0,0,0.5,-0,-0,0.66667
0.70079,0.54162,1.4016,0.062433,0.13328,1.7099,-0.23335,0.077783,-1.9858,-0.31113,5.164e-11,-0.99291,0,0,0.5,-1.1842e-15,0,0.66667
0.96653,0.84862,1.9331,0.52293,0.026842,0.3416,-2.6956,0.89853,-1.028,-3.5941,-6.324e-08,-0.51401,0,0,0.5,-0,-0,0.66667
0.19828,0.3819,0.39656,-0.17715,-0.81009,7.3009,0.18733,-0.062445,-1.8883,0.24978,6.0097e-11,-0.94416,0,0,0.5,5.9212e-16,0,0.66667
0.7475,0.68045,1.495,0.27068,0.49967,1.3869,-1.0791,0.3597,-1.7395,-1.4388,1.0699e-10,-0.86974,0,0,0.5,4.4261e-16,0,0.66667
0.14051,0.45118,0.28101,-0.073233,-0.34055,8.0581,0.054878,-0.018293,-1.9806,0.073171,2.3463e-09,-0.9903,0,0,0.5,-0,-0,0.66667
0.3825,0.61937,0.765,0.17905,0.71673,4.9906,-0.36526,0.12175,-1.886,-0.48701,-6.5121e-11,-0.94302,0,0,0.5,5.9212e-16,0,0.66667
0.32329,0.091756,0.64658,-0.61237,-2.8055,5.8079,1.0558,-0.35195,-0.66736,1.4078,1.249e-10,-0.33368,0,0,0.5,7.4015e-17,0,0.66667
0.88379,0.90346,1.7676,0.60519,0.58345,0.75548,-2.8526,0.95085,-0.69825,-3.8034,7.79e-09,-0.34913,0,0,0.5,5.9212e-16,0,0.66667
0.65538,0.015257,1.3108,-0.72711,-2.1868,2.4057,2.5415,-0.84718,-0.11978,3.3887,-3.2996e-12,-0.059888,0,0,0.5,-0,5.9179e-16,0.66667
0.33358,0.55525,0.66715,0.082877,0.34508,5.5752,-0.14744,0.049148,-1.9754,-0.19659,-4.9984e-11,-0.98771,0,0,0.5,-0,-0,0.66667
0.021608,0.10227,0.043216,-0.5966,-3.0526,9.6596,0.068753,-0.022918,-0.73417,0.091671,-9.7715e-07,-0.36709,0,0,0.5,-0,-0,0.66667
0.36901,0.96566,0.73802,0.69848,3.1639,5.3015,-1.3747,0.45822,-0.26575,-1.8329,-5.3686e-12,-0.13288,0,0,0.5,9.9743e-16,0,0.66667
0.97218,0.49908,1.9444,-0.001382,0.00040323,0.086999,0.007166,-0.0023838,-2.0009,0.0095571,7.3232e-06,-1.0005,0,0,0.5,4.4409e-16,0,0.66667
0.5291,0.98487,1.0582,0.7273,2.7678,3.577,-2.0524,0.68412,-0.11871,-2.7365,1.1591e-13,-0.059354,0,0,0.5,-1.1842e-15,0,0.66667
0.74214,0.58376,1.4843,0.12564,0.22979,1.3893,-0.4973,0.16577,-1.9434,-0.66307,1.1896e-10,-0.97171,0,0,0.5,-5.9212e-16,0,0.66667
0.34539,0.49914,0.69078,-0.0012893,-0.0053027,5.4282,0.0023751,-0.00079169,-2.001,0.0031668,7.6711e-13,-1.0005,0,0,0.5,1.1102e-15,0,0.66667
0.46059,0.39488,0.92118,-0.15769,-0.57466,4.0841,0.38735,-0.12912,-1.911,0.51647,1.7656e-11,-0.95552,0,0,0.5,-0,-0,0.66667
0.21164,0.86318,0.42327,0.54477,2.6252,7.1769,-0.6149,0.20497,-0.94421,-0.81987,-1.7079e-09,-0.4721,0,0,0.5,-2.9606e-16,0,0.66667
0.83696,0.33704,1.6739,-0.24444,-0.263,0.77453,1.0911,-0.36371,-1.7874,1.4549,6.7683e-10,-0.89372,0,0,0.5,-5.9212e-16,0,0.66667
0.35981,0.72877,0.71962,0.34316,1.435,5.2903,-0.65851,0.2195,-1.5811,-0.87801,-1.3495e-10,-0.79057,0,0,0.5,-5.9212e-16,0,0.66667
0.037088,0.10915,0.074176,-0.58628,-2.9895,9.4553,0.11597,-0.038656,-0.77723,0.15462,-8.2184e-09,-0.38862,0,0,0.5,-0,-0,0.66667
0.68899,0.76592,1.378,0.39888,0.95062,1.9034,-1.4657,0.48858,-1.4338,-1.9543,2.6245e-10,-0.71691,0,0,0.5,-0,-0,0.66667
0.15579,0.72701,0.31158,0.34052,1.6143,7.8708,-0.28293,0.09431,-1.5877,-0.37724,7.5558e-10,-0.79385,0,0,0.5,-0,-0,0.66667
0.79875,0.76671,1.5975,0.40006,0.60541,1.0869,-1.7043,0.56809,-1.4305,-2.2724,2.9039e-10,-0.71523,0,0,0.5,-0,-0,0.66667
0.015262,0.94685,0.030525,0.67028,3.4953,9.7445,-0.054555,0.018186,-0.40247,-0.072739,2.0157e-06,-0.20123,0,0,0.5,3.7007e-17,0,0.66667
0.58562,0.11333,1.1712,-0.58001,-1.8965,2.9278,1.8116,-0.60385,-0.80331,2.4154,-2.6567e-11,-0.40165,0,0,0.5,-5.9212e-16,0,0.66667
0.49552,0.19856,0.99103,-0.45216,-1.6515,3.7776,1.1949,-0.39831,-1.2726,1.5933,2.3002e-12,-0.6363,0,0,0.5,-0,-0,0.66667
0.99746,0.078256,1.9949,-0.63262,0.089368,0.36209,3.3654,-1.1218,-0.57653,4.4872,-4.3158e-06,-0.28827,0,0,0.5,-0,2.0773e-15,0.66667
0.13437,0.36215,0.26874,-0.20677,-0.9714,8.1442,0.14818,-0.049393,-1.8474,0.19757,-2.821e-10,-0.92369,0,0,0.5,-1.4803e-16,0,0.66667
0.67255,0.46955,1.3451,-0.045674,-0.10687,1.9479,0.16383,-0.054611,-1.9937,0.21844,-3.0473e-11,-0.99686,0,0,0.5,-0,-0,0.66667
0.094945,0.52203,0.18989,0.033039,0.15539,8.6658,-0.01673,0.0055766,-1.996,-0.022307,-2.5282e-08,-0.99798,0,0,0.5,-0,-0,0.66667
0.16177,0.3222,0.32354,-0.2667,-1.2493,7.7858,0.2301,-0.076699,-1.7467,0.3068,-6.7212e-10,-0.87335,0,0,0.5,-0,-0,0.66667
0.98833,0.90904,1.9767,0.61356,-0.042456,0.36523,-3.2341,1.078,-0.66203,-4.3122,7.462e-07,-0.33102,0,0,0.5,-0,-0,0.66667
0.80667,0.64011,1.6133,0.21017,0.27854,0.95246,-0.90418,0.30139,-1.8423,-1.2056,-1.0512e-10,-0.92115,0,0,0.5,-0,-0,0.66667
0.24464,0.76145,0.48928,0.39217,1.8002,6.7273,-0.51168,0.17056,-1.4526,-0.68224,-3.9674e-10,-0.72632,0,0,0.5,-0,-0,0.66667
0.8463,0.39634,1.6926,-0.1555,-0.14853,0.69274,0.70185,-0.23395,-1.9137,0.9358,-3.9665e-10,-0.95686,0,0,0.5,-0,-0,0.66667
0.0356,0.97938,0.071201,0.71907,3.7963,9.4804,-0.13653,0.04551,-0.1611,-0.18204,7.1957e-07,-0.080551,0,0,0.5,7.4015e-17,0,0.66667
0.53561,0.24299,1.0712,-0.38551,-1.3008,3.3308,1.1012,-0.36708,-1.4715,1.4683,-2.3318e-11,-0.73574,0,0,0.5,-8.8818e-16,0,0.66667
0.091475,0.94102,0.18295,0.66153,3.413,8.7478,-0.32274,0.10758,-0.44451,-0.43032,-7.273e-08,-0.22226,0,0,0.5,-0,2.368e-16,0.66667
0.97091,0.67899,1.9418,0.26848,-0.054431,0.15358,-1.3902,0.46342,-1.7436,-1.8537,-2.048e-08,-0.87178,0,0,0.5,1.1842e-15,0,0.66667
0.5831,0.53256,1.1662,0.048841,0.14355,2.7787,-0.15189,0.05063,-1.9923,-0.20252,1.3103e-11,-0.99616,0,0,0.5,-0,-0,0.66667
0.55574,0.45343,1.1115,-0.069854,-0.2171,3.0546,0.20704,-0.069015,-1.982,0.27606,-1.205e-11,-0.99099,0,0,0.5,-0,-0,0.66667
0.31797,0.3328,0.63595,-0.2508,-1.0724,5.7839,0.42532,-0.14177,-1.7759,0.5671,1.3734e-10,-0.88793,0,0,0.5,2.9606e-16,0,0.66667
0.8499,0.65138,1.6998,0.22708,0.21595,0.69251,-1.0293,0.3431,-1.8168,-1.3724,-4.2459e-10,-0.90841,0,0,0.5,-0,-0,0.66667
0.53015,0.10532,1.0603,-0.59202,-2.1398,3.4823,1.6739,-0.55797,-0.75351,2.2319,-5.5438e-12,-0.37676,0,0,0.5,-0,-0,0.66667
0.017098,0.25339,0.034196,-0.36991,-1.809,9.7157,0.033733,-0.011244,-1.5141,0.044977,7.2595e-09,-0.75703,0,0,0.5,-0,-0,0.66667
0.18489,0.92979,0.36979,0.64469,3.2226,7.5391,-0.63573,0.21191,-0.52214,-0.84764,-2.6321e-09,-0.26107,0,0,0.5,1.4803e-16,0,0.66667
0.43347,0.2063,0.86694,-0.44055,-1.7398,4.457,1.0185,-0.33949,-1.3094,1.358,4.2792e-11,-0.6547,0,0,0.5,5.9212e-16,0,0.66667
0.079976,0.81745,0.15995,0.47618,2.3576,8.8827,-0.20311,0.067703,-1.1941,-0.27081,1.3483e-08,-0.59705,0,0,0.5,2.9606e-16,0,0.66667
0.28066,0.34975,0.56132,-0.22538,-0.98774,6.2468,0.33736,-0.11245,-1.8196,0.44981,1.2481e-10,-0.90982,0,0,0.5,-0,-0,0.66667
0.2504,0.73175,0.50079,0.34762,1.5785,6.6468,-0.46423,0.15474,-1.57,-0.61897,-2.4341e-10,-0.785,0,0,0.5,-5.9212e-16,0,0.66667
0.00060864,0.017586,0.0012173,-0.72362,-3.8301,9.9365,0.0023444,-0.00073739,-0.13788,0.0031479,6.6099e-05,-0.068942,0,0,0.5,2.313e-18,2.3312e-15,0.66667
0.69289,0.69241,1.3858,0.28862,0.65686,1.8245,-1.0666,0.35552,-1.704,-1.4221,1.6718e-10,-0.85199,0,0,0.5,-0,-0,0.66667
0.77389,0.37919,1.5478,-0.18121,-0.28812,1.1675,0.74794,-0.24931,-1.8835,0.99726,-8.3496e-11,-0.94174,0,0,0.5,-2.3685e-15,0,0.66667
0.82035,0.78334,1.6407,0.425,0.57296,0.96437,-1.8595,0.61982,-1.3584,-2.4793,2.0382e-10,-0.67919,0,0,0.5,2.3685e-15,0,0.66667
0.85163,0.53326,1.7033,0.049896,0.044128,0.64547,-0.22663,0.075543,-1.9918,-0.30217,2.5886e-09,-0.99588,0,0,0.5,-0,-0,0.66667
0.15152,0.91505,0.30305,0.62257,3.1312,7.9634,-0.50312,0.16771,-0.62157,-0.67083,-6.498e-09,-0.31079,0,0,0.5,-0,-0,0.66667
0.89004,0.09805,1.7801,-0.60292,-0.5439,0.72341,2.862,-0.954,-0.70799,3.816,-1.483e-08,-0.35399,0,0,0.5,-2.3685e-15,0,0.66667
0.65821,0.5231,1.3164,0.034645,0.08456,2.0732,-0.12162,0.04054,-1.9956,-0.16216,2.0262e-11,-0.99781,0,0,0.5,-0,-0,0.66667
0.69613,0.44381,1.3923,-0.084278,-0.18313,1.7505,0.3129,-0.1043,-1.9747,0.4172,-6.4569e-11,-0.98734,0,0,0.5,-0,-0,0.66667
0.56407,0.79889,1.1281,0.44834,1.4623,3.0684,-1.3488,0.44959,-1.2849,-1.7984,3.9823e-11,-0.64243,0,0,0.5,-0,-0,0.66667
0.93968,0.71298,1.8794,0.31947,0.046806,0.29417,-1.6011,0.53369,-1.6373,-2.1347,9.2843e-09,-0.81865,0,0,0.5,-1.7764e-15,0,0.66667
0.25185,0.58609,0.50369,0.12913,0.57193,6.605,-0.17345,0.057816,-1.9407,-0.23126,-1.2727e-10,-0.97033,0,0,0.5,-2.9606e-16,0,0.66667
0.78688,0.73576,1.5738,0.35364,0.55783,1.1413,-1.4841,0.49471,-1.5547,-1.9789,1.0374e-10,-0.77734,0,0,0.5,-0,-0,0.66667
0.49526,0.56889,0.99052,0.10334,0.35682,3.6951,-0.27296,0.090988,-1.962,-0.36395,-1.4556e-12,-0.981,0,0,0.5,-1.1842e-15,0,0.66667
0.8909,0.55864,1.7818,0.087958,0.046177,0.43759,-0.41793,0.13931,-1.9731,-0.55724,1.5087e-08,-0.98654,0,0,0.5,-1.1842e-15,0,0.66667
0.2762,0.55276,0.5524,0.079134,0.34421,6.2922,-0.11657,0.038856,-1.9773,-0.15543,-8.0004e-11,-0.98867,0,0,0.5,-0,-0,0.66667
0.015247,0.94548,0.030494,0.66822,3.4826,9.7447,-0.054332,0.018112,-0.4124,-0.072442,2.1571e-06,-0.2062,0,0,0.5,-0,-0,0.66667
0.064891,0.3386,0.12978,-0.24211,-1.1593,9.0728,0.08379,-0.02793,-1.7918,0.11172,7.6829e-09,-0.89592,0,0,0.5,-0,-0,0.66667
0.89964,0.49255,1.7993,-0.01117,-0.0048386,0.38832,0.053595,-0.017865,-1.9994,0.071459,-2.9008e-08,-0.99968,0,0,0.5,4.1448e-15,0,0.66667
0.64115,0.15504,1.2823,-0.51744,-1.4671,2.3786,1.7694,-0.58979,-1.0491,2.3591,-1.2576e-10,-0.52455,0,0,0.5,1.7023e-15,0,0.66667
0.73027,0.016781,1.4605,-0.72483,-1.7763,1.8116,2.823,-0.94101,-0.1314,3.764,-2.8733e-11,-0.065702,0,0,0.5,-0,5.8888e-16,0.66667
0.50436,0.53648,1.0087,0.054718,0.18584,3.5931,-0.14719,0.049063,-1.9895,-0.19625,6.4992e-13,-0.99475,0,0,0.5,-0,-0,0.66667
0.55757,0.76151,1.1151,0.39226,1.2754,3.1098,-1.1665,0.38882,-1.4524,-1.5553,3.9593e-11,-0.7262,0,0,0.5,-0,-0,0.66667
0.36389,0.93027,0.72779,0.6454,2.8886,5.3379,-1.2526,0.41752,-0.51885,-1.6701,-3.0492e-11,-0.25942,0,0,0.5,-0,-0,0.66667
0.78264,0.24378,1.5653,-0.38433,-0.62891,1.1861,1.6042,-0.53473,-1.475,2.1389,-2.8373e-10,-0.73749,0,0,0.5,-1.1842e-15,0,0.66667
0.75687,0.73244,1.5137,0.34866,0.63487,1.3501,-1.4074,0.46913,-1.5671,-1.8765,2.334e-10,-0.78356,0,0,0.5,1.1842e-15,0,0.66667
0.70001,0.70832,1.4,0.31249,0.69931,1.7747,-1.1666,0.38887,-1.6524,-1.5555,1.9342e-10,-0.82622,0,0,0.5,-0,-0,0.66667
0.96189,0.49649,1.9238,-0.0052605,0.00097506,0.12329,0.026987,-0.0089974,-2.0003,0.035982,-2.5179e-06,-1.0001,0,0,0.5,2.9606e-16,0,0.66667
0.76884,0.29903,1.5377,-0.30145,-0.50994,1.2431,1.2361,-0.41203,-1.6764,1.6481,-6.5842e-11,-0.83818,0,0,0.5,-0,-0,0.66667
0.97792,0.91334,1.9558,0.62001,0.029883,0.40186,-3.2337,1.0779,-0.63306,-4.3116,1.195e-09,-0.31653,0,0,0.5,-0,-0,0.66667
0.59028,0.93306,1.1806,0.64958,2.1627,2.9284,-2.045,0.68166,-0.49999,-2.7266,9.627e-12,-0.25,0,0,0.5,-1.4803e-15,4.357e-16,0.66667
0.61926,0.066769,1.2385,-0.64985,-2.0423,2.6613,2.1463,-0.71542,-0.49873,2.8617,-1.8529e-11,-0.24937,0,0,0.5,-2.3685e-15,0,0.66667
0.63905,0.57359,1.2781,0.11038,0.28529,2.2521,-0.37622,0.12541,-1.9564,-0.50162,5.1646e-11,-0.97818,0,0,0.5,-0,-0,0.66667
0.32637,0.88039,0.65274,0.57059,2.5788,5.7565,-0.99319,0.33106,-0.84267,-1.3243,-1.7331e-10,-0.42133,0,0,0.5,-0,-0,0.66667
0.033029,0.97528,0.066058,0.71291,3.7579,9.5136,-0.12558,0.041862,-0.193,-0.16744,1.2687e-06,-0.0965,0,0,0.5,-0,-0,0.66667
0.78818,0.97779,1.5764,0.71668,1.4115,1.4048,-3.0126,1.0042,-0.1734,-4.0168,2.1725e-10,-0.086698,0,0,0.5,-0,-0,0.66667
0.71019,0.37933,1.4204,-0.18101,-0.37904,1.6512,0.6856,-0.22853,-1.8837,0.91414,-1.1289e-10,-0.94186,0,0,0.5,-2.3685e-15,0,0.66667
0.079032,0.91686,0.15806,0.62529,3.2029,8.9067,-0.26356,0.087854,-0.60955,-0.35142,-3.5275e-08,-0.30478,0,0,0.5,-0,-0,0.66667
0.14858,0.17761,0.29716,-0.48359,-2.3574,7.9811,0.38321,-0.12774,-1.1681,0.51095,4.0676e-10,-0.58403,0,0,0.5,1.4803e-16,0,0.66667
0.68634,0.1682,1.3727,-0.4977,-1.2415,1.9795,1.8218,-0.60728,-1.1189,2.4291,-2.8801e-10,-0.55946,0,0,0.5,-0,-0,0.66667
0.53504,0.36214,1.0701,-0.2068,-0.67572,3.2864,0.5901,-0.1967,-1.8474,0.7868,-1.9312e-11,-0.92371,0,0,0.5,-0,-0,0.66667
0.19121,0.097002,0.38243,-0.6045,-2.9826,7.45,0.61647,-0.20549,-0.70122,0.82196,2.8182e-09,-0.35061,0,0,0.5,-5.9212e-16,0,0.66667
0.055953,0.99093,0.11191,0.7364,3.8997,9.2167,-0.21975,0.073251,-0.071516,-0.29301,-7.1581e-07,-0.035758,0,0,0.5,6.6262e-17,0,0.66667
0.61141,0.67982,1.2228,0.26973,0.76381,2.5426,-0.87956,0.29319,-1.7413,-1.1727,8.3686e-11,-0.87063,0,0,0.5,5.9212e-16,0,0.66667
0.053612,0.54387,0.10722,0.065798,0.31183,9.2214,-0.018814,0.0062711,-1.984,-0.025085,-2.8748e-07,-0.992,0,0,0.5,-0,-0,0.66667
0.21358,0.92977,0.42715,0.64465,3.1831,7.1747,-0.7343,0.24477,-0.5222,-0.97907,-1.182e-09,-0.2611,0,0,0.5,-2.1568e-17,0,0.66667
0.50266,0.99747,1.0053,0.74621,2.9698,3.8589,-2.0005,0.66683,-0.020819,-2.6673,-4.4631e-14,-0.01041,0,0,0.5,-0,-0,0.66667
0.094031,0.81147,0.18806,0.46721,2.303,8.6962,-0.2343,0.078101,-1.225,-0.3124,7.3127e-10,-0.6125,0,0,0.5,-1.9429e-16,0,0.66667
0.40891,0.10233,0.81781,-0.5965,-2.5216,4.7966,1.3009,-0.43362,-0.73469,1.7345,2.4354e-11,-0.36735,0,0,0.5,-0,-0,0.66667
0.020116,0.081173,0.040232,-0.62824,-3.2399,9.68,0.067402,-0.022467,-0.59612,0.08987,8.413e-07,-0.29806,0,0,0.5,-3.7007e-17,0,0.66667
0.11946,0.41425,0.23893,-0.12863,-0.6034,8.3395,0.081953,-0.027318,-1.9409,0.10927,2.2336e-09,-0.97047,0,0,0.5,-0,-0,0.66667
0.94006,0.55475,1.8801,0.082129,0.0036052,0.21301,-0.41177,0.13726,-1.9759,-0.54902,-1.6491e-07,-0.98796,0,0,0.5,1.1842e-15,0,0.66667
0.55886,0.66696,1.1177,0.25044,0.78871,3.0516,-0.74646,0.24882,-1.7766,-0.99528,3.777e-11,-0.88829,0,0,0.5,-0,-0,0.66667
0.68646,0.79412,1.3729,0.44118,1.0759,1.9461,-1.6152,0.5384,-1.3076,-2.1536,2.8245e-10,-0.65379,0,0,0.5,1.1842e-15,0,0.66667
0.37777,0.65512,0.75554,0.23268,0.94122,5.0544,-0.46881,0.15627,-1.8084,-0.62508,-8.4303e-11,-0.90421,0,0,0.5,7.0314e-16,0,0.66667
0.76312,0.33171,1.5262,-0.25244,-0.43172,1.2656,1.0274,-0.34247,-1.773,1.3699,-5.0379e-11,-0.88649,0,0,0.5,1.1842e-15,0,0.66667
0.89639,0.78723,1.7928,0.43084,0.2831,0.55202,-2.0597,0.68658,-1.34,-2.7463,-2.8739e-09,-0.67,0,0,0.5,-2.3685e-15,0,0.66667
0.91019,0.22406,1.8204,-0.41391,-0.2108,0.47652,2.0093,-0.66976,-1.391,2.679,6.0633e-09,-0.6955,0,0,0.5,2.3685e-15,0,0.66667
0.49649,0.25482,0.99297,-0.36778,-1.315,3.7367,0.97384,-0.32461,-1.5193,1.2985,2.2242e-12,-0.75966,0,0,0.5,-0,-0,0.66667
0.76261,0.35026,1.5252,-0.22461,-0.38197,1.2603,0.91354,-0.30451,-1.8207,1.2181,-5.4119e-11,-0.91033,0,0,0.5,-0,-0,0.66667
0.70896,0.44553,1.4179,-0.081707,-0.16965,1.6447,0.30894,-0.10298,-1.976,0.41193,-7.052e-11,-0.988,0,0,0.5,-0,-0,0.66667
0.9513,0.46996,1.9026,-0.045058,0.0033494,0.1646,0.2286,-0.076201,-1.9937,0.30481,2.7901e-07,-0.99687,0,0,0.5,-0,-0,0.66667
0.24155,0.90823,0.48311,0.61234,2.9562,6.8141,-0.78888,0.26296,-0.66742,-1.0518,-8.2238e-10,-0.33371,0,0,0.5,-5.9212e-16,0,0.66667
0.56134,0.021485,1.1227,-0.71777,-2.5867,3.2523,2.1489,-0.71629,-0.16798,2.8652,-4.4054e-13,-0.083992,0,0,0.5,-0,-0,0.66667
0.043773,0.8784,0.087547,0.56761,2.88,9.3663,-0.13251,0.044171,-0.85497,-0.17668,2.0166e-07,-0.42748,0,0,0.5,-0,-0,0.66667
0.92318,0.64989,1.8464,0.22484,0.057801,0.32048,-1.107,0.36901,-1.8204,-1.476,-1.9181e-08,-0.9102,0,0,0.5,-5.9212e-16,0,0.66667
0.94526,0.42456,1.8905,-0.11316,0.00024052,0.19725,0.57049,-0.19016,-1.9538,0.76065,2.2307e-07,-0.97692,0,0,0.5,-2.3036e-15,0,0.66667
0.50091,0.2533,1.0018,-0.37005,-1.3151,3.69,0.9886,-0.32953,-1.5137,1.3181,-6.2023e-13,-0.75687,0,0,0.5,-0,-0,0.66667
0.58612,0.86306,1.1722,0.5446,1.7565,2.9023,-1.7024,0.56746,-0.94489,-2.2698,3.7112e-11,-0.47245,0,0,0.5,-5.9212e-16,0,0.66667
0.77194,0.98008,1.5439,0.72013,1.5192,1.5146,-2.9648,0.98826,-0.15562,-3.953,1.1607e-10,-0.077811,0,0,0.5,-0,-0,0.66667
0.24933,0.27881,0.49866,-0.33178,-1.5038,6.658,0.4412,-0.14707,-1.6094,0.58826,1.9167e-10,-0.80471,0,0,0.5,1.4803e-16,0,0.66667
0.37899,0.96089,0.75798,0.69133,3.0969,5.1826,-1.3974,0.46579,-0.30047,-1.8632,-6.6054e-12,-0.15023,0,0,0.5,-2.9606e-16,0,0.66667
0.28861,0.30959,0.57721,-0.28561,-1.2539,6.1547,0.43962,-0.14654,-1.7104,0.58617,1.6789e-10,-0.8552,0,0,0.5,2.9606e-16,0,0.66667
0.5388,0.6625,1.0776,0.24375,0.79541,3.2552,-0.70044,0.23348,-1.7887,-0.93392,2.3885e-11,-0.89435,0,0,0.5,-1.1842e-15,0,0.66667
0.94896,0.80237,1.8979,0.45355,0.072826,0.34546,-2.2955,0.76516,-1.2682,-3.0606,1.1485e-08,-0.6341,0,0,0.5,1.1842e-15,0,0.66667
0.3854,0.40379,0.7708,-0.14431,-0.57428,4.9522,0.29663,-0.098877,-1.9265,0.39551,5.2578e-11,-0.96326,0,0,0.5,8.5425e-16,0,0.66667
0.04501,0.98117,0.09002,0.72176,3.8105,9.358,-0.17326,0.057754,-0.14737,-0.23101,4.6135e-07,-0.073684,0,0,0.5,7.4015e-17,5.6724e-16,0.66667
0.68252,0.34293,1.365,-0.2356,-0.54732,1.8946,0.8576,-0.28587,-1.8035,1.1435,-1.2863e-10,-0.90177,0,0,0.5,1.1842e-15,0,0.66667
0.49503,0.10967,0.99006,-0.5855,-2.224,3.8437,1.5458,-0.51527,-0.78049,2.0611,9.1649e-13,-0.39025,0,0,0.5,-5.9212e-16,0,0.66667
0.29651,0.15754,0.59302,-0.51369,-2.3397,6.1038,0.81235,-0.27078,-1.0628,1.0831,3.8747e-10,-0.53141,0,0,0.5,1.1842e-15,0,0.66667
0.41589,0.082411,0.83178,-0.62638,-2.6524,4.7308,1.3894,-0.46312,-0.60442,1.8525,1.3715e-11,-0.30221,0,0,0.5,-5.9212e-16,0,0.66667
0.86251,0.61661,1.725,0.17492,0.14241,0.60541,-0.80465,0.26822,-1.891,-1.0729,2.0327e-10,-0.94551,0,0,0.5,-0,-0,0.66667
0.82102,0.6035,1.642,0.15525,0.18318,0.84602,-0.67979,0.2266,-1.9139,-0.90639,2.0696e-10,-0.95694,0,0,0.5,-0,-0,0.66667
0.17085,0.34657,0.34169,-0.23014,-1.07,7.6638,0.2097,-0.0699,-1.8124,0.2796,-5.7536e-10,-0.9062,0,0,0.5,5.9212e-16,0,0.66667
0.68513,0.38797,1.3703,-0.16805,-0.38244,1.8558,0.61406,-0.20469,-1.8991,0.81874,-9.9859e-11,-0.94956,0,0,0.5,-0,-0,0.66667
0.99766,0.59578,1.9953,0.14367,-0.077157,0.024981,-0.76443,0.25481,-1.9274,-1.0192,1.9611e-06,-0.96369,0,0,0.5,2.3685e-15,0,0.66667
0.78436,0.50897,1.5687,0.013454,0.01976,1.0715,-0.056283,0.018761,-1.9991,-0.075044,2.6176e-11,-0.99955,0,0,0.5,-0,-0,0.66667
0.72505,0.71931,1.4501,0.32896,0.67717,1.5813,-1.2721,0.42402,-1.6162,-1.6961,2.1877e-10,-0.80808,0,0,0.5,-0,-0,0.66667
0.31002,0.56698,0.62004,0.10047,0.42677,5.8679,-0.16612,0.055373,-1.9645,-0.22149,-7.1097e-11,-0.98223,0,0,0.5,-0,-0,0.66667
0.15947,0.76608,0.31894,0.39912,1.9076,7.8286,-0.33945,0.11315,-1.4331,-0.4526,4.8528e-10,-0.71653,0,0,0.5,2.9606e-16,0,0.66667
0.86432,0.86753,1.7286,0.55129,0.59589,0.80539,-2.5413,0.8471,-0.91922,-3.3884,2.6146e-09,-0.45961,0,0,0.5,-5.9212e-16,0,0.66667
0.61035,0.2493,1.2207,-0.37605,-1.0943,2.5899,1.2241,-0.40804,-1.4983,1.6321,-9.7115e-11,-0.74916,0,0,0.5,-1.7393e-15,0,0.66667
0.39009,0.15794,0.78018,-0.51309,-2.1609,4.9806,1.0675,-0.35583,-1.0649,1.4233,7.2367e-11,-0.53246,0,0,0.5,1.1842e-15,5.2988e-16,0.66667
0.75559,0.31295,1.5112,-0.28057,-0.50131,1.3306,1.1307,-0.37689,-1.7211,1.5075,-8.3188e-11,-0.86053,0,0,0.5,2.3685e-15,0,0.66667
0.71863,0.3892,1.4373,-0.16619,-0.33644,1.5801,0.63697,-0.21232,-1.9014,0.84929,-1.1074e-10,-0.95072,0,0,0.5,1.1842e-15,0,0.66667
0.64733,0.20474,1.2947,-0.44288,-1.204,2.2828,1.529,-0.50968,-1.3019,2.0387,-1.6182e-10,-0.65097,0,0,0.5,-0,-0,0.66667
0.20726,0.57026,0.41453,0.10539,0.47766,7.1801,-0.1165,0.038833,-1.9603,-0.15533,-2.7581e-10,-0.98017,0,0,0.5,-5.9212e-16,0,0.66667
0.88553,0.62153,1.7711,0.18229,0.1098,0.48494,-0.86094,0.28698,-1.8822,-1.1479,-1.7467e-09,-0.94112,0,0,0.5,-1.7764e-15,0,0.66667
0.71901,0.40706,1.438,-0.1394,-0.28062,1.5719,0.53457,-0.17819,-1.9321,0.71277,-1.0694e-10,-0.96603,0,0,0.5,2.3685e-15,0,0.66667
0.30263,0.44428,0.60526,-0.08358,-0.35679,5.9594,0.1349,-0.044967,-1.9751,0.17987,6.4743e-11,-0.98753,0,0,0.5,-0,-0,0.66667
0.063598,0.012423,0.1272,-0.73136,-3.8639,9.117,0.24807,-0.082691,-0.097786,0.33076,1.5733e-07,-0.048893,0,0,0.5,-0,-0,0.66667
0.9128,0.36657,1.8256,-0.20015,-0.069611,0.35833,0.97436,-0.32479,-1.8573,1.2992,1.7546e-08,-0.92863,0,0,0.5,1.1842e-15,0,0.66667
0.79385,0.23741,1.5877,-0.39389,-0.61046,1.1157,1.6677,-0.55589,-1.4479,2.2236,-2.7873e-10,-0.72394,0,0,0.5,1.1842e-15,0,0.66667
0.49858,0.0023419,0.99717,-0.74649,-2.9875,3.9012,1.985,-0.66166,-0.019466,2.6467,1.1102e-16,-0.0097332,0,0,0.5,-0,1.6419e-16,0.66667
0.41393,0.8369,0.82785,0.50535,2.0725,4.7026,-1.1156,0.37187,-1.0918,-1.4875,-4.8008e-11,-0.54592,0,0,0.5,-5.0967e-17,0,0.66667
0.61556,0.5883,1.2311,0.13245,0.36388,2.4733,-0.43483,0.14494,-1.9377,-0.57977,4.9136e-11,-0.96884,0,0,0.5,2.9606e-16,0,0.66667
0.39852,0.85424,0.79703,0.53135,2.2294,4.8895,-1.1293,0.37645,-0.99564,-1.5058,-5.5328e-11,-0.49782,0,0,0.5,1.1842e-15,0,0.66667
0.038918,0.58008,0.077836,0.12013,0.57143,9.4198,-0.024934,0.0083114,-1.948,-0.033246,-2.9123e-09,-0.97402,0,0,0.5,2.7927e-17,0,0.66667
0.30197,0.0025177,0.60394,-0.74622,-3.6126,6.1152,1.2018,-0.4006,-0.020654,1.6024,-4.8924e-12,-0.010327,0,0,0.5,2.3685e-15,0,0.66667
0.24628,0.56327,0.49256,0.0949,0.42096,6.6748,-0.12465,0.04155,-1.9689,-0.1662,-1.3816e-10,-0.98447,0,0,0.5,-5.9212e-16,0,0.66667
0.9723,0.88177,1.9446,0.57265,0.027532,0.37,-2.9695,0.98985,-0.83401,-3.9594,1.8004e-07,-0.417,0,0,0.5,2.3685e-15,0,0.66667
0.7675,0.027742,1.535,-0.70839,-1.508,1.533,2.8997,-0.96655,-0.21632,3.8662,-1.3e-10,-0.10816,0,0,0.5,1.1842e-15,0,0.66667
0.4037,0.24004,0.80739,-0.38994,-1.5748,4.783,0.83956,-0.27985,-1.4591,1.1194,7.8276e-11,-0.72953,0,0,0.5,-5.9212e-16,0,0.66667
0.73663,0.078431,1.4733,-0.63235,-1.4359,1.683,2.4843,-0.8281,-0.57772,3.3124,-3.9066e-10,-0.28886,0,0,0.5,-0,-0,0.66667
0.30266,0.2965,0.60531,-0.30525,-1.3303,5.9822,0.49272,-0.16424,-1.668,0.65696,1.8502e-10,-0.83402,0,0,0.5,-0,-0,0.66667
0.5273,0.84864,1.0546,0.52296,1.8569,3.4754,-1.4707,0.49023,-1.0278,-1.9609,9.9261e-12,-0.51391,0,0,0.5,-0,-0,0.66667
0.20714,0.25413,0.41429,-0.36881,-1.7195,7.2047,0.40744,-0.13581,-1.5167,0.54326,1.1217e-10,-0.75835,0,0,0.5,-5.9212e-16,0,0.66667
0.25426,0.56078,0.50852,0.091172,0.40242,6.5723,-0.12363,0.041212,-1.9712,-0.16485,-1.2147e-10,-0.98559,0,0,0.5,1.1102e-16,0,0.66667
0.43402,0.37209,0.86805,-0.19187,-0.72595,4.39,0.44414,-0.14805,-1.8697,0.59219,3.5887e-11,-0.93483,0,0,0.5,-8.8818e-16,0,0.66667
0.082426,0.85079,0.16485,0.52618,2.6314,8.854,-0.23131,0.077104,-1.0155,-0.30842,7.8194e-09,-0.50774,0,0,0.5,-0,-0,0.66667
0.85329,0.51655,1.7066,0.024825,0.021535,0.63452,-0.11298,0.037659,-1.9972,-0.15064,4.7199e-10,-0.99858,0,0,0.5,-0,-0,0.66667
0.91633,0.15595,1.8327,-0.51608,-0.28282,0.5266,2.5221,-0.84071,-1.054,3.3628,1.7409e-08,-0.527,0,0,0.5,-4.4409e-16,0,0.66667
0.21311,0.096913,0.42622,-0.60463,-2.9548,7.1712,0.68721,-0.22907,-0.7006,0.91628,1.6701e-09,-0.3503,0,0,0.5,5.9212e-16,0,0.66667
0.47372,0.06042,0.94744,-0.65937,-2.6401,4.1103,1.6659,-0.5553,-0.45481,2.2212,1.1499e-12,-0.2274,0,0,0.5,-1.4803e-16,0,0.66667
0.84146,0.25392,1.6829,-0.36912,-0.41158,0.80505,1.6565,-0.55218,-1.516,2.2087,7.4414e-10,-0.758,0,0,0.5,-0,-0,0.66667
0.28828,0.099731,0.57656,-0.6004,-2.8103,6.2302,0.92311,-0.3077,-0.71825,1.2308,3.049e-10,-0.35913,0,0,0.5,-0,-0,0.66667
0.61071,0.38536,1.2214,-0.17196,-0.48003,2.5258,0.56009,-0.1867,-1.8946,0.74678,-5.8603e-11,-0.9473,0,0,0.5,-0,-0,0.66667
0.44205,0.65647,0.8841,0.2347,0.88365,4.3056,-0.55334,0.18445,-1.8052,-0.73778,-3.5969e-11,-0.90259,0,0,0.5,-0,-0,0.66667
0.39749,0.19711,0.79498,-0.45433,-1.8725,4.8745,0.96317,-0.32106,-1.2656,1.2842,7.8677e-11,-0.63282,0,0,0.5,-0,-0,0.66667
0.78937,0.74594,1.5787,0.36891,0.57841,1.1323,-1.5531,0.51771,-1.5164,-2.0708,1.4418e-10,-0.75818,0,0,0.5,1.1842e-15,0,0.66667
0.46451,0.95143,0.92903,0.67715,2.7592,4.2192,-1.6776,0.55919,-0.36906,-2.2368,-1.2289e-12,-0.18453,0,0,0.5,-0,-0,0.66667
0.4648,0.77752,0.92961,0.41628,1.5725,4.0982,-1.0319,0.34398,-1.3843,-1.3759,-2.1734e-11,-0.69213,0,0,0.5,-2.9606e-16,0,0.66667
0.99203,0.85349,1.9841,0.53023,-0.10981,0.27118,-2.8054,0.93512,-0.99992,-3.7405,8.0804e-08,-0.49996,0,0,0.5,-0,-0,0.66667
0.96223,0.57661,1.9245,0.11491,-0.020038,0.13333,-0.58973,0.19658,-1.9524,-0.7863,-1.2652e-09,-0.9762,0,0,0.5,-0,-0,0.66667
0.23508,0.043853,0.47016,-0.68422,-3.3806,6.9149,0.85785,-0.28595,-0.33509,1.1438,3.2252e-10,-0.16755,0,0,0.5,-0,-0,0.66667
0.22695,0.52679,0.45391,0.040185,0.17991,6.9225,-0.048641,0.016214,-1.9945,-0.064855,-1.1726e-10,-0.99723,0,0,0.5,2.9606e-16,0,0.66667
0.66274,0.60061,1.3255,0.15091,0.36688,2.0459,-0.53342,0.17781,-1.9189,-0.71123,8.1199e-11,-0.95945,0,0,0.5,-0,-0,0.66667
0.41195,0.8053,0.82389,0.45795,1.8604,4.7085,-1.0061,0.33538,-1.2542,-1.3415,-6.0839e-11,-0.62708,0,0,0.5,-2.9606e-16,0,0.66667
0.71875,0.53795,1.4375,0.056932,0.11375,1.5636,-0.21824,0.072747,-1.9887,-0.29099,5.8756e-11,-0.99434,0,0,0.5,-0,-0,0.66667
0.73345,0.72526,1.4669,0.33788,0.67553,1.5201,-1.3217,0.44057,-1.5942,-1.7623,2.3449e-10,-0.79712,0,0,0.5,-0,-0,0.66667
0.78329,0.81524,1.5666,0.47286,0.80841,1.2344,-1.9754,0.65847,-1.2056,-2.6339,1.0189e-09,-0.60282,0,0,0.5,-0,-0,0.66667
0.26331,0.57555,0.52663,0.11333,0.4979,6.4576,-0.15915,0.053049,-1.9539,-0.2122,-1.116e-10,-0.97693,0,0,0.5,-0,-0,0.66667
0.99836,0.56466,1.9967,0.096997,-0.053941,0.013028,-0.51647,0.17215,-1.9673,-0.68863,-1.1781e-05,-0.98367,0,0,0.5,-2.3685e-15,0,0.66667
0.4937,0.89602,0.9874,0.59403,2.2668,3.8622,-1.5641,0.52138,-0.74486,-2.0855,-1.0492e-12,-0.37243,0,0,0.5,-0,-0,0.66667
0.083927,0.55091,0.16785,0.076359,0.3603,8.814,-0.034179,0.011393,-1.9787,-0.045572,-2.2077e-08,-0.98936,0,0,0.5,-0,-0,0.66667
0.11202,0.027984,0.22403,-0.70802,-3.6838,8.4871,0.42299,-0.141,-0.21814,0.56398,1.692e-08,-0.10907,0,0,0.5,-7.4015e-17,0,0.66667
0.5615,0.33473,1.123,-0.2479,-0.77647,3.0243,0.74237,-0.24746,-1.7814,0.98983,-3.9481e-11,-0.89069,0,0,0.5,-0,-0,0.66667
0.51011,0.7499,1.0202,0.37486,1.315,3.5936,-1.0198,0.33994,-1.5014,-1.3598,6.5337e-12,-0.75071,0,0,0.5,-1.5728e-16,0,0.66667
0.93484,0.86543,1.8697,0.54814,0.21964,0.47861,-2.7329,0.91097,-0.93142,-3.6439,-2.46e-08,-0.46571,0,0,0.5,-1.1842e-15,0,0.66667
0.90083,0.76864,1.8017,0.40295,0.23793,0.51245,-1.936,0.64532,-1.4221,-2.5813,-1.4444e-09,-0.71105,0,0,0.5,-0,-0,0.66667
0.4654,0.73271,0.93081,0.34907,1.2989,4.0703,-0.86645,0.28882,-1.5662,-1.1553,-2.3339e-11,-0.7831,0,0,0.5,-0,-0,0.66667
0.20648,0.32326,0.41295,-0.26511,-1.2183,7.2012,0.29194,-0.097315,-1.7497,0.38926,-1.3045e-10,-0.87485,0,0,0.5,-0,-0,0.66667
0.56442,0.76085,1.1288,0.39128,1.2559,3.0409,-1.1778,0.39261,-1.4553,-1.5705,4.549e-11,-0.72766,0,0,0.5,1.1842e-15,0,0.66667
0.30873,0.30805,0.61747,-0.28792,-1.246,5.9039,0.47409,-0.15803,-1.7055,0.63212,1.6567e-10,-0.85276,0,0,0.5,-1.4803e-16,0,0.66667
0.65059,0.52348,1.3012,0.035213,0.087822,2.1413,-0.12218,0.040727,-1.9954,-0.16291,1.9256e-11,-0.99768,0,0,0.5,-0,-0,0.66667
0.5151,0.81459,1.0302,0.47188,1.6826,3.5784,-1.2964,0.43212,-1.2092,-1.7285,7.3745e-12,-0.60458,0,0,0.5,-0,-2.6448e-18,0.66667
0.84318,0.79205,1.6864,0.43807,0.50696,0.83676,-1.97,0.65666,-1.3174,-2.6267,-2.905e-10,-0.65872,0,0,0.5,-0,-0,0.66667
0.13174,0.20217,0.26348,-0.44674,-2.1731,8.1974,0.31389,-0.10463,-1.2897,0.41852,-1.8452e-09,-0.64486,0,0,0.5,-0,-0,0.66667
0.25101,0.6546,0.50201,0.2319,1.0365,6.6241,-0.31045,0.10348,-1.8097,-0.41393,-8.6101e-11,-0.90486,0,0,0.5,1.4803e-16,0,0.66667
0.59753,0.81349,1.1951,0.47023,1.446,2.7538,-1.4985,0.49952,-1.2147,-1.9981,6.9576e-11,-0.60736,0,0,0.5,2.3685e-15,0,0.66667
0.62521,0.40775,1.2504,-0.13838,-0.37156,2.3836,0.46142,-0.15381,-1.9329,0.61523,-5.6254e-11,-0.96647,0,0,0.5,-2.3685e-15,0,0.66667
0.41259,0.43677,0.82519,-0.09485,-0.36531,4.6275,0.20872,-0.069573,-1.9689,0.27829,2.6419e-11,-0.98445,0,0,0.5,2.2204e-16,0,0.66667
0.90059,0.93606,1.8012,0.65409,0.56775,0.72606,-3.1417,1.0472,-0.47957,-4.1889,2.6522e-08,-0.23978,0,0,0.5,1.6283e-15,0,0.66667
0.81028,0.22525,1.6206,-0.41213,-0.58711,1.0196,1.781,-0.59367,-1.3962,2.3747,-2.5432e-10,-0.69808,0,0,0.5,-0,-0,0.66667
0.54085,0.42281,1.0817,-0.11579,-0.37096,3.2119,0.33399,-0.11133,-1.9517,0.44532,-1.4069e-11,-0.97584,0,0,0.5,1.1842e-15,0,0.66667
0.40503,0.63919,0.81006,0.20879,0.81852,4.7285,-0.45102,0.15034,-1.8446,-0.60136,-5.74e-11,-0.92228,0,0,0.5,-5.9212e-16,0,0.66667
0.39718,0.33766,0.79436,-0.24351,-0.96677,4.8262,0.51583,-0.17194,-1.7891,0.68777,7.059e-11,-0.89457,0,0,0.5,2.9606e-16,0,0.66667
0.11399,0.36409,0.22798,-0.20387,-0.96304,8.4151,0.12394,-0.041314,-1.8518,0.16525,-2.7933e-09,-0.92588,0,0,0.5,1.4803e-16,0,0.66667
0.93724,0.14245,1.8745,-0.53632,-0.19487,0.45857,2.6809,-0.89363,-0.97692,3.5745,3.3435e-08,-0.48846,0,0,0.5,-1.1099e-15,7.6868e-16,0.66667
0.23454,0.40188,0.46907,-0.14717,-0.6592,6.8286,0.18409,-0.061364,-1.9235,0.24546,1.3669e-10,-0.96175,0,0,0.5,-0,-0,0.66667
0.15282,0.067395,0.30563,-0.64891,-3.2849,7.9513,0.52887,-0.17629,-0.50306,0.70517,7.0571e-09,-0.25153,0,0,0.5,-0,-0,0.66667
0.51002,0.8732,1.02,0.55979,2.0643,3.673,-1.5227,0.50756,-0.88648,-2.0302,2.4936e-12,-0.44324,0,0,0.5,-2.2204e-16,0,0.66667
0.45504,0.037538,0.91009,-0.69369,-2.8751,4.331,1.6835,-0.56118,-0.28915,2.2447,7.6139e-13,-0.14457,0,0,0.5,1.1842e-15,0,0.66667
0.074027,0.29194,0.14805,-0.31208,-1.5048,8.9529,0.12321,-0.041071,-1.6533,0.16429,-2.0181e-10,-0.82663,0,0,0.5,-0,-0,0.66667
0.57557,0.92189,1.1511,0.63284,2.1507,3.0571,-1.9426,0.64755,-0.57552,-2.5902,1.0158e-11,-0.28776,0,0,0.5,-0,-0,0.66667
0.69854,0.76841,1.3971,0.40261,0.93234,1.8268,-1.5,0.49998,-1.4231,-1.9999,2.9413e-10,-0.71154,0,0,0.5,-1.1842e-15,0,0.66667
0.49055,0.93834,0.9811,0.65751,2.5741,3.9303,-1.7202,0.5734,-0.46374,-2.2936,-3.8058e-13,-0.23187,0,0,0.5,-1.1842e-15,0,0.66667
0.072894,0.054061,0.14579,-0.66891,-3.4687,8.9907,0.26005,-0.086683,-0.40882,0.34673,-2.9592e-09,-0.20441,0,0,0.5,-0,-0,0.66667
0.17966,0.54278,0.35933,0.064163,0.294,7.5403,-0.061481,0.020494,-1.9848,-0.081975,-6.1021e-10,-0.9924,0,0,0.5,-0,-0,0.66667
0.11594,0.24126,0.23187,-0.38811,-1.8763,8.4004,0.23998,-0.079993,-1.4641,0.31997,-2.3963e-09,-0.73204,0,0,0.5,-0,-0,0.66667
0.58346,0.72576,1.1669,0.33864,1.034,2.8334,-1.0538,0.35126,-1.5921,-1.405,6.4321e-11,-0.79607,0,0,0.5,-0,-0,0.66667
0.085088,0.97073,0.17018,0.70609,3.6917,8.8357,-0.32042,0.10681,-0.22797,-0.42723,-1.6163e-08,-0.11399,0,0,0.5,-0,-0,0.66667
0.38405,0.75733,0.76811,0.386,1.5895,5.012,-0.79064,0.26355,-1.47,-1.0542,-1.0451e-10,-0.73502,0,0,0.5,-0,-0,0.66667
0.14716,0.11936,0.29431,-0.57095,-2.8391,8.0118,0.4481,-0.14937,-0.84096,0.59747,5.1442e-09,-0.42048,0,0,0.5,-2.2204e-16,0,0.66667
0.41149,0.61001,0.82297,0.16502,0.63948,4.6471,-0.36215,0.12072,-1.9025,-0.48287,-4.3843e-11,-0.95127,0,0,0.5,-0,-0,0.66667
0.62527,0.24428,1.2505,-0.38358,-1.0807,2.4542,1.2792,-0.42639,-1.4772,1.7056,-1.1881e-10,-0.73858,0,0,0.5,-1.4803e-15,0,0.66667
0.35954,0.71342,0.71908,0.32013,1.3339,5.2887,-0.61387,0.20462,-1.636,-0.81849,-1.2896e-10,-0.81799,0,0,0.5,7.4015e-16,0,0.66667
0.89598,0.84621,1.792,0.51932,0.38853,0.62091,-2.4816,0.82721,-1.0417,-3.3088,4.8768e-11,-0.52083,0,0,0.5,-0,-0,0.66667
0.41748,0.10465,0.83496,-0.59303,-2.4819,4.6977,1.3204,-0.44014,-0.74911,1.7606,2.1221e-11,-0.37456,0,0,0.5,-0,-0,0.66667
0.93366,0.26282,1.8673,-0.35578,-0.08259,0.33894,1.7716,-0.59053,-1.5494,2.3621,4.2891e-09,-0.77471,0,0,0.5,-0,-0,0.66667
0.82046,0.32313,1.6409,-0.2653,-0.32709,0.88331,1.1609,-0.38697,-1.7492,1.5479,4.0207e-10,-0.87462,0,0,0.5,-0,-0,0.66667
0.11664,0.87196,0.23328,0.55794,2.7898,8.4077,-0.34709,0.1157,-0.89361,-0.46279,-4.2922e-09,-0.4468,0,0,0.5,1.8504e-16,0,0.66667
0.10397,0.85778,0.20793,0.53667,2.6785,8.5715,-0.29757,0.099191,-0.97533,-0.39676,4.7946e-09,-0.48767,0,0,0.5,-0,-0,0.66667
0.13281,0.066259,0.26562,-0.65061,-3.3148,8.2098,0.46084,-0.15361,-0.49526,0.61445,1.0424e-08,-0.24763,0,0,0.5,2.9606e-16,0,0.66667
0.63847,0.46753,1.2769,-0.048698,-0.12556,2.2519,0.16583,-0.055275,-1.9925,0.2211,-2.3846e-11,-0.99626,0,0,0.5,-4.4409e-16,0,0.66667
0.68459,0.35949,1.3692,-0.21077,-0.48404,1.8703,0.76956,-0.25652,-1.8415,1.0261,-1.1833e-10,-0.92075,0,0,0.5,-8.1072e-16,0,0.66667
0.79001,0.30871,1.58,-0.28694,-0.43235,1.0902,1.209,-0.403,-1.7076,1.612,1.1497e-10,-0.85378,0,0,0.5,-2.9606e-16,0,0.66667
0.54233,0.58307,1.0847,0.1246,0.39842,3.1977,-0.3604,0.12013,-1.9443,-0.48053,1.5523e-11,-0.97217,0,0,0.5,-5.9212e-16,0,0.66667
0.67536,0.50057,1.3507,0.00085322,0.0019763,1.9224,-0.0030732,0.0010244,-2.001,-0.0040976,7.9791e-13,-1.0005,0,0,0.5,-0,-0,0.66667
0.68675,0.048312,1.3735,-0.67753,-1.8366,2.1051,2.4816,-0.82719,-0.36743,3.3088,-5.1616e-11,-0.18371,0,0,0.5,-1.1842e-15,-5.8711e-16,0.66667
0.33823,0.9943,0.67646,0.74145,3.4922,5.6812,-1.3375,0.44583,-0.045381,-1.7833,-1.2212e-14,-0.02269,0,0,0.5,-5.9212e-16,0,0.66667
0.65052,0.79776,1.301,0.44664,1.2059,2.2566,-1.5496,0.51653,-1.2901,-2.0661,1.6944e-10,-0.64503,0,0,0.5,-1.1842e-15,0,0.66667
0.4041,0.4784,0.80819,-0.032399,-0.12572,4.7241,0.069826,-0.023275,-1.996,0.093102,1.0183e-11,-0.99801,0,0,0.5,-0,-0,0.66667
0.64016,0.85952,1.2803,0.53929,1.5456,2.4005,-1.8412,0.61375,-0.96555,-2.455,1.0929e-10,-0.48278,0,0,0.5,-0,-7.3729e-16,0.66667
0.93462,0.99731,1.8692,0.74597,0.49856,0.69215,-3.7184,1.2395,-0.022051,-4.9579,1.2967e-07,-0.011025,0,0,0.5,-2.9606e-16,-1.8606e-16,0.66667
0.42997,0.85972,0.85994,0.53958,2.1939,4.5337,-1.2374,0.41245,-0.96413,-1.6498,-2.7687e-11,-0.48206,0,0,0.5,5.9212e-16,0,0.66667
0.50617,0.36276,1.0123,-0.20586,-0.7056,3.5913,0.55574,-0.18525,-1.8487,0.74098,-3.3516e-12,-0.92437,0,0,0.5,-5.9212e-16,0,0.66667
0.33206,0.37787,0.66413,-0.18319,-0.7688,5.6017,0.32443,-0.10814,-1.8812,0.43258,9.7831e-11,-0.94061,0,0,0.5,-0,-0,0.66667
0.57872,0.95167,1.1574,0.67751,2.3305,3.057,-2.0911,0.69705,-0.36755,-2.7882,3.9422e-12,-0.18377,0,0,0.5,1.1842e-15,0,0.66667
0.86342,0.55627,1.7268,0.084402,0.065958,0.58236,-0.38866,0.12955,-1.9747,-0.51822,3.5777e-09,-0.98734,0,0,0.5,-1.7764e-15,0,0.66667
0.28365,0.12436,0.5673,-0.56347,-2.6202,6.2764,0.85241,-0.28414,-0.87218,1.1365,4.3579e-10,-0.43609,0,0,0.5,-6.4763e-16,0,0.66667
0.83439,0.1727,1.6688,-0.49095,-0.63177,0.92439,2.1847,-0.72825,-1.1424,2.913,-1.3522e-09,-0.57118,0,0,0.5,-0,-0,0.66667
0.51948,0.46244,1.039,-0.056345,-0.18672,3.4314,0.15611,-0.052035,-1.9887,0.20814,-3.3561e-12,-0.99436,0,0,0.5,-2.9606e-16,0,0.66667
0.22608,0.7184,0.45215,0.3276,1.5033,6.9551,-0.395,0.13167,-1.6194,-0.52667,-7.7187e-11,-0.80968,0,0,0.5,3.7007e-17,0,0.66667
0.41945,0.52088,0.83889,0.031315,0.1194,4.5447,-0.070053,0.023351,-1.9962,-0.093405,-8.1881e-12,-0.99809,0,0,0.5,-0,-0,0.66667
0.16699,0.77954,0.33399,0.4193,2.0058,7.7327,-0.37345,0.12448,-1.3756,-0.49793,1.2991e-10,-0.6878,0,0,0.5,-3.7007e-17,0,0.66667
0.91239,0.74393,1.8248,0.3659,0.16431,0.43627,-1.7805,0.5935,-1.524,-2.374,-6.3425e-10,-0.76198,0,0,0.5,-0,-0,0.66667
0.057947,0.30546,0.11589,-0.29181,-1.4066,9.1672,0.090185,-0.030062,-1.6971,0.12025,-2.4519e-08,-0.84856,0,0,0.5,-0,-0,0.66667
0.604,0.14348,1.208,-0.53478,-1.6583,2.7274,1.7227,-0.57424,-0.98254,2.297,-5.6733e-11,-0.49127,0,0,0.5,-0,-0,0.66667
0.10395,0.11858,0.2079,-0.57213,-2.8788,8.5753,0.31719,-0.10573,-0.83611,0.42292,-4.076e-09,-0.41806,0,0,0.5,-1.4803e-16,0,0.66667
0.31348,0.43915,0.62696,-0.09127,-0.38649,5.8243,0.15259,-0.050864,-1.9713,0.20346,6.4453e-11,-0.98566,0,0,0.5,-1.1842e-15,0,0.66667
0.14294,0.17127,0.28588,-0.49309,-2.4128,8.056,0.37591,-0.1253,-1.135,0.50122,2.8619e-10,-0.56749,0,0,0.5,-0,-0,0.66667
0.49951,0.23049,0.99902,-0.40427,-1.4508,3.7168,1.077,-0.359,-1.4186,1.436,2.5968e-13,-0.70931,0,0,0.5,-0,-0,0.66667
0.6361,0.97022,1.2722,0.70532,2.1921,2.5535,-2.3928,0.79761,-0.23196,-3.1904,3.4832e-12,-0.11598,0,0,0.5,-0,-6.4375e-16,0.66667
0.82926,0.41907,1.6585,-0.1214,-0.13326,0.78791,0.5369,-0.17897,-1.9472,0.71586,-4.1565e-10,-0.97361,0,0,0.5,-0,-0,0.66667
0.45001,0.058475,0.90003,-0.66229,-2.7318,4.3688,1.5895,-0.52985,-0.44083,2.1194,2.5279e-12,-0.22041,0,0,0.5,5.9212e-16,-2.6577e-16,0.66667
0.76945,0.51411,1.5389,0.021163,0.033708,1.1769,-0.086847,0.028949,-1.9978,-0.1158,6.4127e-11,-0.99892,0,0,0.5,-0,-0,0.66667
0.59534,0.24004,1.1907,-0.38995,-1.1766,2.7381,1.2381,-0.41271,-1.4591,1.6508,-7.7191e-11,-0.72955,0,0,0.5,-0,-0,0.66667
0.97226,0.218,1.9445,-0.42299,0.044854,0.24134,2.1934,-0.73113,-1.3648,2.9245,1.2436e-08,-0.6824,0,0,0.5,1.3323e-15,0,0.66667
0.11972,0.99152,0.23943,0.73728,3.8614,8.3922,-0.47074,0.15691,-0.066962,-0.62766,-1.3227e-08,-0.033481,0,0,0.5,-6.2578e-18,0,0.66667
0.81632,0.66953,1.6326,0.25429,0.32119,0.9052,-1.1071,0.36904,-1.7695,-1.4761,-3.1982e-10,-0.88476,0,0,0.5,-1.1842e-15,0,0.66667
0.83516,0.099316,1.6703,-0.60103,-0.84426,1.0091,2.6771,-0.89236,-0.71565,3.5694,-5.1652e-09,-0.35783,0,0,0.5,-2.3685e-15,0,0.66667
0.79157,0.72079,1.5831,0.33118,0.50403,1.0989,-1.3981,0.46605,-1.6107,-1.8642,-4.3853e-11,-0.80534,0,0,0.5,-2.3685e-15,0,0.66667
0.45482,0.51049,0.90965,0.015738,0.057393,4.1389,-0.038177,0.012726,-1.9988,-0.050902,-2.2952e-12,-0.99941,0,0,0.5,-0,-0,0.66667
0.52721,0.28593,1.0544,-0.3211,-1.0836,3.3965,0.90287,-0.30096,-1.6336,1.2038,-1.8325e-11,-0.81682,0,0,0.5,-0,-0,0.66667
0.98538,0.67792,1.9708,0.26688,-0.09466,0.10606,-1.4025,0.46751,-1.7466,-1.87,5.7674e-08,-0.87329,0,0,0.5,1.1842e-15,0,0.66667
0.94464,0.25478,1.8893,-0.36782,-0.048255,0.30256,1.8531,-0.61771,-1.5191,2.4708,-2.3176e-09,-0.75955,0,0,0.5,2.3685e-15,0,0.66667
0.763,0.89419,1.526,0.59128,1.1871,1.4604,-2.4061,0.80204,-0.75649,-3.2082,1.0041e-09,-0.37824,0,0,0.5,-1.1842e-15,2.2322e-16,0.66667
0.46026,0.91705,0.92052,0.62558,2.5186,4.2377,-1.5356,0.51188,-0.60802,-2.0475,-4.5538e-12,-0.30401,0,0,0.5,-0,-0,0.66667
0.54024,0.41633,1.0805,-0.12551,-0.40286,3.2194,0.36163,-0.12054,-1.9435,0.48217,-1.4866e-11,-0.97177,0,0,0.5,-0,-0,0.66667
0.80456,0.51223,1.6091,0.018348,0.023813,0.93487,-0.078731,0.026244,-1.9982,-0.10497,1.8025e-10,-0.9991,0,0,0.5,2.3685e-15,0,0.66667
0.27687,0.64853,0.55374,0.22279,0.97866,6.2944,-0.32899,0.10966,-1.8233,-0.43865,-1.2258e-10,-0.91167,0,0,0.5,-0,-0,0.66667
0.25653,0.92592,0.51307,0.63888,3.0809,6.6343,-0.8741,0.29137,-0.54817,-1.1655,-4.217e-10,-0.27409,0,0,0.5,-0,-0,0.66667
0.21386,0.90675,0.42772,0.61013,2.9848,7.1629,-0.69591,0.23197,-0.67737,-0.92788,-1.6274e-09,-0.33869,0,0,0.5,-0,-0,0.66667
0.55121,0.32995,1.1024,-0.25507,-0.81546,3.1305,0.74984,-0.24995,-1.7681,0.99979,-3.2784e-11,-0.88404,0,0,0.5,5.9212e-16,0,0.66667
0.9514,0.80414,1.9028,0.45621,0.063121,0.33851,-2.3149,0.77162,-1.2599,-3.0865,1.2355e-09,-0.62994,0,0,0.5,1.1842e-15,0,0.66667
0.23774,0.12669,0.47547,-0.55996,-2.6731,6.849,0.70999,-0.23666,-0.88592,0.94665,1.1073e-09,-0.44296,0,0,0.5,-0,-0,0.66667
0.8016,0.91246,1.6032,0.61869,1.0641,1.227,-2.645,0.88167,-0.63902,-3.5267,2.2361e-09,-0.31951,0,0,0.5,-0,-0,0.66667
0.03041,0.58781,0.06082,0.13171,0.62734,9.5345,-0.021362,0.00712,-1.9386,-0.028482,-7.4133e-07,-0.96928,0,0,0.5,-5.5511e-17,0,0.66667
0.50622,0.39804,1.0124,-0.15295,-0.52117,3.5822,0.41293,-0.13764,-1.9165,0.55057,-2.6842e-12,-0.95827,0,0,0.5,-5.9212e-16,0,0.66667
0.28403,0.33822,0.56805,-0.24266,-1.0631,6.2064,0.36759,-0.12253,-1.7908,0.49012,1.3505e-10,-0.8954,0,0,0.5,-2.9606e-16,0,0.66667
0.28272,0.82166,0.56544,0.48249,2.2026,6.2666,-0.72753,0.24251,-1.1721,-0.97004,-4.7122e-10,-0.58605,0,0,0.5,5.9212e-16,0,0.66667
0.39197,0.10458,0.78395,-0.59314,-2.5478,4.9895,1.24,-0.41332,-0.74883,1.6533,3.6411e-11,-0.37441,0,0,0.5,-0,-0,0.66667
0.53546,0.88598,1.0709,0.57897,2.066,3.4212,-1.6534,0.55114,-0.8077,-2.2045,7.8241e-12,-0.40385,0,0,0.5,-0,-0,0.66667
0.77289,0.018424,1.5458,-0.72236,-1.5208,1.5105,2.9776,-0.99254,-0.14406,3.9702,-1.0989e-10,-0.072029,0,0,0.5,-0,-0,0.66667
0.96166,0.024513,1.9233,-0.71323,-0.2463,0.55895,3.658,-1.2193,-0.19118,4.8774,2.521e-07,-0.095588,0,0,0.5,-0,-0,0.66667
0.15039,0.88174,0.30077,0.57261,2.8455,7.9702,-0.45927,0.15309,-0.83409,-0.61235,-5.2692e-09,-0.41704,0,0,0.5,-0,-0,0.66667
0.39479,0.2005,0.78958,-0.44925,-1.8545,4.9044,0.94591,-0.3153,-1.2818,1.2612,8.3225e-11,-0.64092,0,0,0.5,-0,-0,0.66667
0.16274,0.45097,0.32548,-0.073544,-0.33936,7.7636,0.063832,-0.021277,-1.9801,0.08511,8.5686e-10,-0.99007,0,0,0.5,-2.9606e-16,0,0.66667
0.83664,0.37561,1.6733,-0.18659,-0.19647,0.75789,0.83259,-0.27753,-1.8771,1.1101,1.2012e-10,-0.93856,0,0,0.5,2.3685e-15,0,0.66667
0.084802,0.22377,0.1696,-0.41435,-2.026,8.8147,0.1874,-0.062467,-1.3897,0.24987,-5.8842e-09,-0.69485,0,0,0.5,-0,-0,0.66667
0.85629,0.9379,1.7126,0.65685,0.84531,0.94534,-2.9998,0.99992,-0.46699,-3.9997,8.3507e-09,-0.23349,0,0,0.5,-0,3.0161e-17,0.66667
0.74085,0.74376,1.4817,0.36563,0.71717,1.4768,-1.4447,0.48156,-1.5246,-1.9262,3.0182e-10,-0.76231,0,0,0.5,1.0308e-15,0,0.66667
0.85834,0.24122,1.7167,-0.38816,-0.37922,0.72029,1.7769,-0.59231,-1.4642,2.3693,1.2359e-09,-0.73209,0,0,0.5,1.1842e-15,0,0.66667
0.88992,0.0033146,1.7798,-0.74503,-0.82091,0.87548,3.5361,-1.1787,-0.027081,4.7148,1.9573e-08,-0.013541,0,0,0.5,-0,-0,0.66667
0.15078,0.44213,0.30155,-0.086804,-0.40248,7.9222,0.069802,-0.023267,-1.9734,0.09307,6.3007e-10,-0.9867,0,0,0.5,-0,-0,0.66667
0.55669,0.51067,1.1134,0.016011,0.04959,3.0427,-0.047536,0.015845,-1.9986,-0.063382,2.8057e-12,-0.9993,0,0,0.5,2.3685e-15,0,0.66667
0.30252,0.76637,0.60504,0.39955,1.769,6.0018,-0.64464,0.21488,-1.4317,-0.85952,-2.8745e-10,-0.71587,0,0,0.5,5.9212e-16,0,0.66667
0.27122,0.35213,0.54245,-0.22181,-0.97789,6.3657,0.32085,-0.10695,-1.8248,0.4278,1.1797e-10,-0.91239,0,0,0.5,-5.9212e-16,0,0.66667
0.016434,0.18353,0.032869,-0.47471,-2.3651,9.7259,0.041608,-0.013869,-1.1993,0.055477,2.9567e-08,-0.59965,0,0,0.5,-2.7756e-17,0,0.66667
0.51518,0.65322,1.0304,0.22982,0.77894,3.4999,-0.63147,0.21049,-1.8129,-0.84196,8.8738e-12,-0.90646,0,0,0.5,-1.4803e-16,0,0.66667
0.019049,0.48891,0.038099,-0.016638,-0.079001,9.6873,0.0016837,-0.00056012,-1.9986,0.0022455,1.6751e-06,-0.99929,0,0,0.5,1.8504e-17,0,0.66667
0.89823,0.79698,1.7965,0.44547,0.2908,0.55352,-2.134,0.71135,-1.2937,-2.8454,-5.4819e-09,-0.64687,0,0,0.5,1.1842e-15,0,0.66667
0.26698,0.79501,0.53396,0.44252,2.0236,6.4543,-0.63011,0.21004,-1.3033,-0.84014,-5.0535e-10,-0.65165,0,0,0.5,-0,-0,0.66667
0.49337,0.90514,0.98675,0.60771,2.3304,3.8729,-1.5991,0.53303,-0.68769,-2.1321,-8.5876e-13,-0.34384,0,0,0.5,1.4803e-16,0,0.66667
0.63642,0.033281,1.2728,-0.70008,-2.1689,2.5466,2.3762,-0.79208,-0.25807,3.1683,-5.181e-12,-0.12903,0,0,0.5,-0,-0,0.66667
0.0014998,0.75922,0.0029995,0.38883,1.9079,9.9244,-0.0031102,0.0010367,-1.4623,-0.0041469,-1.9418e-08,-0.73113,0,0,0.5,-4.6259e-18,9.8536e-16,0.66667
0.11324,0.90119,0.22648,0.60179,3.0433,8.4573,-0.36344,0.12115,-0.71255,-0.48459,-9.7679e-09,-0.35627,0,0,0.5,2.2204e-16,0,0.66667
0.46654,0.28062,0.93308,-0.32907,-1.218,4.0521,0.8188,-0.27293,-1.616,1.0917,2.2747e-11,-0.80802,0,0,0.5,8.1416e-16,0,0.66667
0.62328,0.50271,1.2466,0.0040617,0.010874,2.3911,-0.013502,0.0045005,-2.0006,-0.018002,1.7551e-12,-1.0003,0,0,0.5,-0,-0,0.66667
0.81967,0.030365,1.6393,-0.70445,-1.1845,1.1985,3.0796,-1.0265,-0.23639,4.1061,-6.9368e-10,-0.11819,0,0,0.5,5.6542e-16,0,0.66667
0.41481,0.35281,0.82961,-0.22079,-0.8573,4.6163,0.48845,-0.16282,-1.8263,0.65126,5.2791e-11,-0.91315,0,0,0.5,-1.1842e-15,0,0.66667
0.92685,0.49431,1.8537,-0.0085361,-0.0014327,0.26298,0.042196,-0.014066,-1.9998,0.056261,-3.78e-07,-0.9999,0,0,0.5,-2.3685e-15,0,0.66667
0.59738,0.84056,1.1948,0.51085,1.5925,2.7763,-1.6276,0.54253,-1.0726,-2.1701,5.787e-11,-0.53631,0,0,0.5,1.4803e-16,0,0.66667
0.0018308,0.99116,0.0036616,0.73673,3.9142,9.9206,-0.0071789,0.0023186,-0.069958,-0.009609,-0.00011154,-0.034979,0,0,0.5,2.313e-18,1.9225e-15,0.66667
0.68004,0.8623,1.3601,0.54345,1.4075,2.0606,-1.971,0.65701,-0.9493,-2.628,2.2658e-10,-0.47465,0,0,0.5,1.1842e-15,0,0.66667
0.21277,0.50727,0.42555,0.010899,0.049134,7.1063,-0.012368,0.0041226,-1.9994,-0.01649,-1.6228e-11,-0.9997,0,0,0.5,1.1842e-15,0,0.66667
0.015256,0.051402,0.030512,-0.6729,-3.5114,9.7446,0.054744,-0.018249,-0.38984,0.072991,-1.7652e-06,-0.19492,0,0,0.5,1.8504e-17,0,0.66667
0.73575,0.59022,1.4715,0.13533,0.25469,1.4399,-0.53105,0.17702,-1.9354,-0.70807,1.157e-10,-0.96772,0,0,0.5,5.9212e-16,0,0.66667
0.55191,0.4465,1.1038,-0.080252,-0.25136,3.0946,0.23622,-0.078741,-1.9768,0.31496,-1.2802e-11,-0.98839,0,0,0.5,-0,-0,0.66667
0.78362,0.30711,1.5672,-0.28934,-0.45189,1.1348,1.2092,-0.40308,-1.7026,1.6123,5.9541e-11,-0.85128,0,0,0.5,-5.9212e-16,0,0.66667
0.088169,0.094568,0.17634,-0.60815,-3.0967,8.7856,0.28597,-0.095324,-0.68588,0.3813,-3.4985e-08,-0.34294,0,0,0.5,-0,-0,0.66667
0.3557,0.075972,0.7114,-0.63604,-2.8588,5.4304,1.2066,-0.4022,-0.56105,1.6088,4.4144e-11,-0.28053,0,0,0.5,5.9212e-16,1.9162e-16,0.66667
0.2997,0.58124,0.5994,0.12186,0.52234,5.9981,-0.19478,0.064928,-1.9467,-0.25971,-8.7103e-11,-0.97336,0,0,0.5,-0,-0,0.66667
0.569,0.62994,1.138,0.19491,0.59693,2.9371,-0.59149,0.19716,-1.8651,-0.78865,3.806e-11,-0.93253,0,0,0.5,-0,-0,0.66667
0.51015,0.34994,1.0203,-0.22509,-0.76856,3.5524,0.61242,-0.20414,-1.8198,0.81656,-5.8653e-12,-0.90992,0,0,0.5,-0,-0,0.66667
0.78213,0.84185,1.5643,0.51278,0.90258,1.2697,-2.139,0.71299,-1.066,-2.852,1.371e-09,-0.533,0,0,0.5,-2.9606e-16,0,0.66667
0.18706,0.10068,0.37412,-0.59898,-2.9562,7.5021,0.59757,-0.19919,-0.72448,0.79676,3.0338e-09,-0.36224,0,0,0.5,-0,-0,0.66667
0.5765,0.95686,1.153,0.68529,2.3742,3.0836,-2.107,0.70234,-0.32985,-2.8094,2.9865e-12,-0.16492,0,0,0.5,-1.2748e-15,0,0.66667
0.64438,0.26259,1.2888,-0.35611,-0.94974,2.2693,1.2238,-0.40794,-1.5486,1.6318,-1.4488e-10,-0.77429,0,0,0.5,-1.1842e-15,0,0.66667
0.45987,0.40907,0.91974,-0.13639,-0.49666,4.0896,0.33452,-0.11151,-1.9343,0.44603,1.6e-11,-0.96717,0,0,0.5,-1.1842e-15,0,0.66667
0.55798,0.56017,1.116,0.09025,0.2796,3.0335,-0.26857,0.089525,-1.9717,-0.3581,1.6115e-11,-0.98583,0,0,0.5,1.4803e-15,0,0.66667
0.97433,0.008785,1.9487,-0.73682,-0.18423,0.54991,3.8288,-1.2763,-0.069341,5.1051,-5.0213e-06,-0.03467,0,0,0.5,-0,-0,0.66667
0.75167,0.15333,1.5033,-0.52,-1.0488,1.4876,2.0846,-0.69488,-1.0392,2.7795,-8.8182e-10,-0.51962,0,0,0.5,-2.9606e-16,0,0.66667
0.38099,0.49936,0.76197,-0.00095643,-0.0038016,4.9978,0.0019434,-0.0006478,-2.0009,0.0025912,2.8903e-13,-1.0005,0,0,0.5,9.0668e-16,0,0.66667
0.43402,0.37278,0.86803,-0.19082,-0.7219,4.39,0.44171,-0.14724,-1.8712,0.58895,3.5771e-11,-0.93561,0,0,0.5,-6.6613e-16,0,0.66667
0.71283,0.58404,1.4257,0.12605,0.25923,1.6191,-0.47923,0.15974,-1.9431,-0.63898,9.6301e-11,-0.97154,0,0,0.5,-0,-0,0.66667
0.093712,0.91135,0.18742,0.61703,3.1456,8.714,-0.30839,0.1028,-0.64674,-0.41118,1.031e-08,-0.32337,0,0,0.5,-2.9606e-16,3.235e-16,0.66667
0.63781,0.83104,1.2756,0.49657,1.4083,2.3964,-1.6891,0.56305,-1.1228,-2.2522,1.2643e-10,-0.5614,0,0,0.5,-7.5532e-16,0,0.66667
0.11436,0.68526,0.22872,0.27789,1.3229,8.4138,-0.16949,0.056496,-1.726,-0.22599,9.9089e-10,-0.86302,0,0,0.5,1.8189e-16,0,0.66667
0.10185,0.1612,0.2037,-0.5082,-2.522,8.5966,0.27605,-0.092017,-1.0818,0.36807,-1.4505e-09,-0.54091,0,0,0.5,-0,-0,0.66667
0.66667,0.38966,1.3333,-0.16551,-0.39856,2.0142,0.58849,-0.19616,-1.902,0.78465,-8.9475e-11,-0.95098,0,0,0.5,-1.1842e-15,0,0.66667
0.1671,0.48798,0.3342,-0.018033,-0.082976,7.7052,0.016071,-0.0053571,-1.9983,0.021428,7.6632e-10,-0.99915,0,0,0.5,3.9423e-16,0,0.66667
0.76472,0.57545,1.5294,0.11317,0.18609,1.2195,-0.46156,0.15385,-1.9541,-0.61541,1.5757e-10,-0.97704,0,0,0.5,-0,-0,0.66667
0.75059,0.76309,1.5012,0.39463,0.75248,1.4189,-1.5798,0.52659,-1.4459,-2.1064,4.0389e-10,-0.72296,0,0,0.5,-0,-0,0.66667
0.31202,0.34367,0.62404,-0.2345,-1.0055,5.8554,0.39024,-0.13008,-1.8058,0.52032,1.2995e-10,-0.90289,0,0,0.5,9.4832e-17,0,0.66667
0.57086,0.56405,1.1417,0.096081,0.29031,2.9039,-0.29253,0.09751,-1.9679,-0.39004,2.1225e-11,-0.98394,0,0,0.5,-2.3685e-15,0,0.66667
0.64514,0.68013,1.2903,0.2702,0.70414,2.2316,-0.9297,0.3099,-1.7403,-1.2396,1.1675e-10,-0.87013,0,0,0.5,5.9212e-16,0,0.66667
0.81146,0.63461,1.6229,0.20191,0.25853,0.91891,-0.87385,0.29128,-1.8549,-1.1651,-1.247e-10,-0.92743,0,0,0.5,-0,-0,0.66667
0.20147,0.54579,0.40293,0.068685,0.31172,7.2546,-0.073801,0.0246,-1.9828,-0.098401,-2.9717e-10,-0.99138,0,0,0.5,2.9606e-16,0,0.66667
0.67624,0.97175,1.3525,0.70763,2.0028,2.2157,-2.5522,0.85072,-0.22008,-3.4029,1.0064e-11,-0.11004,0,0,0.5,-0,-0,0.66667
0.82289,0.74368,1.6458,0.36552,0.46681,0.91437,-1.6042,0.53472,-1.5249,-2.1389,-3.1001e-10,-0.76246,0,0,0.5,-1.1842e-15,0,0.66667
0.41439,0.62937,0.82877,0.19406,0.75162,4.6171,-0.42888,0.14296,-1.8663,-0.57183,-4.8387e-11,-0.93316,0,0,0.5,1.1842e-15,0,0.66667
0.4937,0.79912,0.98739,0.44868,1.6416,3.7957,-1.1814,0.3938,-1.2836,-1.5752,-3.3263e-12,-0.6418,0,0,0.5,-5.9212e-16,0,0.66667
0.51425,0.092599,1.0285,-0.6111,-2.2775,3.6563,1.676,-0.55868,-0.6732,2.2347,-1.8684e-12,-0.3366,0,0,0.5,7.6124e-17,0,0.66667
0.93933,0.20945,1.8787,-0.43583,-0.10511,0.36897,2.1834,-0.7278,-1.3244,2.9112,6.9099e-09,-0.66221,0,0,0.5,-0,-0,0.66667
0.051651,0.18478,0.1033,-0.47283,-2.3489,9.2579,0.13025,-0.043417,-1.2056,0.17367,8.615e-10,-0.60281,0,0,0.5,-0,-0,0.66667
0.57155,0.32931,1.1431,-0.25603,-0.78749,2.9256,0.78046,-0.26015,-1.7663,1.0406,-4.7566e-11,-0.88313,0,0,0.5,-1.1842e-15,0,0.66667
0.48976,0.46441,0.97952,-0.05338,-0.18542,3.7516,0.13943,-0.046477,-1.9901,0.18591,1.6495e-12,-0.99506,0,0,0.5,-5.9818e-16,0,0.66667
0.34383,0.10821,0.68766,-0.58769,-2.6315,5.5528,1.0777,-0.35923,-0.77163,1.4369,1.0477e-10,-0.38581,0,0,0.5,5.9212e-16,0,0.66667
0.66992,0.35388,1.3398,-0.21918,-0.52741,1.9982,0.7831,-0.26103,-1.8289,1.0441,-1.1459e-10,-0.91446,0,0,0.5,-0,-0,0.66667
0.76944,0.22449,1.5389,-0.41327,-0.73131,1.2935,1.6959,-0.5653,-1.3928,2.2612,-5.0662e-10,-0.69642,0,0,0.5,-0,-0,0.66667
0.54006,0.79796,1.0801,0.44694,1.5203,3.3096,-1.2873,0.42911,-1.2891,-1.7164,2.2739e-11,-0.64454,0,0,0.5,-0,-0,0.66667
0.041638,0.089342,0.083276,-0.61599,-3.1626,9.3966,0.13679,-0.045597,-0.65112,0.18239,1.2269e-07,-0.32556,0,0,0.5,-3.7007e-17,0,0.66667
0.23508,0.4534,0.47016,-0.069903,-0.31179,6.8181,0.087642,-0.029214,-1.9822,0.11686,1.3981e-10,-0.99111,0,0,0.5,-2.9606e-16,0,0.66667
0.02044,0.65854,0.04088,0.2378,1.143,9.6696,-0.025923,0.008641,-1.7995,-0.034565,-2.5527e-07,-0.89977,0,0,0.5,-0,-0,0.66667
0.32778,0.89207,0.65556,0.58811,2.6675,5.7454,-1.0281,0.3427,-0.76985,-1.3708,-1.456e-10,-0.38493,0,0,0.5,-5.9212e-16,5.8702e-16,0.66667
0.46806,0.51805,0.93611,0.02708,0.097013,3.9906,-0.0676,0.022533,-1.997,-0.090134,-2.7074e-12,-0.99851,0,0,0.5,-0,-0,0.66667
0.78457,0.58986,1.5691,0.13479,0.20029,1.0826,-0.564,0.188,-1.9358,-0.752,1.999e-10,-0.9679,0,0,0.5,-2.9606e-16,0,0.66667
0.53227,0.86651,1.0645,0.54976,1.953,3.4379,-1.5607,0.52022,-0.92529,-2.0809,9.4782e-12,-0.46265,0,0,0.5,-0,-0,0.66667
0.47743,0.57581,0.95485,0.11372,0.40345,3.8916,-0.28956,0.09652,-1.9534,-0.38608,-7.598e-12,-0.97669,0,0,0.5,1.1842e-15,0,0.66667
0.69795,0.16356,1.3959,-0.50466,-1.2193,1.889,1.8785,-0.62618,-1.0943,2.5047,-3.4922e-10,-0.54716,0,0,0.5,-0,-0,0.66667
0.017417,0.65799,0.034834,0.23698,1.1391,9.7102,-0.022014,0.0073377,-1.8012,-0.029352,-1.8802e-07,-0.90059,0,0,0.5,-0,-0,0.66667
0.69499,0.7636,1.39,0.3954,0.92367,1.8522,-1.4656,0.48853,-1.4435,-1.9541,2.757e-10,-0.72174,0,0,0.5,-1.1842e-15,0,0.66667
0.31196,0.66653,0.62392,0.24979,1.073,5.8582,-0.41559,0.13853,-1.778,-0.55412,-1.396e-10,-0.88898,0,0,0.5,-0,-0,0.66667
0.55979,0.62212,1.1196,0.18318,0.57033,3.0277,-0.54688,0.18229,-1.8813,-0.72918,3.11e-11,-0.94065,0,0,0.5,4.4409e-16,0,0.66667
0.60681,0.15223,1.2136,-0.52166,-1.6007,2.6938,1.6883,-0.56275,-1.0328,2.251,-6.5201e-11,-0.51642,0,0,0.5,-5.2888e-16,0,0.66667
0.18214,0.49022,0.36429,-0.014664,-0.067057,7.507,0.014245,-0.0047483,-1.9988,0.018993,-3.9439e-11,-0.99941,0,0,0.5,-4.4409e-16,0,0.66667
0.25027,0.47403,0.50055,-0.038954,-0.17208,6.6218,0.051995,-0.017332,-1.995,0.069327,7.1937e-11,-0.99749,0,0,0.5,5.9212e-16,0,0.66667
0.57882,0.25958,1.1576,-0.36063,-1.1173,2.8868,1.1133,-0.37109,-1.5374,1.4844,-6.0035e-11,-0.76871,0,0,0.5,-0,-0,0.66667
0.26262,0.56729,0.52525,0.10093,0.44336,6.4658,-0.14137,0.047123,-1.964,-0.18849,-1.1151e-10,-0.98202,0,0,0.5,-5.9212e-16,0,0.66667
0.23942,0.14642,0.47883,-0.53036,-2.5118,6.821,0.67722,-0.22574,-0.99947,0.90296,1.0243e-09,-0.49973,0,0,0.5,2.9606e-16,0,0.66667
0.35903,0.53876,0.71806,0.058144,0.23641,5.2632,-0.11134,0.037112,-1.9881,-0.14845,-2.8817e-11,-0.99403,0,0,0.5,-0,-0,0.66667
0.90441,0.57822,1.8088,0.11734,0.047149,0.37626,-0.56597,0.18866,-1.9506,-0.75463,3.0456e-09,-0.97528,0,0,0.5,-0,-0,0.66667
0.86921,0.8369,1.7384,0.50535,0.49796,0.74239,-2.3427,0.7809,-1.0919,-3.1236,1.4558e-10,-0.54594,0,0,0.5,-0,-0,0.66667
0.51404,0.81544,1.0281,0.47316,1.6906,3.5902,-1.2972,0.43239,-1.2046,-1.7296,6.8028e-12,-0.60232,0,0,0.5,-1.1842e-15,0,0.66667
0.051748,0.067147,0.1035,-0.64928,-3.3587,9.2657,0.17919,-0.059731,-0.50132,0.23892,1.1213e-07,-0.25066,0,0,0.5,-0,-0,0.66667
0.80034,0.68407,1.6007,0.2761,0.3901,1.0169,-1.1785,0.39285,-1.7294,-1.5714,-1.9652e-10,-0.86471,0,0,0.5,2.9606e-16,0,0.66667
0.18119,0.35672,0.36238,-0.21492,-0.99355,7.527,0.20769,-0.06923,-1.8351,0.27692,-2.3808e-10,-0.91757,0,0,0.5,-0,-0,0.66667
0.66874,0.1063,1.3375,-0.59055,-1.6101,2.1871,2.1063,-0.70208,-0.75953,2.8083,-1.3228e-10,-0.37976,0,0,0.5,1.1842e-15,-2.1196e-16,0.66667
0.83537,0.12587,1.6707,-0.56119,-0.76028,0.97353,2.5003,-0.83343,-0.88107,3.3337,-3.7657e-09,-0.44053,0,0,0.5,-0,-0,0.66667
0.9648,0.024871,1.9296,-0.71269,-0.22257,0.54841,3.6672,-1.2224,-0.19402,4.8896,7.829e-07,-0.097009,0,0,0.5,1.1842e-15,-3.848e-16,0.66667
0.12685,0.044622,0.25369,-0.68307,-3.5165,8.2919,0.4621,-0.15403,-0.3406,0.61614,9.8497e-09,-0.1703,0,0,0.5,-0,-0,0.66667
0.52331,0.95731,1.0466,0.68596,2.5911,3.6082,-1.9145,0.63817,-0.32642,-2.5527,6.1917e-13,-0.16321,0,0,0.5,-5.9212e-16,0,0.66667
0.85061,0.63851,1.7012,0.20777,0.19445,0.6821,-0.94258,0.31419,-1.8459,-1.2568,-8.2873e-10,-0.92293,0,0,0.5,-0,-0,0.66667
0.53761,0.51156,1.0752,0.017343,0.055649,3.2393,-0.049728,0.016576,-1.9984,-0.066304,2.0084e-12,-0.99919,0,0,0.5,-0,-0,0.66667
0.73005,0.98469,1.4601,0.72704,1.7854,1.8153,-2.8308,0.94359,-0.11997,-3.7744,2.5588e-11,-0.059987,0,0,0.5,3.1969e-16,0,0.66667
0.78546,0.66195,1.5709,0.24292,0.36943,1.1049,-1.0176,0.33921,-1.7903,-1.3568,-5.5202e-11,-0.89513,0,0,0.5,-0,-0,0.66667
0.8366,0.44765,1.6732,-0.078532,-0.080392,0.73686,0.3504,-0.1168,-1.9776,0.4672,-9.2124e-10,-0.9888,0,0,0.5,2.3685e-15,0,0.66667
0.66653,0.9183,1.3331,0.62745,1.7499,2.2324,-2.2305,0.7435,-0.59963,-2.974,8.3025e-11,-0.29982,0,0,0.5,-0,-0,0.66667
0.89774,0.63682,1.7955,0.20523,0.10166,0.43109,-0.98262,0.32754,-1.8497,-1.3102,2.8328e-09,-0.92484,0,0,0.5,-0,-0,0.66667
0.64779,0.7446,1.2956,0.36689,0.97284,2.2433,-1.2676,0.42253,-1.5214,-1.6901,1.5413e-10,-0.76072,0,0,0.5,2.9606e-16,0,0.66667
0.94464,0.42481,1.8893,-0.11278,-0.00045383,0.19963,0.56819,-0.1894,-1.9542,0.75758,2.2406e-07,-0.97708,0,0,0.5,-1.1842e-15,0,0.66667
0.6293,0.61683,1.2586,0.17524,0.46787,2.3522,-0.58817,0.19606,-1.8906,-0.78422,7.1172e-11,-0.94529,0,0,0.5,-0,-0,0.66667
0.87243,0.7129,1.7449,0.31936,0.25434,0.60675,-1.486,0.49532,-1.6375,-1.9813,-7.7177e-10,-0.81876,0,0,0.5,-5.9212e-16,0,0.66667
0.59566,0.60651,1.1913,0.15977,0.46079,2.668,-0.50755,0.16918,-1.9088,-0.67673,4.6527e-11,-0.9544,0,0,0.5,-0,-0,0.66667
0.34435,0.44667,0.6887,-0.080001,-0.32995,5.4429,0.14692,-0.048975,-1.9771,0.1959,4.4217e-11,-0.98857,0,0,0.5,-0,-0,0.66667
0.81346,0.022646,1.6269,-0.71603,-1.2549,1.2474,3.1065,-1.0355,-0.17698,4.1419,-4.8104e-10,-0.088492,0,0,0.5,1.1842e-15,0,0.66667
0.43238,0.44689,0.86476,-0.079663,-0.2995,4.3972,0.18371,-0.061235,-1.9771,0.24494,1.6775e-11,-0.98853,0,0,0.5,-0,-0,0.66667
0.12655,0.58318,0.25309,0.12477,0.58401,8.245,-0.084207,0.028069,-1.9444,-0.11228,-2.005e-09,-0.97218,0,0,0.5,1.4803e-16,0,0.66667
0.96857,0.34168,1.9371,-0.23748,0.046276,0.14804,1.2268,-0.40892,-1.8004,1.6357,-1.4779e-07,-0.9002,0,0,0.5,-5.9212e-16,0,0.66667
0.85256,0.45814,1.7051,-0.062792,-0.055095,0.64119,0.28552,-0.095172,-1.9855,0.38069,-2.0321e-09,-0.99274,0,0,0.5,1.1842e-15,0,0.66667
0.56126,0.38188,1.1225,-0.17719,-0.54972,3.0117,0.53038,-0.17679,-1.8885,0.70718,-3.1057e-11,-0.94423,0,0,0.5,-1.1842e-15,0,0.66667
0.67061,0.97878,1.3412,0.71817,2.0729,2.2709,-2.5686,0.8562,-0.16593,-3.4248,7.0601e-12,-0.082967,0,0,0.5,-1.1842e-15,5.1618e-16,0.66667
0.99772,0.18062,1.9954,-0.47907,0.15382,0.21004,2.5492,-0.84973,-1.184,3.3989,1.595e-08,-0.592,0,0,0.5,-1.1842e-15,-4.0651e-16,0.66667
0.16131,0.51522,0.32262,0.02283,0.10529,7.7818,-0.019641,0.0065471,-1.9975,-0.026188,-6.4092e-10,-0.99876,0,0,0.5,-5.9212e-16,0,0.66667
0.53454,0.58657,1.0691,0.12986,0.42122,3.2792,-0.37022,0.12341,-1.94,-0.49362,1.3089e-11,-0.96999,0,0,0.5,5.9212e-16,0,0.66667
0.39098,0.9898,0.78196,0.73471,3.3021,5.0663,-1.532,0.51067,-0.080563,-2.0427,-4.4786e-13,-0.040282,0,0,0.5,5.9212e-16,0,0.66667
0.54115,0.97415,1.0823,0.71122,2.6406,3.4457,-2.0527,0.68422,-0.20156,-2.7369,2.4758e-13,-0.10078,0,0,0.5,-0,-0,0.66667
0.10338,0.37075,0.20676,-0.19387,-0.91739,8.5562,0.10689,-0.03563,-1.8666,0.14252,6.4152e-09,-0.9333,0,0,0.5,-3.7007e-17,0,0.66667
0.44074,0.055551,0.88148,-0.66667,-2.7833,4.473,1.5671,-0.52237,-0.41968,2.0895,3.0053e-12,-0.20984,0,0,0.5,2.9606e-16,0,0.66667
0.46146,0.5814,0.92293,0.1221,0.44318,4.0702,-0.3005,0.10017,-1.9464,-0.40066,-1.3905e-11,-0.9732,0,0,0.5,4.5636e-17,0,0.66667
0.59589,0.23974,1.1918,-0.39039,-1.1767,2.733,1.2407,-0.41356,-1.4578,1.6543,-7.779e-11,-0.72891,0,0,0.5,-0,-0,0.66667
0.66238,0.4353,1.3248,-0.097048,-0.23484,2.0412,0.34284,-0.11428,-1.9671,0.45712,-5.5999e-11,-0.98356,0,0,0.5,2.9606e-16,0,0.66667
0.59015,0.89184,1.1803,0.58776,1.9107,2.8894,-1.85,0.61665,-0.77111,-2.4666,2.6801e-11,-0.38556,0,0,0.5,-1.1842e-15,0,0.66667
0.72938,0.65646,1.4588,0.23469,0.46228,1.5132,-0.91294,0.30431,-1.8052,-1.2173,1.1851e-10,-0.9026,0,0,0.5,-2.3685e-15,0,0.66667
0.5809,0.85343,1.1618,0.53015,1.7186,2.9444,-1.6425,0.5475,-1.0004,-2.19,3.7297e-11,-0.50019,0,0,0.5,1.1842e-15,0,0.66667
0.4431,0.15497,0.88621,-0.51754,-2.0601,4.3774,1.2231,-0.40769,-1.0484,1.6307,2.4262e-11,-0.52422,0,0,0.5,2.8764e-16,0,0.66667
0.49679,0.92105,0.99358,0.63158,2.4299,3.8499,-1.6734,0.5578,-0.58116,-2.2312,-2.7922e-13,-0.29058,0,0,0.5,-0,7.5451e-16,0.66667
0.43009,0.22275,0.86018,-0.41587,-1.6397,4.4872,0.95392,-0.31797,-1.3853,1.2719,4.8716e-11,-0.69267,0,0,0.5,-0,-0,0.66667
0.21007,0.5939,0.42015,0.14084,0.63876,7.1451,-0.1578,0.0526,-1.9305,-0.2104,-2.0229e-10,-0.96524,0,0,0.5,-5.9212e-16,0,0.66667
0.2268,0.012168,0.4536,-0.73175,-3.6814,7.0321,0.88513,-0.29504,-0.095562,1.1802,6.0339e-11,-0.047781,0,0,0.5,-0,-0,0.66667
0.45739,0.63807,0.91478,0.2071,0.76186,4.1274,-0.5052,0.1684,-1.8469,-0.6736,-2.3712e-11,-0.92347,0,0,0.5,-0,-0,0.66667
0.43355,0.32222,0.86711,-0.26667,-1.019,4.4086,0.61661,-0.20554,-1.7468,0.82215,4.4729e-11,-0.8734,0,0,0.5,-0,-0,0.66667
0.77928,0.45019,1.5586,-0.07471,-0.11333,1.1106,0.31051,-0.1035,-1.9797,0.41401,-1.9418e-10,-0.98986,0,0,0.5,-0,-0,0.66667
0.42086,0.38199,0.84172,-0.17701,-0.67934,4.5396,0.39731,-0.13244,-1.8887,0.52975,4.1022e-11,-0.94434,0,0,0.5,-0,-0,0.66667
0.67337,0.689,1.3467,0.28349,0.68466,1.9877,-1.0181,0.33937,-1.7152,-1.3575,1.4929e-10,-0.85759,0,0,0.5,-0,-0,0.66667
0.16604,0.71684,0.33208,0.32526,1.5328,7.7348,-0.28803,0.09601,-1.6245,-0.38404,6.7955e-10,-0.81225,0,0,0.5,4.3166e-16,0,0.66667
0.82406,0.98348,1.6481,0.72522,1.2138,1.1946,-3.1873,1.0624,-0.12939,-4.2498,5.5685e-10,-0.064693,0,0,0.5,-1.1842e-15,0,0.66667
0.68541,0.30098,1.3708,-0.29852,-0.69762,1.8906,1.0913,-0.36375,-1.6828,1.455,-1.7009e-10,-0.84138,0,0,0.5,-0,-0,0.66667
0.78905,0.74114,1.5781,0.36171,0.56613,1.1307,-1.5222,0.50739,-1.5345,-2.0296,1.1956e-10,-0.76723,0,0,0.5,-0,-0,0.66667
0.35948,0.98533,0.71897,0.72799,3.3563,5.4259,-1.3957,0.46525,-0.11532,-1.861,-2.1184e-12,-0.057658,0,0,0.5,-5.9212e-16,0,0.66667
0.66255,0.62731,1.3251,0.19097,0.46722,2.0556,-0.6748,0.22493,-1.8709,-0.89973,9.8192e-11,-0.93545,0,0,0.5,-0,-0,0.66667
0.21709,0.49256,0.43418,-0.011164,-0.050221,7.0501,0.012926,-0.0043087,-1.9995,0.017235,1.6803e-11,-0.99977,0,0,0.5,-2.9606e-16,0,0.66667
0.22101,0.67497,0.44201,0.26245,1.197,7.0128,-0.30935,0.10312,-1.7546,-0.41247,3.0706e-11,-0.87732,0,0,0.5,-2.9606e-16,0,0.66667
0.24246,0.15272,0.48491,-0.52092,-2.4576,6.7804,0.6736,-0.22453,-1.0355,0.89813,9.6909e-10,-0.51777,0,0,0.5,-7.4015e-17,0,0.66667
0.26459,0.13852,0.52918,-0.54222,-2.5384,6.5075,0.76514,-0.25505,-0.95427,1.0202,6.5207e-10,-0.47713,0,0,0.5,-0,-0,0.66667
0.40841,0.23231,0.81682,-0.40153,-1.6172,4.7316,0.87461,-0.29154,-1.4263,1.1661,7.2017e-11,-0.71314,0,0,0.5,-0,-0,0.66667
0.8287,0.83192,1.6574,0.49789,0.6694,0.9631,-2.2005,0.7335,-1.1183,-2.934,1.6069e-09,-0.55916,0,0,0.5,-1.1842e-15,0,0.66667
0.94742,0.63041,1.8948,0.19561,0.00047641,0.21017,-0.9884,0.32947,-1.864,-1.3179,-6.5423e-08,-0.93201,0,0,0.5,-0,-0,0.66667
0.63246,0.10229,1.2649,-0.59657,-1.7812,2.5058,2.0123,-0.67077,-0.73426,2.6831,-5.8068e-11,-0.36713,0,0,0.5,1.1842e-15,0,0.66667
0.13474,0.43952,0.26948,-0.090721,-0.42292,8.1351,0.065193,-0.021731,-1.9714,0.086924,4.3114e-09,-0.98569,0,0,0.5,-0,-0,0.66667
0.41999,0.4292,0.83999,-0.1062,-0.40576,4.5422,0.23787,-0.079291,-1.9598,0.31716,2.6489e-11,-0.97989,0,0,0.5,-2.9606e-16,0,0.66667
0.93619,0.74681,1.8724,0.37021,0.080624,0.33737,-1.8485,0.61615,-1.5133,-2.4646,-2.2669e-09,-0.75666,0,0,0.5,2.9606e-16,0,0.66667
0.32054,0.37835,0.64109,-0.18248,-0.77308,5.7437,0.31196,-0.10399,-1.882,0.41595,1.0345e-10,-0.94099,0,0,0.5,-0,-0,0.66667
0.61928,0.15504,1.2386,-0.51744,-1.5431,2.576,1.709,-0.56967,-1.0488,2.2787,-8.4175e-11,-0.52441,0,0,0.5,-4.4409e-16,0,0.66667
0.93513,0.66733,1.8703,0.25099,0.038013,0.28006,-1.2518,0.41726,-1.7756,-1.6691,-1.8382e-09,-0.88782,0,0,0.5,-0,-0,0.66667
0.46068,0.94583,0.92136,0.66875,2.7298,4.256,-1.6431,0.5477,-0.40956,-2.1908,-1.6565e-12,-0.20478,0,0,0.5,-0,-0,0.66667
0.5004,0.9102,1.0008,0.61531,2.3426,3.803,-1.6421,0.54738,-0.65442,-2.1895,4.5186e-14,-0.32721,0,0,0.5,1.1842e-15,0,0.66667
0.91869,0.20322,1.8374,-0.44518,-0.2022,0.46081,2.1812,-0.72707,-1.2948,2.9083,1.8644e-09,-0.6474,0,0,0.5,1.1842e-15,0,0.66667
0.92982,0.53804,1.8596,0.057065,0.0081169,0.25282,-0.28299,0.09433,-1.9883,-0.37732,-5.2342e-08,-0.99414,0,0,0.5,2.3685e-15,0,0.66667
0.90449,0.61406,1.809,0.1711,0.071381,0.38837,-0.82536,0.27512,-1.8956,-1.1005,-9.4628e-09,-0.94779,0,0,0.5,-1.1842e-15,0,0.66667
0.51363,0.47578,1.0273,-0.036323,-0.12148,3.4928,0.099502,-0.033167,-1.9953,0.13267,-1.5339e-12,-0.99766,0,0,0.5,-0,-0,0.66667
0.63981,0.044453,1.2796,-0.68332,-2.0848,2.5038,2.3317,-0.77724,-0.33944,3.109,-1.4207e-11,-0.16972,0,0,0.5,-1.1842e-15,0,0.66667
0.58901,0.51044,1.178,0.015665,0.045424,2.7195,-0.049209,0.016403,-1.9987,-0.065612,4.5435e-12,-0.99934,0,0,0.5,-0,-0,0.66667
0.15849,0.46472,0.31699,-0.052914,-0.2444,7.8193,0.044729,-0.01491,-1.9905,0.059638,1.3868e-09,-0.99524,0,0,0.5,-3.7007e-16,0,0.66667
0.62345,0.88361,1.2469,0.57541,1.7379,2.573,-1.9133,0.63776,-0.82264,-2.551,6.0423e-11,-0.41132,0,0,0.5,-0,-0,0.66667
0.31914,0.89431,0.63829,0.59146,2.7027,5.8508,-1.0067,0.33558,-0.7556,-1.3423,-1.6889e-10,-0.3778,0,0,0.5,-2.9606e-16,0,0.66667
0.13074,0.89931,0.26147,0.59896,3.0133,8.2292,-0.41763,0.13921,-0.72429,-0.55684,-9.4878e-09,-0.36215,0,0,0.5,7.4015e-17,0,0.66667
0.215,0.12075,0.43001,-0.56888,-2.7529,7.1391,0.65233,-0.21744,-0.84964,0.86977,1.7154e-09,-0.42482,0,0,0.5,1.4803e-16,0,0.66667
0.31366,0.18441,0.62732,-0.47338,-2.1102,5.8822,0.7919,-0.26397,-1.2039,1.0559,2.9428e-10,-0.60195,0,0,0.5,1.4803e-16,0,0.66667
0.95145,0.24594,1.9029,-0.38108,-0.027643,0.28511,1.9338,-0.64459,-1.4841,2.5784,2.2834e-09,-0.74205,0,0,0.5,-0,-0,0.66667
0.99077,0.53119,1.9815,0.046786,-0.022599,0.028992,-0.24722,0.082406,-1.9932,-0.32963,-2.3368e-06,-0.99662,0,0,0.5,1.1195e-15,0,0.66667
0.86689,0.43779,1.7338,-0.093308,-0.070082,0.56448,0.4314,-0.1438,-1.97,0.5752,-4.2403e-09,-0.98501,0,0,0.5,-2.3685e-15,0,0.66667
0.46186,0.90018,0.92372,0.60027,2.3927,4.2075,-1.4786,0.49287,-0.71882,-1.9715,-6.3405e-12,-0.35941,0,0,0.5,-2.9606e-16,0,0.66667
0.46562,0.73428,0.93123,0.35141,1.3079,4.0686,-0.87266,0.29089,-1.5604,-1.1636,-2.3142e-11,-0.78018,0,0,0.5,5.9212e-16,0,0.66667
0.76473,0.7609,1.5295,0.39135,0.70045,1.3148,-1.5961,0.53204,-1.4552,-2.1282,3.8645e-10,-0.72759,0,0,0.5,-1.1842e-15,0,0.66667
0.098408,0.80443,0.19682,0.45664,2.2442,8.6376,-0.23967,0.079889,-1.2584,-0.31956,6.0712e-09,-0.62918,0,0,0.5,-7.4015e-17,0,0.66667
0.99404,0.64014,1.9881,0.21021,-0.099659,0.056314,-1.1144,0.37147,-1.8422,-1.4859,-9.6808e-10,-0.92112,0,0,0.5,-0,-0,0.66667
0.69221,0.81168,1.3844,0.46752,1.1319,1.9133,-1.726,0.57533,-1.2238,-2.3013,3.2195e-10,-0.61188,0,0,0.5,-2.9606e-16,0,0.66667
0.29929,0.62281,0.59857,0.18422,0.79351,6.0084,-0.29404,0.098015,-1.8801,-0.39206,-1.121e-10,-0.94004,0,0,0.5,-1.4803e-16,0,0.66667
0.90885,0.68066,1.8177,0.27099,0.11404,0.40352,-1.3135,0.43785,-1.7389,-1.7514,-5.0545e-09,-0.86945,0,0,0.5,1.1842e-15,0,0.66667
0.55258,0.61331,1.1052,0.16997,0.53566,3.0987,-0.50092,0.16697,-1.8967,-0.66789,2.5397e-11,-0.94837,0,0,0.5,5.9212e-16,0,0.66667
0.08519,0.40236,0.17038,-0.14646,-0.69325,8.7982,0.066542,-0.022181,-1.924,0.088722,1.7429e-08,-0.96201,0,0,0.5,3.7007e-17,0,0.66667
0.10825,0.20183,0.21649,-0.44725,-2.1893,8.5069,0.2582,-0.086068,-1.2883,0.34427,-3.8168e-09,-0.64417,0,0,0.5,1.4803e-16,0,0.66667
0.031665,0.03733,0.06333,-0.694,-3.6395,9.5306,0.1172,-0.039069,-0.28775,0.15627,-2.0069e-06,-0.14387,0,0,0.5,7.4015e-17,0,0.66667
0.21619,0.15132,0.43239,-0.52302,-2.5024,7.1143,0.60307,-0.20102,-1.0276,0.80409,1.4598e-09,-0.51382,0,0,0.5,-2.0017e-17,0,0.66667
0.051414,0.59795,0.10283,0.14693,0.69913,9.2518,-0.04029,0.01343,-1.9235,-0.053719,-1.0635e-07,-0.96177,0,0,0.5,-0,-0,0.66667
0.51027,0.037254,1.0205,-0.69412,-2.68,3.7467,1.889,-0.62967,-0.28693,2.5187,-1.6098e-13,-0.14347,0,0,0.5,-0,-0,0.66667
0.08294,0.12949,0.16588,-0.55576,-2.7975,8.8495,0.24584,-0.081947,-0.90203,0.32779,-7.4895e-09,-0.45101,0,0,0.5,-0,-0,0.66667
0.44312,0.93707,0.88624,0.6556,2.7198,4.441,-1.5494,0.51646,-0.47274,-2.0659,-3.3675e-12,-0.23637,0,0,0.5,-1.2953e-16,0,0.66667
0.2362,0.86588,0.4724,0.54883,2.6151,6.8658,-0.69138,0.23046,-0.92884,-0.92183,-1.1149e-09,-0.46442,0,0,0.5,-2.9606e-16,0,0.66667
0.55972,0.38976,1.1194,-0.16536,-0.51386,3.0253,0.49363,-0.16454,-1.9022,0.65818,-2.8507e-11,-0.95112,0,0,0.5,-0,-0,0.66667
0.43897,0.0036207,0.87794,-0.74457,-3.1996,4.5354,1.7432,-0.58105,-0.029406,2.3242,-2.3048e-13,-0.014703,0,0,0.5,-0,-0,0.66667
0.83754,0.77516,1.6751,0.41273,0.48929,0.8534,-1.8436,0.61455,-1.3943,-2.4582,-3.16e-10,-0.69714,0,0,0.5,1.1842e-15,0,0.66667
0.33654,0.45015,0.67309,-0.074772,-0.31044,5.5383,0.13421,-0.044736,-1.9795,0.17895,4.4038e-11,-0.98975,0,0,0.5,5.9212e-16,0,0.66667
0.23023,0.54214,0.46046,0.063215,0.28266,6.8805,-0.077622,0.025874,-1.9853,-0.1035,-1.4156e-10,-0.99267,0,0,0.5,-0,-0,0.66667
0.94012,0.40432,1.8802,-0.14353,-0.0082743,0.22437,0.71963,-0.23988,-1.9275,0.95951,-2.0234e-07,-0.96377,0,0,0.5,2.9606e-16,0,0.66667
0.46636,0.43249,0.93273,-0.10127,-0.36463,4.0134,0.25188,-0.083961,-1.9638,0.33584,1.0152e-11,-0.9819,0,0,0.5,-2.9606e-16,0,0.66667
0.028158,0.27018,0.056316,-0.34473,-1.6785,9.5674,0.05177,-0.017257,-1.577,0.069027,7.019e-09,-0.78852,0,0,0.5,-3.7007e-17,0,0.66667
0.079436,0.52244,0.15887,0.03366,0.1588,8.8739,-0.01426,0.0047535,-1.9958,-0.019014,6.549e-09,-0.99792,0,0,0.5,-0,-0,0.66667
0.55557,0.05728,1.1111,-0.66408,-2.3649,3.2717,1.9677,-0.6559,-0.43208,2.6236,-2.9158e-12,-0.21604,0,0,0.5,-2.9606e-16,0,0.66667
0.21077,0.24305,0.42154,-0.38543,-1.7989,7.1602,0.43327,-0.14442,-1.4716,0.57769,2.4978e-10,-0.73582,0,0,0.5,-2.9606e-16,0,0.66667
0.14824,0.15645,0.29647,-0.51533,-2.5293,7.9898,0.40741,-0.1358,-1.0568,0.54322,1.2107e-09,-0.52838,0,0,0.5,-5.9212e-16,0,0.66667
0.19553,0.38159,0.39106,-0.17762,-0.81329,7.3368,0.18523,-0.061743,-1.8877,0.24697,4.3154e-11,-0.94386,0,0,0.5,-0,-0,0.66667
0.74475,0.91589,1.4895,0.62384,1.3696,1.6167,-2.4779,0.82596,-0.61588,-3.3038,5.2649e-10,-0.30794,0,0,0.5,-0,-0,0.66667
0.94901,0.069248,1.898,-0.64613,-0.24527,0.52389,3.2703,-1.0901,-0.51557,4.3604,-7.8436e-08,-0.25778,0,0,0.5,-2.3685e-15,-3.6401e-16,0.66667
0.12938,0.50742,0.25876,0.01113,0.051868,8.2056,-0.0076796,0.0025599,-1.9994,-0.010239,-1.5897e-09,-0.99971,0,0,0.5,-0,-0,0.66667
0.87978,0.84159,1.7596,0.51239,0.45818,0.69392,-2.4042,0.8014,-1.0672,-3.2056,-4.3748e-09,-0.53358,0,0,0.5,-1.4803e-16,0,0.66667
0.71192,0.8544,1.4238,0.5316,1.2439,1.7953,-2.0184,0.67281,-0.9947,-2.6913,4.2859e-10,-0.49735,0,0,0.5,-0,-0,0.66667
0.55684,0.51423,1.1137,0.021348,0.066107,3.0412,-0.063399,0.021133,-1.9977,-0.084531,3.8348e-12,-0.99887,0,0,0.5,-2.3685e-15,0,0.66667
0.067019,0.071265,0.13404,-0.6431,-3.3152,9.0654,0.22987,-0.076622,-0.5292,0.30649,-1.4256e-09,-0.2646,0,0,0.5,-0,-0,0.66667
0.78774,0.15648,1.5755,-0.51528,-0.88414,1.2339,2.1649,-0.72162,-1.0569,2.8865,-1.4991e-09,-0.52846,0,0,0.5,-0,-0,0.66667
0.81228,0.093668,1.6246,-0.6095,-0.98514,1.1525,2.6404,-0.88015,-0.68048,3.5206,-3.074e-09,-0.34024,0,0,0.5,1.4416e-15,0,0.66667
0.75458,0.67652,1.5092,0.26479,0.4729,1.3323,-1.0656,0.3552,-1.7502,-1.4208,8.4781e-11,-0.87512,0,0,0.5,-0,-0,0.66667
0.55049,0.64035,1.101,0.21052,0.6694,3.1277,-0.61808,0.20603,-1.8418,-0.8241,2.8615e-11,-0.92092,0,0,0.5,-0,-0,0.66667
0.6316,0.10491,1.2632,-0.59263,-1.77,2.5108,1.9963,-0.66544,-0.75071,2.6618,-5.9731e-11,-0.37536,0,0,0.5,-0,-0,0.66667
0.43666,0.89167,0.87333,0.58751,2.4035,4.4795,-1.3682,0.45608,-0.77232,-1.8243,-1.4879e-11,-0.38616,0,0,0.5,-0,5.8945e-16,0.66667
0.30785,0.48799,0.61569,-0.018015,-0.07647,5.8923,0.029579,-0.0098595,-1.9983,0.039438,1.4324e-11,-0.99916,0,0,0.5,-2.9606e-16,0,0.66667
0.20771,0.44408,0.41542,-0.083885,-0.37977,7.1735,0.092927,-0.030976,-1.9749,0.1239,2.875e-10,-0.98747,0,0,0.5,-0,-0,0.66667
0.77076,0.66046,1.5415,0.24068,0.39513,1.2069,-0.98939,0.3298,-1.7943,-1.3192,1.2492e-11,-0.89715,0,0,0.5,-2.3685e-15,0,0.66667
0.93478,0.97998,1.8696,0.71997,0.45161,0.65991,-3.5894,1.1965,-0.15653,-4.7859,-1.339e-08,-0.078265,0,0,0.5,-0,-5.4532e-16,0.66667
0.62152,0.31795,1.243,-0.27308,-0.75566,2.4488,0.90519,-0.30173,-1.735,1.2069,-9.4284e-11,-0.8675,0,0,0.5,-0,-0,0.66667
0.53425,0.80619,1.0685,0.45928,1.5829,3.3744,-1.3086,0.43622,-1.25,-1.7449,1.8285e-11,-0.62502,0,0,0.5,-8.8818e-16,0,0.66667
0.88327,0.24692,1.7665,-0.37962,-0.28037,0.58356,1.7883,-0.5961,-1.488,2.3844,1.9941e-09,-0.74402,0,0,0.5,1.4457e-15,0,0.66667
0.044803,0.12335,0.089606,-0.56497,-2.8646,9.3526,0.135,-0.045,-0.86596,0.18,-2.1383e-07,-0.43298,0,0,0.5,8.3267e-17,-6.496e-16,0.66667
0.30268,0.98015,0.60535,0.72022,3.4566,6.0965,-1.1626,0.38754,-0.15513,-1.5502,-1.4177e-11,-0.077563,0,0,0.5,-0,-0,0.66667
0.38247,0.83569,0.76494,0.50353,2.1313,5.0662,-1.0271,0.34237,-1.0982,-1.3695,-8.637e-11,-0.54912,0,0,0.5,2.9606e-16,0,0.66667
0.031099,0.038127,0.062199,-0.69281,-3.6321,9.538,0.11491,-0.038306,-0.29356,0.15322,-2.1555e-06,-0.14678,0,0,0.5,-0,4.0653e-16,0.66667
0.51993,0.45172,1.0399,-0.072419,-0.23997,3.4275,0.20082,-0.066939,-1.9808,0.26775,-4.3531e-12,-0.99038,0,0,0.5,-0,-0,0.66667
0.94058,0.87963,1.8812,0.56945,0.20953,0.47639,-2.8566,0.95219,-0.84733,-3.8088,4.7438e-08,-0.42367,0,0,0.5,-0,-0,0.66667
0.79725,0.31631,1.5945,-0.27554,-0.39647,1.0371,1.1716,-0.39053,-1.7306,1.5621,1.7046e-10,-0.86532,0,0,0.5,2.3685e-15,0,0.66667
0.53509,0.91167,1.0702,0.6175,2.2343,3.4468,-1.7622,0.58741,-0.64438,-2.3497,4.3775e-12,-0.32219,0,0,0.5,1.1842e-15,0,0.66667
0.67654,0.87204,1.3531,0.55806,1.4687,2.0994,-2.0136,0.6712,-0.89319,-2.6848,1.9875e-10,-0.4466,0,0,0.5,1.7764e-15,0,0.66667
0.78523,0.42885,1.5705,-0.10673,-0.15724,1.0732,0.44698,-0.14899,-1.9592,0.59597,-2.2377e-10,-0.97962,0,0,0.5,-5.9212e-16,0,0.66667
0.26109,0.27632,0.52219,-0.33552,-1.5109,6.5091,0.46721,-0.15574,-1.5999,0.62295,2.2476e-10,-0.79996,0,0,0.5,4.4409e-16,0,0.66667
0.27566,0.85734,0.55133,0.53601,2.4885,6.3679,-0.78804,0.26268,-0.97786,-1.0507,-5.3319e-10,-0.48893,0,0,0.5,-0,-0,0.66667
0.60522,0.35685,1.2104,-0.21473,-0.61074,2.587,0.69311,-0.23104,-1.8355,0.92414,-6.608e-11,-0.91775,0,0,0.5,1.1842e-15,0,0.66667
0.67418,0.58495,1.3484,0.12743,0.29854,1.9423,-0.4582,0.15273,-1.9421,-0.61093,7.6188e-11,-0.97104,0,0,0.5,5.9212e-16,0,0.66667
0.0036135,0.87296,0.0072269,0.55944,2.8389,9.8967,-0.010781,0.0035937,-0.88793,-0.014375,-1.7642e-07,-0.44396,0,0,0.5,-5.2042e-18,-2.8928e-16,0.66667
0.8557,0.026302,1.7114,-0.71055,-0.9723,1.0043,3.2428,-1.0809,-0.20509,4.3237,-3.1529e-09,-0.10255,0,0,0.5,-0,-0,0.66667
0.14491,0.82087,0.28982,0.48131,2.3479,8.0288,-0.37199,0.124,-1.1761,-0.49598,2.0197e-11,-0.58804,0,0,0.5,-0,-0,0.66667
0.51235,0.27029,1.0247,-0.34457,-1.1967,3.56,0.94155,-0.31385,-1.5774,1.2554,-8.1561e-12,-0.78872,0,0,0.5,-0,-0,0.66667
0.56218,0.13851,1.1244,-0.54223,-1.827,3.1337,1.6258,-0.54193,-0.95425,2.1677,-2.2888e-11,-0.47713,0,0,0.5,-0,6.9195e-16,0.66667
0.0071911,0.63552,0.014382,0.20328,0.97426,9.8476,-0.0077965,0.0025988,-1.8526,-0.010395,-2.4319e-08,-0.92629,0,0,0.5,-0,-0,0.66667
0.42885,0.29313,0.8577,-0.31031,-1.2006,4.4721,0.70974,-0.23658,-1.6571,0.94632,5.1614e-11,-0.82853,0,0,0.5,-0,-0,0.66667
0.53374,0.97323,1.0675,0.70985,2.6642,3.5186,-2.0207,0.67356,-0.20875,-2.6942,1.5854e-13,-0.10438,0,0,0.5,1.1842e-15,0,0.66667
0.69071,0.66443,1.3814,0.24665,0.55956,1.8289,-0.9086,0.30287,-1.7835,-1.2115,1.387e-10,-0.89176,0,0,0.5,-0,-0,0.66667
0.90317,0.71305,1.8063,0.31957,0.16151,0.4531,-1.5394,0.51312,-1.637,-2.0525,4.1655e-10,-0.81851,0,0,0.5,1.7764e-15,0,0.66667
0.068561,0.3189,0.13712,-0.27165,-1.3043,9.0245,0.09933,-0.03311,-1.7376,0.13244,1.8931e-10,-0.86878,0,0,0.5,1.4803e-16,0,0.66667
0.2831,0.42108,0.5662,-0.11838,-0.51343,6.2068,0.17874,-0.05958,-1.9497,0.23832,9.5823e-11,-0.97484,0,0,0.5,-0,-0,0.66667
0.52793,0.72903,1.0559,0.34355,1.1632,3.3959,-0.96731,0.32244,-1.58,-1.2897,1.8709e-11,-0.78999,0,0,0.5,-1.1842e-15,0,0.66667
0.29023,0.95158,0.58047,0.67737,3.2355,6.2316,-1.0485,0.3495,-0.36796,-1.398,-9.2231e-11,-0.18398,0,0,0.5,-0,-0,0.66667
0.42013,0.45016,0.84026,-0.074766,-0.28519,4.5384,0.16753,-0.055843,-1.9797,0.22337,1.8927e-11,-0.98985,0,0,0.5,-0,-0,0.66667
0.98205,0.077172,1.9641,-0.63424,-0.014936,0.40541,3.3219,-1.1073,-0.56922,4.4292,-9.8755e-07,-0.28461,0,0,0.5,-0,-0,0.66667
0.056933,0.4301,0.11387,-0.10486,-0.49745,9.1771,0.031839,-0.010613,-1.9607,0.042452,-3.2e-07,-0.98036,0,0,0.5,-0,-0,0.66667
0.92891,0.067207,1.8578,-0.64919,-0.3798,0.60203,3.2162,-1.0721,-0.50168,4.2883,4.9288e-08,-0.25084,0,0,0.5,-0,-0,0.66667
0.66798,0.90439,1.336,0.60659,1.6693,2.2049,-2.161,0.72033,-0.69247,-2.8813,1.0992e-10,-0.34623,0,0,0.5,-1.6283e-15,0,0.66667
0.49858,0.99958,0.99716,0.74937,3.0024,3.9031,-1.9926,0.66421,-0.0045371,-2.6568,-1.0392e-13,-0.0022685,0,0,0.5,8.5117e-16,-3.1597e-17,0.66667
0.4647,0.30432,0.92939,-0.29352,-1.0824,4.0634,0.72745,-0.24248,-1.6935,0.96994,2.3445e-11,-0.84673,0,0,0.5,-2.9606e-16,0,0.66667
0.55893,0.45056,1.1179,-0.074165,-0.22914,3.0224,0.22109,-0.073695,-1.9799,0.29478,-1.3533e-11,-0.98995,0,0,0.5,-0,-0,0.66667
0.29159,0.22546,0.58317,-0.41181,-1.8418,6.1401,0.64042,-0.21347,-1.3969,0.85389,3.3907e-10,-0.69847,0,0,0.5,5.9212e-16,0,0.66667
0.1718,0.26951,0.3436,-0.34574,-1.6307,7.6614,0.31679,-0.1056,-1.5747,0.42239,-4.769e-10,-0.78737,0,0,0.5,-0,-0,0.66667
0.61974,0.038283,1.2395,-0.69258,-2.2156,2.6885,2.2892,-0.76305,-0.29441,3.0522,-6.0894e-12,-0.14721,0,0,0.5,1.1842e-15,0,0.66667
0.98848,0.44304,1.977,-0.085442,0.038748,0.04047,0.45044,-0.15015,-1.9742,0.60058,-2.4968e-06,-0.98708,0,0,0.5,-0,-0,0.66667
0.51622,0.018567,1.0324,-0.72215,-2.7944,3.7039,1.9882,-0.66273,-0.14544,2.6509,-7.1387e-14,-0.072721,0,0,0.5,-1.1842e-15,0,0.66667
0.67101,0.84887,1.342,0.5233,1.3777,2.1234,-1.8727,0.62425,-1.0267,-2.497,2.1004e-10,-0.51334,0,0,0.5,-0,-7.3843e-16,0.66667
0.51953,0.52528,1.0391,0.03792,0.12559,3.43,-0.10507,0.035023,-1.9949,-0.14009,2.2038e-12,-0.99747,0,0,0.5,-0,-0,0.66667
0.20003,0.51937,0.40006,0.029061,0.13186,7.2726,-0.031003,0.010334,-1.9965,-0.041337,-1.8802e-10,-0.99827,0,0,0.5,-5.9212e-16,0,0.66667
0.5787,0.99398,1.1574,0.74097,2.6181,3.1035,-2.2869,0.76231,-0.048096,-3.0492,3.5971e-14,-0.024048,0,0,0.5,2.9606e-16,0,0.66667
0.95788,0.89281,1.9158,0.58922,0.12758,0.4336,-3.0101,1.0034,-0.765,-4.0135,1.9393e-08,-0.3825,0,0,0.5,-0,-0,0.66667
0.69242,0.21137,1.3848,-0.43295,-1.0336,1.8925,1.5988,-0.53295,-1.3334,2.1318,-3.0097e-10,-0.66669,0,0,0.5,5.9212e-16,0,0.66667
0.027337,0.20901,0.054674,-0.43649,-2.1578,9.5801,0.063638,-0.021213,-1.3222,0.084851,4.5933e-09,-0.66112,0,0,0.5,-3.7007e-17,0,0.66667
0.36312,0.53918,0.72624,0.058775,0.23806,5.2137,-0.11383,0.037942,-1.9875,-0.15177,-2.8019e-11,-0.99377,0,0,0.5,-0,-0,0.66667
0.63389,0.62693,1.2678,0.19039,0.50351,2.313,-0.64367,0.21456,-1.8718,-0.85822,7.9534e-11,-0.93588,0,0,0.5,-0,-0,0.66667
0.56707,0.87729,1.1341,0.56594,1.9056,3.0988,-1.7116,0.57054,-0.86181,-2.2822,2.0325e-11,-0.43091,0,0,0.5,-0,-0,0.66667
0.12133,0.2166,0.24267,-0.4251,-2.0655,8.3323,0.27509,-0.091696,-1.3582,0.36679,-2.9448e-09,-0.67908,0,0,0.5,1.4803e-16,0,0.66667
0.93647,0.038718,1.8729,-0.69192,-0.39388,0.62065,3.4558,-1.1519,-0.29779,4.6078,6.2387e-08,-0.14889,0,0,0.5,-0,-4.3075e-16,0.66667
0.39384,0.036604,0.78768,-0.69509,-3.075,5.014,1.46,-0.48668,-0.28228,1.9467,3.6804e-12,-0.14114,0,0,0.5,-0,-0,0.66667
0.72926,0.50845,1.4585,0.01267,0.024242,1.4785,-0.049277,0.016426,-1.9992,-0.065703,1.5966e-11,-0.99958,0,0,0.5,-0,-0,0.66667
0.78569,0.071463,1.5714,-0.64281,-1.2125,1.3507,2.6936,-0.89786,-0.53054,3.5914,-1.1815e-09,-0.26527,0,0,0.5,2.3685e-15,0,0.66667
0.21299,0.19504,0.42599,-0.45744,-2.1614,7.143,0.51963,-0.17321,-1.2558,0.69285,8.9203e-10,-0.6279,0,0,0.5,-0,-0,0.66667
0.66262,0.018374,1.3252,-0.72244,-2.1309,2.3409,2.5531,-0.85103,-0.14367,3.4041,-5.3901e-12,-0.071837,0,0,0.5,-0,-0,0.66667
0.52337,0.35384,1.0467,-0.21923,-0.73202,3.4111,0.61194,-0.20398,-1.8286,0.81593,-1.3296e-11,-0.91432,0,0,0.5,-0,-0,0.66667
0.1783,0.75623,0.35659,0.38435,1.8194,7.581,-0.36549,0.12183,-1.4747,-0.48732,1.9419e-10,-0.73735,0,0,0.5,5.9212e-16,0,0.66667
0.71844,0.8444,1.4369,0.5166,1.1747,1.7344,-1.9795,0.65982,-1.0523,-2.6393,5.0347e-10,-0.52614,0,0,0.5,-0,6.1608e-16,0.66667
0.54058,0.53153,1.0812,0.047298,0.15106,3.2094,-0.13636,0.045455,-1.993,-0.18182,5.9114e-12,-0.99651,0,0,0.5,2.3685e-15,0,0.66667
0.21409,0.65289,0.42819,0.22933,1.0458,7.0991,-0.26186,0.087286,-1.8134,-0.34915,4.343e-11,-0.90671,0,0,0.5,7.4015e-17,0,0.66667
0.41806,0.52392,0.83612,0.035881,0.13704,4.5609,-0.080003,0.026668,-1.9953,-0.10667,-9.5965e-12,-0.99766,0,0,0.5,-0,-0,0.66667
0.68076,0.60811,1.3615,0.16216,0.37388,1.8918,-0.58877,0.19626,-1.9058,-0.78503,9.5311e-11,-0.95292,0,0,0.5,-0,-0,0.66667
0.99376,0.70561,1.9875,0.30842,-0.12902,0.10211,-1.6346,0.54487,-1.6612,-2.1795,5.0369e-09,-0.83059,0,0,0.5,-1.1842e-15,0,0.66667
0.54844,0.24087,1.0969,-0.38869,-1.2836,3.2007,1.1369,-0.37897,-1.4627,1.5159,-3.2599e-11,-0.73133,0,0,0.5,-5.9212e-16,0,0.66667
0.79392,0.92846,1.5878,0.64269,1.1676,1.2973,-2.7213,0.9071,-0.53114,-3.6284,1.4718e-09,-0.26557,0,0,0.5,-0,-5.3658e-16,0.66667
0.33058,0.39259,0.66116,-0.16111,-0.67572,5.6177,0.28406,-0.094685,-1.9072,0.37874,8.909e-11,-0.9536,0,0,0.5,-5.9212e-16,0,0.66667
0.51156,0.74819,1.0231,0.37228,1.3023,3.5774,-1.0157,0.33857,-1.5079,-1.3543,7.4648e-12,-0.75397,0,0,0.5,6.6613e-16,0,0.66667
0.83503,0.060414,1.6701,-0.65938,-0.97728,1.0645,2.9365,-0.97884,-0.45472,3.9154,-4.0346e-09,-0.22736,0,0,0.5,-1.5291e-15,0,0.66667
0.97046,0.96762,1.9409,0.70143,0.16649,0.51734,-3.6304,1.2101,-0.25164,-4.8406,-4.0659e-06,-0.12582,0,0,0.5,1.4803e-16,0,0.66667
0.17847,0.99939,0.35694,0.74909,3.8668,7.6443,-0.71302,0.23767,-0.0057706,-0.95069,1.3625e-10,-0.0028853,0,0,0.5,4.3484e-16,0,0.66667
0.85131,0.80829,1.7026,0.46244,0.51173,0.80726,-2.0996,0.69988,-1.2399,-2.7995,-3.576e-11,-0.61994,0,0,0.5,-1.2723e-15,0,0.66667
0.9884,0.29136,1.9768,-0.31297,0.11226,0.12036,1.6498,-0.54993,-1.6514,2.1997,1.2795e-08,-0.82568,0,0,0.5,-0,-0,0.66667
0.45046,0.0052165,0.90092,-0.74218,-3.1461,4.4088,1.783,-0.59435,-0.041736,2.3774,-7.8826e-15,-0.020868,0,0,0.5,-0,-0,0.66667
0.30796,0.75736,0.61592,0.38604,1.6981,5.9316,-0.63405,0.21135,-1.47,-0.8454,-2.5875e-10,-0.73499,0,0,0.5,5.9212e-16,0,0.66667
0.91246,0.27683,1.8249,-0.33475,-0.14252,0.41827,1.629,-0.54302,-1.6018,2.1721,-2.8983e-09,-0.80089,0,0,0.5,-1.1842e-15,0,0.66667
0.21986,0.012547,0.43971,-0.73118,-3.69,7.1186,0.85736,-0.28579,-0.098743,1.1431,8.0713e-11,-0.049371,0,0,0.5,-0,-0,0.66667
0.98826,0.78533,1.9765,0.42799,-0.1151,0.19563,-2.2558,0.75194,-1.349,-3.0078,-7.2607e-09,-0.67452,0,0,0.5,-0,-0,0.66667
0.40154,0.51792,0.80308,0.026887,0.10462,4.7541,-0.057581,0.019194,-1.9968,-0.076775,-8.8416e-12,-0.99842,0,0,0.5,-0,-0,0.66667
0.092234,0.92904,0.18447,0.64356,3.3041,8.736,-0.31658,0.10552,-0.52729,-0.4221,-4.827e-08,-0.26365,0,0,0.5,7.4015e-17,-4.6762e-16,0.66667
0.13677,0.28011,0.27355,-0.32983,-1.571,8.1203,0.2406,-0.0802,-1.6141,0.3208,-1.4345e-09,-0.80704,0,0,0.5,1.2953e-16,0,0.66667
0.47707,0.18478,0.95414,-0.47283,-1.7816,3.9848,1.2031,-0.40102,-1.2056,1.6041,1.1231e-11,-0.60278,0,0,0.5,1.4803e-16,0,0.66667
0.060948,0.26878,0.1219,-0.34683,-1.6838,9.129,0.11274,-0.037579,-1.5719,0.15032,3.2921e-09,-0.78595,0,0,0.5,-0,-0,0.66667
0.25189,0.04275,0.50377,-0.68588,-3.3604,6.7061,0.9214,-0.30713,-0.32701,1.2285,1.9379e-10,-0.1635,0,0,0.5,-0,-0,0.66667
0.795,0.45099,1.59,-0.073516,-0.10181,1.0023,0.31171,-0.1039,-1.9803,0.41561,-2.9109e-10,-0.99016,0,0,0.5,-0,-0,0.66667
0.78533,0.226,1.5707,-0.411,-0.67234,1.1825,1.7214,-0.57381,-1.3993,2.2953,-4.6022e-10,-0.69964,0,0,0.5,-0,-0,0.66667
0.81082,0.44991,1.6216,-0.075141,-0.093896,0.89776,0.32494,-0.10831,-1.9795,0.43325,-4.1537e-10,-0.98976,0,0,0.5,1.1842e-15,0,0.66667
0.046263,0.14681,0.092526,-0.52978,-2.6646,9.3318,0.13071,-0.043572,-1.0019,0.17429,4.2386e-08,-0.50097,0,0,0.5,7.4015e-17,7.8774e-16,0.66667
0.76645,0.18365,1.5329,-0.47452,-0.87809,1.3517,1.9397,-0.64657,-1.1999,2.5863,-8.8105e-10,-0.59997,0,0,0.5,-1.7764e-15,0,0.66667
0.80685,0.25212,1.6137,-0.37181,-0.52848,1.0187,1.6,-0.53333,-1.5091,2.1333,4.0764e-11,-0.75454,0,0,0.5,-0,-0,0.66667
0.01605,0.0094212,0.032099,-0.73587,-3.9076,9.7355,0.062993,-0.021005,-0.074552,0.083988,-1.072e-05,-0.037276,0,0,0.5,7.4015e-17,0,0.66667
0.39133,0.044415,0.78266,-0.68338,-3.0189,5.037,1.4263,-0.47542,-0.33917,1.9017,6.7746e-12,-0.16958,0,0,0.5,-0,-0,0.66667
0.86558,0.98975,1.7312,0.73463,0.96517,0.9802,-3.3914,1.1305,-0.080666,-4.5218,-2.3244e-09,-0.040333,0,0,0.5,1.1842e-15,0,0.66667
0.95847,0.019304,1.9169,-0.72104,-0.28089,0.57874,3.6859,-1.2286,-0.1509,4.9145,7.1851e-07,-0.07545,0,0,0.5,-0,-0,0.66667
0.91959,0.75894,1.8392,0.38841,0.15393,0.41825,-1.9049,0.63498,-1.4634,-2.5399,-3.7445e-09,-0.7317,0,0,0.5,-2.3685e-15,0,0.66667
0.54699,0.71422,1.094,0.32134,1.048,3.1922,-0.93742,0.31247,-1.6334,-1.2499,3.2624e-11,-0.81668,0,0,0.5,-2.9606e-16,0,0.66667
0.30992,0.40668,0.61984,-0.13998,-0.59605,5.8717,0.23138,-0.077125,-1.9314,0.3085,9.1062e-11,-0.96571,0,0,0.5,1.1842e-15,0,0.66667
0.58926,0.18277,1.1785,-0.47585,-1.4908,2.8355,1.4955,-0.49849,-1.1951,1.994,-5.8653e-11,-0.59755,0,0,0.5,-0,-0,0.66667
0.59599,0.35697,1.192,-0.21455,-0.6229,2.6757,0.68197,-0.22732,-1.8359,0.90929,-5.9277e-11,-0.91793,0,0,0.5,-1.1842e-15,0,0.66667
0.66455,0.17444,1.3291,-0.48834,-1.2902,2.1574,1.7308,-0.57693,-1.1515,2.3077,-2.0238e-10,-0.57573,0,0,0.5,-7.8699e-16,0,0.66667
0.59082,0.61068,1.1816,0.16602,0.48427,2.7162,-0.52313,0.17438,-1.9015,-0.69751,4.5313e-11,-0.95073,0,0,0.5,-1.1842e-15,0,0.66667
0.86806,0.053434,1.7361,-0.66985,-0.8015,0.89759,3.1012,-1.0337,-0.40426,4.1349,-9.9241e-09,-0.20213,0,0,0.5,-1.1842e-15,0,0.66667
0.37398,0.44872,0.74796,-0.076926,-0.30849,5.0837,0.15343,-0.051144,-1.9787,0.20458,3.2751e-11,-0.98933,0,0,0.5,-0,-0,0.66667
0.24402,0.73298,0.48803,0.34947,1.5933,6.7284,-0.45481,0.1516,-1.5651,-0.60641,-2.3836e-10,-0.78256,0,0,0.5,-0,-0,0.66667
0.020487,0.25432,0.040973,-0.36852,-1.8016,9.6704,0.040265,-0.013422,-1.5174,0.053687,5.4577e-09,-0.75869,0,0,0.5,-0,-0,0.66667
0.23269,0.16672,0.46538,-0.49991,-2.3598,6.8996,0.6204,-0.2068,-1.1111,0.82719,1.0339e-09,-0.55556,0,0,0.5,5.9212e-16,0,0.66667
0.1616,0.25634,0.3232,-0.36549,-1.7358,7.797,0.31501,-0.105,-1.525,0.42001,-6.744e-10,-0.76249,0,0,0.5,-0,-0,0.66667
0.23816,0.78434,0.47632,0.42651,1.9773,6.8158,-0.54174,0.18058,-1.3537,-0.72233,-5.6912e-10,-0.67686,0,0,0.5,-0,-0,0.66667
0.88096,0.085815,1.7619,-0.62128,-0.62817,0.78467,2.9191,-0.97302,-0.62736,3.8921,-1.0914e-08,-0.31368,0,0,0.5,-5.9212e-16,0,0.66667
0.7316,0.53757,1.4632,0.05635,0.10699,1.4622,-0.21987,0.07329,-1.9888,-0.29316,6.8773e-11,-0.99439,0,0,0.5,-0,-0,0.66667
0.24339,0.12656,0.48678,-0.56017,-2.6661,6.7778,0.72714,-0.24238,-0.88503,0.96952,9.8871e-10,-0.44251,0,0,0.5,-5.9212e-16,0,0.66667
0.79305,0.58087,1.5861,0.12131,0.17116,1.022,-0.51309,0.17103,-1.9471,-0.68412,2.3336e-10,-0.97357,0,0,0.5,-0,-0,0.66667
0.54412,0.8354,1.0882,0.5031,1.7274,3.294,-1.46,0.48666,-1.0999,-1.9466,1.9458e-11,-0.54995,0,0,0.5,-0,-0,0.66667
0.40649,0.91017,0.81297,0.61526,2.6218,4.8325,-1.3338,0.44461,-0.65467,-1.7784,-1.9649e-11,-0.32733,0,0,0.5,1.1842e-15,0,0.66667
0.2058,0.52327,0.4116,0.034898,0.15793,7.1973,-0.038304,0.012768,-1.9955,-0.051073,-1.7736e-10,-0.99777,0,0,0.5,-0,-0,0.66667
0.31073,0.31513,0.62146,-0.27731,-1.1965,5.8775,0.45957,-0.15319,-1.7273,0.61276,1.565e-10,-0.86364,0,0,0.5,-1.1842e-15,0,0.66667
0.079247,0.64631,0.15849,0.21946,1.0461,8.8798,-0.092756,0.030919,-1.8285,-0.12367,1.2304e-08,-0.91427,0,0,0.5,-7.4015e-17,0,0.66667
0.23362,0.88911,0.46725,0.58366,2.8087,6.9066,-0.72724,0.24241,-0.78837,-0.96965,-1.112e-09,-0.39418,0,0,0.5,-0,-0,0.66667
0.66575,0.39219,1.3315,-0.16172,-0.39026,2.0214,0.5742,-0.1914,-1.9064,0.7656,-8.7374e-11,-0.95318,0,0,0.5,3.9583e-16,0,0.66667
0.35102,0.56818,0.70204,0.10227,0.41966,5.3627,-0.19145,0.063817,-1.9628,-0.25527,-5.2598e-11,-0.98142,0,0,0.5,-0,-0,0.66667
0.81972,0.0065887,1.6394,-0.74012,-1.2836,1.2358,3.2357,-1.0786,-0.052257,4.3142,-2.2128e-10,-0.026129,0,0,0.5,-0,-0,0.66667
0.66115,0.79381,1.3223,0.44072,1.1547,2.1606,-1.554,0.51801,-1.3088,-2.072,1.9808e-10,-0.65442,0,0,0.5,1.1842e-15,0,0.66667
0.62435,0.5208,1.2487,0.031199,0.083367,2.3816,-0.10389,0.034629,-1.9963,-0.13852,1.3393e-11,-0.99816,0,0,0.5,-0,-0,0.66667
0.42028,0.53119,0.84056,0.046788,0.17827,4.5355,-0.10487,0.034958,-1.9934,-0.13983,-1.2086e-11,-0.99672,0,0,0.5,-3.0069e-16,0,0.66667
0.645,0.33561,1.29,-0.24658,-0.63969,2.2259,0.84825,-0.28275,-1.7836,1.131,-1.0785e-10,-0.89179,0,0,0.5,-0,-0,0.66667
0.87483,0.76858,1.7497,0.40287,0.33703,0.641,-1.8797,0.62657,-1.4226,-2.5063,-1.7726e-09,-0.7113,0,0,0.5,1.1842e-15,0,0.66667
0.31127,0.97505,0.62255,0.71258,3.3917,5.99,-1.183,0.39432,-0.19477,-1.5773,-1.2775e-11,-0.097386,0,0,0.5,-0,-0,0.66667
0.34275,0.71128,0.6855,0.31692,1.3398,5.4911,-0.57934,0.19311,-1.6429,-0.77245,-1.4975e-10,-0.82146,0,0,0.5,-0,-0,0.66667
0.84868,0.79629,1.6974,0.44443,0.49486,0.80967,-2.0116,0.67054,-1.2971,-2.6822,-2.7054e-10,-0.64854,0,0,0.5,1.1842e-15,0,0.66667
0.52989,0.1128,1.0598,-0.5808,-2.0922,3.4788,1.6414,-0.54714,-0.80022,2.1885,-6.3318e-12,-0.40011,0,0,0.5,-0,-0,0.66667
0.92369,0.83095,1.8474,0.49643,0.22596,0.4791,-2.4456,0.81519,-1.1233,-3.2608,-4.1792e-09,-0.56166,0,0,0.5,-0,-0,0.66667
0.18755,0.012216,0.37511,-0.73168,-3.7444,7.5252,0.73188,-0.24396,-0.096261,0.97584,2.5386e-10,-0.04813,0,0,0.5,-0,-0,0.66667
0.21487,0.29796,0.42975,-0.30305,-1.3937,7.0965,0.3473,-0.11577,-1.6729,0.46306,-4.076e-11,-0.83643,0,0,0.5,-0,-0,0.66667
0.86246,0.77279,1.7249,0.40918,0.39139,0.71059,-1.8821,0.62738,-1.4045,-2.5095,-1.1589e-09,-0.70225,0,0,0.5,-5.9212e-16,0,0.66667
0.09949,0.38882,0.19898,-0.16676,-0.78814,8.6073,0.088487,-0.029496,-1.9005,0.11798,-6.1008e-09,-0.95024,0,0,0.5,-0,-0,0.66667
0.47166,0.6585,0.94332,0.23775,0.86114,3.9738,-0.59806,0.19935,-1.7997,-0.79741,-1.7075e-11,-0.89987,0,0,0.5,-1.1842e-15,0,0.66667
0.8394,0.98559,1.6788,0.72838,1.1234,1.1113,-3.2608,1.0869,-0.11304,-4.3478,6.656e-10,-0.056522,0,0,0.5,2.3685e-15,0,0.66667
0.69374,0.010883,1.3875,-0.73368,-2.0113,2.098,2.7145,-0.90485,-0.085605,3.6194,-5.8842e-12,-0.042803,0,0,0.5,-2.3685e-15,0,0.66667
0.46224,0.52394,0.92448,0.035911,0.12971,4.0559,-0.088532,0.029511,-1.9952,-0.11804,-4.236e-12,-0.99761,0,0,0.5,-5.9212e-16,0,0.66667
0.1652,0.88897,0.3304,0.58345,2.8924,7.7803,-0.51405,0.17135,-0.789,-0.6854,-4.4398e-09,-0.3945,0,0,0.5,-2.9606e-16,0,0.66667
0.55082,0.30946,1.1016,-0.28581,-0.91934,3.1426,0.83963,-0.27988,-1.7101,1.1195,-3.4457e-11,-0.85503,0,0,0.5,-0,-0,0.66667
0.98798,0.64704,1.976,0.22056,-0.089415,0.078314,-1.1622,0.38739,-1.8267,-1.5496,-7.801e-08,-0.91337,0,0,0.5,-0,-0,0.66667
0.80516,0.56896,1.6103,0.10344,0.13484,0.93835,-0.44418,0.14806,-1.9619,-0.59224,4.0227e-10,-0.98093,0,0,0.5,-0,-0,0.66667
0.054929,0.72349,0.10986,0.33524,1.6261,9.209,-0.098209,0.032736,-1.6006,-0.13095,-1.336e-08,-0.80028,0,0,0.5,-0,-0,0.66667
0.71093,0.90805,1.4219,0.61207,1.4953,1.8612,-2.3207,0.77358,-0.66863,-3.0943,2.7131e-10,-0.33432,0,0,0.5,2.3685e-15,0,0.66667
0.97662,0.88206,1.9532,0.57309,0.0021558,0.35715,-2.985,0.995,-0.83209,-3.98,3.697e-08,-0.41604,0,0,0.5,-2.3685e-15,0,0.66667
0.19337,0.9309,0.38675,0.64634,3.2213,7.4314,-0.66659,0.2222,-0.51454,-0.88879,-2.0006e-09,-0.25727,0,0,0.5,-1.4803e-16,0,0.66667
0.95641,0.80361,1.9128,0.45541,0.039442,0.3198,-2.323,0.77432,-1.2623,-3.0973,-2.4044e-08,-0.63117,0,0,0.5,1.1842e-15,0,0.66667
0.23335,0.53065,0.46669,0.045981,0.20516,6.8399,-0.057224,0.019075,-1.9936,-0.076299,-1.1386e-10,-0.99682,0,0,0.5,7.155e-17,0,0.66667
0.8194,0.5339,1.6388,0.050845,0.059578,0.84056,-0.2222,0.074067,-1.9913,-0.29627,6.77e-10,-0.99566,0,0,0.5,2.3685e-15,0,0.66667
0.14942,0.38342,0.29884,-0.17487,-0.81536,7.9432,0.13935,-0.046451,-1.891,0.1858,-4.5616e-10,-0.94548,0,0,0.5,-0,-0,0.66667
0.5141,0.23897,1.0282,-0.39154,-1.3701,3.5572,1.0736,-0.35786,-1.4546,1.4314,-8.8737e-12,-0.7273,0,0,0.5,-0,-0,0.66667
0.36401,0.67803,0.72803,0.26705,1.0995,5.2248,-0.51845,0.17282,-1.7461,-0.69127,-1.0672e-10,-0.87304,0,0,0.5,2.9606e-16,0,0.66667
0.67069,0.36763,1.3414,-0.19855,-0.47491,1.9863,0.71023,-0.23674,-1.8599,0.94697,-1.0605e-10,-0.92993,0,0,0.5,-5.9212e-16,0,0.66667
0.17912,0.55688,0.35823,0.085316,0.3913,7.548,-0.081502,0.027167,-1.9741,-0.10867,-5.5674e-10,-0.98707,0,0,0.5,-0,-0,0.66667
0.57975,0.60444,1.1595,0.15665,0.46727,2.8233,-0.48437,0.16146,-1.9124,-0.64583,3.7326e-11,-0.95622,0,0,0.5,-1.1842e-15,0,0.66667
0.0024237,0.43417,0.0048474,-0.098743,-0.47002,9.9117,0.0012759,-0.00043144,-1.9659,0.0016981,-9.2055e-06,-0.98293,0,0,0.5,3.4694e-18,0,0.66667
0.42565,0.52367,0.85131,0.03551,0.13441,4.4728,-0.080612,0.026871,-1.9954,-0.10748,-8.5084e-12,-0.99769,0,0,0.5,-0,-0,0.66667
0.51579,0.38209,1.0316,-0.17687,-0.59492,3.4835,0.48655,-0.16218,-1.8889,0.64874,-7.7002e-12,-0.94446,0,0,0.5,-0,-0,0.66667
0.8378,0.85272,1.6756,0.52908,0.68611,0.9335,-2.3641,0.78802,-1.0044,-3.1521,2.5699e-09,-0.50218,0,0,0.5,-0,-0,0.66667
0.75764,0.89539,1.5153,0.59309,1.2178,1.4995,-2.3965,0.79883,-0.74881,-3.1953,8.8169e-10,-0.37441,0,0,0.5,-0,-0,0.66667
0.091892,0.55444,0.18378,0.081655,0.38476,8.7072,-0.040018,0.013339,-1.9762,-0.053358,1.8878e-08,-0.9881,0,0,0.5,7.4015e-17,0,0.66667
0.62503,0.90707,1.2501,0.61061,1.8642,2.5818,-2.0355,0.67849,-0.67552,-2.714,4.1047e-11,-0.33776,0,0,0.5,2.3685e-15,0,0.66667
0.66,0.063188,1.32,-0.65522,-1.8818,2.3085,2.3064,-0.76879,-0.47454,3.0752,-4.0835e-11,-0.23727,0,0,0.5,-0,-0,0.66667
0.73403,0.095351,1.4681,-0.60697,-1.3708,1.6816,2.3762,-0.79206,-0.69107,3.1683,-4.8498e-10,-0.34553,0,0,0.5,-0,1.1512e-16,0.66667
0.55486,0.55218,1.1097,0.078266,0.24376,3.0642,-0.23161,0.077203,-1.9777,-0.30881,1.3203e-11,-0.98887,0,0,0.5,5.9212e-16,0,0.66667
0.10736,0.98554,0.21471,0.72831,3.8153,8.5502,-0.417,0.139,-0.11351,-0.55601,7.3276e-09,-0.056754,0,0,0.5,2.9606e-16,0,0.66667
0.64035,0.87877,1.2807,0.56816,1.6464,2.4171,-1.9404,0.64679,-0.85285,-2.5872,9.0457e-11,-0.42643,0,0,0.5,-0,-0,0.66667
0.67053,0.61891,1.3411,0.17837,0.42542,1.9832,-0.63786,0.21262,-1.8871,-0.85048,9.7115e-11,-0.94353,0,0,0.5,5.9212e-16,0,0.66667
0.25011,0.43582,0.50021,-0.096267,-0.42607,6.6257,0.12841,-0.042804,-1.968,0.17121,1.3135e-10,-0.98402,0,0,0.5,-2.9606e-16,0,0.66667
0.94828,0.49218,1.8966,-0.011734,0.00054158,0.17471,0.059344,-0.019781,-1.9993,0.079125,-1.7506e-08,-0.99965,0,0,0.5,-5.9212e-16,0,0.66667
0.45265,0.40322,0.9053,-0.14518,-0.53411,4.1719,0.35047,-0.11682,-1.9258,0.4673,2.0069e-11,-0.96289,0,0,0.5,7.4015e-16,0,0.66667
0.86672,0.87647,1.7334,0.5647,0.60666,0.80438,-2.6103,0.8701,-0.86692,-3.4804,3.4644e-09,-0.43346,0,0,0.5,-0,-0,0.66667
0.65308,0.72567,1.3062,0.3385,0.87809,2.1848,-1.179,0.39301,-1.5926,-1.572,1.5276e-10,-0.79628,0,0,0.5,2.3685e-15,0,0.66667
0.61654,0.038218,1.2331,-0.69267,-2.2306,2.7174,2.2776,-0.75921,-0.29391,3.0368,-5.6297e-12,-0.14695,0,0,0.5,-0,-0,0.66667
0.5494,0.91583,1.0988,0.62375,2.2103,3.3072,-1.8277,0.60922,-0.61639,-2.4369,6.1525e-12,-0.3082,0,0,0.5,1.1842e-15,0,0.66667
0.64757,0.21319,1.2951,-0.43022,-1.1639,2.2743,1.4858,-0.49528,-1.3419,1.9811,-1.6363e-10,-0.67097,0,0,0.5,-1.4803e-15,0,0.66667
0.84434,0.22515,1.6887,-0.41228,-0.46345,0.81367,1.8565,-0.61884,-1.3959,2.4754,6.414e-10,-0.69793,0,0,0.5,2.3685e-15,0,0.66667
0.77688,0.73211,1.5538,0.34816,0.57684,1.2074,-1.4426,0.48085,-1.5684,-1.9234,1.4595e-10,-0.78421,0,0,0.5,-0,-0,0.66667
0.67263,0.83184,1.3453,0.49777,1.2912,2.0941,-1.7857,0.59522,-1.1187,-2.3809,2.286e-10,-0.55936,0,0,0.5,-1.1842e-15,0,0.66667
0.031845,0.21756,0.063691,-0.42366,-2.0889,9.5197,0.071955,-0.023985,-1.3629,0.095939,-3.9883e-09,-0.68145,0,0,0.5,1.3878e-17,0,0.66667
0.0086948,0.86808,0.01739,0.55212,2.7969,9.8294,-0.025603,0.0085343,-0.91598,-0.034138,-1.2361e-07,-0.45799,0,0,0.5,-0,-0,0.66667
0.35854,0.070706,0.71708,-0.64394,-2.8941,5.4002,1.2313,-0.41045,-0.52562,1.6418,3.5378e-11,-0.26281,0,0,0.5,-0,-0,0.66667
0.030634,0.46881,0.061268,-0.046782,-0.22209,9.531,0.0076427,-0.0025455,-1.9935,0.010191,3.1019e-06,-0.99676,0,0,0.5,-0,-0,0.66667
0.51785,0.3809,1.0357,-0.17865,-0.599,3.462,0.49341,-0.16447,-1.8867,0.65787,-8.7573e-12,-0.94334,0,0,0.5,-0,-0,0.66667
0.0035539,0.40624,0.0071078,-0.14064,-0.67092,9.8965,0.0026661,-0.00088775,-1.9308,0.0035553,1.4131e-06,-0.9654,0,0,0.5,5.8362e-18,0,0.66667
0.48073,0.65258,0.96146,0.22887,0.81749,3.872,-0.58681,0.1956,-1.8142,-0.78241,-1.1292e-11,-0.90708,0,0,0.5,-0,-0,0.66667
0.37761,0.94904,0.75522,0.67356,3.0041,5.1904,-1.3565,0.45216,-0.38651,-1.8086,-1.2302e-11,-0.19325,0,0,0.5,-5.9212e-16,0,0.66667
0.95746,0.5817,1.9149,0.12255,-0.015156,0.15232,-0.62581,0.2086,-1.9461,-0.83442,-1.011e-07,-0.97304,0,0,0.5,-0,-0,0.66667
0.055854,0.24063,0.11171,-0.38906,-1.9026,9.1986,0.11589,-0.038631,-1.4614,0.15453,-5.5471e-09,-0.73071,0,0,0.5,-7.4015e-17,0,0.66667
0.065191,0.52445,0.13038,0.03667,0.17341,9.0654,-0.012749,0.0042497,-1.9952,-0.016999,-1.5263e-07,-0.99761,0,0,0.5,-0,-0,0.66667
0.84927,0.61228,1.6985,0.16841,0.15709,0.67866,-0.76281,0.25427,-1.8986,-1.0171,-1.6443e-10,-0.94928,0,0,0.5,1.1842e-15,0,0.66667
0.79526,0.36054,1.5905,-0.2092,-0.29756,1.0277,0.88728,-0.29576,-1.8439,1.183,4.9513e-11,-0.92197,0,0,0.5,-0,-0,0.66667
0.93585,0.3409,1.8717,-0.23865,-0.032951,0.27211,1.1911,-0.39705,-1.7982,1.5882,-1.9904e-08,-0.89908,0,0,0.5,-2.9606e-16,0,0.66667
0.078237,0.9913,0.15647,0.73695,3.8915,8.9277,-0.3075,0.1025,-0.068943,-0.41,1.1413e-07,-0.034471,0,0,0.5,-0,-0,0.66667
0.6201,0.32638,1.2402,-0.26043,-0.72126,2.4583,0.86128,-0.28709,-1.7582,1.1484,-8.957e-11,-0.87912,0,0,0.5,-0,-0,0.66667
0.5144,0.72858,1.0288,0.34286,1.1865,3.5377,-0.94064,0.31355,-1.5818,-1.2542,9.4703e-12,-0.79091,0,0,0.5,1.1842e-15,0,0.66667
0.32157,0.92545,0.64315,0.63817,2.9489,5.8378,-1.0945,0.36484,-0.55137,-1.4593,-9.1774e-11,-0.27568,0,0,0.5,2.9606e-16,0,0.66667
0.61081,0.55516,1.2216,0.082735,0.22896,2.5125,-0.26952,0.089841,-1.9757,-0.35936,3.0289e-11,-0.98784,0,0,0.5,-5.9212e-16,0,0.66667
0.91808,0.6612,1.8362,0.2418,0.076246,0.34946,-1.184,0.39465,-1.7923,-1.5786,2.6981e-09,-0.89616,0,0,0.5,-0,-0,0.66667
0.062566,0.96324,0.12513,0.69486,3.634,9.1275,-0.23186,0.077288,-0.28361,-0.30915,1.4972e-07,-0.1418,0,0,0.5,7.4015e-17,0,0.66667
0.65973,0.050748,1.3195,-0.67388,-1.954,2.3254,2.3711,-0.79036,-0.38491,3.1614,-2.9512e-11,-0.19245,0,0,0.5,-5.9212e-16,0,0.66667
0.28517,0.9244,0.57034,0.63661,3.0153,6.2798,-0.96822,0.32274,-0.55849,-1.291,-2.1913e-10,-0.27925,0,0,0.5,2.9606e-16,0,0.66667
0.40545,0.76995,0.8109,0.40493,1.6372,4.767,-0.87561,0.29187,-1.4167,-1.1675,-7.5375e-11,-0.70836,0,0,0.5,5.9212e-16,0,0.66667
0.84969,0.68059,1.6994,0.27088,0.26426,0.71019,-1.2276,0.40919,-1.739,-1.6368,-8.9816e-10,-0.86949,0,0,0.5,-0,-0,0.66667
0.12173,0.018045,0.24346,-0.72293,-3.7686,8.3641,0.46935,-0.15645,-0.14123,0.62579,8.2596e-09,-0.070613,0,0,0.5,-0,5.7792e-16,0.66667
0.84297,0.3251,1.6859,-0.26235,-0.27062,0.74574,1.1795,-0.39317,-1.7549,1.5727,7.7785e-10,-0.87746,0,0,0.5,-0,-0,0.66667
0.40424,0.59201,0.80849,0.13801,0.53801,4.7289,-0.29755,0.099183,-1.9331,-0.39673,-4.1322e-11,-0.96656,0,0,0.5,-8.8818e-16,0,0.66667
0.98389,0.60256,1.9678,0.15384,-0.059741,0.069102,-0.80725,0.26908,-1.9158,-1.0763,3.0762e-07,-0.95789,0,0,0.5,-0,-0,0.66667
0.91802,0.68206,1.836,0.27309,0.090851,0.36288,-1.3371,0.44569,-1.735,-1.7828,2.7163e-09,-0.86748,0,0,0.5,-1.7764e-15,0,0.66667
0.40767,0.91421,0.81535,0.62132,2.6493,4.8216,-1.3509,0.4503,-0.62737,-1.8012,-1.7744e-11,-0.31369,0,0,0.5,-0,-0,0.66667
0.29792,0.17841,0.59584,-0.48238,-2.1794,6.0782,0.76646,-0.25549,-1.1725,1.022,3.7336e-10,-0.58625,0,0,0.5,-2.9606e-16,0,0.66667
0.22095,0.13257,0.44189,-0.55114,-2.648,7.0597,0.64945,-0.21648,-0.91992,0.86594,1.489e-09,-0.45996,0,0,0.5,-0,-0,0.66667
0.21774,0.65951,0.43547,0.23926,1.0902,7.0528,-0.27785,0.092616,-1.7971,-0.37046,3.7868e-11,-0.89855,0,0,0.5,5.9212e-16,0,0.66667
0.76874,0.63348,1.5375,0.20022,0.32832,1.2091,-0.82089,0.27363,-1.8573,-1.0945,6.7756e-11,-0.92863,0,0,0.5,-2.3685e-15,0,0.66667
0.75544,0.15447,1.5109,-0.51829,-1.0287,1.4592,2.0882,-0.69607,-1.0456,2.7843,-9.3684e-10,-0.52279,0,0,0.5,1.7764e-15,0,0.66667
0.97825,0.53983,1.9565,0.059749,-0.020928,0.069726,-0.31173,0.10391,-1.987,-0.41564,1.7757e-06,-0.99349,0,0,0.5,-0,-0,0.66667
0.08331,0.51249,0.16662,0.01873,0.088276,8.8218,-0.0083218,0.0027739,-1.9982,-0.011096,1.1897e-08,-0.99909,0,0,0.5,2.9606e-16,0,0.66667
0.22018,0.77882,0.44037,0.41823,1.9543,7.0442,-0.49113,0.16371,-1.3788,-0.65484,-5.2357e-10,-0.68942,0,0,0.5,3.7007e-16,0,0.66667
0.98371,0.51229,1.9674,0.018433,-0.0075724,0.049263,-0.096717,0.032243,-1.9985,-0.12895,5.9324e-06,-0.99923,0,0,0.5,-0,-0,0.66667
0.54637,0.6823,1.0927,0.27346,0.88475,3.1846,-0.79685,0.26562,-1.7345,-1.0625,3.0617e-11,-0.86724,0,0,0.5,-2.686e-16,0,0.66667
0.55367,0.87998,1.1073,0.56998,1.9675,3.2333,-1.6831,0.56103,-0.84502,-2.2441,1.4315e-11,-0.42251,0,0,0.5,-1.1842e-15,0,0.66667
0.34877,0.58031,0.69754,0.12047,0.49589,5.3914,-0.22409,0.074696,-1.9478,-0.29878,-6.1662e-11,-0.9739,0,0,0.5,-0,-0,0.66667
0.70379,0.51064,1.4076,0.015955,0.033638,1.6829,-0.059887,0.019962,-1.9989,-0.07985,1.459e-11,-0.99943,0,0,0.5,-0,-0,0.66667
0.49976,0.33378,0.99953,-0.24933,-0.86827,3.6691,0.66457,-0.22152,-1.7788,0.8861,1.0197e-13,-0.88941,0,0,0.5,5.9212e-16,0,0.66667
0.46949,0.67239,0.93899,0.25858,0.94222,4.0021,-0.64749,0.21583,-1.7618,-0.86331,-1.9171e-11,-0.88092,0,0,0.5,-0,-0,0.66667
0.54977,0.23752,1.0995,-0.39371,-1.2988,3.1891,1.1544,-0.38481,-1.4484,1.5392,-3.3333e-11,-0.72419,0,0,0.5,-0,-0,0.66667
0.02518,0.33842,0.05036,-0.24237,-1.1652,9.6059,0.03255,-0.01085,-1.7912,0.043399,2.3618e-07,-0.8956,0,0,0.5,-5.5511e-17,0,0.66667
0.53126,0.33415,1.0625,-0.24877,-0.82317,3.3348,0.70488,-0.23496,-1.7799,0.93984,-1.929e-11,-0.88993,0,0,0.5,-5.9212e-16,0,0.66667
0.13296,0.9488,0.26593,0.67321,3.4506,8.2113,-0.4774,0.15913,-0.38805,-0.63653,-9.0714e-09,-0.19403,0,0,0.5,-0,-0,0.66667
0.45893,0.75295,0.91786,0.37943,1.4327,4.1513,-0.92869,0.30956,-1.4886,-1.2383,-2.7569e-11,-0.7443,0,0,0.5,-0,-0,0.66667
0.082271,0.356,0.16454,-0.21601,-1.0287,8.8392,0.094779,-0.031593,-1.8336,0.12637,-7.9697e-09,-0.91679,0,0,0.5,-0,-0,0.66667
0.88896,0.7388,1.7779,0.35819,0.23941,0.54264,-1.6982,0.56608,-1.5435,-2.2643,-1.0632e-09,-0.77174,0,0,0.5,1.1842e-15,0,0.66667
0.37843,0.63,0.75685,0.19501,0.78503,5.0412,-0.39358,0.13119,-1.865,-0.52477,-7.2677e-11,-0.9325,0,0,0.5,-0,-0,0.66667
0.43035,0.13911,0.86071,-0.54134,-2.2012,4.5301,1.2425,-0.41416,-0.9574,1.6567,2.7034e-11,-0.4787,0,0,0.5,5.9212e-16,0,0.66667
0.74206,0.6167,1.4841,0.17505,0.32296,1.3997,-0.69279,0.23093,-1.8907,-0.92371,1.1092e-10,-0.94537,0,0,0.5,-5.9212e-16,0,0.66667
0.15577,0.78972,0.31155,0.43458,2.0931,7.8811,-0.36104,0.12035,-1.3285,-0.48139,4.036e-10,-0.66424,0,0,0.5,-0,-0,0.66667
0.57502,0.93349,1.15,0.65024,2.2271,3.0738,-1.9941,0.66471,-0.49706,-2.6589,6.5565e-12,-0.24853,0,0,0.5,-2.9606e-16,0,0.66667
0.51105,0.038345,1.0221,-0.69248,-2.6691,3.7377,1.8874,-0.62914,-0.29488,2.5166,-1.9673e-13,-0.14744,0,0,0.5,-0,-0,0.66667
0.3683,0.76622,0.73661,0.39933,1.674,5.2022,-0.7844,0.26147,-1.4324,-1.0459,-1.2983e-10,-0.71618,0,0,0.5,-1.0283e-15,0,0.66667
0.68334,0.18924,1.3667,-0.46614,-1.1583,1.9859,1.6988,-0.56628,-1.2282,2.2651,-2.8102e-10,-0.61408,0,0,0.5,-0,-0,0.66667
0.79449,0.57925,1.589,0.11887,0.16621,1.0119,-0.5037,0.1679,-1.9492,-0.6716,2.4594e-10,-0.97462,0,0,0.5,1.1842e-15,0,0.66667
0.46768,0.60175,0.93537,0.15263,0.55062,4.0041,-0.38071,0.1269,-1.9171,-0.50761,-1.4131e-11,-0.95857,0,0,0.5,-0,-0,0.66667
0.62735,0.076552,1.2547,-0.63517,-1.9496,2.5781,2.1252,-0.7084,-0.56503,2.8336,-3.0857e-11,-0.28251,0,0,0.5,-0,-0,0.66667
0.91254,0.74859,1.8251,0.37289,0.16892,0.43981,-1.8148,0.60494,-1.5064,-2.4197,-1.5494e-09,-0.75318,0,0,0.5,1.3323e-15,0,0.66667
0.45697,0.46272,0.91394,-0.05592,-0.20352,4.1159,0.13629,-0.045429,-1.9889,0.18172,7.3716e-12,-0.99447,0,0,0.5,8.8818e-16,0,0.66667
0.13502,0.97472,0.27004,0.71208,3.6876,8.1913,-0.51278,0.17093,-0.19711,-0.6837,-4.8036e-09,-0.098553,0,0,0.5,-0,-0,0.66667
0.54323,0.79162,1.0865,0.43743,1.4761,3.2732,-1.2673,0.42244,-1.3193,-1.6898,2.5624e-11,-0.65964,0,0,0.5,1.1842e-15,0,0.66667
0.43003,0.1151,0.86006,-0.57736,-2.3726,4.5492,1.3242,-0.44138,-0.81435,1.7655,1.9423e-11,-0.40717,0,0,0.5,-0,-0,0.66667
0.76831,0.21489,1.5366,-0.42767,-0.76611,1.3097,1.7524,-0.58415,-1.3501,2.3366,-5.9126e-10,-0.67506,0,0,0.5,1.4803e-15,0,0.66667
0.79767,0.15509,1.5953,-0.51737,-0.84541,1.1702,2.201,-0.73367,-1.0493,2.9347,-1.7377e-09,-0.52467,0,0,0.5,1.1842e-15,0,0.66667
0.17185,0.48559,0.34369,-0.021612,-0.099265,7.6426,0.019808,-0.0066027,-1.998,0.026411,4.8055e-10,-0.999,0,0,0.5,2.9606e-16,0,0.66667
0.43794,0.82676,0.87588,0.49014,1.9489,4.4244,-1.1448,0.38161,-1.1454,-1.5264,-3.2214e-11,-0.57272,0,0,0.5,5.9212e-16,0,0.66667
0.26682,0.55991,0.53364,0.089865,0.39349,6.4118,-0.12788,0.042627,-1.972,-0.17051,-1.0152e-10,-0.98602,0,0,0.5,7.4015e-17,0,0.66667
0.95469,0.45745,1.9094,-0.063826,0.0068163,0.1534,0.32498,-0.10833,-1.9852,0.4333,2.1368e-07,-0.99259,0,0,0.5,1.1842e-15,0,0.66667
0.93687,0.26601,1.8737,-0.35098,-0.068977,0.32306,1.7537,-0.58458,-1.5616,2.3383,2.1562e-09,-0.7808,0,0,0.5,-0,-0,0.66667
0.43435,0.096443,0.8687,-0.60534,-2.4963,4.5136,1.4023,-0.46743,-0.69774,1.8697,1.1943e-11,-0.34887,0,0,0.5,-0,4.9446e-16,0.66667
0.43101,0.131,0.86202,-0.5535,-2.2566,4.5279,1.2723,-0.42411,-0.9107,1.6965,2.3908e-11,-0.45535,0,0,0.5,-0,-0,0.66667
0.74648,0.33578,1.493,-0.24633,-0.4535,1.3862,0.98069,-0.3269,-1.7841,1.3076,-9.8292e-11,-0.89204,0,0,0.5,-0,-0,0.66667
0.59598,0.24476,1.192,-0.38286,-1.1515,2.7291,1.2169,-0.40564,-1.4791,1.6226,-7.8408e-11,-0.73954,0,0,0.5,5.9212e-16,0,0.66667
0.25907,0.45586,0.51814,-0.06621,-0.29109,6.5098,0.091483,-0.030494,-1.9838,0.12198,8.705e-11,-0.9919,0,0,0.5,-1.0742e-17,0,0.66667
0.48317,0.59661,0.96634,0.14491,0.51107,3.8317,-0.37343,0.12448,-1.926,-0.49791,-7.0327e-12,-0.96301,0,0,0.5,-0,-0,0.66667
0.89011,0.55187,1.7802,0.077807,0.041297,0.44024,-0.36937,0.12312,-1.9783,-0.49249,1.0365e-08,-0.98913,0,0,0.5,-0,-0,0.66667
0.68155,0.04317,1.3631,-0.68525,-1.891,2.1536,2.4908,-0.83028,-0.32989,3.3211,-3.6724e-11,-0.16494,0,0,0.5,1.1842e-15,0,0.66667
0.56313,0.22848,1.1263,-0.40727,-1.3158,3.0602,1.2232,-0.40773,-1.4101,1.6309,-4.3385e-11,-0.70504,0,0,0.5,-0,-0,0.66667
0.87675,0.15357,1.7535,-0.51965,-0.48343,0.71501,2.4299,-0.80996,-1.0406,3.2398,2.969e-09,-0.52029,0,0,0.5,5.9212e-16,0,0.66667
0.27628,0.88114,0.55255,0.57171,2.6767,6.37,-0.8424,0.2808,-0.83786,-1.1232,-4.801e-10,-0.41893,0,0,0.5,-0,-0,0.66667
0.99685,0.59528,1.9937,0.14292,-0.075548,0.027137,-0.75985,0.25328,-1.9282,-1.0131,1.5331e-06,-0.9641,0,0,0.5,2.3685e-15,0,0.66667
0.19984,0.7393,0.39968,0.35895,1.6765,7.2979,-0.38257,0.12752,-1.5415,-0.51009,6.4446e-12,-0.77075,0,0,0.5,-0,-0,0.66667
0.83979,0.75664,1.6796,0.38496,0.43975,0.82369,-1.7242,0.57473,-1.4731,-2.2989,-5.6831e-10,-0.73653,0,0,0.5,-0,-0,0.66667
0.74234,0.41112,1.4847,-0.13332,-0.24389,1.3891,0.52782,-0.17594,-1.9369,0.70376,-1.207e-10,-0.96847,0,0,0.5,2.3685e-15,0,0.66667
0.86405,0.17985,1.7281,-0.48022,-0.48375,0.7505,2.213,-0.73767,-1.1799,2.9507,8.8964e-10,-0.58993,0,0,0.5,1.1842e-15,0,0.66667
0.58492,0.37206,1.1698,-0.19191,-0.56874,2.7787,0.59869,-0.19956,-1.8695,0.79825,-4.7473e-11,-0.93475,0,0,0.5,-1.4803e-16,0,0.66667
0.23238,0.27996,0.46476,-0.33006,-1.51,6.8744,0.40907,-0.13636,-1.6136,0.54542,1.2034e-10,-0.8068,0,0,0.5,-3.3307e-16,0,0.66667
0.48352,0.030188,0.96704,-0.70472,-2.8316,4.0323,1.8173,-0.60577,-0.23528,2.4231,3.6082e-14,-0.11764,0,0,0.5,-1.5291e-16,7.7751e-17,0.66667
0.86238,0.081894,1.7248,-0.62716,-0.74729,0.88421,2.8845,-0.96151,-0.60104,3.846,-9.7698e-09,-0.30052,0,0,0.5,1.1842e-15,0,0.66667
0.7978,0.10732,1.5956,-0.58902,-1.0103,1.2256,2.5062,-0.83542,-0.76603,3.3417,-2.1645e-09,-0.38301,0,0,0.5,1.1842e-15,0,0.66667
0.17351,0.08388,0.34702,-0.62418,-3.1168,7.6807,0.57761,-0.19254,-0.61451,0.77015,4.0367e-09,-0.30726,0,0,0.5,-0,-0,0.66667
0.99221,0.37599,1.9844,-0.18602,0.086436,0.053233,0.98435,-0.32812,-1.8778,1.3125,-1.3494e-07,-0.9389,0,0,0.5,2.3685e-15,0,0.66667
0.030412,0.98132,0.060824,0.72197,3.8161,9.5481,-0.1171,0.039034,-0.14633,-0.15614,-3.2355e-07,-0.073163,0,0,0.5,-7.4015e-17,0,0.66667
0.39265,0.79194,0.7853,0.43791,1.8071,4.9259,-0.91705,0.30568,-1.3178,-1.2227,-8.834e-11,-0.65891,0,0,0.5,-0,-0,0.66667
0.7544,0.023561,1.5088,-0.71466,-1.6039,1.6291,2.8754,-0.95847,-0.18387,3.8339,-7.9143e-11,-0.091936,0,0,0.5,1.1842e-15,0,0.66667
0.97374,0.77146,1.9475,0.40719,-0.054948,0.2252,-2.1146,0.70488,-1.4101,-2.8195,-5.4976e-09,-0.70504,0,0,0.5,1.1842e-15,0,0.66667
0.14213,0.77632,0.28425,0.41448,1.998,8.0576,-0.31418,0.10473,-1.3895,-0.41891,1.131e-09,-0.69475,0,0,0.5,-7.4015e-17,0,0.66667
0.92404,0.439,1.8481,-0.091506,-0.018744,0.28208,0.45096,-0.15032,-1.9711,0.60128,-9.6973e-08,-0.98556,0,0,0.5,-0,-0,0.66667
0.21902,0.22511,0.43805,-0.41234,-1.9258,7.0581,0.48167,-0.16056,-1.3957,0.64222,4.83e-10,-0.69785,0,0,0.5,-0,-0,0.66667
0.55264,0.50474,1.1053,0.0071117,0.022192,3.084,-0.020961,0.0069871,-2,-0.027948,1.1533e-12,-1,0,0,0.5,2.3685e-15,0,0.66667
0.43281,0.30191,0.86561,-0.29714,-1.1417,4.4238,0.68588,-0.22863,-1.6856,0.91451,4.7547e-11,-0.84282,0,0,0.5,5.9212e-16,0,0.66667
0.80806,0.51426,1.6161,0.021389,0.027121,0.91202,-0.092179,0.030726,-1.9978,-0.12291,1.8155e-10,-0.99888,0,0,0.5,2.3685e-15,0,0.66667
0.13857,0.33453,0.27714,-0.24821,-1.1694,8.0908,0.18344,-0.061146,-1.7807,0.24458,-1.3854e-09,-0.89037,0,0,0.5,-0,-0,0.66667
0.19087,0.099821,0.38174,-0.60027,-2.959,7.4536,0.61106,-0.20369,-0.71892,0.81474,2.8098e-09,-0.35946,0,0,0.5,-5.9212e-16,0,0.66667
0.56751,0.683,1.135,0.2745,0.85382,2.9709,-0.83084,0.27695,-1.7323,-1.1078,4.6394e-11,-0.86616,0,0,0.5,-8.8818e-16,0,0.66667
0.20995,0.5164,0.4199,0.024601,0.11109,7.1431,-0.027547,0.0091822,-1.9972,-0.036729,-1.047e-10,-0.99859,0,0,0.5,-0,-0,0.66667
0.87999,0.035636,1.76,-0.69655,-0.78228,0.867,3.2691,-1.0897,-0.27518,4.3588,-4.2264e-09,-0.13759,0,0,0.5,2.3685e-15,0,0.66667
0.57835,0.11715,1.1567,-0.57427,-1.8997,2.9941,1.7714,-0.59045,-0.82748,2.3618,-2.4163e-11,-0.41374,0,0,0.5,-5.9212e-16,0,0.66667
0.91176,0.10797,1.8235,-0.58805,-0.39695,0.6109,2.8595,-0.95317,-0.76985,3.8127,1.4411e-08,-0.38492,0,0,0.5,-0,-0,0.66667
0.76434,0.49026,1.5287,-0.014611,-0.023875,1.2137,0.05956,-0.019853,-1.999,0.079413,-3.9976e-11,-0.99952,0,0,0.5,1.1842e-15,0,0.66667
0.47494,0.59457,0.94989,0.14186,0.50613,3.9221,-0.35934,0.11978,-1.9293,-0.47912,-1.0331e-11,-0.96466,0,0,0.5,-0,-0,0.66667
0.69241,0.60405,1.3848,0.15608,0.34623,1.7922,-0.57637,0.19212,-1.913,-0.7685,9.8367e-11,-0.95648,0,0,0.5,-0,-0,0.66667
0.059802,0.57533,0.1196,0.11299,0.53606,9.1386,-0.036039,0.012013,-1.9541,-0.048052,1.4719e-07,-0.97706,0,0,0.5,-0,-0,0.66667
0.63126,0.33956,1.2625,-0.24066,-0.64611,2.3493,0.81022,-0.27007,-1.7943,1.0803,-9.4091e-11,-0.89716,0,0,0.5,-5.9212e-16,0,0.66667
0.98405,0.019628,1.9681,-0.72056,-0.089278,0.50205,3.7817,-1.2606,-0.15367,5.0422,9.0763e-07,-0.076834,0,0,0.5,-0,5.5325e-16,0.66667
0.11938,0.074443,0.23877,-0.63834,-3.2533,8.382,0.40644,-0.13548,-0.55065,0.54192,1.763e-08,-0.27533,0,0,0.5,-0,-0,0.66667
0.45157,0.058123,0.90313,-0.66282,-2.7295,4.352,1.5963,-0.5321,-0.43837,2.1284,2.4027e-12,-0.21919,0,0,0.5,-0,-2.8528e-16,0.66667
0.018534,0.92438,0.037068,0.63657,3.2901,9.7009,-0.062925,0.020974,-0.5587,-0.083901,-1.0333e-06,-0.27935,0,0,0.5,-1.8504e-17,0,0.66667
0.68813,0.68056,1.3763,0.27084,0.62311,1.8581,-0.99399,0.33133,-1.7393,-1.3253,1.5203e-10,-0.86965,0,0,0.5,5.9212e-16,0,0.66667
0.019423,0.87546,0.038845,0.56319,2.8593,9.6877,-0.058339,0.019446,-0.87324,-0.077786,-4.9004e-07,-0.43662,0,0,0.5,-0,-0,0.66667
0.45527,0.64893,0.91054,0.2234,0.82575,4.154,-0.54244,0.18081,-1.8225,-0.72325,-2.6317e-11,-0.91126,0,0,0.5,2.9606e-16,0,0.66667
0.21915,0.61545,0.4383,0.17318,0.78363,7.0292,-0.20241,0.067471,-1.8932,-0.26988,-8.5865e-11,-0.94662,0,0,0.5,2.9606e-16,0,0.66667
0.80722,0.053099,1.6144,-0.67035,-1.167,1.2396,2.886,-0.96199,-0.40186,3.848,-1.5098e-09,-0.20093,0,0,0.5,-0,-0,0.66667
0.64564,0.84299,1.2913,0.51448,1.4412,2.3372,-1.7716,0.59052,-1.0598,-2.3621,1.3769e-10,-0.52989,0,0,0.5,-3.7007e-16,0,0.66667
0.66627,0.77702,1.3325,0.41553,1.0644,2.1037,-1.4765,0.49218,-1.3863,-1.9687,2.0948e-10,-0.69317,0,0,0.5,-1.9761e-16,0,0.66667
0.54989,0.81526,1.0998,0.47289,1.5933,3.2214,-1.3869,0.46229,-1.2055,-1.8492,2.6588e-11,-0.60274,0,0,0.5,-0,-0,0.66667
0.25045,0.29479,0.50089,-0.30782,-1.3894,6.6404,0.41116,-0.13705,-1.6627,0.54821,1.5199e-10,-0.83137,0,0,0.5,5.9212e-16,0,0.66667
0.81569,0.9147,1.6314,0.62205,0.99698,1.1428,-2.7061,0.90205,-0.62399,-3.6082,3.0231e-09,-0.31199,0,0,0.5,-0,-0,0.66667
0.88012,0.77327,1.7602,0.40991,0.32506,0.61828,-1.9241,0.64137,-1.4023,-2.5655,-2.7969e-09,-0.70117,0,0,0.5,-1.1842e-15,0,0.66667
0.43832,0.8791,0.87663,0.56865,2.3091,4.4526,-1.3293,0.44311,-0.85078,-1.7724,-1.7536e-11,-0.42539,0,0,0.5,-0,-0,0.66667
0.58633,0.74113,1.1727,0.3617,1.104,2.8139,-1.1311,0.37702,-1.5345,-1.5081,6.758e-11,-0.76724,0,0,0.5,-0,-0,0.66667
0.6243,0.18345,1.2486,-0.47483,-1.3794,2.5066,1.581,-0.527,-1.1989,2.108,-1.0817e-10,-0.59944,0,0,0.5,-1.1842e-15,-9.9662e-18,0.66667
0.72761,0.10077,1.4552,-0.59884,-1.3764,1.7233,2.3238,-0.77461,-0.72478,3.0985,-4.3866e-10,-0.36239,0,0,0.5,-0,-0,0.66667
0.5909,0.60245,1.1818,0.15368,0.44754,2.7132,-0.4843,0.16143,-1.9158,-0.64574,4.2501e-11,-0.95791,0,0,0.5,-0,-0,0.66667
0.8066,0.035633,1.6132,-0.69655,-1.2422,1.2691,2.9965,-0.99882,-0.27513,3.9953,-7.0695e-10,-0.13756,0,0,0.5,-0,-0,0.66667
0.82409,0.10417,1.6482,-0.59375,-0.88683,1.0674,2.6096,-0.86987,-0.74613,3.4795,-3.7896e-09,-0.37306,0,0,0.5,-0,-0,0.66667
0.55655,0.97893,1.1131,0.71839,2.6101,3.2993,-2.1324,0.7108,-0.16456,-2.8432,3.6326e-13,-0.08228,0,0,0.5,-0,-0,0.66667
0.88295,0.62833,1.7659,0.1925,0.12137,0.50114,-0.90649,0.30216,-1.8686,-1.2087,-4.5966e-09,-0.93431,0,0,0.5,2.3685e-15,0,0.66667
0.20294,0.6236,0.40588,0.18541,0.84657,7.2407,-0.20067,0.066891,-1.8788,-0.26756,-4.0717e-11,-0.93941,0,0,0.5,-2.9606e-16,0,0.66667
0.41362,0.76532,0.82723,0.39798,1.5926,4.6705,-0.87791,0.29264,-1.4362,-1.1706,-6.6369e-11,-0.71809,0,0,0.5,-5.9212e-16,0,0.66667
0.63011,0.75902,1.2602,0.38853,1.0836,2.412,-1.3057,0.43523,-1.4629,-1.7409,1.2663e-10,-0.73147,0,0,0.5,-0,-0,0.66667
0.10257,0.91683,0.20515,0.62525,3.1883,8.5992,-0.34204,0.11401,-0.60952,-0.45606,-1.7253e-08,-0.30476,0,0,0.5,-2.9606e-16,0,0.66667
0.71864,0.8183,1.4373,0.47745,1.0657,1.708,-1.83,0.60998,-1.1898,-2.4399,4.7898e-10,-0.5949,0,0,0.5,-0,2.0397e-17,0.66667
0.47968,0.89464,0.95937,0.59196,2.3005,4.0106,-1.5144,0.50481,-0.75356,-2.0192,-3.5845e-12,-0.37678,0,0,0.5,5.9212e-16,0,0.66667
0.37899,0.21618,0.75799,-0.42573,-1.7761,5.0826,0.86054,-0.28685,-1.3562,1.1474,1.1162e-10,-0.67808,0,0,0.5,5.9212e-16,0,0.66667
0.45185,0.012101,0.90369,-0.73185,-3.0859,4.3876,1.7636,-0.58788,-0.095274,2.3515,1.259e-13,-0.047637,0,0,0.5,-0,5.62e-16,0.66667
0.36759,0.15763,0.73517,-0.51356,-2.2098,5.2448,1.0068,-0.3356,-1.063,1.3424,1.0871e-10,-0.5315,0,0,0.5,-0,-0,0.66667
0.23954,0.15483,0.47908,-0.51776,-2.4449,6.8166,0.66146,-0.22049,-1.0476,0.88194,1.017e-09,-0.52381,0,0,0.5,-3.7162e-16,0,0.66667
0.91587,0.59212,1.8317,0.13818,0.040917,0.32728,-0.67498,0.22499,-1.9328,-0.89998,6.005e-09,-0.96641,0,0,0.5,-1.1842e-15,0,0.66667
0.79936,0.081268,1.5987,-0.6281,-1.0999,1.2495,2.6777,-0.89258,-0.59685,3.5703,-1.9429e-09,-0.29843,0,0,0.5,-0,-0,0.66667
0.33394,0.58875,0.66788,0.13313,0.55564,5.5739,-0.23711,0.079035,-1.9371,-0.31614,-7.5063e-11,-0.96856,0,0,0.5,2.9606e-16,0,0.66667
0.16905,0.84906,0.3381,0.52359,2.5561,7.7206,-0.47207,0.15736,-1.0255,-0.62943,-2.461e-09,-0.51274,0,0,0.5,-0,-0,0.66667
0.11663,0.21968,0.23325,-0.42048,-2.0439,8.394,0.26154,-0.087181,-1.3722,0.34872,-3.0724e-09,-0.6861,0,0,0.5,-2.9606e-16,0,0.66667
0.79533,0.52872,1.5907,0.043074,0.059373,0.99753,-0.18271,0.060904,-1.9941,-0.24361,2.1782e-10,-0.99707,0,0,0.5,1.1842e-15,0,0.66667
0.70203,0.63458,1.4041,0.20186,0.43678,1.7227,-0.75581,0.25194,-1.8549,-1.0077,1.1944e-10,-0.92747,0,0,0.5,-0,-0,0.66667
0.075233,0.23456,0.15047,-0.39815,-1.9447,8.9409,0.15976,-0.053252,-1.4358,0.21301,-3.2432e-10,-0.7179,0,0,0.5,-0,-0,0.66667
0.11659,0.94458,0.23319,0.66687,3.4268,8.4222,-0.41468,0.13823,-0.41862,-0.55291,-1.8503e-08,-0.20931,0,0,0.5,-0,-0,0.66667
0.9138,0.083089,1.8276,-0.62537,-0.43903,0.63886,3.0478,-1.0159,-0.60897,4.0637,-1.3988e-08,-0.30449,0,0,0.5,-0,-0,0.66667
0.86977,0.14118,1.7395,-0.53824,-0.54671,0.766,2.4968,-0.83225,-0.96932,3.329,-1.6125e-09,-0.48466,0,0,0.5,1.1842e-15,0,0.66667
0.29195,0.079273,0.5839,-0.63109,-2.9714,6.1949,0.98266,-0.32755,-0.58329,1.3102,2.0225e-10,-0.29164,0,0,0.5,-0,-0,0.66667
0.102,0.12575,0.204,-0.56138,-2.8189,8.5998,0.30539,-0.1018,-0.88036,0.40718,-1.1066e-08,-0.44018,0,0,0.5,2.9606e-16,0,0.66667
0.80889,0.6429,1.6178,0.21435,0.28037,0.93926,-0.9247,0.30823,-1.8361,-1.2329,-1.3761e-10,-0.91805,0,0,0.5,1.1842e-15,0,0.66667
0.026174,0.61649,0.052347,0.17474,0.83492,9.5919,-0.024393,0.0081309,-1.8911,-0.032524,1.7434e-08,-0.94557,0,0,0.5,-1.8504e-17,0,0.66667
0.63635,0.81808,1.2727,0.47713,1.3485,2.3987,-1.6193,0.53976,-1.1907,-2.1591,1.3096e-10,-0.59534,0,0,0.5,-0,-0,0.66667
0.16009,0.3699,0.32017,-0.19515,-0.90799,7.8033,0.16662,-0.055539,-1.8648,0.22216,-3.6309e-10,-0.93239,0,0,0.5,7.4015e-17,0,0.66667
0.69162,0.84504,1.3832,0.51757,1.2818,1.9485,-1.9091,0.63638,-1.0484,-2.5455,3.1116e-10,-0.52419,0,0,0.5,-0,-0,0.66667
0.16802,0.53761,0.33604,0.056421,0.25968,7.6935,-0.050559,0.016853,-1.9887,-0.067412,-4.7744e-10,-0.99434,0,0,0.5,-0,-0,0.66667
0.34905,0.76668,0.6981,0.40002,1.7065,5.4331,-0.74467,0.24822,-1.4304,-0.99289,-1.6764e-10,-0.71521,0,0,0.5,-0,-0,0.66667
0.12209,0.43894,0.24417,-0.091597,-0.4286,8.3037,0.059642,-0.019881,-1.971,0.079522,-4.5448e-09,-0.98551,0,0,0.5,2.9606e-16,0,0.66667
0.28709,0.0035861,0.57417,-0.74462,-3.6378,6.2944,1.1401,-0.38004,-0.028943,1.5201,-4.7821e-12,-0.014471,0,0,0.5,-0,-0,0.66667
0.1291,0.82795,0.25819,0.49192,2.4163,8.237,-0.3387,0.1129,-1.139,-0.45159,5.6501e-10,-0.5695,0,0,0.5,-0,-0,0.66667
0.46339,0.60416,0.92677,0.15624,0.56718,4.0526,-0.38614,0.12871,-1.9127,-0.51486,-1.6333e-11,-0.95637,0,0,0.5,-0,-0,0.66667
0.64941,0.9215,1.2988,0.63225,1.8432,2.382,-2.1898,0.72994,-0.57802,-2.9197,5.2833e-11,-0.28901,0,0,0.5,-0,-0,0.66667
0.39451,0.77,0.78902,0.40499,1.6564,4.8944,-0.85213,0.28404,-1.4164,-1.1362,-8.923e-11,-0.70818,0,0,0.5,5.9212e-16,0,0.66667
0.95296,0.16314,1.9059,-0.50529,-0.086618,0.37279,2.5681,-0.85603,-1.0924,3.4241,-1.8939e-08,-0.54619,0,0,0.5,-0,-0,0.66667
0.75487,0.80105,1.5097,0.45157,0.86811,1.42,-1.818,0.606,-1.2745,-2.424,6.7e-10,-0.63723,0,0,0.5,1.1842e-15,0,0.66667
0.54438,0.34144,1.0888,-0.23784,-0.76779,3.1963,0.69053,-0.23018,-1.7996,0.92071,-2.7243e-11,-0.89979,0,0,0.5,7.4015e-16,0,0.66667
0.56352,0.57896,1.127,0.11844,0.36372,2.9802,-0.35597,0.11866,-1.9497,-0.47462,2.2735e-11,-0.97485,0,0,0.5,-0,-0,0.66667
0.3206,0.8383,0.64121,0.50745,2.2677,5.8068,-0.86769,0.28923,-1.0845,-1.1569,-2.5342e-10,-0.54223,0,0,0.5,7.8195e-16,0,0.66667
0.51252,0.96563,1.025,0.69845,2.6925,3.7263,-1.9092,0.63639,-0.26601,-2.5456,1.4566e-13,-0.133,0,0,0.5,1.4803e-16,-2.1256e-16,0.66667
0.75781,0.73982,1.5156,0.35973,0.65521,1.3485,-1.4539,0.48463,-1.5394,-1.9385,2.6729e-10,-0.76971,0,0,0.5,-0,-0,0.66667
0.0018096,0.16617,0.0036193,-0.50075,-2.5088,9.9204,0.0048329,-0.0016109,-1.1082,0.0064439,8.7769e-08,-0.5541,0,0,0.5,-0,1.0263e-15,0.66667
0.48059,0.64674,0.96118,0.22011,0.78544,3.8718,-0.56417,0.18806,-1.8274,-0.75223,-1.1047e-11,-0.91371,0,0,0.5,-5.9212e-16,0,0.66667
0.90416,0.62556,1.8083,0.18833,0.080379,0.39492,-0.90818,0.30273,-1.875,-1.2109,-1.0135e-08,-0.93749,0,0,0.5,-0,-0,0.66667
0.8495,0.90819,1.699,0.61228,0.78982,0.93898,-2.774,0.92468,-0.66771,-3.6987,6.564e-09,-0.33386,0,0,0.5,-0,-0,0.66667
0.221,0.75037,0.44199,0.37556,1.741,7.0271,-0.44265,0.14755,-1.4996,-0.5902,-2.4114e-10,-0.74981,0,0,0.5,-0,-0,0.66667
0.73624,0.14126,1.4725,-0.53811,-1.162,1.6137,2.1129,-0.70431,-0.96996,2.8172,-6.6383e-10,-0.48498,0,0,0.5,-1.1842e-15,0,0.66667
0.58487,0.63432,1.1697,0.20148,0.59793,2.7811,-0.62849,0.2095,-1.8553,-0.83799,4.9089e-11,-0.92763,0,0,0.5,-0,-0,0.66667
0.52554,0.11453,1.0511,-0.57821,-2.0953,3.522,1.6206,-0.54021,-0.81082,2.1608,-5.4952e-12,-0.40541,0,0,0.5,-0,-0,0.66667
0.66144,0.4526,1.3229,-0.071098,-0.17219,2.0468,0.25081,-0.083604,-1.9814,0.33442,-4.1336e-11,-0.99069,0,0,0.5,-0,-0,0.66667
0.63207,0.60237,1.2641,0.15356,0.40597,2.3226,-0.51766,0.17255,-1.9158,-0.69021,6.5156e-11,-0.95791,0,0,0.5,-0,-0,0.66667
0.071417,0.045138,0.14283,-0.68229,-3.5517,9.0112,0.25988,-0.086627,-0.34415,0.34651,8.9605e-08,-0.17208,0,0,0.5,-1.4803e-16,0,0.66667
0.41684,0.78662,0.83368,0.42994,1.7262,4.6431,-0.95582,0.31861,-1.3429,-1.2744,-6.0128e-11,-0.67144,0,0,0.5,1.1842e-15,0,0.66667
0.1993,0.095559,0.39859,-0.60666,-2.9847,7.3473,0.64483,-0.21494,-0.69216,0.85978,2.3685e-09,-0.34608,0,0,0.5,-5.9212e-16,0,0.66667
0.70058,0.52862,1.4012,0.042923,0.091611,1.7103,-0.16038,0.05346,-1.9941,-0.21384,3.7628e-11,-0.99705,0,0,0.5,2.9606e-16,0,0.66667
0.27331,0.28183,0.54662,-0.32726,-1.4604,6.3534,0.47703,-0.15901,-1.6201,0.63604,2.1533e-10,-0.81006,0,0,0.5,-0,-0,0.66667
0.43642,0.72147,0.87284,0.33221,1.2786,4.3911,-0.77324,0.25775,-1.6083,-1.031,-4.6214e-11,-0.80416,0,0,0.5,-1.1842e-15,0,0.66667
0.82163,0.66364,1.6433,0.24545,0.29751,0.8686,-1.0756,0.35853,-1.7856,-1.4341,-3.5022e-10,-0.8928,0,0,0.5,-2.3685e-15,0,0.66667
0.78306,0.18049,1.5661,-0.47927,-0.82332,1.2402,2.0016,-0.6672,-1.1833,2.6688,-1.0727e-09,-0.59166,0,0,0.5,-1.1842e-15,0,0.66667
0.85416,0.57525,1.7083,0.11288,0.098438,0.63873,-0.51423,0.17141,-1.9541,-0.68564,6.7006e-10,-0.97706,0,0,0.5,-0,-0,0.66667
0.47905,0.26242,0.95811,-0.35636,-1.3035,3.9222,0.91049,-0.3035,-1.5479,1.214,1.3752e-11,-0.77394,0,0,0.5,-0,-0,0.66667
0.92649,0.15387,1.853,-0.5192,-0.23439,0.48649,2.5655,-0.85517,-1.0421,3.4207,-1.2558e-08,-0.52107,0,0,0.5,-0,-0,0.66667
0.031555,0.93274,0.063109,0.64911,3.3634,9.5304,-0.10924,0.036412,-0.50235,-0.14565,-1.0741e-06,-0.25118,0,0,0.5,-1.8504e-17,0,0.66667
0.93828,0.7027,1.8766,0.30404,0.045768,0.29176,-1.5215,0.50716,-1.6709,-2.0287,-4.7679e-10,-0.83545,0,0,0.5,-1.1842e-15,0,0.66667
0.34863,0.066985,0.69726,-0.64952,-2.9484,5.5194,1.2077,-0.40256,-0.50022,1.6103,3.8997e-11,-0.25011,0,0,0.5,-1.1842e-15,0,0.66667
0.81282,0.82677,1.6256,0.49016,0.72323,1.0543,-2.1249,0.70828,-1.1454,-2.8331,1.4422e-09,-0.5727,0,0,0.5,1.1842e-15,0,0.66667
0.94832,0.039593,1.8966,-0.69061,-0.30959,0.57646,3.4929,-1.1643,-0.30394,4.6572,1.5664e-07,-0.15197,0,0,0.5,2.3685e-15,-3.1817e-16,0.66667
0.89181,0.40842,1.7836,-0.13737,-0.072508,0.44183,0.65339,-0.2178,-1.9337,0.87118,1.3589e-08,-0.96686,0,0,0.5,-2.3685e-15,0,0.66667
0.69802,0.9162,1.396,0.62431,1.5955,1.9722,-2.3241,0.77472,-0.61378,-3.0989,1.7601e-10,-0.30689,0,0,0.5,-0,-0,0.66667
0.67018,0.22221,1.3404,-0.41668,-1.0561,2.0707,1.4893,-0.49645,-1.3832,1.9858,-2.2106e-10,-0.69162,0,0,0.5,-0,-0,0.66667
0.97358,0.6843,1.9472,0.27645,-0.062465,0.14838,-1.4355,0.47849,-1.7287,-1.914,-6.2225e-08,-0.86435,0,0,0.5,5.843e-16,0,0.66667
0.46511,0.43215,0.93022,-0.10177,-0.36708,4.0275,0.25245,-0.08415,-1.9633,0.3366,1.0588e-11,-0.98166,0,0,0.5,-5.9212e-16,0,0.66667
0.10402,0.46534,0.20803,-0.051992,-0.2441,8.5445,0.028843,-0.0096144,-1.9908,0.038457,-1.1555e-08,-0.99539,0,0,0.5,-0,-0,0.66667
0.024147,0.41298,0.048295,-0.13053,-0.62194,9.6189,0.01681,-0.0056031,-1.9393,0.022413,2.6943e-07,-0.96965,0,0,0.5,-0,-0,0.66667
0.8813,0.92694,1.7626,0.64042,0.66154,0.80195,-3.0101,1.0034,-0.54126,-4.0135,1.8773e-08,-0.27063,0,0,0.5,1.1842e-15,0,0.66667
0.026191,0.433,0.052382,-0.1005,-0.47803,9.5912,0.014038,-0.004681,-1.9643,0.018717,-2.3188e-06,-0.98216,0,0,0.5,4.6259e-17,0,0.66667
0.95083,0.058909,1.9017,-0.66164,-0.25291,0.53468,3.3552,-1.1184,-0.44401,4.4736,2.2557e-07,-0.222,0,0,0.5,1.7764e-15,0,0.66667
0.56992,0.88755,1.1398,0.58133,1.958,3.0799,-1.767,0.589,-0.79781,-2.356,1.8635e-11,-0.3989,0,0,0.5,-1.1842e-15,0,0.66667
0.65757,0.77338,1.3151,0.41007,1.0737,2.1765,-1.4381,0.47937,-1.4021,-1.9175,1.8539e-10,-0.70104,0,0,0.5,5.9212e-16,0,0.66667
0.90917,0.27292,1.8183,-0.34062,-0.15731,0.43645,1.6516,-0.55054,-1.5873,2.2022,-1.3515e-09,-0.79365,0,0,0.5,-5.9212e-16,0,0.66667
0.90195,0.84431,1.8039,0.51647,0.35526,0.59085,-2.4844,0.82814,-1.0526,-3.3126,-7.4573e-09,-0.52628,0,0,0.5,-2.3685e-15,0,0.66667
0.39086,0.59887,0.78171,0.1483,0.58699,4.8878,-0.30915,0.10305,-1.9222,-0.4122,-5.0972e-11,-0.9611,0,0,0.5,-0,-0,0.66667
0.61254,0.039673,1.2251,-0.69049,-2.2395,2.7519,2.2557,-0.75192,-0.3046,3.0077,-5.6666e-12,-0.1523,0,0,0.5,-0,-0,0.66667
0.52184,0.63292,1.0437,0.19938,0.66572,3.4234,-0.55491,0.18497,-1.8584,-0.73988,1.1593e-11,-0.9292,0,0,0.5,-0,-0,0.66667
0.81704,0.11365,1.6341,-0.57953,-0.89131,1.0976,2.5253,-0.84178,-0.80535,3.3671,-3.1684e-09,-0.40267,0,0,0.5,-1.1842e-15,0,0.66667
0.056183,0.87675,0.11237,0.56513,2.862,9.2026,-0.16934,0.056446,-0.86513,-0.22578,-6.9302e-08,-0.43257,0,0,0.5,-1.4803e-16,0,0.66667
0.62698,0.98826,1.254,0.73239,2.3508,2.6555,-2.449,0.81634,-0.092404,-3.2654,1.1005e-12,-0.046202,0,0,0.5,-0,-0,0.66667
0.42974,0.92015,0.85948,0.63022,2.6324,4.5769,-1.4444,0.48148,-0.58713,-1.9259,-9.4009e-12,-0.29357,0,0,0.5,5.9212e-16,0,0.66667
0.86093,0.77428,1.7219,0.41142,0.40009,0.72029,-1.8891,0.62969,-1.3982,-2.5188,-1.1497e-09,-0.69911,0,0,0.5,-0,-0,0.66667
0.68787,0.75936,1.3757,0.38905,0.92727,1.908,-1.4273,0.47576,-1.4617,-1.903,2.5096e-10,-0.73087,0,0,0.5,-0,-0,0.66667
0.26102,0.80646,0.52205,0.45969,2.1172,6.5329,-0.63995,0.21332,-1.2487,-0.85326,-5.934e-10,-0.62434,0,0,0.5,1.4803e-16,0,0.66667
0.13424,0.024918,0.26848,-0.71262,-3.6918,8.2014,0.51019,-0.17006,-0.19432,0.68026,4.688e-09,-0.097159,0,0,0.5,-1.4803e-16,0,0.66667
0.54134,0.32024,1.0827,-0.26964,-0.87971,3.2354,0.7785,-0.2595,-1.7413,1.038,-2.6878e-11,-0.87063,0,0,0.5,-0,-0,0.66667
0.9819,0.96711,1.9638,0.70066,0.082049,0.48324,-3.6692,1.2231,-0.25532,-4.8923,1.1991e-06,-0.12766,0,0,0.5,1.3296e-15,0,0.66667
0.34991,0.32517,0.69981,-0.26224,-1.0931,5.3944,0.48938,-0.16313,-1.7549,0.65251,1.1837e-10,-0.87744,0,0,0.5,5.9212e-16,0,0.66667
0.99541,0.68646,1.9908,0.27969,-0.12681,0.08244,-1.4849,0.49495,-1.7227,-1.9798,3.0733e-08,-0.86136,0,0,0.5,2.9606e-16,0,0.66667
0.51808,0.83483,1.0362,0.50225,1.7981,3.561,-1.3877,0.46258,-1.1029,-1.8503,7.4276e-12,-0.55145,0,0,0.5,-5.9212e-16,0,0.66667
0.19034,0.60302,0.38067,0.15453,0.70797,7.4034,-0.15686,0.052288,-1.9148,-0.20915,-1.5954e-10,-0.95742,0,0,0.5,-0,-0,0.66667
0.030616,0.62382,0.061231,0.18574,0.88796,9.5322,-0.030327,0.010109,-1.8784,-0.040436,5.2807e-07,-0.9392,0,0,0.5,3.7007e-17,0,0.66667
0.30302,0.21196,0.60605,-0.43206,-1.9243,6.0028,0.69826,-0.23275,-1.3361,0.93102,3.182e-10,-0.66807,0,0,0.5,2.9606e-16,0,0.66667
0.035078,0.79402,0.070156,0.44102,2.1809,9.4771,-0.082508,0.027503,-1.3079,-0.11001,1.1535e-08,-0.65395,0,0,0.5,-0,-0,0.66667
0.59005,0.69449,1.1801,0.29174,0.86978,2.7538,-0.91807,0.30602,-1.6973,-1.2241,6.713e-11,-0.84866,0,0,0.5,1.1842e-15,0,0.66667
0.70162,0.70425,1.4032,0.30638,0.68075,1.7592,-1.1465,0.38216,-1.6658,-1.5286,1.8838e-10,-0.83289,0,0,0.5,-0,-0,0.66667
0.66999,0.56748,1.34,0.10121,0.23953,1.975,-0.36167,0.12056,-1.9639,-0.48222,6.1444e-11,-0.98194,0,0,0.5,-2.3685e-15,0,0.66667
0.35621,0.52222,0.71242,0.033323,0.13578,5.2967,-0.063307,0.021102,-1.9958,-0.084409,-1.7177e-11,-0.9979,0,0,0.5,-5.9212e-16,0,0.66667
0.11164,0.33141,0.22329,-0.25288,-1.2011,8.4485,0.15057,-0.050191,-1.7722,0.20076,-4.6379e-10,-0.8861,0,0,0.5,-0,-0,0.66667
0.64132,0.80213,1.2826,0.4532,1.2551,2.3416,-1.5501,0.51671,-1.2695,-2.0668,1.4713e-10,-0.63475,0,0,0.5,5.9212e-16,0,0.66667
0.063197,0.15304,0.12639,-0.52045,-2.6072,9.1074,0.17542,-0.058473,-1.0376,0.23389,-5.0237e-08,-0.5188,0,0,0.5,-9.2519e-17,0,0.66667
0.64436,0.39764,1.2887,-0.15354,-0.39306,2.2103,0.52766,-0.17589,-1.9159,0.70354,-7.2113e-11,-0.95797,0,0,0.5,-5.9212e-16,0,0.66667
0.83529,0.12214,1.6706,-0.56679,-0.77199,0.9787,2.525,-0.84166,-0.85824,3.3666,-3.9343e-09,-0.42912,0,0,0.5,-0,-0,0.66667
0.057159,0.43351,0.11432,-0.099729,-0.473,9.174,0.030402,-0.010134,-1.9649,0.040536,-3.8869e-07,-0.98247,0,0,0.5,1.5341e-17,0,0.66667
0.35587,0.93599,0.71174,0.65399,2.9548,5.4357,-1.2413,0.41375,-0.4801,-1.655,-2.917e-11,-0.24005,0,0,0.5,8.1416e-16,5.3635e-16,0.66667
0.61872,0.37724,1.2374,-0.18414,-0.5052,2.4525,0.60765,-0.20255,-1.88,0.8102,-6.7411e-11,-0.94001,0,0,0.5,-2.3685e-15,0,0.66667
0.6386,0.96193,1.2772,0.6929,2.1292,2.5218,-2.3599,0.78664,-0.29299,-3.1466,9.2304e-12,-0.1465,0,0,0.5,-5.9212e-16,0,0.66667
0.19794,0.37041,0.39588,-0.19438,-0.89029,7.3065,0.2052,-0.0684,-1.8659,0.2736,-3.9183e-12,-0.93294,0,0,0.5,-2.5287e-16,0,0.66667
0.62336,0.9519,1.2467,0.67785,2.138,2.6449,-2.2536,0.75119,-0.36582,-3.0048,1.1349e-11,-0.18291,0,0,0.5,-0,-0,0.66667
0.55754,0.80246,1.1151,0.45369,1.4997,3.1359,-1.3491,0.44969,-1.2677,-1.7988,3.4087e-11,-0.63386,0,0,0.5,-0,-0,0.66667
0.88572,0.99214,1.7714,0.73821,0.83503,0.88684,-3.4872,1.1624,-0.062197,-4.6495,5.8687e-09,-0.031098,0,0,0.5,-1.7764e-15,0,0.66667
0.69703,0.2449,1.3941,-0.38265,-0.88418,1.8294,1.4225,-0.47417,-1.4795,1.8967,-2.6727e-10,-0.73975,0,0,0.5,-5.9212e-16,0,0.66667
0.36426,0.31484,0.72853,-0.27775,-1.145,5.2237,0.53959,-0.17986,-1.7263,0.71945,1.0999e-10,-0.86316,0,0,0.5,-0,-0,0.66667
0.22535,0.15108,0.4507,-0.52338,-2.493,6.9978,0.62902,-0.20967,-1.0262,0.83869,1.2767e-09,-0.51308,0,0,0.5,-1.6263e-16,0,0.66667
0.61091,0.73881,1.2218,0.35821,1.0362,2.5775,-1.1671,0.38904,-1.5434,-1.5561,9.6213e-11,-0.77172,0,0,0.5,5.9212e-16,0,0.66667
0.25557,0.89698,0.51113,0.59547,2.84,6.6342,-0.81163,0.27054,-0.73889,-1.0822,-6.5152e-10,-0.36944,0,0,0.5,-0,-0,0.66667
0.075813,0.71899,0.15163,0.32849,1.587,8.9298,-0.13282,0.044273,-1.6175,-0.17709,7.6098e-09,-0.80874,0,0,0.5,-2.9606e-16,0,0.66667
0.8227,0.6044,1.6454,0.1566,0.18254,0.83576,-0.68713,0.22904,-1.9123,-0.91617,1.796e-10,-0.95616,0,0,0.5,-0,-0,0.66667
0.22795,0.71192,0.4559,0.31788,1.4552,6.9297,-0.38647,0.12882,-1.6406,-0.51529,-7.5736e-11,-0.82029,0,0,0.5,-4.4409e-16,0,0.66667
0.37955,0.3177,0.75911,-0.27345,-1.11,5.0401,0.55353,-0.18451,-1.7343,0.73804,9.3295e-11,-0.86714,0,0,0.5,1.1842e-15,0,0.66667
0.84649,0.95893,1.693,0.68839,0.97744,1.03,-3.1078,1.0359,-0.31479,-4.1437,3.1075e-09,-0.15739,0,0,0.5,1.1842e-15,0,0.66667
0.10315,0.53457,0.2063,0.051858,0.24352,8.5561,-0.028529,0.0095097,-1.9908,-0.038039,1.0111e-08,-0.99542,0,0,0.5,-0,-0,0.66667
0.96939,0.034086,1.9388,-0.69887,-0.17101,0.51748,3.6132,-1.2044,-0.26413,4.8176,3.22e-06,-0.13207,0,0,0.5,-0,-0,0.66667
0.52282,0.72581,1.0456,0.33872,1.1554,3.4478,-0.94448,0.31483,-1.5919,-1.2593,1.5232e-11,-0.79595,0,0,0.5,-0,-0,0.66667
0.67334,0.94224,1.3467,0.66336,1.8496,2.2032,-2.3822,0.79407,-0.43575,-3.1763,4.9334e-11,-0.21788,0,0,0.5,-0,-0,0.66667
0.73153,0.051846,1.4631,-0.67223,-1.5895,1.7545,2.6227,-0.87423,-0.39289,3.4969,-1.7935e-10,-0.19645,0,0,0.5,-0,-0,0.66667
0.98098,0.20338,1.962,-0.44493,0.078786,0.23035,2.3278,-0.77594,-1.2956,3.1038,-4.889e-08,-0.64778,0,0,0.5,-1.1617e-15,0,0.66667
0.55276,0.046745,1.1055,-0.67988,-2.4475,3.3098,2.0043,-0.66811,-0.35582,2.6724,-1.9607e-12,-0.17791,0,0,0.5,-0,-0,0.66667
0.69972,0.90663,1.3994,0.60995,1.5398,1.9477,-2.2762,0.75875,-0.67825,-3.035,2.1513e-10,-0.33912,0,0,0.5,2.3685e-15,0,0.66667
0.68269,0.78343,1.3654,0.42514,1.0423,1.9691,-1.5479,0.51598,-1.358,-2.0639,2.632e-10,-0.67899,0,0,0.5,-2.3685e-15,0,0.66667
0.63023,0.75449,1.2605,0.38173,1.0622,2.408,-1.2831,0.42769,-1.4821,-1.7108,1.2664e-10,-0.74106,0,0,0.5,-0,-0,0.66667
0.79934,0.48237,1.5987,-0.026446,-0.035517,0.96976,0.11274,-0.037581,-1.997,0.15032,-1.7843e-10,-0.99851,0,0,0.5,1.1842e-15,0,0.66667
0.34565,0.64796,0.69131,0.22194,0.92413,5.4401,-0.40914,0.13638,-1.8247,-0.54552,-1.0556e-10,-0.91237,0,0,0.5,5.9212e-16,0,0.66667
0.48189,0.93812,0.96378,0.65718,2.602,4.0218,-1.689,0.563,-0.46546,-2.252,-8.0946e-13,-0.23273,0,0,0.5,-0,4.6011e-17,0.66667
0.078123,0.46139,0.15625,-0.057908,-0.27337,8.8917,0.024128,-0.0080426,-1.9882,0.03217,-2.0941e-08,-0.9941,0,0,0.5,-7.4015e-17,0,0.66667
0.91011,0.19459,1.8202,-0.45811,-0.25201,0.50809,2.2236,-0.74121,-1.2537,2.9649,-2.1226e-10,-0.62686,0,0,0.5,2.3685e-15,0,0.66667
0.55923,0.050662,1.1185,-0.67401,-2.3949,3.2425,2.0103,-0.67008,-0.38429,2.6803,-2.6876e-12,-0.19215,0,0,0.5,-6.6226e-16,-5.5734e-16,0.66667
0.52499,0.16856,1.05,-0.49716,-1.7581,3.4869,1.392,-0.464,-1.1206,1.856,-1.0769e-11,-0.5603,0,0,0.5,-0,-0,0.66667
0.26695,0.35196,0.5339,-0.22206,-0.98177,6.4199,0.31616,-0.10539,-1.8246,0.42155,1.1335e-10,-0.9123,0,0,0.5,-0,-0,0.66667
0.89999,0.16742,1.8,-0.49887,-0.34331,0.58558,2.3946,-0.79819,-1.1146,3.1928,3.3101e-09,-0.55729,0,0,0.5,-0,-0,0.66667
0.013914,0.98328,0.027827,0.72492,3.8377,9.7631,-0.0538,0.017937,-0.13104,-0.071732,5.8232e-06,-0.065522,0,0,0.5,-0,5.8922e-16,0.66667
0.097001,0.59699,0.194,0.14549,0.68695,8.64,-0.075266,0.025089,-1.9252,-0.10036,8.6216e-10,-0.96262,0,0,0.5,-2.9606e-16,0,0.66667
0.060075,0.82778,0.12015,0.49167,2.4492,9.1471,-0.15753,0.05251,-1.14,-0.21004,1.7203e-08,-0.56999,0,0,0.5,-0,-0,0.66667
0.24092,0.83077,0.48184,0.49615,2.3298,6.7944,-0.63751,0.2125,-1.1241,-0.85001,-9.0108e-10,-0.56207,0,0,0.5,2.9606e-16,0,0.66667
0.49685,0.89628,0.9937,0.59442,2.2587,3.8291,-1.5751,0.52505,-0.74334,-2.1002,-5.2203e-13,-0.37167,0,0,0.5,-5.9212e-16,0,0.66667
0.46352,0.045407,0.92705,-0.68189,-2.7864,4.2325,1.6857,-0.56191,-0.34614,2.2476,1.0637e-12,-0.17307,0,0,0.5,-0,-0,0.66667
0.27055,0.65899,0.54109,0.23849,1.0538,6.3762,-0.34411,0.1147,-1.7983,-0.45882,-1.2157e-10,-0.89915,0,0,0.5,-0,-0,0.66667
0.55511,0.72119,1.1102,0.33179,1.0686,3.113,-0.98229,0.32743,-1.6091,-1.3097,3.9079e-11,-0.80456,0,0,0.5,-0,-0,0.66667
0.22734,0.9578,0.45467,0.6867,3.4084,7.0125,-0.83259,0.27753,-0.32283,-1.1101,-3.7312e-10,-0.16141,0,0,0.5,2.9606e-16,0,0.66667
0.3657,0.53423,0.73139,0.051345,0.2074,5.1823,-0.10014,0.03338,-1.9911,-0.13352,-2.4127e-11,-0.99554,0,0,0.5,-0,-0,0.66667
0.16996,0.63352,0.33993,0.20028,0.9288,7.6735,-0.18155,0.060516,-1.8572,-0.24206,1.6107e-10,-0.92862,0,0,0.5,-0,-0,0.66667
0.66427,0.8092,1.3285,0.46379,1.215,2.146,-1.6431,0.54771,-1.2356,-2.1908,2.0923e-10,-0.61779,0,0,0.5,-1.4803e-15,0,0.66667
0.081667,0.11209,0.16333,-0.58187,-2.9475,8.8685,0.25344,-0.08448,-0.79565,0.33792,-2.2956e-08,-0.39782,0,0,0.5,1.4803e-16,0,0.66667
0.34329,0.38553,0.68658,-0.1717,-0.71293,5.4629,0.31437,-0.10479,-1.895,0.41916,8.6502e-11,-0.94748,0,0,0.5,5.9212e-16,0,0.66667
0.53103,0.68641,1.0621,0.27962,0.93033,3.3449,-0.79191,0.26397,-1.7231,-1.0559,2.0298e-11,-0.86156,0,0,0.5,4.4409e-16,0,0.66667
0.54953,0.13679,1.0991,-0.54482,-1.8781,3.2608,1.5968,-0.53226,-0.94417,2.129,-1.651e-11,-0.47209,0,0,0.5,-1.1842e-15,0,0.66667
0.36765,0.89809,0.73531,0.59714,2.6267,5.2743,-1.1709,0.39029,-0.73189,-1.5612,-5.7576e-11,-0.36594,0,0,0.5,-2.9606e-16,0,0.66667
0.64375,0.6384,1.2875,0.2076,0.53654,2.227,-0.71277,0.23759,-1.8462,-0.95035,9.2374e-11,-0.92312,0,0,0.5,-0,-0,0.66667
0.16445,0.23775,0.3289,-0.39338,-1.875,7.7628,0.34502,-0.11501,-1.4492,0.46002,-3.8258e-10,-0.72459,0,0,0.5,-4.9081e-16,0,0.66667
0.7243,0.38051,1.4486,-0.17923,-0.35586,1.5381,0.69237,-0.23079,-1.8858,0.92316,-1.1307e-10,-0.94292,0,0,0.5,-0,-0,0.66667
0.92525,0.66774,1.8505,0.25161,0.062864,0.32197,-1.2416,0.41387,-1.7745,-1.6555,-1.1914e-08,-0.88723,0,0,0.5,-0,-0,0.66667
0.98983,0.045843,1.9797,-0.68124,-0.0040263,0.43824,3.5963,-1.1988,-0.34928,4.7951,6.3426e-07,-0.17464,0,0,0.5,-0,-0,0.66667
0.87848,0.077268,1.757,-0.6341,-0.66648,0.8094,2.9709,-0.9903,-0.56981,3.9612,-1.4764e-08,-0.2849,0,0,0.5,-0,-0,0.66667
0.26092,0.73009,0.52184,0.34514,1.5567,6.5128,-0.48028,0.16009,-1.576,-0.64038,-2.501e-10,-0.78798,0,0,0.5,-5.9212e-16,0,0.66667
0.038093,0.33015,0.076187,-0.25478,-1.2254,9.4326,0.051762,-0.017254,-1.7686,0.069016,-4.2289e-08,-0.88428,0,0,0.5,-7.4015e-17,0,0.66667
0.97403,0.18866,1.9481,-0.46701,0.039086,0.26955,2.426,-0.80867,-1.2254,3.2347,-8.4241e-08,-0.61268,0,0,0.5,2.3685e-15,0,0.66667
0.55712,0.2772,1.1142,-0.3342,-1.0729,3.0935,0.993,-0.331,-1.6032,1.324,-4.0731e-11,-0.80159,0,0,0.5,-8.8818e-16,0,0.66667
0.53971,0.13165,1.0794,-0.55252,-1.941,3.3638,1.5904,-0.53014,-0.91445,2.1205,-1.1734e-11,-0.45722,0,0,0.5,-0,-0,0.66667
0.14646,0.18103,0.29292,-0.47846,-2.3315,8.0082,0.37374,-0.12458,-1.186,0.49831,6.3365e-11,-0.59299,0,0,0.5,-0,-0,0.66667
0.91249,0.54032,1.825,0.060483,0.018929,0.3302,-0.29435,0.098117,-1.9866,-0.39247,5.9448e-08,-0.99331,0,0,0.5,-0,-0,0.66667
0.95761,0.19209,1.9152,-0.46187,-0.037172,0.32058,2.3589,-0.78629,-1.2418,3.1452,3.8817e-08,-0.62088,0,0,0.5,-0,-0,0.66667
0.85963,0.29768,1.7193,-0.30348,-0.27446,0.66843,1.3914,-0.46379,-1.6722,1.8551,9.8798e-10,-0.83608,0,0,0.5,-0,-0,0.66667
0.69276,0.072768,1.3855,-0.64085,-1.6767,2.0272,2.3678,-0.78925,-0.53934,3.157,-1.218e-10,-0.26967,0,0,0.5,-0,-0,0.66667
0.3859,0.10849,0.7718,-0.58727,-2.5331,5.0574,1.2087,-0.40289,-0.77313,1.6116,4.4233e-11,-0.38656,0,0,0.5,-0,-0,0.66667
0.92673,0.36692,1.8535,-0.19962,-0.042099,0.29629,0.98661,-0.32887,-1.8581,1.3155,-3.4921e-08,-0.92905,0,0,0.5,1.1842e-15,0,0.66667
0.85447,0.47745,1.7089,-0.033828,-0.029004,0.62817,0.15416,-0.051387,-1.9956,0.20555,-1.1347e-09,-0.99782,0,0,0.5,-2.3685e-15,0,0.66667
0.83789,0.0019632,1.6758,-0.74706,-1.1837,1.1402,3.3384,-1.1128,-0.016324,4.4512,8.321e-10,-0.0081619,0,0,0.5,-4.737e-15,0,0.66667
0.58406,0.01764,1.1681,-0.72354,-2.5133,3.0399,2.2538,-0.75127,-0.138,3.0051,-6.6236e-13,-0.069002,0,0,0.5,-2.3685e-15,0,0.66667
0.069977,0.02375,0.13995,-0.71437,-3.7527,9.0327,0.26661,-0.088871,-0.18527,0.35549,3.8957e-08,-0.092636,0,0,0.5,-0,-0,0.66667
0.025655,0.76683,0.05131,0.40025,1.9663,9.6018,-0.054764,0.018255,-1.4298,-0.073019,3.4695e-09,-0.71488,0,0,0.5,-0,-0,0.66667
0.2256,0.52562,0.4512,0.038427,0.17216,6.9399,-0.046236,0.015412,-1.9948,-0.061648,-1.178e-10,-0.99739,0,0,0.5,-0,-0,0.66667
0.092302,0.687,0.1846,0.28049,1.3425,8.7076,-0.13808,0.046027,-1.7214,-0.18411,8.4411e-09,-0.8607,0,0,0.5,-0,-0,0.66667
0.74511,0.67919,1.4902,0.26878,0.501,1.4042,-1.0681,0.35604,-1.7429,-1.4241,1.1311e-10,-0.87144,0,0,0.5,-5.9212e-16,0,0.66667
0.85106,0.74144,1.7021,0.36216,0.37053,0.74611,-1.6438,0.54794,-1.5333,-2.1917,-8.7624e-10,-0.76667,0,0,0.5,-1.1842e-15,0,0.66667
0.54047,0.17388,1.0809,-0.48918,-1.6829,3.3244,1.4101,-0.47002,-1.1485,1.8801,-1.9106e-11,-0.57427,0,0,0.5,5.9212e-16,0,0.66667
0.61127,0.96831,1.2225,0.70246,2.2963,2.7725,-2.2901,0.76337,-0.24663,-3.0535,1.9873e-12,-0.12332,0,0,0.5,5.5511e-16,0,0.66667
0.47314,0.62937,0.94628,0.19405,0.69763,3.9495,-0.48966,0.16322,-1.8664,-0.65288,-1.4114e-11,-0.93319,0,0,0.5,-0,-0,0.66667
0.93519,0.83149,1.8704,0.49723,0.17004,0.43299,-2.48,0.82667,-1.1205,-3.3067,-6.7952e-09,-0.56025,0,0,0.5,-1.1075e-15,0,0.66667
0.61281,0.19283,1.2256,-0.46075,-1.3672,2.6054,1.5059,-0.50196,-1.2454,2.0078,-9.2307e-11,-0.62268,0,0,0.5,-0,-0,0.66667
0.62036,0.7915,1.2407,0.43725,1.2662,2.5239,-1.4467,0.48223,-1.3198,-1.9289,1.0841e-10,-0.6599,0,0,0.5,-0,-0,0.66667
0.85801,0.91771,1.716,0.62657,0.77122,0.90662,-2.8672,0.95574,-0.60378,-3.823,8.9368e-09,-0.30189,0,0,0.5,-0,5.5014e-16,0.66667
0.38374,0.13184,0.76748,-0.55224,-2.3641,5.0689,1.1302,-0.37674,-0.91552,1.507,6.323e-11,-0.45776,0,0,0.5,-0,-0,0.66667
0.06411,0.67409,0.12822,0.26114,1.2532,9.0838,-0.089289,0.029763,-1.7571,-0.11905,8.4423e-09,-0.87854,0,0,0.5,-0,-0,0.66667
0.74015,0.34466,1.4803,-0.23301,-0.43913,1.4298,0.91978,-0.30659,-1.8078,1.2264,-1.0288e-10,-0.90391,0,0,0.5,2.3685e-15,0,0.66667
0.84419,0.26199,1.6884,-0.35702,-0.38607,0.78261,1.6074,-0.53581,-1.5465,2.1432,8.1078e-10,-0.77325,0,0,0.5,-2.3685e-15,0,0.66667
0.52023,0.13977,1.0405,-0.54035,-1.9503,3.5569,1.4992,-0.49974,-0.96125,1.999,-6.3199e-12,-0.48063,0,0,0.5,-0,-0,0.66667
0.46764,0.72691,0.93529,0.34036,1.2606,4.043,-0.8489,0.28297,-1.5881,-1.1319,-2.1844e-11,-0.79403,0,0,0.5,-0,-0,0.66667
0.098624,0.57044,0.19725,0.10566,0.49763,8.6174,-0.055578,0.018526,-1.9601,-0.074104,-4.6487e-09,-0.98004,0,0,0.5,-0,-0,0.66667
0.31326,0.64746,0.62652,0.22118,0.94609,5.8384,-0.36954,0.12318,-1.826,-0.49271,-1.2386e-10,-0.91298,0,0,0.5,2.9606e-16,0,0.66667
0.18739,0.077767,0.37477,-0.63335,-3.1533,7.5049,0.63296,-0.21099,-0.5734,0.84395,2.6215e-09,-0.2867,0,0,0.5,2.9606e-16,0,0.66667
0.74742,0.024789,1.4948,-0.71282,-1.6377,1.6764,2.8415,-0.94716,-0.19345,3.7886,-6.5304e-11,-0.096725,0,0,0.5,-1.1842e-15,-3.8846e-16,0.66667
0.16037,0.77034,0.32073,0.40551,1.9397,7.8176,-0.34683,0.11561,-1.4149,-0.46244,4.2317e-10,-0.70744,0,0,0.5,1.4803e-16,0,0.66667
0.68463,0.69572,1.3693,0.29358,0.68685,1.8954,-1.072,0.35733,-1.6934,-1.4293,1.6568e-10,-0.84669,0,0,0.5,-2.3685e-15,0,0.66667
0.44067,0.24092,0.88134,-0.38862,-1.5043,4.3588,0.91335,-0.30445,-1.4628,1.2178,4.1271e-11,-0.73138,0,0,0.5,-0,-0,0.66667
0.0042513,0.93655,0.0085026,0.65482,3.4015,9.8887,-0.014847,0.0049444,-0.47632,-0.019798,-6.6005e-06,-0.23816,0,0,0.5,-1.3878e-17,1.402e-16,0.66667
0.70234,0.12995,1.4047,-0.55508,-1.3537,1.8871,2.0792,-0.69308,-0.90486,2.7723,-3.3639e-10,-0.45243,0,0,0.5,-2.3685e-15,-3.3034e-16,0.66667
0.79289,0.32764,1.5858,-0.25855,-0.37913,1.0599,1.0933,-0.36444,-1.7617,1.4578,1.1943e-10,-0.88086,0,0,0.5,1.1842e-15,0,0.66667
0.33849,0.31614,0.67698,-0.27579,-1.1632,5.5356,0.49788,-0.16596,-1.7299,0.66383,1.348e-10,-0.86496,0,0,0.5,-0,-0,0.66667
0.47734,0.20532,0.95467,-0.44202,-1.652,3.97,1.1253,-0.3751,-1.3047,1.5004,1.2565e-11,-0.65234,0,0,0.5,-1.1574e-15,0,0.66667
0.048717,0.11058,0.097434,-0.58413,-2.9739,9.302,0.15177,-0.05059,-0.78634,0.20236,-1.3869e-07,-0.39317,0,0,0.5,-0,-0,0.66667
0.22657,0.15863,0.45314,-0.51205,-2.4313,6.9799,0.61875,-0.20625,-1.0683,0.825,1.2125e-09,-0.53415,0,0,0.5,5.9212e-16,0,0.66667
0.69626,0.28613,1.3925,-0.3208,-0.72862,1.8088,1.1912,-0.39708,-1.6342,1.5883,-1.9825e-10,-0.81711,0,0,0.5,-0,-0,0.66667
0.14114,0.030166,0.28227,-0.70475,-3.6357,8.1114,0.53049,-0.17683,-0.23513,0.70732,4.9239e-09,-0.11757,0,0,0.5,3.7007e-16,0,0.66667
0.23059,0.78913,0.46118,0.43369,2.0216,6.9136,-0.53336,0.17779,-1.3311,-0.71115,-6.3427e-10,-0.66554,0,0,0.5,-5.9212e-16,0,0.66667
0.69479,0.574,1.3896,0.11099,0.24287,1.7649,-0.41129,0.1371,-1.9556,-0.54839,7.8556e-11,-0.97782,0,0,0.5,1.1842e-15,0,0.66667
0.068365,0.09101,0.13673,-0.61349,-3.1382,9.0455,0.22369,-0.074562,-0.66232,0.29825,-1.457e-08,-0.33116,0,0,0.5,9.2519e-17,0,0.66667
0.72933,0.67694,1.4587,0.2654,0.52713,1.5235,-1.0324,0.34412,-1.7491,-1.3765,1.3998e-10,-0.87455,0,0,0.5,-0,-0,0.66667
0.62746,0.66786,1.2549,0.25179,0.68386,2.3875,-0.84261,0.28087,-1.7742,-1.1235,9.3975e-11,-0.88708,0,0,0.5,-0,-0,0.66667
0.65207,0.26076,1.3041,-0.35886,-0.93873,2.202,1.248,-0.416,-1.5417,1.664,-1.5874e-10,-0.77084,0,0,0.5,-0,-0,0.66667
0.32147,0.049843,0.64293,-0.67524,-3.1545,5.853,1.1577,-0.3859,-0.37826,1.5436,4.5025e-11,-0.18913,0,0,0.5,-0,-0,0.66667
0.53844,0.55079,1.0769,0.076179,0.24452,3.2333,-0.21876,0.072921,-1.9788,-0.29168,8.8502e-12,-0.9894,0,0,0.5,5.9212e-16,0,0.66667
0.078783,0.4845,0.15757,-0.023243,-0.10965,8.8827,0.0097659,-0.0032553,-1.9977,0.013021,5.7788e-08,-0.99884,0,0,0.5,1.4803e-16,0,0.66667
0.28452,0.3005,0.56903,-0.29925,-1.32,6.208,0.45408,-0.15136,-1.6811,0.60544,1.8353e-10,-0.84056,0,0,0.5,-0,-0,0.66667
0.20287,0.72393,0.40573,0.33589,1.561,7.2558,-0.36341,0.12114,-1.5993,-0.48455,8.3808e-11,-0.79963,0,0,0.5,-0,-0,0.66667
0.51135,0.74782,1.0227,0.37173,1.3006,3.5795,-1.0138,0.33793,-1.5093,-1.3517,7.3137e-12,-0.75467,0,0,0.5,-0,-0,0.66667
0.65221,0.47814,1.3044,-0.032787,-0.081395,2.1267,0.11405,-0.038015,-1.9958,0.15206,-1.8191e-11,-0.99792,0,0,0.5,-0,-0,0.66667
0.61509,0.40338,1.2302,-0.14493,-0.39914,2.4797,0.47544,-0.15848,-1.9258,0.63392,-5.3104e-11,-0.9629,0,0,0.5,1.6283e-15,0,0.66667
0.13364,0.5529,0.26727,0.079344,0.36985,8.1496,-0.056551,0.01885,-1.9772,-0.075401,-2.6259e-09,-0.9886,0,0,0.5,-0,-0,0.66667
0.18016,0.45509,0.36031,-0.067359,-0.30861,7.5339,0.06472,-0.021573,-1.9832,0.086294,5.8892e-10,-0.99161,0,0,0.5,2.9606e-16,0,0.66667
0.49726,0.89243,0.99451,0.58865,2.2313,3.8218,-1.5611,0.52037,-0.76747,-2.0815,-4.9005e-13,-0.38373,0,0,0.5,-5.9212e-16,0,0.66667
0.020049,0.61707,0.040098,0.1756,0.83937,9.6744,-0.018778,0.0062592,-1.8902,-0.025037,-1.8919e-07,-0.94508,0,0,0.5,1.8504e-17,0,0.66667
0.73614,0.27412,1.4723,-0.33883,-0.67051,1.5001,1.3303,-0.44342,-1.5918,1.7737,-2.354e-10,-0.79592,0,0,0.5,-5.9212e-16,0,0.66667
0.59242,0.081343,1.1848,-0.62799,-2.0643,2.8937,1.9842,-0.66139,-0.59743,2.6456,-1.6136e-11,-0.29871,0,0,0.5,5.9212e-16,0,0.66667
0.15883,0.34742,0.31767,-0.22888,-1.0688,7.8218,0.19388,-0.064628,-1.8142,0.25851,-4.5749e-10,-0.90711,0,0,0.5,-0,-0,0.66667
0.91731,0.97515,1.8346,0.71273,0.56234,0.7194,-3.4869,1.1623,-0.19382,-4.6492,5.1832e-08,-0.09691,0,0,0.5,-0,-7.6017e-16,0.66667
0.54373,0.84745,1.0875,0.52117,1.8006,3.307,-1.5113,0.50378,-1.0347,-2.0151,1.7082e-11,-0.51734,0,0,0.5,1.1842e-15,0,0.66667
0.99776,0.065581,1.9955,-0.65163,0.077637,0.38299,3.4676,-1.1559,-0.49083,4.6234,-1.0166e-05,-0.24542,0,0,0.5,2.3685e-15,6.3152e-16,0.66667
0.042324,0.2771,0.084649,-0.33435,-1.6237,9.3775,0.075472,-0.025157,-1.6028,0.10063,-1.7292e-08,-0.80142,0,0,0.5,7.4015e-17,0,0.66667
0.81295,0.48425,1.6259,-0.023619,-0.028954,0.88033,0.1024,-0.034135,-1.9976,0.13654,-1.7224e-10,-0.99881,0,0,0.5,-1.1842e-15,0,0.66667
0.077381,0.34908,0.15476,-0.22638,-1.0801,8.905,0.093428,-0.031143,-1.8181,0.12457,-2.0481e-08,-0.90906,0,0,0.5,-0,-0,0.66667
0.94025,0.052189,1.8805,-0.67172,-0.33781,0.58373,3.3684,-1.1228,-0.39538,4.4912,-8.721e-08,-0.19769,0,0,0.5,-1.1842e-15,0,0.66667
0.36144,0.74681,0.72287,0.37022,1.5532,5.277,-0.71366,0.23789,-1.5132,-0.95155,-1.3934e-10,-0.75662,0,0,0.5,-1.4803e-16,0,0.66667
0.66661,0.32439,1.3332,-0.26341,-0.64588,2.0395,0.9365,-0.31217,-1.7527,1.2487,-1.3343e-10,-0.87637,0,0,0.5,1.1842e-15,0,0.66667
0.71461,0.3643,1.4292,-0.20355,-0.42123,1.6211,0.77579,-0.2586,-1.8522,1.0344,-1.2042e-10,-0.92612,0,0,0.5,5.9212e-16,0,0.66667
0.7131,0.18449,1.4262,-0.47327,-1.0744,1.7489,1.7999,-0.59998,-1.2041,2.3999,-4.3939e-10,-0.60204,0,0,0.5,1.4803e-15,0,0.66667
0.69395,0.019381,1.3879,-0.72093,-1.9614,2.0849,2.6682,-0.8894,-0.15148,3.5576,-1.2738e-11,-0.075738,0,0,0.5,-2.3685e-15,0,0.66667
0.01165,0.79441,0.023299,0.44162,2.1867,9.7892,-0.027439,0.0091462,-1.306,-0.036585,-3.3466e-08,-0.653,0,0,0.5,-1.8504e-17,0,0.66667
0.22048,0.35625,0.44095,-0.21562,-0.97872,7.0152,0.25355,-0.084516,-1.8343,0.33806,1.0917e-11,-0.91714,0,0,0.5,-0,-0,0.66667
0.79727,0.76274,1.5945,0.39411,0.59944,1.0932,-1.6758,0.55861,-1.4474,-2.2344,2.5013e-10,-0.7237,0,0,0.5,-0,-0,0.66667
0.78697,0.43065,1.5739,-0.10403,-0.15168,1.0608,0.43662,-0.14554,-1.9614,0.58216,-2.3558e-10,-0.9807,0,0,0.5,5.9212e-16,0,0.66667
0.80166,0.25381,1.6033,-0.36928,-0.5406,1.051,1.5789,-0.5263,-1.5155,2.1052,-1.8593e-11,-0.75774,0,0,0.5,-0,-0,0.66667
0.0078286,0.73778,0.015657,0.35666,1.7411,9.8396,-0.014892,0.0049639,-1.5471,-0.019856,-6.5709e-09,-0.77355,0,0,0.5,9.2519e-18,0,0.66667
0.041346,0.66354,0.082692,0.2453,1.1783,9.3887,-0.054093,0.018031,-1.7859,-0.072123,7.8754e-08,-0.89294,0,0,0.5,-0,-0,0.66667
0.073826,0.71318,0.14765,0.31977,1.5435,8.9559,-0.1259,0.041968,-1.6365,-0.16787,4.1313e-09,-0.81827,0,0,0.5,-0,-0,0.66667
0.87375,0.85433,1.7475,0.53149,0.51624,0.73998,-2.4768,0.82559,-0.99533,-3.3023,6.9187e-11,-0.49767,0,0,0.5,-0,-6.7868e-17,0.66667
0.47744,0.18345,0.95488,-0.47483,-1.7892,3.9817,1.2091,-0.40302,-1.1986,1.6121,1.094e-11,-0.59931,0,0,0.5,-1.4803e-16,0,0.66667
0.73172,0.38486,1.4634,-0.17272,-0.33255,1.4786,0.67403,-0.22468,-1.8936,0.8987,-1.1269e-10,-0.94682,0,0,0.5,-0,-0,0.66667
0.21832,0.011827,0.43663,-0.73226,-3.6993,7.1382,0.85261,-0.2842,-0.093209,1.1368,7.9672e-11,-0.046604,0,0,0.5,-0,-0,0.66667
0.66983,0.74717,1.3397,0.37076,0.92676,2.0521,-1.3245,0.4415,-1.5119,-1.766,1.981e-10,-0.75595,0,0,0.5,-1.1842e-15,0,0.66667
0.44403,0.31563,0.88805,-0.27655,-1.0448,4.2915,0.65492,-0.21831,-1.7285,0.87323,3.7759e-11,-0.86424,0,0,0.5,1.1842e-15,0,0.66667
0.98864,0.26339,1.9773,-0.35492,0.11791,0.14425,1.8714,-0.6238,-1.5515,2.4952,-1.6006e-08,-0.77577,0,0,0.5,-0,-0,0.66667
0.28625,0.46239,0.5725,-0.05642,-0.24352,6.1643,0.086134,-0.028711,-1.9886,0.11485,5.4581e-11,-0.99432,0,0,0.5,1.4803e-16,0,0.66667
0.10849,0.67679,0.21699,0.26519,1.2623,8.4911,-0.15345,0.051149,-1.7497,-0.2046,-5.726e-10,-0.87485,0,0,0.5,-0,-0,0.66667
0.5469,0.11601,1.0938,-0.57598,-2.0153,3.3042,1.68,-0.56001,-0.82038,2.24,-1.1322e-11,-0.41019,0,0,0.5,-0,-0,0.66667
0.68117,0.99277,1.3623,0.73916,2.1007,2.2032,-2.6853,0.8951,-0.057229,-3.5804,1.3727e-12,-0.028614,0,0,0.5,-1.7764e-15,0,0.66667
0.13472,0.42222,0.26944,-0.11667,-0.54453,8.136,0.083828,-0.027943,-1.9509,0.11177,1.4828e-09,-0.97547,0,0,0.5,-4.556e-16,0,0.66667
0.53924,0.84777,1.0785,0.52165,1.8161,3.3526,-1.5003,0.50009,-1.0327,-2.0003,1.5024e-11,-0.51636,0,0,0.5,-1.1842e-15,0,0.66667
0.74439,0.19068,1.4888,-0.46399,-0.93631,1.5042,1.8421,-0.61402,-1.235,2.4561,-6.4888e-10,-0.61749,0,0,0.5,-0,-0,0.66667
0.11184,0.55352,0.22369,0.080277,0.3765,8.4402,-0.047885,0.015962,-1.9769,-0.063847,-8.233e-09,-0.98843,0,0,0.5,-1.4803e-16,0,0.66667
0.78567,0.93562,1.5713,0.65343,1.2419,1.3604,-2.738,0.91268,-0.48259,-3.6507,1.0557e-09,-0.24129,0,0,0.5,4.4409e-16,0,0.66667
0.54416,0.41552,1.0883,-0.12671,-0.40389,3.179,0.36775,-0.12258,-1.9427,0.49033,-1.6534e-11,-0.97133,0,0,0.5,-0,-0,0.66667
0.010525,0.60215,0.021049,0.15322,0.73143,9.8026,-0.0086005,0.0028671,-1.9163,-0.011467,3.5298e-07,-0.95813,0,0,0.5,-0,-0,0.66667
0.5891,0.8754,1.1782,0.5631,1.8176,2.8845,-1.7692,0.58972,-0.87362,-2.3589,3.3424e-11,-0.43681,0,0,0.5,2.3685e-15,0,0.66667
0.80467,0.79198,1.6093,0.43798,0.65505,1.0711,-1.8796,0.62654,-1.3175,-2.5061,6.2549e-10,-0.65873,0,0,0.5,-0,-0,0.66667
0.99094,0.46195,1.9819,-0.05707,0.027615,0.0294,0.30162,-0.10054,-1.9883,0.40216,2.2427e-07,-0.99414,0,0,0.5,1.771e-15,0,0.66667
0.99131,0.64842,1.9826,0.22264,-0.097873,0.0691,-1.1771,0.39236,-1.8235,-1.5694,-2.8846e-08,-0.91176,0,0,0.5,-5.9212e-16,0,0.66667
0.41395,0.13027,0.8279,-0.55459,-2.3044,4.7215,1.2244,-0.40813,-0.90647,1.6325,3.3987e-11,-0.45324,0,0,0.5,-1.1842e-15,0,0.66667
0.037335,0.10977,0.07467,-0.58534,-2.984,9.452,0.11655,-0.038851,-0.78112,0.1554,-5.155e-09,-0.39056,0,0,0.5,-1.1823e-16,0,0.66667
0.97041,0.53089,1.9408,0.04634,-0.012519,0.094928,-0.23983,0.079946,-1.9935,-0.31978,3.4217e-06,-0.99676,0,0,0.5,7.4015e-17,0,0.66667
0.22054,0.39546,0.44108,-0.15682,-0.7082,7.0101,0.18445,-0.061483,-1.9122,0.24593,1.3145e-10,-0.95612,0,0,0.5,-0,-0,0.66667
0.95501,0.65072,1.91,0.22608,-0.013841,0.19212,-1.1515,0.38384,-1.8185,-1.5354,-7.9296e-08,-0.90924,0,0,0.5,-0,-0,0.66667
0.96537,0.38426,1.9307,-0.17361,0.032827,0.13661,0.89383,-0.29794,-1.8925,1.1918,8.0782e-08,-0.94627,0,0,0.5,-0,-0,0.66667
0.32834,0.055942,0.65667,-0.66609,-3.0874,5.7672,1.1664,-0.3888,-0.42271,1.5552,4.5187e-11,-0.21135,0,0,0.5,-0,-0,0.66667
0.76276,0.99924,1.5255,0.74887,1.669,1.6053,-3.0464,1.0155,-0.0070448,-4.0619,-4.9351e-11,-0.0035224,0,0,0.5,7.4015e-17,-5.5926e-17,0.66667
0.63192,0.10669,1.2638,-0.58996,-1.7588,2.5062,1.9883,-0.66277,-0.76184,2.6511,-6.1946e-11,-0.38092,0,0,0.5,-1.1842e-15,0,0.66667
0.84643,0.89218,1.6929,0.58827,0.7576,0.93416,-2.6556,0.88521,-0.76904,-3.5408,5.4996e-09,-0.38452,0,0,0.5,-0,-0,0.66667
0.9544,0.37234,1.9088,-0.19148,0.013405,0.18215,0.97468,-0.32489,-1.8704,1.2996,-1.5836e-07,-0.93518,0,0,0.5,2.9606e-16,0,0.66667
0.2058,0.9087,0.41161,0.61306,3.0125,7.2658,-0.6729,0.2243,-0.66436,-0.89721,-1.9583e-09,-0.33218,0,0,0.5,-5.9212e-16,0,0.66667
0.40934,0.34792,0.81869,-0.22812,-0.89203,4.6811,0.49803,-0.16601,-1.8153,0.66404,5.8204e-11,-0.90766,0,0,0.5,-0,-0,0.66667
0.72856,0.051773,1.4571,-0.67234,-1.6055,1.7767,2.6125,-0.87082,-0.39225,3.4833,-1.6608e-10,-0.19613,0,0,0.5,-1.1842e-15,0,0.66667
0.58992,0.70393,1.1798,0.30589,0.91492,2.7595,-0.9624,0.3208,-1.6667,-1.2832,6.8389e-11,-0.83336,0,0,0.5,-1.1842e-15,0,0.66667
0.9412,0.40722,1.8824,-0.13917,-0.006341,0.21897,0.69858,-0.23286,-1.9321,0.93143,-2.2024e-07,-0.96603,0,0,0.5,-0,-0,0.66667
0.44689,0.077457,0.89377,-0.63381,-2.5996,4.3884,1.5106,-0.50354,-0.571,2.0142,5.7214e-12,-0.2855,0,0,0.5,-0,-0,0.66667
0.61758,0.92022,1.2352,0.63033,1.9716,2.6627,-2.0762,0.69206,-0.58666,-2.7682,2.7084e-11,-0.29333,0,0,0.5,-0,-0,0.66667
0.082488,0.1309,0.16498,-0.55365,-2.7858,8.8553,0.24357,-0.081191,-0.91016,0.32476,-8.9144e-09,-0.45508,0,0,0.5,-2.9606e-16,0,0.66667
0.23041,0.76424,0.46083,0.39636,1.835,6.9095,-0.48707,0.16236,-1.4408,-0.64943,-4.1046e-10,-0.72042,0,0,0.5,-0,-0,0.66667
0.12199,0.112,0.24397,-0.582,-2.9227,8.3408,0.37865,-0.12622,-0.79515,0.50486,6.8348e-09,-0.39757,0,0,0.5,-0,-1.0246e-16,0.66667
0.76669,0.71463,1.5334,0.32194,0.55454,1.2672,-1.3164,0.43881,-1.632,-1.7552,1.0802e-10,-0.81599,0,0,0.5,-1.4803e-15,0,0.66667
0.019268,0.29361,0.038537,-0.30959,-1.5007,9.686,0.031815,-0.010605,-1.6587,0.04242,-3.2186e-08,-0.82935,0,0,0.5,-0,-0,0.66667
0.941,0.45598,1.882,-0.066025,-0.0021087,0.20722,0.33135,-0.11045,-1.984,0.44181,-2.3635e-07,-0.99199,0,0,0.5,-1.1842e-15,0,0.66667
0.83589,0.039249,1.6718,-0.69113,-1.0497,1.0914,3.0811,-1.027,-0.3014,4.1081,-2.3502e-09,-0.1507,0,0,0.5,-0,-0,0.66667
0.67901,0.97084,1.358,0.70627,1.9834,2.192,-2.5577,0.85255,-0.22705,-3.4102,1.1025e-11,-0.11353,0,0,0.5,-0,-0,0.66667
0.02865,0.93276,0.0573,0.64913,3.3642,9.5685,-0.099188,0.033061,-0.50208,-0.13225,-1.759e-06,-0.25104,0,0,0.5,-0,-0,0.66667
0.2579,0.43741,0.5158,-0.093888,-0.41352,6.5258,0.12914,-0.043046,-1.9697,0.17218,1.1863e-10,-0.98483,0,0,0.5,1.8041e-16,0,0.66667
0.13628,0.84959,0.27256,0.52439,2.5885,8.1469,-0.38115,0.12705,-1.0223,-0.5082,-2.0147e-09,-0.51116,0,0,0.5,-0,-0,0.66667
0.7107,0.32717,1.4214,-0.25925,-0.55112,1.6688,0.98264,-0.32755,-1.7604,1.3102,-1.4885e-10,-0.88018,0,0,0.5,1.1842e-15,0,0.66667
0.069466,0.086263,0.13893,-0.62061,-3.1798,9.0316,0.22993,-0.076642,-0.63036,0.30657,-7.0957e-09,-0.31518,0,0,0.5,-0,-0,0.66667
0.88989,0.4529,1.7798,-0.070649,-0.037564,0.44051,0.3353,-0.11177,-1.9818,0.44707,-7.6239e-09,-0.99092,0,0,0.5,1.1842e-15,0,0.66667
0.55437,0.26041,1.1087,-0.35939,-1.1662,3.1299,1.0626,-0.35419,-1.5403,1.4168,-3.8186e-11,-0.77014,0,0,0.5,-0,-0,0.66667
0.10339,0.14302,0.20678,-0.53547,-2.6722,8.579,0.29526,-0.098422,-0.97989,0.39369,-4.8662e-09,-0.48994,0,0,0.5,-0,-0,0.66667
0.46053,0.62673,0.92105,0.1901,0.69506,4.0894,-0.46691,0.15564,-1.8722,-0.62254,-2.0721e-11,-0.93609,0,0,0.5,1.1842e-15,0,0.66667
0.14199,0.44494,0.28397,-0.082593,-0.38402,8.0387,0.062544,-0.020848,-1.9758,0.083391,2.581e-09,-0.98788,0,0,0.5,-0,-0,0.66667
0.42314,0.39424,0.84629,-0.15863,-0.60617,4.5109,0.358,-0.11933,-1.9102,0.47733,3.6186e-11,-0.95508,0,0,0.5,-0,-0,0.66667
0.71387,0.435,1.4277,-0.097497,-0.19908,1.6067,0.3712,-0.12373,-1.9668,0.49494,-8.5627e-11,-0.98339,0,0,0.5,1.4803e-15,0,0.66667
0.69629,0.95678,1.3926,0.68517,1.8165,2.0353,-2.5444,0.84814,-0.33023,-3.3926,5.2845e-11,-0.16512,0,0,0.5,1.1842e-15,0,0.66667
0.34815,0.67045,0.6963,0.25567,1.0665,5.4147,-0.47472,0.15824,-1.767,-0.63297,-1.1738e-10,-0.88349,0,0,0.5,5.9212e-16,0,0.66667
0.34876,0.60419,0.69752,0.15629,0.64494,5.3946,-0.2907,0.096901,-1.9127,-0.3876,-7.7164e-11,-0.95635,0,0,0.5,5.9212e-16,0,0.66667
0.076125,0.95097,0.15225,0.67645,3.5132,8.9493,-0.27464,0.091545,-0.37258,-0.36618,-2.5978e-08,-0.18629,0,0,0.5,-1.4803e-16,0,0.66667
0.087513,0.65898,0.17503,0.23848,1.1371,8.7698,-0.1113,0.037101,-1.7983,-0.14841,-1.4271e-08,-0.89915,0,0,0.5,-0,-0,0.66667
0.049881,0.17337,0.099762,-0.48995,-2.4427,9.2821,0.13034,-0.043448,-1.1459,0.17379,-2.6916e-08,-0.57297,0,0,0.5,-0,-0,0.66667
0.074476,0.088519,0.14895,-0.61722,-3.1574,8.9657,0.24516,-0.081721,-0.64563,0.32689,4.6187e-08,-0.32282,0,0,0.5,3.7007e-17,1.6594e-17,0.66667
0.38509,0.84141,0.77018,0.51212,2.1668,5.0386,-1.0518,0.3506,-1.0681,-1.4024,-7.9532e-11,-0.53404,0,0,0.5,-7.4015e-17,0,0.66667
0.81637,0.95834,1.6327,0.68751,1.1589,1.2009,-2.9934,0.9978,-0.31901,-3.9912,1.2798e-09,-0.1595,0,0,0.5,-1.1842e-15,0,0.66667
0.34118,0.49237,0.68235,-0.01145,-0.047277,5.4798,0.020835,-0.0069451,-1.9994,0.02778,6.7682e-12,-0.99972,0,0,0.5,8.8818e-16,0,0.66667
0.50612,0.15198,1.0122,-0.52203,-1.914,3.6954,1.4091,-0.4697,-1.0313,1.8788,-2.2021e-12,-0.51565,0,0,0.5,1.1879e-15,0,0.66667
0.62349,0.73148,1.247,0.34721,0.97281,2.4559,-1.1546,0.38486,-1.5709,-1.5394,1.1171e-10,-0.78547,0,0,0.5,1.1842e-15,0,0.66667
0.58529,0.71946,1.1706,0.3292,0.99924,2.8123,-1.0276,0.34253,-1.6156,-1.3701,6.6099e-11,-0.80778,0,0,0.5,-0,-0,0.66667
0.13388,0.96206,0.26775,0.69309,3.5712,8.2028,-0.49487,0.16496,-0.29187,-0.65983,-7.5413e-09,-0.14594,0,0,0.5,-7.4015e-17,0,0.66667
0.61941,0.69096,1.2388,0.28644,0.79882,2.4725,-0.94626,0.31542,-1.7087,-1.2617,9.5339e-11,-0.85433,0,0,0.5,2.3685e-15,0,0.66667
0.52236,0.29755,1.0447,-0.30367,-1.0296,3.4422,0.84599,-0.282,-1.6715,1.128,-1.4738e-11,-0.83573,0,0,0.5,-6.1859e-16,0,0.66667
0.75148,0.084566,1.503,-0.62315,-1.3341,1.5678,2.4975,-0.8325,-0.61915,3.33,-6.2375e-10,-0.30957,0,0,0.5,-5.9212e-16,0,0.66667
0.67568,0.23686,1.3514,-0.39471,-0.97758,2.0132,1.4224,-0.47413,-1.4455,1.8965,-2.2376e-10,-0.72275,0,0,0.5,1.1842e-15,0,0.66667
0.47896,0.36711,0.95792,-0.19933,-0.71116,3.8861,0.50918,-0.16973,-1.8585,0.67891,1.1197e-11,-0.92925,0,0,0.5,-2.9606e-16,0,0.66667
0.95613,0.64978,1.9123,0.22466,-0.016474,0.18741,-1.1456,0.38188,-1.8206,-1.5275,-6.7892e-08,-0.91029,0,0,0.5,1.1842e-15,0,0.66667
0.26092,0.3591,0.52183,-0.21135,-0.93698,6.4956,0.29411,-0.098037,-1.8405,0.39215,1.0804e-10,-0.92027,0,0,0.5,-5.9212e-16,0,0.66667
0.71065,0.80208,1.4213,0.45312,1.0284,1.7565,-1.7174,0.57246,-1.2695,-2.2899,4.0153e-10,-0.63474,0,0,0.5,-0,-0,0.66667
0.20164,0.60542,0.40328,0.15812,0.72089,7.2559,-0.17005,0.056683,-1.9107,-0.22673,-1.2665e-10,-0.95537,0,0,0.5,-0,-0,0.66667
0.66362,0.81815,1.3272,0.47722,1.2586,2.1591,-1.689,0.56301,-1.1903,-2.252,2.0389e-10,-0.59513,0,0,0.5,-0,-0,0.66667
0.24952,0.23314,0.49903,-0.4003,-1.835,6.6668,0.53269,-0.17756,-1.4299,0.71026,4.2706e-10,-0.71494,0,0,0.5,-0,-0,0.66667
0.20625,0.31008,0.41249,-0.28489,-1.3126,7.2062,0.31337,-0.10446,-1.7121,0.41783,-1.477e-10,-0.85604,0,0,0.5,-3.7007e-16,0,0.66667
0.37017,0.025093,0.74034,-0.71236,-3.238,5.2945,1.4064,-0.46879,-0.1957,1.8752,2.8147e-12,-0.097851,0,0,0.5,-0,-0,0.66667
0.50886,0.39287,1.0177,-0.16069,-0.54567,3.555,0.4361,-0.14537,-1.9076,0.58147,-3.9963e-12,-0.95378,0,0,0.5,5.9212e-16,0,0.66667
0.68093,0.94056,1.3619,0.66084,1.8041,2.1388,-2.3999,0.79997,-0.44767,-3.1999,6.1779e-11,-0.22384,0,0,0.5,-0,-0,0.66667
0.3096,0.69843,0.61919,0.29764,1.289,5.8948,-0.49146,0.16382,-1.6846,-0.65528,-1.7354e-10,-0.84231,0,0,0.5,-0,-0,0.66667
0.38234,0.014758,0.76467,-0.72786,-3.2898,5.1617,1.4842,-0.49474,-0.11565,1.9789,1.2987e-12,-0.057824,0,0,0.5,-0,-0,0.66667
0.76093,0.98273,1.5219,0.7241,1.5971,1.5931,-2.9386,0.97953,-0.13516,-3.9181,7.2361e-11,-0.067581,0,0,0.5,-1.1842e-15,0,0.66667
0.33003,0.69773,0.66006,0.29659,1.2636,5.6426,-0.52205,0.17402,-1.6869,-0.69607,-1.5415e-10,-0.84347,0,0,0.5,-0,-0,0.66667
0.063799,0.90406,0.1276,0.60609,3.0966,9.1049,-0.20623,0.068743,-0.69471,-0.27497,1.3416e-07,-0.34736,0,0,0.5,-9.2519e-17,0,0.66667
0.046104,0.46968,0.092209,-0.045476,-0.2156,9.3225,0.011182,-0.0037277,-1.9937,0.014909,-7.9387e-07,-0.99687,0,0,0.5,-0,-0,0.66667
0.13493,0.090602,0.26985,-0.6141,-3.0975,8.1769,0.44191,-0.1473,-0.65958,0.58921,1.1147e-08,-0.32979,0,0,0.5,1.8504e-16,0,0.66667
0.46952,0.8339,0.93903,0.50085,1.9205,4.0787,-1.2542,0.41805,-1.1079,-1.6722,-1.3013e-11,-0.55396,0,0,0.5,-0,-0,0.66667
0.3841,0.41569,0.76821,-0.12647,-0.50331,4.966,0.25908,-0.086359,-1.9427,0.34544,4.7206e-11,-0.97137,0,0,0.5,-0,-0,0.66667
0.6752,0.17222,1.3504,-0.49167,-1.2632,2.0688,1.7705,-0.59018,-1.1399,2.3607,-2.4021e-10,-0.56995,0,0,0.5,-0,-0,0.66667
0.095395,0.35155,0.19079,-0.22268,-1.0584,8.6639,0.11329,-0.037764,-1.8237,0.15106,4.4907e-09,-0.91183,0,0,0.5,-0,-0,0.66667
0.1618,0.388,0.32361,-0.168,-0.77944,7.7792,0.14497,-0.048324,-1.8991,0.1933,-1.066e-10,-0.94953,0,0,0.5,2.9606e-16,0,0.66667
0.96914,0.34178,1.9383,-0.23733,0.047674,0.146,1.2267,-0.4089,-1.8007,1.6356,-1.7119e-07,-0.90033,0,0,0.5,-4.4409e-16,0,0.66667
0.42449,0.22941,0.84897,-0.40589,-1.6073,4.548,0.91891,-0.3063,-1.4139,1.2252,5.4671e-11,-0.70693,0,0,0.5,-0,-0,0.66667
0.91605,0.32726,1.8321,-0.25911,-0.089174,0.36558,1.2659,-0.42198,-1.7606,1.6879,-5.0403e-09,-0.88031,0,0,0.5,-0,-0,0.66667
0.23435,0.3619,0.46869,-0.20714,-0.93248,6.8355,0.2589,-0.0863,-1.8471,0.3452,6.4181e-11,-0.92356,0,0,0.5,2.9606e-16,0,0.66667
0.98255,0.069165,1.9651,-0.64625,-0.022181,0.41744,3.3865,-1.1288,-0.51513,4.5154,-4.0654e-07,-0.25756,0,0,0.5,2.3685e-15,0,0.66667
0.12649,0.55562,0.25298,0.083424,0.38975,8.2448,-0.056278,0.018759,-1.9753,-0.075038,-1.4334e-10,-0.98766,0,0,0.5,-0,-0,0.66667
0.77992,0.33681,1.5598,-0.24479,-0.38382,1.1438,1.0182,-0.33941,-1.787,1.3576,2.9747e-11,-0.89351,0,0,0.5,-0,-0,0.66667
0.98063,0.98689,1.9613,0.73033,0.12737,0.52378,-3.8196,1.2732,-0.103,-5.0928,-1.012e-06,-0.0515,0,0,0.5,-1.1842e-15,0,0.66667
0.48703,0.91383,0.97405,0.62075,2.4113,3.9471,-1.6124,0.53746,-0.62987,-2.1498,-1.4418e-12,-0.31493,0,0,0.5,-0,-0,0.66667
0.48989,0.0087591,0.97977,-0.73686,-2.9719,3.9854,1.9252,-0.64174,-0.069139,2.567,-4.4076e-14,-0.03457,0,0,0.5,-0,-0,0.66667
0.17515,0.1629,0.35029,-0.50564,-2.4532,7.6389,0.47233,-0.15744,-1.0909,0.62977,1.8162e-09,-0.54546,0,0,0.5,-0,-0,0.66667
0.60894,0.28507,1.2179,-0.32239,-0.92855,2.5828,1.047,-0.34901,-1.631,1.396,-9.0548e-11,-0.81551,0,0,0.5,-0,-0,0.66667
0.24288,0.012775,0.48576,-0.73084,-3.6464,6.8318,0.9467,-0.31557,-0.10028,1.2623,4.5789e-11,-0.05014,0,0,0.5,-0,-0,0.66667
0.7168,0.099254,1.4336,-0.60112,-1.4334,1.8074,2.298,-0.76601,-0.71545,3.064,-3.4035e-10,-0.35772,0,0,0.5,-0,3.6207e-16,0.66667
0.47407,0.30264,0.94813,-0.29604,-1.0782,3.9603,0.74848,-0.24949,-1.688,0.99798,1.706e-11,-0.84399,0,0,0.5,-0,-0,0.66667
0.23239,0.26393,0.46478,-0.35411,-1.6261,6.8777,0.43888,-0.14629,-1.5537,0.58518,2.1616e-10,-0.77684,0,0,0.5,-0,-0,0.66667
0.46068,0.37624,0.92136,-0.18563,-0.67828,4.087,0.45609,-0.15203,-1.8782,0.60813,2.0236e-11,-0.93912,0,0,0.5,-1.1842e-15,0,0.66667
0.024607,0.50149,0.049215,0.002233,0.010597,9.6123,-0.00029235,0.00010114,-2.0007,-0.00038796,5.5364e-06,-1.0004,0,0,0.5,-0,-0,0.66667
0.097131,0.43378,0.19426,-0.099325,-0.46781,8.6373,0.051454,-0.017151,-1.9653,0.068605,-3.7503e-09,-0.98267,0,0,0.5,-1.8504e-16,0,0.66667
0.10145,0.42528,0.20291,-0.11208,-0.52767,8.5796,0.060644,-0.020215,-1.9547,0.080859,7.1891e-09,-0.97737,0,0,0.5,-1.4803e-16,0,0.66667
0.38922,0.12442,0.77844,-0.56338,-2.4063,5.0094,1.1695,-0.38983,-0.87262,1.5593,5.1906e-11,-0.43631,0,0,0.5,-1.8504e-16,0,0.66667
0.71597,0.010907,1.4319,-0.73364,-1.8886,1.9264,2.8014,-0.9338,-0.085917,3.7352,-9.8146e-12,-0.042959,0,0,0.5,-0,5.3813e-16,0.66667
0.052882,0.3437,0.10576,-0.23445,-1.1235,9.2336,0.066123,-0.022041,-1.8056,0.088164,4.3442e-08,-0.9028,0,0,0.5,-9.1651e-17,0,0.66667
0.012488,0.55875,0.024976,0.088124,0.41923,9.776,-0.0058726,0.0019555,-1.9728,-0.0078312,-3.0705e-06,-0.98641,0,0,0.5,4.6259e-18,0,0.66667
0.14747,0.85479,0.29494,0.53219,2.6225,8.0021,-0.41857,0.13952,-0.99245,-0.55809,-2.6574e-09,-0.49622,0,0,0.5,-0,-0,0.66667
0.93668,0.72859,1.8734,0.34288,0.066058,0.31918,-1.7129,0.57097,-1.5818,-2.2839,6.7931e-11,-0.7909,0,0,0.5,2.3685e-15,0,0.66667
0.86574,0.22478,1.7315,-0.41283,-0.38369,0.69525,1.9061,-0.63537,-1.394,2.5415,1.2321e-09,-0.69701,0,0,0.5,-2.3685e-15,0,0.66667
0.40252,0.88777,0.80504,0.58166,2.4643,4.8634,-1.2487,0.41623,-0.79653,-1.6649,-3.3454e-11,-0.39826,0,0,0.5,5.9212e-16,0,0.66667
0.16129,0.76328,0.32259,0.39492,1.885,7.8043,-0.33973,0.11324,-1.4449,-0.45297,4.5301e-10,-0.72243,0,0,0.5,-0,-0,0.66667
0.35482,0.79219,0.70965,0.43828,1.8748,5.3737,-0.8294,0.27647,-1.3165,-1.1059,-1.5727e-10,-0.65827,0,0,0.5,-0,-0,0.66667
0.93483,0.33782,1.8697,-0.24327,-0.036609,0.27813,1.2129,-0.40429,-1.7897,1.6172,-4.1733e-09,-0.89485,0,0,0.5,5.9212e-16,0,0.66667
0.64355,0.88129,1.2871,0.57194,1.6474,2.3913,-1.963,0.65435,-0.83698,-2.6174,9.3313e-11,-0.41849,0,0,0.5,-0,-0,0.66667
0.47107,0.8897,0.94214,0.58454,2.2919,4.0998,-1.4686,0.48953,-0.78459,-1.9581,-5.8092e-12,-0.39229,0,0,0.5,-0,-0,0.66667
0.40237,0.24072,0.80474,-0.38892,-1.5725,4.7982,0.8346,-0.2782,-1.4619,1.1128,7.9888e-11,-0.73095,0,0,0.5,-2.9606e-16,0,0.66667
0.89655,0.85186,1.7931,0.52779,0.39683,0.6253,-2.5237,0.84122,-1.0093,-3.3649,-2.7099e-09,-0.50466,0,0,0.5,-0,-0,0.66667
0.97347,0.04841,1.9469,-0.67739,-0.11632,0.47965,3.5169,-1.1723,-0.36792,4.6892,1.496e-06,-0.18396,0,0,0.5,-0,-0,0.66667
0.77868,0.38502,1.5574,-0.17247,-0.26683,1.1316,0.71626,-0.23875,-1.8939,0.95502,-9.1382e-11,-0.94696,0,0,0.5,-0,-0,0.66667
0.83334,0.52676,1.6667,0.040142,0.042069,0.75319,-0.17841,0.05947,-1.9945,-0.23788,4.5854e-10,-0.99725,0,0,0.5,-1.1842e-15,0,0.66667
0.30709,0.11486,0.61418,-0.57771,-2.6535,5.9928,0.94619,-0.3154,-0.81288,1.2616,2.4318e-10,-0.40644,0,0,0.5,2.9606e-16,0,0.66667
0.93952,0.32229,1.879,-0.26656,-0.030923,0.26894,1.3357,-0.44523,-1.7471,1.7809,9.4886e-09,-0.87355,0,0,0.5,-0,-0,0.66667
0.4527,0.30996,0.9054,-0.28506,-1.0665,4.1956,0.68824,-0.22941,-1.7119,0.91766,3.1872e-11,-0.85595,0,0,0.5,-1.6203e-16,0,0.66667
0.17931,0.46583,0.35861,-0.05126,-0.23483,7.5447,0.04902,-0.01634,-1.9911,0.06536,6.7172e-10,-0.99555,0,0,0.5,-7.4015e-17,0,0.66667
0.5963,0.74654,1.1926,0.36981,1.1078,2.7207,-1.1761,0.39204,-1.5142,-1.5681,7.905e-11,-0.75712,0,0,0.5,-0,-0,0.66667
0.6841,0.58017,1.3682,0.12026,0.27286,1.8562,-0.43876,0.14625,-1.948,-0.58501,7.7559e-11,-0.97402,0,0,0.5,1.1842e-15,0,0.66667
0.43734,0.13403,0.87469,-0.54895,-2.2191,4.4549,1.2804,-0.42681,-0.9285,1.7072,2.1704e-11,-0.46425,0,0,0.5,-0,5.3629e-16,0.66667
0.37334,0.74478,0.74669,0.36716,1.5224,5.1341,-0.73109,0.2437,-1.521,-0.97478,-1.1952e-10,-0.76048,0,0,0.5,-2.9606e-16,0,0.66667
0.70431,0.47125,1.4086,-0.04312,-0.090826,1.6796,0.16197,-0.053991,-1.9941,0.21597,-3.9359e-11,-0.99707,0,0,0.5,-0,-0,0.66667
0.25974,0.13312,0.51948,-0.55031,-2.5888,6.5702,0.76234,-0.25411,-0.92295,1.0165,7.0983e-10,-0.46148,0,0,0.5,-0,-0,0.66667
0.68635,0.86072,1.3727,0.54109,1.375,2.007,-1.9807,0.66022,-0.95859,-2.6409,2.5867e-10,-0.4793,0,0,0.5,1.1842e-15,-1.7471e-16,0.66667
0.57492,0.71539,1.1498,0.32308,1.0001,2.912,-0.99065,0.33022,-1.6294,-1.3209,5.5829e-11,-0.81468,0,0,0.5,1.4803e-15,0,0.66667
0.33501,0.38039,0.67001,-0.17942,-0.75083,5.5651,0.32056,-0.10685,-1.8856,0.42742,9.4556e-11,-0.9428,0,0,0.5,-0,-0,0.66667
0.67669,0.88759,1.3534,0.58139,1.5455,2.1142,-2.0982,0.69941,-0.79762,-2.7976,1.6898e-10,-0.39881,0,0,0.5,1.1842e-15,0,0.66667
0.042896,0.13669,0.085792,-0.54496,-2.7511,9.377,0.12468,-0.041559,-0.94356,0.16623,-9.2719e-08,-0.47178,0,0,0.5,-0,-0,0.66667
0.54883,0.72644,1.0977,0.33966,1.1084,3.1794,-0.99422,0.33141,-1.5897,-1.3256,3.4067e-11,-0.79487,0,0,0.5,-1.1842e-15,0,0.66667
0.5956,0.042348,1.1912,-0.68648,-2.2975,2.9046,2.1806,-0.72687,-0.32409,2.9075,-4.4624e-12,-0.16205,0,0,0.5,-0,-0,0.66667
0.28722,0.63992,0.57444,0.20988,0.91416,6.1625,-0.3215,0.10717,-1.8427,-0.42866,-1.2292e-10,-0.92136,0,0,0.5,-0,-0,0.66667
0.35628,0.8629,0.71256,0.54435,2.3844,5.3893,-1.0344,0.34479,-0.94594,-1.3792,-1.1317e-10,-0.47297,0,0,0.5,-5.9212e-16,0,0.66667
0.86302,0.97445,1.726,0.71167,0.92728,0.96765,-3.2757,1.0919,-0.19929,-4.3675,4.7469e-09,-0.099647,0,0,0.5,-0,-0,0.66667
0.61937,0.28437,1.2387,-0.32345,-0.90971,2.4853,1.0685,-0.35615,-1.6285,1.4246,-1.0299e-10,-0.81423,0,0,0.5,2.3685e-15,0,0.66667
0.63994,0.61974,1.2799,0.17961,0.46688,2.2554,-0.61303,0.20434,-1.8856,-0.81737,7.9519e-11,-0.94282,0,0,0.5,5.9212e-16,0,0.66667
0.10461,0.96779,0.20922,0.70168,3.6503,8.582,-0.39148,0.13049,-0.25029,-0.52198,-3.9036e-08,-0.12515,0,0,0.5,5.5511e-17,0,0.66667
0.23792,0.6579,0.47584,0.23685,1.0673,6.7923,-0.30054,0.10018,-1.8013,-0.40072,-4.7742e-11,-0.90066,0,0,0.5,-0,-0,0.66667
0.71928,0.009716,1.4386,-0.73543,-1.8765,1.9031,2.8212,-0.9404,-0.076822,3.7616,-7.7587e-12,-0.038411,0,0,0.5,2.3685e-15,0,0.66667
0.69947,0.16882,1.3989,-0.49677,-1.1905,1.8718,1.8532,-0.61773,-1.122,2.4709,-3.578e-10,-0.56102,0,0,0.5,-1.1842e-15,0,0.66667
0.44662,0.39028,0.89324,-0.16458,-0.61128,4.2426,0.39202,-0.13067,-1.903,0.52269,2.5122e-11,-0.95151,0,0,0.5,5.9212e-16,0,0.66667
0.039252,0.45917,0.078505,-0.06124,-0.29062,9.4149,0.01282,-0.0042737,-1.9862,0.017094,-4.0832e-07,-0.99312,0,0,0.5,-0,-0,0.66667
0.050396,0.52244,0.10079,0.033667,0.15951,9.2646,-0.0090482,0.0030161,-1.9957,-0.012064,5.3943e-08,-0.99786,0,0,0.5,-7.4015e-17,0,0.66667
0.088504,0.63435,0.17701,0.20153,0.95731,8.7553,-0.095124,0.031708,-1.8552,-0.12683,1.6409e-08,-0.92762,0,0,0.5,-0,-0,0.66667
0.86433,0.31429,1.7287,-0.27857,-0.23571,0.63149,1.2841,-0.42804,-1.7248,1.7122,2.4665e-10,-0.8624,0,0,0.5,-0,-0,0.66667
0.13609,0.1409,0.27219,-0.53865,-2.6675,8.1512,0.39098,-0.13033,-0.96774,0.5213,2.3614e-09,-0.48387,0,0,0.5,-0,-0,0.66667
0.65826,0.20135,1.3165,-0.44797,-1.1858,2.1895,1.5727,-0.52424,-1.286,2.0969,-1.9023e-10,-0.643,0,0,0.5,-0,-0,0.66667
0.57697,0.18307,1.1539,-0.47539,-1.5255,2.9542,1.4629,-0.48762,-1.1969,1.9505,-4.679e-11,-0.59844,0,0,0.5,-0,-0,0.66667
0.7266,0.93175,1.4532,0.64763,1.5344,1.7702,-2.5097,0.83656,-0.50872,-3.3462,2.4259e-10,-0.25436,0,0,0.5,-0,-0,0.66667
0.58257,0.65481,1.1651,0.23222,0.6957,2.8107,-0.72152,0.24051,-1.8091,-0.96202,5.2984e-11,-0.90453,0,0,0.5,3.7007e-16,0,0.66667
0.17942,0.46234,0.35884,-0.056495,-0.25883,7.5433,0.05406,-0.01802,-1.9886,0.07208,6.4651e-10,-0.99428,0,0,0.5,-0,-0,0.66667
0.73408,0.64469,1.4682,0.21704,0.41777,1.4716,-0.84974,0.28325,-1.8322,-1.133,1.1224e-10,-0.91612,0,0,0.5,-1.1842e-15,0,0.66667
0.59544,0.12312,1.1909,-0.56531,-1.8036,2.8257,1.7953,-0.59842,-0.86456,2.3937,-3.7453e-11,-0.43228,0,0,0.5,5.9212e-16,0,0.66667
0.54618,0.031394,1.0924,-0.70291,-2.5806,3.3902,2.0476,-0.68252,-0.24454,2.7301,-3.1841e-13,-0.12227,0,0,0.5,2.3685e-15,-1.0885e-17,0.66667
0.72712,0.81886,1.4542,0.47829,1.0367,1.643,-1.8548,0.61826,-1.1866,-2.4731,5.4053e-10,-0.59328,0,0,0.5,-0,-0,0.66667
0.31395,0.7762,0.62789,0.4143,1.8239,5.8641,-0.6937,0.23123,-1.39,-0.92493,-2.6726e-10,-0.69501,0,0,0.5,-5.9212e-16,0,0.66667
0.070608,0.36837,0.14122,-0.19745,-0.94063,8.9949,0.074355,-0.024785,-1.8613,0.09914,3.6118e-08,-0.93063,0,0,0.5,-0,-0,0.66667
0.088214,0.24035,0.17643,-0.38947,-1.8951,8.7679,0.18324,-0.061079,-1.4603,0.24432,-3.6125e-09,-0.73013,0,0,0.5,-0,-0,0.66667
0.32773,0.16596,0.65545,-0.50106,-2.2235,5.7184,0.87579,-0.29193,-1.1072,1.1677,2.2627e-10,-0.5536,0,0,0.5,-0,-2.8131e-16,0.66667
0.23168,0.27243,0.46336,-0.34135,-1.565,6.8849,0.42179,-0.1406,-1.5855,0.56239,1.6384e-10,-0.79274,0,0,0.5,-0,-0,0.66667
0.74822,0.79584,1.4964,0.44375,0.87351,1.4638,-1.7708,0.59027,-1.2994,-2.3611,5.9425e-10,-0.64969,0,0,0.5,-1.1842e-15,0,0.66667
0.60764,0.93684,1.2153,0.65527,2.1139,2.7709,-2.1235,0.70785,-0.47443,-2.8314,1.1866e-11,-0.23721,0,0,0.5,1.4803e-15,-4.8718e-17,0.66667
0.095431,0.94941,0.19086,0.67411,3.487,8.6978,-0.3431,0.11437,-0.38387,-0.45747,-3.8201e-08,-0.19194,0,0,0.5,-0,-0,0.66667
0.71985,0.45678,1.4397,-0.064827,-0.12905,1.5554,0.24889,-0.082962,-1.9847,0.33185,-6.5299e-11,-0.99236,0,0,0.5,-1.1842e-15,0,0.66667
0.9161,0.98994,1.8322,0.73492,0.61306,0.75052,-3.5907,1.1969,-0.079195,-4.7876,5.8913e-08,-0.039598,0,0,0.5,2.3685e-15,0,0.66667
0.82438,0.18212,1.6488,-0.47682,-0.64906,0.97392,2.0964,-0.69881,-1.1918,2.7953,-1.0423e-09,-0.59588,0,0,0.5,1.7764e-15,0,0.66667
0.67331,0.43523,1.3466,-0.097159,-0.22754,1.9457,0.3489,-0.1163,-1.9672,0.46519,-6.1142e-11,-0.98361,0,0,0.5,2.9606e-16,0,0.66667
0.77664,0.41129,1.5533,-0.13306,-0.20644,1.1376,0.55115,-0.18372,-1.9372,0.73487,-1.7121e-10,-0.9686,0,0,0.5,-0,-0,0.66667
0.15012,0.97693,0.30025,0.71539,3.6918,7.9981,-0.57278,0.19093,-0.18006,-0.76371,-2.0296e-09,-0.09003,0,0,0.5,2.9606e-16,0,0.66667
0.065513,0.43656,0.13103,-0.095165,-0.45075,9.0616,0.033251,-0.011084,-1.9688,0.044334,-1.2178e-07,-0.98438,0,0,0.5,3.7007e-17,0,0.66667
0.74798,0.59705,1.496,0.14558,0.26031,1.3487,-0.58075,0.19358,-1.9252,-0.77434,1.2592e-10,-0.9626,0,0,0.5,-2.3685e-15,0,0.66667
0.98478,0.3791,1.9696,-0.18135,0.070383,0.07436,0.95246,-0.31749,-1.8836,1.2699,-2.3157e-07,-0.94181,0,0,0.5,-0,-0,0.66667
0.24024,0.34967,0.48049,-0.22549,-1.0136,6.7613,0.28892,-0.096308,-1.8192,0.38523,6.2874e-11,-0.90961,0,0,0.5,-0,-0,0.66667
0.56194,0.65792,1.1239,0.23687,0.74001,3.0172,-0.70991,0.23664,-1.8015,-0.94655,3.8874e-11,-0.90073,0,0,0.5,-0,-0,0.66667
0.080826,0.021624,0.16165,-0.71756,-3.7666,8.8922,0.30932,-0.10311,-0.16896,0.41243,5.5101e-08,-0.084481,0,0,0.5,-0,-0,0.66667
0.56119,0.93798,1.1224,0.65697,2.3112,3.2121,-1.9663,0.65544,-0.46654,-2.6217,3.6259e-12,-0.23327,0,0,0.5,2.3685e-15,-3.5859e-17,0.66667
0.45044,0.053266,0.90087,-0.6701,-2.7699,4.3683,1.6098,-0.5366,-0.40318,2.1464,2.1737e-12,-0.20159,0,0,0.5,5.9212e-16,-4.9306e-16,0.66667
0.24055,0.17723,0.4811,-0.48416,-2.268,6.7966,0.62115,-0.20705,-1.1661,0.8282,8.5393e-10,-0.58304,0,0,0.5,-0,-0,0.66667
0.56538,0.38539,1.1308,-0.17191,-0.52878,2.9693,0.51838,-0.17279,-1.8946,0.69117,-3.2435e-11,-0.94728,0,0,0.5,-1.1842e-15,0,0.66667
0.65399,0.91808,1.308,0.62713,1.8041,2.3387,-2.1874,0.72913,-0.60123,-2.9165,6.3188e-11,-0.30061,0,0,0.5,-1.1842e-15,0,0.66667
0.91167,0.98864,1.8233,0.73297,0.64089,0.7664,-3.5639,1.188,-0.089293,-4.7518,8.9294e-08,-0.044647,0,0,0.5,-1.1842e-15,0,0.66667
0.78264,0.47761,1.5653,-0.03358,-0.049849,1.084,0.14017,-0.046722,-1.9959,0.18689,-1.3345e-10,-0.99793,0,0,0.5,-0,-0,0.66667
0.97683,0.18807,1.9537,-0.46789,0.052405,0.26142,2.4376,-0.81253,-1.2225,3.2501,-9.8461e-08,-0.61126,0,0,0.5,2.3685e-15,0,0.66667
0.44272,0.24631,0.88544,-0.38053,-1.4669,4.3333,0.89849,-0.2995,-1.4855,1.198,4.0088e-11,-0.74275,0,0,0.5,5.9212e-16,0,0.66667
0.14102,0.98614,0.28204,0.72921,3.7885,8.1173,-0.54845,0.18282,-0.10898,-0.73127,-7.1949e-10,-0.054488,0,0,0.5,-2.9606e-16,0,0.66667
0.40997,0.3371,0.81994,-0.24435,-0.95676,4.6766,0.53428,-0.17809,-1.7877,0.71237,6.0429e-11,-0.89384,0,0,0.5,-2.9606e-16,0,0.66667
0.7923,0.71937,1.5846,0.32906,0.49832,1.0931,-1.3905,0.46349,-1.616,-1.854,-6.3272e-11,-0.80798,0,0,0.5,2.3685e-15,0,0.66667
0.21104,0.72377,0.42207,0.33566,1.5539,7.15,-0.37779,0.12593,-1.5995,-0.50372,-5.1043e-12,-0.79976,0,0,0.5,5.9212e-16,0,0.66667
0.17738,0.11632,0.35476,-0.57552,-2.8348,7.6219,0.54446,-0.18149,-0.822,0.72595,3.4481e-09,-0.411,0,0,0.5,1.4803e-16,0,0.66667
0.6451,0.96021,1.2902,0.69032,2.088,2.4634,-2.3751,0.79169,-0.30536,-3.1668,1.2442e-11,-0.15268,0,0,0.5,5.9212e-16,0,0.66667
0.94704,0.0022828,1.8941,-0.74658,-0.40664,0.64866,3.7709,-1.257,-0.018806,5.0278,-4.7017e-07,-0.0094028,0,0,0.5,-0,-0,0.66667
0.40926,0.65573,0.81853,0.2336,0.91414,4.683,-0.50989,0.16996,-1.807,-0.67985,-5.9466e-11,-0.90351,0,0,0.5,-2.4055e-16,0,0.66667
0.69687,0.18304,1.3937,-0.47544,-1.1384,1.88,1.767,-0.58902,-1.1965,2.3561,-3.4458e-10,-0.59825,0,0,0.5,5.9212e-16,0,0.66667
0.40397,0.80808,0.80795,0.46212,1.8952,4.8019,-0.99565,0.33188,-1.2411,-1.3275,-6.9273e-11,-0.62053,0,0,0.5,-8.8818e-16,0,0.66667
0.34982,0.86577,0.69963,0.54866,2.4193,5.4677,-1.0236,0.34121,-0.92932,-1.3648,-1.2484e-10,-0.46466,0,0,0.5,-2.9606e-16,0,0.66667
0.13297,0.8846,0.26594,0.57689,2.8849,8.1971,-0.40911,0.13637,-0.81627,-0.54549,-5.7649e-09,-0.40813,0,0,0.5,-0,-0,0.66667
0.019913,0.9709,0.039825,0.70634,3.7191,9.6845,-0.075018,0.025006,-0.2267,-0.10002,-1.8352e-09,-0.11335,0,0,0.5,-0,-0,0.66667
0.11967,0.35455,0.23934,-0.21818,-1.0305,8.34,0.13925,-0.046417,-1.8303,0.18567,-8.9955e-10,-0.91513,0,0,0.5,-0,-0,0.66667
0.44424,0.55486,0.88848,0.082295,0.30487,4.2616,-0.19498,0.064993,-1.9757,-0.25997,-1.4153e-11,-0.98785,0,0,0.5,-2.9606e-16,0,0.66667
0.72978,0.088672,1.4596,-0.61699,-1.4217,1.7212,2.4014,-0.80048,-0.64663,3.2019,-3.9907e-10,-0.32331,0,0,0.5,-2.9606e-16,0,0.66667
0.05369,0.22257,0.10738,-0.41615,-2.0451,9.2284,0.11916,-0.039721,-1.3845,0.15889,-1.1072e-08,-0.69227,0,0,0.5,1.4803e-16,0,0.66667
0.22167,0.46032,0.44334,-0.059516,-0.26732,6.9914,0.070362,-0.023454,-1.9872,0.093816,1.7444e-10,-0.99361,0,0,0.5,-1.4803e-16,0,0.66667
0.031064,0.82726,0.062129,0.49088,2.4518,9.5318,-0.081329,0.02711,-1.1429,-0.10844,-3.9705e-09,-0.57143,0,0,0.5,-0,1.3203e-16,0.66667
0.83332,0.0098636,1.6666,-0.7352,-1.1814,1.1525,3.2675,-1.0892,-0.077721,4.3567,1.3473e-10,-0.03886,0,0,0.5,-0,-0,0.66667
0.38188,0.25125,0.76375,-0.37313,-1.536,5.0344,0.75994,-0.25331,-1.5057,1.0133,1.0763e-10,-0.75287,0,0,0.5,1.1842e-15,0,0.66667
0.28458,0.86424,0.56916,0.54636,2.5284,6.2601,-0.82925,0.27642,-0.93821,-1.1057,-4.4266e-10,-0.46911,0,0,0.5,-0,-0,0.66667
0.78367,0.70085,1.5673,0.30128,0.47262,1.1393,-1.2592,0.41974,-1.6768,-1.679,-3.2869e-11,-0.83839,0,0,0.5,-0,-0,0.66667
0.2789,0.33684,0.55781,-0.24474,-1.0762,6.2712,0.36405,-0.12135,-1.787,0.48541,1.3372e-10,-0.89352,0,0,0.5,1.4803e-16,0,0.66667
0.28082,0.65141,0.56163,0.22712,0.99545,6.245,-0.34016,0.11339,-1.817,-0.45354,-1.2538e-10,-0.90851,0,0,0.5,-0,-0,0.66667
0.935,0.29637,1.87,-0.30545,-0.056267,0.30579,1.5232,-0.50773,-1.6677,2.0309,-5.3631e-09,-0.83387,0,0,0.5,-0,-0,0.66667
0.16421,0.064978,0.32843,-0.65253,-3.2938,7.8054,0.5715,-0.1905,-0.48658,0.762,4.3765e-09,-0.24329,0,0,0.5,-5.9212e-16,0,0.66667
0.03791,0.5235,0.07582,0.035257,0.16725,9.4329,-0.0071278,0.0023758,-1.9953,-0.0095038,-2.1258e-07,-0.99767,0,0,0.5,-0,-0,0.66667
0.95604,0.13779,1.9121,-0.54331,-0.09854,0.39571,2.7703,-0.92343,-0.94994,3.6937,6.8665e-08,-0.47497,0,0,0.5,-0,-0,0.66667
0.30613,0.047756,0.61227,-0.67837,-3.2069,6.0389,1.1076,-0.36919,-0.36314,1.4768,6.0642e-11,-0.18157,0,0,0.5,-0,-0,0.66667
0.41408,0.38982,0.82815,-0.16527,-0.6386,4.6169,0.36499,-0.12166,-1.9022,0.48666,4.2392e-11,-0.9511,0,0,0.5,-0,-0,0.66667
0.79679,0.41034,1.5936,-0.13448,-0.18596,0.99919,0.57149,-0.1905,-1.9363,0.76199,-2.0041e-10,-0.96813,0,0,0.5,-0,-0,0.66667
0.35618,0.37755,0.71237,-0.18367,-0.75458,5.3073,0.34891,-0.1163,-1.8807,0.46521,8.3633e-11,-0.94034,0,0,0.5,-0,-0,0.66667
0.10486,0.91812,0.20972,0.62719,3.1982,8.5696,-0.35075,0.11692,-0.60085,-0.46767,-1.8374e-08,-0.30043,0,0,0.5,-0,-0,0.66667
0.7889,0.46697,1.5778,-0.049539,-0.071,1.0417,0.20843,-0.069478,-1.9919,0.27791,-2.3483e-10,-0.99597,0,0,0.5,2.9606e-16,0,0.66667
0.12962,0.49695,0.25923,-0.0045743,-0.021314,8.2024,0.0031621,-0.001054,-2.0004,0.0042162,1.3462e-09,-1.0002,0,0,0.5,1.8504e-16,0,0.66667
0.19804,0.53091,0.39608,0.046363,0.21063,7.2989,-0.048969,0.016323,-1.9934,-0.065292,-2.4542e-10,-0.99668,0,0,0.5,7.0169e-17,0,0.66667
0.13971,0.60177,0.27941,0.15265,0.71289,8.071,-0.11374,0.037914,-1.9171,-0.15166,9.1159e-10,-0.95856,0,0,0.5,-0,-0,0.66667
0.22166,0.88614,0.44332,0.57921,2.801,7.0569,-0.68473,0.22824,-0.80677,-0.91297,-1.4529e-09,-0.40339,0,0,0.5,-0,-0,0.66667
0.23535,0.57571,0.47069,0.11356,0.5074,6.8163,-0.14254,0.047514,-1.9538,-0.19006,-1.5722e-10,-0.97688,0,0,0.5,-0,-0,0.66667
0.7264,0.42413,1.4528,-0.11381,-0.22184,1.5092,0.44092,-0.14697,-1.9533,0.58789,-1.0112e-10,-0.97665,0,0,0.5,-0,-0,0.66667
0.095244,0.43219,0.19049,-0.10171,-0.47929,8.6626,0.051666,-0.017222,-1.9635,0.068888,-1.2528e-08,-0.98175,0,0,0.5,2.2204e-16,0,0.66667
0.66824,0.85493,1.3365,0.53239,1.4174,2.1525,-1.8974,0.63248,-0.99176,-2.5299,1.9115e-10,-0.49588,0,0,0.5,-0,-0,0.66667
0.91093,0.42093,1.8219,-0.11861,-0.04021,0.34585,0.57624,-0.19208,-1.9494,0.76833,1.0128e-08,-0.97468,0,0,0.5,-0,-0,0.66667
0.63,0.97624,1.26,0.71437,2.2591,2.6143,-2.4003,0.80009,-0.18536,-3.2003,2.8042e-12,-0.092681,0,0,0.5,-0,-0,0.66667
0.33688,0.39549,0.67377,-0.15677,-0.65377,5.5398,0.28168,-0.093892,-1.9121,0.37557,8.3839e-11,-0.95605,0,0,0.5,-0,-0,0.66667
0.83945,0.86837,1.6789,0.55256,0.72295,0.94295,-2.4738,0.82462,-0.91437,-3.2985,3.662e-09,-0.45718,0,0,0.5,-5.9212e-16,0,0.66667
0.89856,0.29002,1.7971,-0.31498,-0.17219,0.47268,1.5095,-0.50316,-1.6469,2.0126,5.577e-10,-0.82345,0,0,0.5,-0,-0,0.66667
0.49346,0.18092,0.98692,-0.47861,-1.7655,3.8105,1.2596,-0.41987,-1.1854,1.6795,3.0236e-12,-0.59271,0,0,0.5,-8.8818e-16,0,0.66667
0.56348,0.58696,1.127,0.13044,0.401,2.9821,-0.392,0.13067,-1.9396,-0.52266,2.4843e-11,-0.96981,0,0,0.5,5.9212e-16,0,0.66667
0.58066,0.28307,1.1613,-0.32539,-0.99621,2.8563,1.0077,-0.3359,-1.6243,1.3436,-6.1361e-11,-0.81217,0,0,0.5,-0,-0,0.66667
0.13276,0.87756,0.26551,0.56633,2.8252,8.1984,-0.40099,0.13366,-0.86013,-0.53465,-3.8551e-09,-0.43007,0,0,0.5,-0,-0,0.66667
0.37306,0.47912,0.74612,-0.031325,-0.12558,5.0931,0.062326,-0.020775,-1.9962,0.083101,1.377e-11,-0.99811,0,0,0.5,-0,-0,0.66667
0.81161,0.54168,1.6232,0.06252,0.077577,0.89136,-0.27062,0.090208,-1.9859,-0.36083,4.4984e-10,-0.99293,0,0,0.5,-0,-0,0.66667
0.5196,0.27096,1.0392,-0.34356,-1.1793,3.4831,0.95208,-0.31736,-1.5799,1.2694,-1.299e-11,-0.78996,0,0,0.5,-5.9212e-16,0,0.66667
0.93958,0.2099,1.8792,-0.43515,-0.10356,0.36747,2.1806,-0.72687,-1.3265,2.9075,6.9379e-09,-0.66327,0,0,0.5,-0,-0,0.66667
0.61582,0.15283,1.2316,-0.52076,-1.5668,2.6097,1.7104,-0.57012,-1.0361,2.2805,-7.7435e-11,-0.51807,0,0,0.5,1.8232e-16,0,0.66667
0.77945,0.17475,1.5589,-0.48788,-0.85699,1.2705,2.0282,-0.67605,-1.1533,2.7042,-1.1073e-09,-0.57663,0,0,0.5,1.1842e-15,0,0.66667
0.24803,0.048347,0.49606,-0.67748,-3.3182,6.7515,0.89618,-0.29873,-0.3676,1.1949,2.726e-10,-0.1838,0,0,0.5,-2.9606e-16,5.8686e-16,0.66667
0.55931,0.99284,1.1186,0.73926,2.6971,3.2876,-2.2052,0.73507,-0.056785,-2.9403,8.9928e-14,-0.028392,0,0,0.5,-5.9212e-16,4.1821e-16,0.66667
0.81064,0.55802,1.6213,0.087028,0.10906,0.90032,-0.37626,0.12542,-1.9735,-0.50168,4.2545e-10,-0.98673,0,0,0.5,2.2564e-15,0,0.66667
0.15271,0.51122,0.30542,0.016834,0.07787,7.8955,-0.013711,0.0045703,-1.9985,-0.018281,7.2806e-10,-0.99927,0,0,0.5,-5.9212e-16,0,0.66667
0.54016,0.65967,1.0803,0.23951,0.7792,3.2402,-0.68999,0.23,-1.7964,-0.91998,2.454e-11,-0.8982,0,0,0.5,-0,-0,0.66667
0.6103,0.37096,1.2206,-0.19356,-0.54242,2.5339,0.63002,-0.21001,-1.8673,0.84003,-6.4492e-11,-0.93365,0,0,0.5,-5.9212e-16,0,0.66667
0.18706,0.859,0.37411,0.5385,2.6193,7.4907,-0.53723,0.17908,-0.96857,-0.7163,-2.3781e-09,-0.48428,0,0,0.5,-0,-0,0.66667
0.63689,0.4807,1.2738,-0.028956,-0.074927,2.2654,0.098356,-0.032785,-1.9965,0.13114,-1.4004e-11,-0.99826,0,0,0.5,-0,-0,0.66667
0.067575,0.33906,0.13515,-0.24141,-1.1554,9.0368,0.087003,-0.029001,-1.793,0.116,-1.0331e-08,-0.8965,0,0,0.5,-1.1102e-16,0,0.66667
0.77954,0.66646,1.5591,0.24969,0.39293,1.1482,-1.0381,0.34604,-1.7781,-1.3841,-2.9191e-11,-0.88903,0,0,0.5,-0,-0,0.66667
0.32597,0.81993,0.65195,0.47989,2.1221,5.7337,-0.8343,0.2781,-1.1811,-1.1124,-2.4005e-10,-0.59057,0,0,0.5,-5.9212e-16,0,0.66667
0.48278,0.54781,0.96557,0.07171,0.25186,3.8292,-0.18464,0.061547,-1.9813,-0.24619,-3.7909e-12,-0.99063,0,0,0.5,5.9212e-16,0,0.66667
0.38231,0.48385,0.76462,-0.024218,-0.096173,4.9821,0.049381,-0.01646,-1.9972,0.065841,9.6652e-12,-0.99862,0,0,0.5,5.9212e-16,0,0.66667
0.32698,0.33176,0.65396,-0.25236,-1.0715,5.6731,0.44008,-0.14669,-1.7732,0.58677,1.3265e-10,-0.88661,0,0,0.5,-0,-0,0.66667
0.98768,0.060623,1.9754,-0.65907,0.0014992,0.41786,3.4717,-1.1572,-0.45634,4.6289,2.451e-06,-0.22817,0,0,0.5,-1.7764e-15,0,0.66667
0.879,0.40083,1.758,-0.14876,-0.097017,0.51,0.69737,-0.23246,-1.9214,0.92983,-3.5808e-09,-0.96072,0,0,0.5,-1.1842e-15,0,0.66667
0.30229,0.1537,0.60459,-0.51946,-2.3596,6.0342,0.83749,-0.27916,-1.0411,1.1166,3.4456e-10,-0.52057,0,0,0.5,8.8818e-16,0,0.66667
0.16065,0.60063,0.32129,0.15094,0.69976,7.7937,-0.12932,0.043108,-1.9189,-0.17243,-1.1344e-10,-0.95946,0,0,0.5,-5.9212e-16,0,0.66667
0.52931,0.88366,1.0586,0.57549,2.0713,3.4818,-1.6246,0.54154,-0.82229,-2.1661,6.5495e-12,-0.41115,0,0,0.5,-0,-0,0.66667
0.13806,0.40359,0.27612,-0.14461,-0.67532,8.0926,0.10648,-0.035493,-1.9263,0.14197,-1.9239e-09,-0.96315,0,0,0.5,2.2204e-16,0,0.66667
0.64979,0.46835,1.2996,-0.047474,-0.11871,2.1491,0.16452,-0.054841,-1.9929,0.21936,-2.5758e-11,-0.99647,0,0,0.5,-1.5303e-15,0,0.66667
0.23295,0.057651,0.46591,-0.66352,-3.2626,6.9357,0.82437,-0.27479,-0.43497,1.0992,5.3655e-10,-0.21749,0,0,0.5,-2.9606e-16,0,0.66667
0.096557,0.62341,0.19311,0.18512,0.87671,8.6471,-0.095332,0.031777,-1.879,-0.12711,8.1562e-09,-0.93949,0,0,0.5,-1.6653e-16,0,0.66667
0.021993,0.20103,0.043985,-0.44846,-2.2226,9.6515,0.052601,-0.017534,-1.2843,0.070135,5.1229e-08,-0.64214,0,0,0.5,-3.7007e-17,0,0.66667
0.85906,0.79039,1.7181,0.43559,0.4403,0.74613,-1.9957,0.66524,-1.3253,-2.661,-8.6551e-10,-0.66265,0,0,0.5,-0,-0,0.66667
0.14271,0.339,0.28542,-0.2415,-1.1355,8.0356,0.18381,-0.061271,-1.793,0.24508,-1.0295e-09,-0.89648,0,0,0.5,-0,-0,0.66667
0.40293,0.079167,0.80586,-0.63125,-2.7127,4.8802,1.3565,-0.45218,-0.58263,1.8087,1.6952e-11,-0.29132,0,0,0.5,-1.0693e-15,0,0.66667
0.093564,0.2088,0.18713,-0.43681,-2.1409,8.7001,0.21797,-0.072657,-1.3215,0.29063,-5.887e-09,-0.66073,0,0,0.5,-1.4803e-16,0,0.66667
0.11789,0.31406,0.23579,-0.27891,-1.3266,8.3669,0.17537,-0.058455,-1.7241,0.23382,-2.2501e-09,-0.86206,0,0,0.5,2.9606e-16,0,0.66667
0.37482,0.21334,0.74963,-0.42999,-1.8027,5.1332,0.85955,-0.28652,-1.343,1.1461,1.1823e-10,-0.67149,0,0,0.5,-2.9606e-16,0,0.66667
0.16539,0.71545,0.33077,0.32318,1.523,7.7432,-0.28506,0.095021,-1.629,-0.38009,6.7346e-10,-0.81452,0,0,0.5,-7.4015e-17,0,0.66667
0.71895,0.96239,1.4379,0.69359,1.7285,1.8673,-2.6595,0.8865,-0.28979,-3.546,6.4895e-11,-0.14489,0,0,0.5,-1.1842e-15,0,0.66667
0.12585,0.32394,0.2517,-0.26409,-1.2512,8.2603,0.17726,-0.059087,-1.7517,0.23635,-1.5468e-09,-0.87586,0,0,0.5,-0,-0,0.66667
0.73883,0.90311,1.4777,0.60467,1.3411,1.6443,-2.3827,0.79422,-0.70048,-3.1769,5.4652e-10,-0.35024,0,0,0.5,1.1842e-15,0,0.66667
0.84138,0.72815,1.6828,0.34223,0.37502,0.79118,-1.5357,0.5119,-1.5833,-2.0476,-7.5349e-10,-0.79166,0,0,0.5,-0,-0,0.66667
0.082681,0.18035,0.16536,-0.47948,-2.3744,8.8472,0.21143,-0.070478,-1.1825,0.28191,-9.9907e-09,-0.59123,0,0,0.5,-1.4803e-16,0,0.66667
0.040078,0.45357,0.080156,-0.069646,-0.33057,9.4038,0.014887,-0.0049625,-1.9821,0.019849,-2.2799e-07,-0.99104,0,0,0.5,-1.2148e-16,0,0.66667
0.49353,0.80391,0.98707,0.45587,1.6714,3.8003,-1.1999,0.39998,-1.2608,-1.5999,-3.3572e-12,-0.63038,0,0,0.5,-0,-0,0.66667
0.60076,0.72083,1.2015,0.33125,0.97351,2.6637,-1.0613,0.35378,-1.6105,-1.4151,8.2278e-11,-0.80524,0,0,0.5,-0,-0,0.66667
0.684,0.14666,1.368,-0.53002,-1.3495,2.0191,1.9335,-0.6445,-1.0009,2.578,-2.5837e-10,-0.50043,0,0,0.5,-5.9212e-16,0,0.66667
0.47827,0.095442,0.95655,-0.60684,-2.3739,4.0333,1.5479,-0.51597,-0.69136,2.0639,2.8975e-12,-0.34568,0,0,0.5,-0,-0,0.66667
0.54316,0.93769,1.0863,0.65654,2.379,3.3897,-1.9019,0.63396,-0.4685,-2.5358,2.2116e-12,-0.23425,0,0,0.5,-0,-0,0.66667
0.54961,0.036507,1.0992,-0.69524,-2.5308,3.3511,2.0379,-0.67931,-0.2816,2.7172,-8.8018e-13,-0.1408,0,0,0.5,-0,-0,0.66667
0.71378,0.61642,1.4276,0.17463,0.36051,1.6208,-0.6648,0.2216,-1.8913,-0.8864,1.116e-10,-0.94564,0,0,0.5,1.1842e-15,0,0.66667
0.15616,0.46235,0.31232,-0.056475,-0.26109,7.8503,0.047036,-0.015679,-1.9889,0.062715,1.6943e-09,-0.99445,0,0,0.5,-1.4803e-16,0,0.66667
0.021742,0.16427,0.043485,-0.50359,-2.5232,9.6559,0.058396,-0.019466,-1.098,0.077862,-1.8561e-07,-0.54902,0,0,0.5,-0,-0,0.66667
0.50805,0.38281,1.0161,-0.17579,-0.59864,3.566,0.47632,-0.15877,-1.8899,0.6351,-3.9019e-12,-0.94494,0,0,0.5,-0,-0,0.66667
0.95369,0.26879,1.9074,-0.34681,-0.0083072,0.2557,1.764,-0.588,-1.572,2.352,-1.4372e-09,-0.786,0,0,0.5,-0,-0,0.66667
0.025153,0.49148,0.050307,-0.012773,-0.060627,9.6049,0.0017106,-0.00057349,-1.9991,0.0022792,-4.9213e-06,-0.99956,0,0,0.5,-0,-0,0.66667
0.6128,0.036919,1.2256,-0.69462,-2.2558,2.7527,2.2702,-0.75674,-0.28456,3.027,-4.5439e-12,-0.14228,0,0,0.5,2.3685e-15,0,0.66667
0.49388,0.50072,0.98776,0.0010843,0.0037388,3.7054,-0.0028561,0.00095204,-2.0009,-0.0038082,-2.5539e-14,-1.0004,0,0,0.5,-0,-0,0.66667
0.9002,0.24539,1.8004,-0.38191,-0.22127,0.5022,1.8336,-0.61119,-1.4816,2.4448,1.4618e-09,-0.74079,0,0,0.5,-5.9212e-16,0,0.66667
0.023607,0.37281,0.047214,-0.19078,-0.91284,9.6266,0.02402,-0.0080073,-1.8712,0.032027,-6.8906e-07,-0.93559,0,0,0.5,4.1633e-17,0,0.66667
0.65951,0.43161,1.319,-0.10258,-0.25042,2.0672,0.36083,-0.12028,-1.9627,0.4811,-5.7287e-11,-0.98134,0,0,0.5,1.1842e-15,0,0.66667
0.65622,0.57281,1.3124,0.10921,0.26928,2.0972,-0.38223,0.12741,-1.9574,-0.50964,5.8816e-11,-0.97872,0,0,0.5,-0,-0,0.66667
0.88375,0.049455,1.7675,-0.67582,-0.71516,0.82671,3.1854,-1.0618,-0.37545,4.2472,-1.4233e-08,-0.18772,0,0,0.5,-0,-0,0.66667
0.53642,0.59916,1.0728,0.14874,0.48166,3.2621,-0.42554,0.14185,-1.9214,-0.56739,1.5549e-11,-0.96071,0,0,0.5,1.1842e-15,0,0.66667
0.69065,0.99089,1.3813,0.73634,2.0384,2.1249,-2.7123,0.90409,-0.071914,-3.6164,3.4837e-12,-0.035957,0,0,0.5,-0,-0,0.66667
0.41267,0.89755,0.82533,0.59633,2.5109,4.7537,-1.3124,0.43748,-0.73529,-1.7499,-2.2565e-11,-0.36765,0,0,0.5,-2.9606e-16,0,0.66667
0.82659,0.28181,1.6532,-0.32729,-0.39833,0.87224,1.4428,-0.48095,-1.6203,1.9238,5.431e-10,-0.81013,0,0,0.5,-0,-0,0.66667
0.68501,0.61965,1.37,0.17948,0.40935,1.8593,-0.6557,0.21857,-1.8857,-0.87427,1.046e-10,-0.94284,0,0,0.5,2.9606e-16,0,0.66667
0.10801,0.71761,0.21603,0.32642,1.5662,8.501,-0.18804,0.06268,-1.6222,-0.25072,2.6881e-09,-0.81109,0,0,0.5,-1.8504e-16,0,0.66667
0.13989,0.30359,0.27979,-0.29461,-1.3952,8.0764,0.21981,-0.073271,-1.6913,0.29308,-7.2503e-10,-0.84565,0,0,0.5,-1.4803e-16,0,0.66667
0.15807,0.40868,0.31614,-0.13698,-0.63508,7.8272,0.11548,-0.038494,-1.934,0.15398,6.3584e-10,-0.96701,0,0,0.5,-0,-0,0.66667
0.12054,0.52979,0.24108,0.044682,0.20887,8.3236,-0.028725,0.0095749,-1.9937,-0.0383,-1.3981e-08,-0.99684,0,0,0.5,-1.1234e-16,0,0.66667
0.23028,0.076924,0.46056,-0.63461,-3.1,6.9616,0.7794,-0.2598,-0.56746,1.0392,8.5411e-10,-0.28373,0,0,0.5,-0,1.7166e-16,0.66667
0.42336,0.25686,0.84672,-0.36471,-1.4341,4.5489,0.8235,-0.2745,-1.5271,1.098,5.7873e-11,-0.76356,0,0,0.5,-0,-0,0.66667
0.67076,0.025758,1.3415,-0.71136,-2.0453,2.2639,2.5448,-0.84827,-0.20104,3.3931,-8.0342e-12,-0.10052,0,0,0.5,-5.9212e-16,0,0.66667
0.33662,0.78189,0.67324,0.42284,1.8313,5.5892,-0.75913,0.25304,-1.3652,-1.0122,-2.0432e-10,-0.68259,0,0,0.5,-0,-0,0.66667
0.51975,0.023978,1.0395,-0.71403,-2.7404,3.6625,1.9793,-0.65977,-0.18711,2.6391,-1.3822e-13,-0.093555,0,0,0.5,-0,-0,0.66667
0.82112,0.77866,1.6422,0.41799,0.55812,0.9553,-1.8305,0.61016,-1.3793,-2.4407,9.7957e-11,-0.68966,0,0,0.5,2.9606e-16,0,0.66667
0.88459,0.13826,1.7692,-0.54262,-0.47858,0.69511,2.56,-0.85332,-0.95251,3.4133,-1.5431e-09,-0.47626,0,0,0.5,-0,-0,0.66667
0.70449,0.98877,1.409,0.73316,1.9505,2.0136,-2.7547,0.91823,-0.088486,-3.6729,7.347e-12,-0.044243,0,0,0.5,-0,-0,0.66667
0.83449,0.34166,1.669,-0.2375,-0.25995,0.78686,1.057,-0.35235,-1.8001,1.4094,7.0115e-10,-0.90003,0,0,0.5,1.7274e-15,0,0.66667
0.30908,0.21261,0.61815,-0.43108,-1.9111,5.928,0.7106,-0.23687,-1.3393,0.94746,2.9454e-10,-0.66966,0,0,0.5,-2.9606e-16,0,0.66667
0.79062,0.10312,1.5812,-0.59532,-1.0619,1.2773,2.5102,-0.83674,-0.73951,3.347,-1.8318e-09,-0.36975,0,0,0.5,-0,-0,0.66667
0.91666,0.41763,1.8333,-0.12355,-0.035139,0.32058,0.60402,-0.20134,-1.9452,0.80535,1.87e-08,-0.97261,0,0,0.5,-0,-0,0.66667
0.038406,0.24269,0.076811,-0.38596,-1.8899,9.4313,0.079056,-0.026352,-1.4702,0.10541,7.8217e-09,-0.73508,0,0,0.5,-3.7007e-17,0,0.66667
0.44563,0.91675,0.89126,0.62513,2.5606,4.3979,-1.4857,0.49524,-0.61005,-1.981,-6.9087e-12,-0.30502,0,0,0.5,-0,-0,0.66667
0.23993,0.027215,0.47986,-0.70918,-3.5207,6.8618,0.90748,-0.30249,-0.21208,1.21,1.0242e-10,-0.10604,0,0,0.5,1.4803e-16,0,0.66667
0.49402,0.38969,0.98803,-0.16547,-0.57531,3.7159,0.43597,-0.14532,-1.902,0.5813,2.733e-12,-0.951,0,0,0.5,-0,-0,0.66667
0.61748,0.3126,1.235,-0.28111,-0.78667,2.489,0.92574,-0.30858,-1.72,1.2343,-9.2337e-11,-0.86002,0,0,0.5,-2.3685e-15,0,0.66667
0.20905,0.67929,0.4181,0.26893,1.2349,7.1682,-0.29984,0.099947,-1.7426,-0.39979,1.155e-10,-0.87129,0,0,0.5,-2.9606e-16,0,0.66667
0.87443,0.52237,1.7489,0.033554,0.022592,0.51782,-0.15648,0.052161,-1.9959,-0.20864,5.0541e-09,-0.99796,0,0,0.5,-0,-0,0.66667
0.25589,0.18965,0.51178,-0.46552,-2.1533,6.5988,0.63532,-0.21177,-1.2301,0.84709,6.5263e-10,-0.61505,0,0,0.5,-5.9212e-16,0,0.66667
0.71361,0.64632,1.4272,0.21949,0.45742,1.6334,-0.83535,0.27845,-1.8283,-1.1138,1.2563e-10,-0.91415,0,0,0.5,5.9212e-16,0,0.66667
0.85223,0.21904,1.7045,-0.42144,-0.44698,0.77467,1.9155,-0.63851,-1.3695,2.5541,9.8749e-10,-0.68473,0,0,0.5,-0,-0,0.66667
0.93241,0.53865,1.8648,0.057971,0.006762,0.24191,-0.28828,0.096094,-1.9879,-0.38437,1.1522e-08,-0.99394,0,0,0.5,-0,-0,0.66667
0.95573,0.86508,1.9115,0.54762,0.10374,0.40079,-2.7913,0.93044,-0.93343,-3.7218,-9.814e-08,-0.46672,0,0,0.5,1.1842e-15,0,0.66667
0.6802,0.24168,1.3604,-0.38748,-0.94472,1.9715,1.4057,-0.46856,-1.4659,1.8742,-2.3053e-10,-0.73293,0,0,0.5,5.9212e-16,0,0.66667
0.62852,0.37471,1.257,-0.18793,-0.50361,2.362,0.62996,-0.20999,-1.8755,0.83995,-7.5195e-11,-0.93775,0,0,0.5,1.6468e-15,0,0.66667
0.59597,0.96345,1.1919,0.69518,2.3337,2.9075,-2.2096,0.73654,-0.28193,-2.9462,2.8846e-12,-0.14096,0,0,0.5,-8.8818e-16,0,0.66667
0.48512,0.090965,0.97024,-0.61355,-2.3838,3.9636,1.5875,-0.52915,-0.66227,2.1166,1.7778e-12,-0.33113,0,0,0.5,1.4803e-16,0,0.66667
0.36043,0.40206,0.72086,-0.14692,-0.59935,5.252,0.28242,-0.094139,-1.9237,0.37656,6.7023e-11,-0.96187,0,0,0.5,-8.8818e-16,0,0.66667
0.020765,0.37739,0.041531,-0.18391,-0.87962,9.6648,0.020369,-0.0067898,-1.8803,0.027158,-3.5024e-07,-0.94016,0,0,0.5,7.4015e-17,0,0.66667
0.74867,0.45036,1.4973,-0.074457,-0.13152,1.3331,0.2973,-0.099101,-1.9799,0.3964,-1.077e-10,-0.98994,0,0,0.5,1.1842e-15,0,0.66667
0.39368,0.29979,0.78735,-0.30031,-1.2064,4.8783,0.63054,-0.21018,-1.6788,0.84072,8.4096e-11,-0.83942,0,0,0.5,-0,-0,0.66667
0.27934,0.72659,0.55868,0.33988,1.5137,6.2796,-0.50636,0.16879,-1.5892,-0.67514,-2.4005e-10,-0.7946,0,0,0.5,-0,-0,0.66667
0.77753,0.64453,1.5551,0.2168,0.34134,1.1516,-0.89903,0.29968,-1.8324,-1.1987,1.6353e-11,-0.9162,0,0,0.5,-0,-0,0.66667
0.66027,0.65236,1.3205,0.22854,0.56658,2.085,-0.80479,0.26826,-1.8147,-1.0731,1.1243e-10,-0.90733,0,0,0.5,-1.4803e-15,0,0.66667
0.9098,0.65141,1.8196,0.22712,0.08834,0.38147,-1.102,0.36735,-1.8168,-1.4694,1.0186e-08,-0.90841,0,0,0.5,1.7764e-15,0,0.66667
0.12761,0.97485,0.25523,0.71228,3.6962,8.2866,-0.48479,0.1616,-0.19622,-0.64638,-4.3529e-09,-0.098109,0,0,0.5,-0,-0,0.66667
0.38236,0.40878,0.76472,-0.13683,-0.54591,4.9877,0.27903,-0.093009,-1.934,0.37204,5.1753e-11,-0.96698,0,0,0.5,-0,-0,0.66667
0.57738,0.72787,1.1548,0.34181,1.0573,2.8941,-1.0526,0.35085,-1.5845,-1.4034,5.8534e-11,-0.79224,0,0,0.5,-0,-0,0.66667
0.3545,0.83951,0.709,0.50927,2.2147,5.3988,-0.96285,0.32095,-1.0781,-1.2838,-1.3926e-10,-0.53907,0,0,0.5,1.4803e-16,0,0.66667
0.34805,0.89432,0.6961,0.59148,2.642,5.5039,-1.0979,0.36598,-0.75557,-1.4639,-9.233e-11,-0.37778,0,0,0.5,5.9212e-16,0,0.66667
0.48409,0.52926,0.96818,0.04389,0.15371,3.8134,-0.11332,0.037772,-1.9941,-0.15109,-2.2141e-12,-0.99704,0,0,0.5,-1.4803e-16,0,0.66667
0.071438,0.10391,0.14288,-0.59414,-3.0235,9.0037,0.22637,-0.075457,-0.74442,0.30183,1.6116e-08,-0.37221,0,0,0.5,-0,-0,0.66667
0.038686,0.98067,0.077371,0.72101,3.8077,9.4403,-0.14876,0.049587,-0.15106,-0.19835,8.0379e-07,-0.075532,0,0,0.5,-7.4015e-17,0,0.66667
0.84061,0.71233,1.6812,0.31849,0.34605,0.78399,-1.4279,0.47596,-1.6394,-1.9038,-6.7473e-10,-0.81969,0,0,0.5,1.1842e-15,0,0.66667
0.0073689,0.070195,0.014738,-0.64471,-3.3401,9.8477,0.025337,-0.0084448,-0.52191,0.033784,1.4764e-06,-0.26096,0,0,0.5,-0,-0,0.66667
0.70376,0.67832,1.4075,0.26748,0.58385,1.7278,-1.004,0.33465,-1.7455,-1.3386,1.5449e-10,-0.87275,0,0,0.5,-5.9212e-16,0,0.66667
0.44556,0.72811,0.89113,0.34217,1.3045,4.2902,-0.8131,0.27103,-1.5833,-1.0841,-3.8425e-11,-0.79166,0,0,0.5,-0,-0,0.66667
0.96951,0.49011,1.939,-0.014832,0.0039027,0.096392,0.076695,-0.025563,-1.999,0.10226,3.0741e-06,-0.99952,0,0,0.5,1.1842e-15,0,0.66667
0.80992,0.38482,1.6198,-0.17278,-0.22158,0.92101,0.74632,-0.24877,-1.8936,0.9951,-2.3917e-11,-0.94678,0,0,0.5,-0,-0,0.66667
0.39961,0.44953,0.79922,-0.075708,-0.29559,4.7786,0.16135,-0.053785,-1.979,0.21514,2.474e-11,-0.98952,0,0,0.5,-0,-0,0.66667
0.39383,0.58422,0.78766,0.12632,0.49763,4.8505,-0.26533,0.088444,-1.943,-0.35378,-4.2744e-11,-0.97148,0,0,0.5,-0,-0,0.66667
0.12859,0.28239,0.25719,-0.32642,-1.5578,8.2282,0.22387,-0.074623,-1.622,0.29849,-9.9702e-10,-0.81102,0,0,0.5,-0,-0,0.66667
0.36459,0.98041,0.72918,0.72061,3.3001,5.3631,-1.4012,0.46707,-0.15313,-1.8683,-2.8124e-12,-0.076563,0,0,0.5,5.9212e-16,0,0.66667
0.20418,0.83573,0.40836,0.5036,2.4126,7.2643,-0.5484,0.1828,-1.0982,-0.7312,-1.5017e-09,-0.54912,0,0,0.5,-1.4803e-16,0,0.66667
0.31607,0.38714,0.63214,-0.16929,-0.71898,5.7978,0.28538,-0.095126,-1.8976,0.38051,9.9817e-11,-0.9488,0,0,0.5,5.9212e-16,0,0.66667
0.56232,0.38288,1.1246,-0.17569,-0.54386,3.0008,0.52689,-0.17563,-1.8903,0.70251,-3.1383e-11,-0.94515,0,0,0.5,-1.1842e-15,0,0.66667
0.86191,0.49465,1.7238,-0.008032,-0.006324,0.58533,0.036922,-0.012307,-2,0.049229,-5.8916e-09,-0.99999,0,0,0.5,-2.3685e-15,0,0.66667
0.098202,0.83654,0.1964,0.50481,2.5053,8.6443,-0.26439,0.08813,-1.0938,-0.35252,5.1445e-09,-0.5469,0,0,0.5,-7.4015e-17,0,0.66667
0.83006,0.91389,1.6601,0.62084,0.91579,1.0565,-2.7484,0.91615,-0.62949,-3.6646,4.5473e-09,-0.31474,0,0,0.5,-0,-0,0.66667
0.92067,0.33557,1.8413,-0.24664,-0.072115,0.33992,1.2111,-0.40369,-1.7837,1.6147,2.9394e-09,-0.89183,0,0,0.5,5.9212e-16,0,0.66667
0.22363,0.2116,0.44726,-0.4326,-2.0234,7.0024,0.51595,-0.17198,-1.3345,0.68794,6.3784e-10,-0.66724,0,0,0.5,1.4803e-16,0,0.66667
0.20085,0.73423,0.4017,0.35135,1.6383,7.2838,-0.37636,0.12545,-1.5606,-0.50182,2.8883e-11,-0.78028,0,0,0.5,2.9606e-16,0,0.66667
0.76844,0.32781,1.5369,-0.25828,-0.4313,1.2295,1.0585,-0.35284,-1.7623,1.4113,-2.8441e-11,-0.88114,0,0,0.5,-1.1842e-15,0,0.66667
0.020528,0.78497,0.041056,0.42745,2.1104,9.6707,-0.046799,0.0156,-1.3507,-0.062398,6.1449e-09,-0.67536,0,0,0.5,7.4015e-17,0,0.66667
0.48994,0.48942,0.97989,-0.015867,-0.055054,3.7485,0.04146,-0.01382,-1.9986,0.055281,4.6615e-13,-0.99932,0,0,0.5,-1.1842e-15,0,0.66667
0.022375,0.65851,0.044751,0.23776,1.1427,9.6435,-0.028373,0.0094575,-1.7996,-0.037831,-2.7666e-07,-0.89979,0,0,0.5,-0,-0,0.66667
0.8073,0.44005,1.6146,-0.089925,-0.11533,0.92244,0.38718,-0.12906,-1.9718,0.51624,-4.406e-10,-0.9859,0,0,0.5,-0,-0,0.66667
0.024361,0.43118,0.048723,-0.10322,-0.49112,9.6158,0.013412,-0.0044719,-1.962,0.017882,-2.0446e-06,-0.98102,0,0,0.5,1.8504e-17,0,0.66667
0.16055,0.69774,0.32111,0.29661,1.3952,7.8042,-0.25398,0.08466,-1.6868,-0.33864,6.4587e-10,-0.84339,0,0,0.5,-0,-0,0.66667
0.24613,0.6043,0.49226,0.15645,0.69654,6.68,-0.20537,0.068456,-1.9126,-0.27382,-1.2179e-10,-0.95628,0,0,0.5,-0,-0,0.66667
0.99712,0.39689,1.9942,-0.15467,0.081642,0.029456,0.82252,-0.27417,-1.9147,1.0967,-1.0689e-06,-0.95733,0,0,0.5,1.1842e-15,0,0.66667
0.42075,0.3075,0.8415,-0.28875,-1.1239,4.5603,0.64796,-0.21599,-1.7039,0.86395,5.7285e-11,-0.85195,0,0,0.5,-2.9606e-16,0,0.66667
0.072263,0.15535,0.14453,-0.51697,-2.5845,8.9874,0.19924,-0.066414,-1.0506,0.26566,1.522e-08,-0.5253,0,0,0.5,-7.4015e-17,0,0.66667
0.25027,0.67356,0.50054,0.26034,1.1679,6.6366,-0.3475,0.11583,-1.7587,-0.46333,-9.66e-11,-0.87933,0,0,0.5,2.9606e-16,0,0.66667
0.41157,0.55579,0.82314,0.083679,0.32249,4.6387,-0.18368,0.061226,-1.975,-0.24491,-2.3757e-11,-0.98751,0,0,0.5,2.9606e-16,0,0.66667
0.42026,0.083525,0.84052,-0.62471,-2.6318,4.6806,1.4002,-0.46674,-0.61212,1.867,1.271e-11,-0.30606,0,0,0.5,5.9212e-16,5.2141e-16,0.66667
0.12217,0.044824,0.24434,-0.68276,-3.5188,8.3522,0.44488,-0.14829,-0.342,0.59317,1.0048e-08,-0.171,0,0,0.5,-0,-0,0.66667
0.0095038,0.0064081,0.019008,-0.74039,-3.9374,9.8208,0.03752,-0.012509,-0.050862,0.050026,-3.5995e-06,-0.025431,0,0,0.5,3.7007e-17,0,0.66667
0.81546,0.18651,1.6309,-0.47024,-0.67377,1.0241,2.0451,-0.68171,-1.2147,2.7268,-1.0463e-09,-0.60736,0,0,0.5,-1.6283e-15,0,0.66667
0.24196,0.10642,0.48391,-0.59036,-2.8333,6.8034,0.76182,-0.25394,-0.76017,1.0158,8.9977e-10,-0.38008,0,0,0.5,-0,-0,0.66667
0.083424,0.34088,0.16685,-0.23868,-1.139,8.8245,0.1062,-0.035399,-1.7979,0.1416,6.6667e-09,-0.89897,0,0,0.5,3.7007e-17,0,0.66667
0.39022,0.95234,0.78045,0.67852,2.9959,5.0474,-1.4121,0.47071,-0.36269,-1.8828,-8.0513e-12,-0.18135,0,0,0.5,-0,-0,0.66667
0.43254,0.22345,0.86508,-0.41482,-1.6305,4.4591,0.95694,-0.31898,-1.3884,1.2759,4.6569e-11,-0.69419,0,0,0.5,-0,-0,0.66667
0.5241,0.48992,1.0482,-0.01512,-0.049668,3.3811,0.042262,-0.014087,-1.9987,0.056349,-1.1338e-12,-0.99936,0,0,0.5,-5.9212e-16,0,0.66667
0.76031,0.65454,1.5206,0.23181,0.39933,1.2793,-0.93998,0.31333,-1.8097,-1.2533,5.5492e-11,-0.90483,0,0,0.5,-1.6283e-15,0,0.66667
0.78814,0.72111,1.5763,0.33166,0.51447,1.1223,-1.3941,0.4647,-1.6095,-1.8588,-7.4192e-12,-0.80473,0,0,0.5,-2.3685e-15,0,0.66667
0.46938,0.10204,0.93876,-0.59694,-2.3546,4.1242,1.4944,-0.49812,-0.733,1.9925,5.1369e-12,-0.3665,0,0,0.5,-1.1842e-15,0,0.66667
0.88477,0.076088,1.7695,-0.63587,-0.63225,0.78068,3.0005,-1.0002,-0.56176,4.0007,-1.8128e-08,-0.28088,0,0,0.5,-0,-0,0.66667
0.079143,0.48168,0.15829,-0.027476,-0.12961,8.8778,0.011597,-0.0038657,-1.9969,0.015463,2.4646e-08,-0.99847,0,0,0.5,1.4803e-16,0,0.66667
0.35568,0.0088445,0.71136,-0.73673,-3.4171,5.4743,1.3976,-0.46585,-0.069865,1.8634,9.7278e-13,-0.034932,0,0,0.5,-0,-0,0.66667
0.35988,0.66214,0.71975,0.24321,1.0022,5.2707,-0.46681,0.1556,-1.7899,-0.62241,-1.0255e-10,-0.89497,0,0,0.5,-0,-0,0.66667
0.71091,0.88156,1.4218,0.57234,1.3703,1.8316,-2.17,0.72334,-0.8352,-2.8934,3.6671e-10,-0.4176,0,0,0.5,-2.3685e-15,0,0.66667
0.84544,0.59199,1.6909,0.13799,0.13214,0.69389,-0.62219,0.2074,-1.9332,-0.82959,1.036e-09,-0.96658,0,0,0.5,-1.3323e-15,0,0.66667
0.72322,0.15864,1.4464,-0.51204,-1.143,1.6945,1.975,-0.65835,-1.0684,2.6334,-5.422e-10,-0.5342,0,0,0.5,2.3685e-15,0,0.66667
0.11084,0.96872,0.22168,0.70308,3.654,8.5016,-0.41563,0.13854,-0.24367,-0.55417,-2.3454e-08,-0.12183,0,0,0.5,1.8822e-16,0,0.66667
0.59935,0.75124,1.1987,0.37687,1.1236,2.6944,-1.2047,0.40156,-1.4958,-1.6062,8.2888e-11,-0.7479,0,0,0.5,-2.3685e-15,0,0.66667
0.50962,0.23845,1.0192,-0.39233,-1.3827,3.6049,1.0663,-0.35545,-1.4522,1.4218,-6.0471e-12,-0.72609,0,0,0.5,5.9212e-16,0,0.66667
0.60538,0.94861,1.2108,0.67292,2.1971,2.8043,-2.1727,0.72422,-0.3895,-2.8969,8.4215e-12,-0.19475,0,0,0.5,-0,-0,0.66667
0.012168,0.64615,0.024337,0.21922,1.0521,9.7807,-0.014227,0.0047424,-1.8288,-0.018969,8.7923e-08,-0.91438,0,0,0.5,1.8504e-17,0,0.66667
0.2884,0.44757,0.5768,-0.078639,-0.33916,6.1379,0.12096,-0.040319,-1.9776,0.16128,6.9877e-11,-0.98878,0,0,0.5,-0,-0,0.66667
0.051856,0.0098828,0.10371,-0.73518,-3.8936,9.2698,0.20333,-0.067775,-0.077877,0.2711,2.0245e-07,-0.038938,0,0,0.5,-0,-0,0.66667
0.38587,0.56979,0.77174,0.10468,0.41529,4.9432,-0.21543,0.071811,-1.9609,-0.28724,-3.913e-11,-0.98045,0,0,0.5,-0,-0,0.66667
0.75909,0.45802,1.5182,-0.062976,-0.10586,1.2546,0.25495,-0.084985,-1.9854,0.33994,-1.173e-10,-0.9927,0,0,0.5,-0,-0,0.66667
0.276,0.27136,0.552,-0.34296,-1.5316,6.322,0.50484,-0.16828,-1.5814,0.67312,2.4754e-10,-0.79069,0,0,0.5,2.9606e-16,0,0.66667
0.61411,0.69529,1.2282,0.29294,0.82831,2.5242,-0.95945,0.31982,-1.6947,-1.2793,9.1019e-11,-0.84734,0,0,0.5,1.1842e-15,0,0.66667
0.62743,0.92974,1.2549,0.64461,1.9863,2.5841,-2.1571,0.71902,-0.52249,-2.8761,2.5488e-11,-0.26124,0,0,0.5,-0,-0,0.66667
0.25163,0.18691,0.50326,-0.46963,-2.1796,6.6534,0.63026,-0.21009,-1.2169,0.84035,7.0365e-10,-0.60846,0,0,0.5,-3.8858e-16,0,0.66667
0.47504,0.35557,0.95008,-0.21665,-0.7789,3.9324,0.5489,-0.18297,-1.8325,0.73187,1.407e-11,-0.91627,0,0,0.5,-0,-0,0.66667
0.1435,0.19964,0.28699,-0.45054,-2.1854,8.0437,0.3448,-0.11493,-1.2778,0.45973,-6.1844e-10,-0.63891,0,0,0.5,-0,-0,0.66667
0.070018,0.21387,0.14004,-0.4292,-2.1095,9.0119,0.16028,-0.053426,-1.3451,0.2137,-1.9721e-09,-0.67257,0,0,0.5,-0,-0,0.66667
0.79297,0.32549,1.5859,-0.26177,-0.38414,1.0606,1.107,-0.36902,-1.7558,1.4761,1.2278e-10,-0.87791,0,0,0.5,1.1842e-15,0,0.66667
0.17947,0.57966,0.35895,0.11949,0.54884,7.5444,-0.11438,0.038126,-1.9486,-0.15251,-3.9967e-10,-0.97428,0,0,0.5,-0,-0,0.66667
0.12621,0.82112,0.25241,0.48168,2.3629,8.2738,-0.32422,0.10807,-1.175,-0.43229,9.8037e-10,-0.58748,0,0,0.5,-0,-0,0.66667
0.96712,0.017,1.9342,-0.7245,-0.2217,0.55581,3.7369,-1.2456,-0.13323,4.9826,1.4123e-07,-0.066616,0,0,0.5,-0,5.8753e-16,0.66667
0.055643,0.21923,0.11129,-0.42116,-2.071,9.2027,0.12498,-0.041661,-1.3703,0.16664,-1.3541e-08,-0.68514,0,0,0.5,-0,-0,0.66667
0.68195,0.49211,1.3639,-0.011829,-0.026846,1.8659,0.043023,-0.014341,-1.9993,0.057364,-8.6328e-12,-0.99964,0,0,0.5,-0,-0,0.66667
0.37495,0.33703,0.7499,-0.24446,-0.99301,5.09,0.48884,-0.16295,-1.7877,0.65179,8.9788e-11,-0.89386,0,0,0.5,-0,-0,0.66667
0.17349,0.642,0.34697,0.213,0.98757,7.6279,-0.19708,0.065693,-1.8382,-0.26277,3.348e-10,-0.91912,0,0,0.5,-0,-0,0.66667
0.27286,0.16373,0.54572,-0.50441,-2.3287,6.3948,0.73405,-0.24468,-1.0952,0.97873,5.6869e-10,-0.54758,0,0,0.5,-0,-0,0.66667
0.7317,0.81412,1.4634,0.47118,1.0012,1.6038,-1.8387,0.61291,-1.2115,-2.4516,5.7014e-10,-0.60573,0,0,0.5,-0,-0,0.66667
0.85547,0.51122,1.7109,0.016829,0.014253,0.62177,-0.076782,0.025594,-1.9985,-0.10238,6.886e-10,-0.99927,0,0,0.5,-0,-0,0.66667
0.26883,0.76578,0.53766,0.39867,1.8057,6.4223,-0.5716,0.19053,-1.4343,-0.76213,-3.8216e-10,-0.71716,0,0,0.5,-0,-0,0.66667
0.34714,0.13476,0.69429,-0.54785,-2.4207,5.4994,1.0143,-0.33811,-0.93249,1.3524,1.3211e-10,-0.46625,0,0,0.5,-5.9212e-16,0,0.66667
0.40955,0.22527,0.8191,-0.4121,-1.6614,4.7216,0.90014,-0.30005,-1.3962,1.2002,7.0074e-11,-0.69809,0,0,0.5,-0,-0,0.66667
0.82745,0.94514,1.6549,0.66772,1.0422,1.1162,-2.9467,0.98222,-0.41481,-3.9289,2.8493e-09,-0.2074,0,0,0.5,-0,-0,0.66667
0.74992,0.86114,1.4998,0.54171,1.1132,1.5156,-2.1666,0.7222,-0.95629,-2.8888,8.558e-10,-0.47814,0,0,0.5,-0,-0,0.66667
0.20942,0.13551,0.41884,-0.54674,-2.6386,7.2056,0.61066,-0.20355,-0.93668,0.81421,1.7899e-09,-0.46834,0,0,0.5,-0,-0,0.66667
0.54285,0.51185,1.0857,0.01777,0.056481,3.1849,-0.051448,0.017149,-1.9984,-0.068597,2.3461e-12,-0.99919,0,0,0.5,-0,-0,0.66667
0.76674,0.02665,1.5335,-0.71003,-1.5176,1.5397,2.9035,-0.96783,-0.20793,3.8713,-1.2287e-10,-0.10396,0,0,0.5,-0,-0,0.66667
0.47874,0.99297,0.95748,0.73945,3.0278,4.1042,-1.888,0.62934,-0.055745,-2.5174,-2.2649e-14,-0.027873,0,0,0.5,-8.8818e-16,0,0.66667
0.5555,0.99862,1.111,0.74793,2.7557,3.3309,-2.2159,0.73863,-0.011753,-2.9545,-1.8696e-13,-0.0058767,0,0,0.5,-2.2204e-16,0,0.66667
0.21251,0.41918,0.42503,-0.12123,-0.54851,7.1124,0.13741,-0.045803,-1.9471,0.18321,2.154e-10,-0.97356,0,0,0.5,-0,-0,0.66667
0.65934,0.47552,1.3187,-0.036724,-0.089351,2.0633,0.12914,-0.043047,-1.9952,0.17219,-2.1686e-11,-0.9976,0,0,0.5,-2.3685e-15,0,0.66667
0.072077,0.75977,0.14415,0.38966,1.9014,8.9825,-0.14979,0.049929,-1.4597,-0.19972,-1.0299e-09,-0.72987,0,0,0.5,-0,-0,0.66667
0.36173,0.15698,0.72347,-0.51453,-2.2262,5.3145,0.99266,-0.33089,-1.0597,1.3235,1.2073e-10,-0.52986,0,0,0.5,-1.1842e-15,0,0.66667
0.4004,0.13142,0.80081,-0.55287,-2.3286,4.876,1.1806,-0.39355,-0.91314,1.5742,4.5319e-11,-0.45657,0,0,0.5,-0,-0,0.66667
0.60878,0.37436,1.2176,-0.18846,-0.5296,2.5473,0.61188,-0.20396,-1.8749,0.81584,-6.2219e-11,-0.93745,0,0,0.5,-5.9212e-16,0,0.66667
0.94867,0.29757,1.8973,-0.30364,-0.013891,0.25081,1.5363,-0.5121,-1.6716,2.0484,1.2795e-08,-0.83578,0,0,0.5,-0,-0,0.66667
0.21912,0.78268,0.43824,0.42401,1.9845,7.0587,-0.49552,0.16517,-1.3618,-0.6607,-5.6212e-10,-0.68089,0,0,0.5,-5.9212e-16,0,0.66667
0.54416,0.02294,1.0883,-0.71559,-2.649,3.4189,2.0768,-0.69226,-0.17914,2.769,-2.6779e-13,-0.089571,0,0,0.5,-0,4.6235e-16,0.66667
0.80224,0.70969,1.6045,0.31453,0.44668,1.0205,-1.3458,0.44859,-1.6479,-1.7944,-1.8667e-10,-0.82395,0,0,0.5,-0,-0,0.66667
0.60296,0.95558,1.2059,0.68337,2.2519,2.8342,-2.1976,0.73252,-0.33893,-2.9301,6.052e-12,-0.16946,0,0,0.5,-0,-0,0.66667
0.73883,0.79025,1.4777,0.43538,0.88611,1.5287,-1.7156,0.57186,-1.3257,-2.2874,5.1524e-10,-0.66286,0,0,0.5,-2.3685e-15,0,0.66667
0.11645,0.041796,0.23291,-0.68731,-3.5517,8.4268,0.42688,-0.14229,-0.3199,0.56917,1.0032e-08,-0.15995,0,0,0.5,-0,-0,0.66667
0.83579,0.53313,1.6716,0.04969,0.051029,0.73899,-0.22149,0.073831,-1.9919,-0.29532,5.8627e-10,-0.99593,0,0,0.5,-0,-0,0.66667
0.3113,0.32044,0.6226,-0.26934,-1.1604,5.8692,0.44717,-0.14906,-1.742,0.59623,1.5153e-10,-0.87102,0,0,0.5,-0,-0,0.66667
0.43711,0.48176,0.87422,-0.027365,-0.10212,4.3407,0.063794,-0.021265,-1.997,0.085059,5.3846e-12,-0.9985,0,0,0.5,-0,-0,0.66667
0.08488,0.3365,0.16976,-0.24524,-1.1708,8.8053,0.11102,-0.037007,-1.786,0.14803,9.1136e-09,-0.89298,0,0,0.5,-7.4015e-17,0,0.66667
0.68718,0.45155,1.3744,-0.072676,-0.16258,1.8245,0.26635,-0.088784,-1.9809,0.35514,-5.2242e-11,-0.99043,0,0,0.5,-1.1842e-15,0,0.66667
0.84731,0.29003,1.6946,-0.31496,-0.3225,0.74338,1.4233,-0.47443,-1.647,1.8977,7.805e-10,-0.82352,0,0,0.5,-0,-0,0.66667
0.48369,0.21661,0.96738,-0.42508,-1.5684,3.8947,1.0966,-0.36552,-1.3584,1.4621,9.5001e-12,-0.6792,0,0,0.5,-0,-0,0.66667
0.10135,0.10131,0.2027,-0.59804,-3.0297,8.6121,0.32327,-0.10776,-0.72813,0.43102,1.4052e-08,-0.36407,0,0,0.5,-0,-0,0.66667
0.10296,0.97275,0.20592,0.70912,3.698,8.6044,-0.38939,0.1298,-0.21235,-0.51918,-2.7565e-08,-0.10618,0,0,0.5,-0,-0,0.66667
0.11563,0.75551,0.23126,0.38327,1.8516,8.4041,-0.23635,0.078785,-1.4778,-0.31514,2.2004e-09,-0.73888,0,0,0.5,-0,-0,0.66667
0.49491,0.68882,0.98982,0.28323,0.99892,3.7294,-0.7476,0.2492,-1.7156,-0.9968,-3.2492e-12,-0.85778,0,0,0.5,-1.1842e-15,0,0.66667
0.62202,0.1323,1.244,-0.55155,-1.6557,2.571,1.8298,-0.60992,-0.91829,2.4397,-7.1209e-11,-0.45914,0,0,0.5,-0,-0,0.66667
0.033262,0.19542,0.066524,-0.45687,-2.2663,9.5017,0.081047,-0.027016,-1.2578,0.10806,-2.7894e-09,-0.62888,0,0,0.5,-7.4015e-17,0,0.66667
0.062583,0.89206,0.12517,0.58809,2.992,9.1197,-0.19629,0.06543,-0.76999,-0.26172,4.5225e-08,-0.38499,0,0,0.5,-0,-0,0.66667
0.98655,0.59929,1.9731,0.14894,-0.062233,0.059481,-0.78364,0.26121,-1.9213,-1.0448,-4.1032e-07,-0.96067,0,0,0.5,-0,-0,0.66667
0.2911,0.77304,0.58221,0.40955,1.8315,6.1457,-0.63586,0.21195,-1.4033,-0.84781,-3.3721e-10,-0.70167,0,0,0.5,-2.9606e-16,0,0.66667
0.47673,0.10996,0.95346,-0.58506,-2.2776,4.0389,1.4876,-0.49585,-0.78227,1.9834,4.538e-12,-0.39113,0,0,0.5,-5.6456e-16,0,0.66667
0.63063,0.97467,1.2613,0.712,2.2461,2.6068,-2.3947,0.79824,-0.19754,-3.193,2.9987e-12,-0.098772,0,0,0.5,-2.3685e-15,0,0.66667
0.7149,0.012412,1.4298,-0.73138,-1.8862,1.9323,2.7886,-0.92954,-0.097539,3.7181,-1.2315e-11,-0.04877,0,0,0.5,-0,-5.6708e-16,0.66667
0.10945,0.82384,0.21889,0.48575,2.3952,8.4945,-0.28354,0.094514,-1.1608,-0.37805,5.3449e-09,-0.58041,0,0,0.5,-0,-0,0.66667
0.10965,0.56197,0.21931,0.092961,0.43644,8.4696,-0.054366,0.018122,-1.9705,-0.072488,-1.4725e-08,-0.98525,0,0,0.5,4.6259e-18,0,0.66667
0.91206,0.57352,1.8241,0.11028,0.035953,0.33908,-0.53646,0.17882,-1.9562,-0.71528,-2.8531e-08,-0.97812,0,0,0.5,-0,-0,0.66667
0.32409,0.27996,0.64818,-0.33006,-1.4202,5.7216,0.57051,-0.19017,-1.6135,0.76068,1.8203e-10,-0.80674,0,0,0.5,-7.4015e-16,0,0.66667
0.72386,0.56461,1.4477,0.09692,0.19047,1.5269,-0.37417,0.12472,-1.9672,-0.49889,9.3999e-11,-0.98362,0,0,0.5,-0,-0,0.66667
0.70962,0.68164,1.4192,0.27246,0.58343,1.6819,-1.0312,0.34372,-1.7361,-1.3749,1.5759e-10,-0.86803,0,0,0.5,5.9212e-16,0,0.66667
0.46881,0.42504,0.93762,-0.11244,-0.40376,3.9871,0.28113,-0.09371,-1.9548,0.37484,1.0326e-11,-0.97738,0,0,0.5,5.9212e-16,0,0.66667
0.091311,0.92629,0.18262,0.63944,3.28,8.7476,-0.3114,0.1038,-0.54582,-0.4152,-4.1219e-08,-0.27291,0,0,0.5,-0,-0,0.66667
0.88983,0.77926,1.7797,0.41888,0.297,0.57563,-1.9879,0.66264,-1.377,-2.6506,-2.1408e-09,-0.68851,0,0,0.5,-1.4803e-15,0,0.66667
0.83452,0.93591,1.669,0.65387,0.96715,1.062,-2.9102,0.97007,-0.48057,-3.8803,4.1458e-09,-0.24029,0,0,0.5,-2.4496e-17,0,0.66667
0.43167,0.451,0.86335,-0.073498,-0.27648,4.4049,0.16921,-0.056404,-1.9802,0.22561,1.5676e-11,-0.99008,0,0,0.5,-0,-0,0.66667
0.4559,0.93917,0.9118,0.65875,2.6953,4.3026,-1.6017,0.53391,-0.45789,-2.1356,-2.1914e-12,-0.22894,0,0,0.5,-1.1842e-15,0,0.66667
0.5459,0.23233,1.0918,-0.40151,-1.3362,3.2314,1.169,-0.38966,-1.4264,1.5587,-3.0023e-11,-0.7132,0,0,0.5,-0,-0,0.66667
0.3785,0.91044,0.75699,0.61566,2.696,5.1551,-1.2428,0.41426,-0.65266,-1.6571,-3.6049e-11,-0.32633,0,0,0.5,1.1842e-15,0,0.66667
0.50468,0.78521,1.0094,0.42782,1.5322,3.6704,-1.1515,0.38384,-1.3496,-1.5354,2.637e-12,-0.67478,0,0,0.5,1.1842e-15,0,0.66667
0.47267,0.58678,0.94535,0.13018,0.46551,3.9459,-0.32816,0.10939,-1.9397,-0.43755,-1.0408e-11,-0.96984,0,0,0.5,-5.9212e-16,0,0.66667
0.28587,0.35413,0.57174,-0.2188,-0.95483,6.1804,0.3336,-0.1112,-1.8293,0.4448,1.2525e-10,-0.91467,0,0,0.5,-5.9212e-16,0,0.66667
0.87249,0.90205,1.745,0.60307,0.64364,0.80942,-2.8063,0.93542,-0.70723,-3.7417,8.9747e-09,-0.35362,0,0,0.5,-2.9606e-16,0,0.66667
0.04716,0.14232,0.09432,-0.53652,-2.7023,9.3202,0.13495,-0.044982,-0.97615,0.17993,2.2168e-08,-0.48808,0,0,0.5,-7.4015e-17,0,0.66667
0.36431,0.56984,0.72862,0.10476,0.42464,5.2017,-0.20355,0.067848,-1.9608,-0.27139,-4.7951e-11,-0.98041,0,0,0.5,-0,-0,0.66667
0.77404,0.05246,1.5481,-0.67131,-1.3574,1.4539,2.7713,-0.92377,-0.3972,3.6951,-5.6922e-10,-0.1986,0,0,0.5,5.9212e-16,0,0.66667
0.48551,0.055455,0.97103,-0.66682,-2.6365,3.9888,1.7267,-0.57555,-0.41911,2.3022,4.9694e-13,-0.20956,0,0,0.5,5.9212e-16,0,0.66667
0.78628,0.75986,1.5726,0.38979,0.62768,1.1642,-1.6346,0.54486,-1.4594,-2.1794,3.035e-10,-0.72969,0,0,0.5,-0,-0,0.66667
0.48261,0.7558,0.96521,0.3837,1.4045,3.8921,-0.9876,0.3292,-1.4767,-1.3168,-1.1119e-11,-0.73836,0,0,0.5,-0,-0,0.66667
0.98946,0.88287,1.9789,0.5743,-0.074381,0.32111,-3.0307,1.0102,-0.82709,-4.0409,-1.0332e-07,-0.41355,0,0,0.5,-0,-0,0.66667
0.88404,0.16372,1.7681,-0.50441,-0.42658,0.66636,2.3783,-0.79275,-1.0951,3.171,4.0534e-09,-0.54757,0,0,0.5,-0,-0,0.66667
0.007732,0.43667,0.015464,-0.094999,-0.4521,9.8401,0.003918,-0.0013059,-1.9688,0.005224,1.9215e-07,-0.98438,0,0,0.5,1.1565e-17,0,0.66667
0.47505,0.46144,0.9501,-0.057837,-0.20531,3.9138,0.14654,-0.048845,-1.9879,0.19538,4.3518e-12,-0.99396,0,0,0.5,-8.8818e-16,0,0.66667
0.85741,0.51545,1.7148,0.02318,0.019232,0.61096,-0.106,0.035333,-1.9976,-0.14133,1.284e-09,-0.9988,0,0,0.5,-0,-0,0.66667
0.34353,0.96147,0.68705,0.69221,3.1963,5.5973,-1.2682,0.42274,-0.29646,-1.691,-1.4657e-11,-0.14823,0,0,0.5,2.9606e-16,-4.2313e-16,0.66667
0.72899,0.10651,1.458,-0.59024,-1.344,1.7062,2.2948,-0.76494,-0.76072,3.0598,-4.7802e-10,-0.38036,0,0,0.5,-0,-0,0.66667
0.41832,0.21242,0.83663,-0.43138,-1.7297,4.6266,0.96241,-0.3208,-1.3384,1.2832,5.8381e-11,-0.66919,0,0,0.5,-2.9606e-16,0,0.66667
0.095764,0.39623,0.19153,-0.15565,-0.73564,8.6568,0.079498,-0.026499,-1.9136,0.106,-2.5135e-09,-0.95679,0,0,0.5,-1.4803e-16,0,0.66667
0.31526,0.041313,0.63051,-0.68803,-3.2412,5.9325,1.1568,-0.38561,-0.31652,1.5424,3.5547e-11,-0.15826,0,0,0.5,-5.9212e-16,0,0.66667
0.31302,0.27078,0.62603,-0.34382,-1.4956,5.8607,0.57399,-0.19133,-1.5795,0.76532,2.0882e-10,-0.78974,0,0,0.5,-0,-0,0.66667
0.65455,0.73351,1.3091,0.35026,0.90796,2.1765,-1.2227,0.40758,-1.5633,-1.6303,1.5967e-10,-0.78166,0,0,0.5,-0,-0,0.66667
0.92687,0.083069,1.8537,-0.6254,-0.35884,0.58509,3.0915,-1.0305,-0.60888,4.122,-1.4396e-08,-0.30444,0,0,0.5,-0,-0,0.66667
0.70369,0.96115,1.4074,0.69172,1.8021,1.9829,-2.596,0.86534,-0.2988,-3.4614,4.8326e-11,-0.1494,0,0,0.5,-1.1842e-15,0,0.66667
0.32303,0.79047,0.64607,0.43571,1.9129,5.7579,-0.75066,0.25022,-1.3247,-1.0009,-2.4652e-10,-0.66233,0,0,0.5,-0,-0,0.66667
0.68312,0.04274,1.3662,-0.68589,-1.8856,2.1414,2.4989,-0.83297,-0.32681,3.3319,-3.7206e-11,-0.1634,0,0,0.5,1.1842e-15,0,0.66667
0.084102,0.61924,0.1682,0.17887,0.8488,8.8136,-0.080229,0.026743,-1.8863,-0.10697,3.9641e-09,-0.94313,0,0,0.5,1.1102e-16,0,0.66667
0.3755,0.39127,0.751,-0.16309,-0.65654,5.0723,0.32662,-0.10887,-1.905,0.4355,6.4081e-11,-0.95252,0,0,0.5,-0,-0,0.66667
0.19006,0.68785,0.38012,0.28177,1.3073,7.4165,-0.28562,0.095205,-1.7188,-0.38082,3.3485e-10,-0.85941,0,0,0.5,5.9212e-16,0,0.66667
0.69305,0.01768,1.3861,-0.72348,-1.9759,2.0943,2.6742,-0.89139,-0.13832,3.5656,-1.1368e-11,-0.069161,0,0,0.5,-0,-0,0.66667
0.66211,0.71928,1.3242,0.32893,0.83026,2.1017,-1.1615,0.38717,-1.6163,-1.5487,1.6204e-10,-0.80813,0,0,0.5,2.3685e-15,0,0.66667
0.35307,0.8519,0.70614,0.52785,2.3089,5.4219,-0.99397,0.33132,-1.0091,-1.3253,-1.3181e-10,-0.50453,0,0,0.5,-0,-0,0.66667
0.1806,0.83313,0.36121,0.49969,2.416,7.5673,-0.48131,0.16044,-1.1117,-0.64175,-1.638e-09,-0.55585,0,0,0.5,1.4803e-16,0,0.66667
0.15666,0.13687,0.31332,-0.5447,-2.6836,7.8845,0.45511,-0.1517,-0.94479,0.60681,3.4074e-09,-0.47239,0,0,0.5,-0,-0,0.66667
0.23699,0.95886,0.47398,0.68829,3.4014,6.8922,-0.86996,0.28999,-0.31528,-1.1599,-2.6822e-10,-0.15764,0,0,0.5,-0,-0,0.66667
0.32846,0.11359,0.65692,-0.57961,-2.6216,5.7343,1.0154,-0.33845,-0.80524,1.3538,1.5473e-10,-0.40262,0,0,0.5,-0,-0,0.66667
0.8696,0.45428,1.7392,-0.068585,-0.049506,0.54662,0.31809,-0.10603,-1.9826,0.42412,-1.8318e-09,-0.99132,0,0,0.5,-1.0298e-15,0,0.66667
0.12191,0.96751,0.24383,0.70126,3.633,8.3583,-0.45596,0.15199,-0.2524,-0.60795,-1.7468e-09,-0.1262,0,0,0.5,5.5511e-17,0,0.66667
0.16814,0.20521,0.33629,-0.44219,-2.1234,7.7206,0.39654,-0.13218,-1.3042,0.52872,2.3448e-10,-0.65211,0,0,0.5,-0,-0,0.66667
0.37046,0.67156,0.74091,0.25733,1.0517,5.1459,-0.50843,0.16948,-1.7639,-0.67791,-9.7564e-11,-0.88196,0,0,0.5,-0,-0,0.66667
0.60435,0.0019786,1.2087,-0.74703,-2.5256,2.8704,2.4078,-0.80261,-0.016464,3.2104,4.1434e-13,-0.0082322,0,0,0.5,4.737e-15,0,0.66667
0.055815,0.26573,0.11163,-0.35141,-1.7084,9.1977,0.10461,-0.034869,-1.5603,0.13948,8.3638e-09,-0.78013,0,0,0.5,-0,-0,0.66667
0.24523,0.82851,0.49045,0.49276,2.3067,6.7393,-0.64447,0.21482,-1.136,-0.85929,-8.3553e-10,-0.56802,0,0,0.5,-2.9606e-16,0,0.66667
0.83397,0.85241,1.6679,0.52862,0.70328,0.95532,-2.3512,0.78374,-1.0061,-3.135,2.6035e-09,-0.50306,0,0,0.5,-0,-0,0.66667
0.66288,0.18898,1.3258,-0.46653,-1.228,2.1594,1.6494,-0.54979,-1.2269,2.1992,-2.0509e-10,-0.61343,0,0,0.5,-0,-0,0.66667
0.35143,0.16828,0.70286,-0.49759,-2.1635,5.4318,0.93262,-0.31087,-1.1191,1.2435,1.5144e-10,-0.55954,0,0,0.5,-5.9212e-16,0,0.66667
0.11421,0.84243,0.22842,0.51364,2.5446,8.4347,-0.31288,0.10429,-1.0627,-0.41717,3.5712e-09,-0.53137,0,0,0.5,2.0194e-16,0,0.66667
0.3249,0.45829,0.64981,-0.062558,-0.26218,5.6813,0.1084,-0.036134,-1.9857,0.14453,4.1057e-11,-0.99285,0,0,0.5,-0,-0,0.66667
0.24452,0.87613,0.48903,0.5642,2.6863,6.7646,-0.73576,0.24525,-0.86901,-0.98102,-9.6277e-10,-0.43451,0,0,0.5,-5.9212e-16,0,0.66667
0.71057,0.57143,1.4211,0.10715,0.2217,1.6347,-0.40606,0.13535,-1.9588,-0.54141,8.6626e-11,-0.97941,0,0,0.5,-0,-0,0.66667
0.30055,0.45703,0.60109,-0.064461,-0.27541,5.9847,0.10333,-0.034442,-1.9847,0.13777,5.2312e-11,-0.99237,0,0,0.5,-0,-0,0.66667
0.67724,0.78096,1.3545,0.42143,1.0486,2.0131,-1.5222,0.5074,-1.3695,-2.0296,2.4456e-10,-0.68475,0,0,0.5,1.5358e-15,0,0.66667
0.41266,0.20486,0.82531,-0.44271,-1.7908,4.6953,0.97433,-0.32478,-1.3025,1.2991,6.2455e-11,-0.65124,0,0,0.5,-0,-0,0.66667
0.34994,0.56267,0.69988,0.094,0.38597,5.3754,-0.17544,0.058478,-1.9696,-0.23391,-4.951e-11,-0.9848,0,0,0.5,-0,-0,0.66667
0.78582,0.50929,1.5716,0.013937,0.020298,1.0613,-0.058409,0.01947,-1.999,-0.077878,2.9444e-11,-0.99948,0,0,0.5,-0,-0,0.66667
0.1854,0.90732,0.37081,0.61098,3.0267,7.5257,-0.60415,0.20138,-0.6737,-0.80553,-3.174e-09,-0.33685,0,0,0.5,-0,7.8316e-17,0.66667
0.45682,0.96662,0.91365,0.69992,2.9012,4.3152,-1.7053,0.56843,-0.25884,-2.2737,-4.5153e-13,-0.12942,0,0,0.5,-0,-0,0.66667
0.58351,0.71058,1.167,0.31587,0.95948,2.8252,-0.98301,0.32767,-1.645,-1.3107,6.3197e-11,-0.8225,0,0,0.5,-0,-0,0.66667
0.3212,0.21449,0.6424,-0.42826,-1.88,5.7784,0.73364,-0.24455,-1.3481,0.97819,2.5091e-10,-0.67406,0,0,0.5,-1.0587e-16,0,0.66667
0.70625,0.4274,1.4125,-0.1089,-0.22891,1.67,0.41019,-0.13673,-1.9575,0.54692,-8.4541e-11,-0.97874,0,0,0.5,-5.9212e-16,0,0.66667
0.91783,0.77585,1.8357,0.41377,0.17989,0.44256,-2.0254,0.67515,-1.3914,-2.7006,-4.6177e-09,-0.6957,0,0,0.5,2.3198e-15,0,0.66667
0.073071,0.43242,0.14614,-0.10138,-0.47973,8.96,0.039507,-0.013169,-1.9636,0.052677,7.2705e-08,-0.9818,0,0,0.5,-3.7007e-17,0,0.66667
0.18143,0.4371,0.36285,-0.094346,-0.43245,7.5178,0.091291,-0.03043,-1.9693,0.12172,4.5807e-10,-0.98466,0,0,0.5,-6.4763e-17,0,0.66667
0.50911,0.76859,1.0182,0.40288,1.4246,3.6141,-1.0939,0.36464,-1.4223,-1.4586,5.5362e-12,-0.71114,0,0,0.5,-0,-0,0.66667
0.79988,0.60458,1.5998,0.15687,0.21385,0.98318,-0.66922,0.22307,-1.9121,-0.8923,1.2642e-10,-0.95605,0,0,0.5,-2.3685e-15,0,0.66667
0.63096,0.5947,1.2619,0.14205,0.37609,2.3309,-0.478,0.15933,-1.9291,-0.63733,6.058e-11,-0.96455,0,0,0.5,-0,-0,0.66667
0.019691,0.4018,0.039381,-0.14731,-0.70271,9.679,0.015469,-0.0051558,-1.9231,0.020626,8.6163e-07,-0.96156,0,0,0.5,-0,-0,0.66667
0.32998,0.85195,0.65996,0.52792,2.3536,5.6992,-0.92908,0.30969,-1.009,-1.2388,-2.0192e-10,-0.50449,0,0,0.5,-0,-0,0.66667
0.65383,0.39671,1.3077,-0.15493,-0.38655,2.1255,0.54027,-0.18009,-1.9144,0.72036,-7.7982e-11,-0.95719,0,0,0.5,-0,-0,0.66667
0.68714,0.81893,1.3743,0.47839,1.1812,1.9614,-1.7532,0.58439,-1.1865,-2.3376,2.9649e-10,-0.59324,0,0,0.5,-0,-0,0.66667
0.48225,0.39361,0.9645,-0.15958,-0.56428,3.8438,0.41044,-0.13681,-1.909,0.54725,7.9192e-12,-0.95451,0,0,0.5,-0,-0,0.66667
0.053735,0.41856,0.10747,-0.12216,-0.58029,9.2203,0.03501,-0.01167,-1.9463,0.04668,-1.1732e-07,-0.97317,0,0,0.5,-0,-0,0.66667
0.62779,0.3525,1.2556,-0.22126,-0.59713,2.3764,0.74081,-0.24694,-1.8257,0.98774,-8.5144e-11,-0.91286,0,0,0.5,-0,-0,0.66667
0.50403,0.181,1.0081,-0.47851,-1.7382,3.6979,1.2863,-0.42877,-1.1859,1.7151,-1.8849e-12,-0.59293,0,0,0.5,-0,-0,0.66667
0.72541,0.45976,1.4508,-0.060359,-0.11753,1.511,0.23352,-0.07784,-1.9867,0.31136,-6.6202e-11,-0.99334,0,0,0.5,5.9212e-16,0,0.66667
0.39049,0.88182,0.78099,0.57273,2.4495,4.9983,-1.1928,0.3976,-0.83387,-1.5904,-4.6753e-11,-0.41693,0,0,0.5,-0,4.0423e-16,0.66667
0.83573,0.64832,1.6715,0.22248,0.23947,0.7743,-0.99164,0.33055,-1.8237,-1.3222,-4.9815e-10,-0.91187,0,0,0.5,-0,-0,0.66667
0.3075,0.47001,0.615,-0.044984,-0.19108,5.8971,0.073774,-0.024591,-1.9936,0.098366,3.6341e-11,-0.99681,0,0,0.5,-0,-0,0.66667
0.86379,0.74578,1.7276,0.36867,0.33608,0.67922,-1.6984,0.56613,-1.517,-2.2645,-1.2967e-09,-0.75852,0,0,0.5,-5.9212e-16,0,0.66667
0.014481,0.16046,0.028961,-0.50931,-2.5557,9.7523,0.039334,-0.013111,-1.0782,0.052446,-1.3866e-07,-0.53909,0,0,0.5,3.7007e-17,0,0.66667
0.76274,0.80242,1.5255,0.45363,0.84402,1.3647,-1.8453,0.61512,-1.268,-2.4605,7.3093e-10,-0.634,0,0,0.5,-0,-0,0.66667
0.82737,0.53621,1.6547,0.054319,0.059866,0.79089,-0.23969,0.079897,-1.9899,-0.31959,5.4693e-10,-0.99495,0,0,0.5,-0,-0,0.66667
0.6809,0.065784,1.3618,-0.65132,-1.7698,2.1315,2.3653,-0.78842,-0.49205,3.1537,-7.4414e-11,-0.24602,0,0,0.5,-0,-0,0.66667
0.90273,0.99868,1.8055,0.74802,0.73604,0.82222,-3.6014,1.2005,-0.011377,-4.8019,-9.9526e-10,-0.0056885,0,0,0.5,1.4803e-15,-9.5625e-17,0.66667
0.20173,0.82308,0.40347,0.48462,2.3148,7.2923,-0.52141,0.1738,-1.1647,-0.69522,-1.255e-09,-0.58234,0,0,0.5,-0,-0,0.66667
0.35195,0.74005,0.7039,0.36007,1.5209,5.3887,-0.67588,0.22529,-1.5386,-0.90117,-1.5236e-10,-0.76928,0,0,0.5,-0,-0,0.66667
0.22914,0.20064,0.45828,-0.44904,-2.1011,6.9349,0.54877,-0.18292,-1.2825,0.73169,7.4628e-10,-0.64123,0,0,0.5,-0,-0,0.66667
0.84492,0.2232,1.6898,-0.4152,-0.4656,0.81214,1.871,-0.62366,-1.3875,2.4946,6.8312e-10,-0.69375,0,0,0.5,-0,-0,0.66667
0.74641,0.26853,1.4928,-0.3472,-0.66095,1.4265,1.3822,-0.46072,-1.5709,1.8429,-2.4766e-10,-0.78543,0,0,0.5,1.1842e-15,0,0.66667
0.86905,0.19166,1.7381,-0.46252,-0.43654,0.71119,2.1437,-0.71458,-1.2397,2.8583,1.9109e-09,-0.61983,0,0,0.5,-2.3685e-15,0,0.66667
0.34762,0.9859,0.69525,0.72885,3.3938,5.565,-1.3513,0.45043,-0.11061,-1.8017,-2.9505e-12,-0.055307,0,0,0.5,5.9212e-16,0,0.66667
0.15395,0.34567,0.3079,-0.23149,-1.0832,7.8864,0.19007,-0.063357,-1.8103,0.25343,-2.5023e-10,-0.90513,0,0,0.5,-0,-0,0.66667
0.96828,0.26998,1.9366,-0.34503,0.043797,0.20294,1.7818,-0.59393,-1.5765,2.3757,4.4586e-09,-0.78824,0,0,0.5,-0,-0,0.66667
0.44892,0.38104,0.89785,-0.17843,-0.66167,4.2184,0.42722,-0.14241,-1.8868,0.56962,2.5695e-11,-0.94342,0,0,0.5,-1.1842e-15,0,0.66667
0.7299,0.33153,1.4598,-0.2527,-0.49904,1.5148,0.98372,-0.32791,-1.7724,1.3116,-1.312e-10,-0.88621,0,0,0.5,1.1842e-15,0,0.66667
0.65417,0.049432,1.3083,-0.67585,-1.9879,2.3741,2.358,-0.78599,-0.37545,3.144,-2.4653e-11,-0.18773,0,0,0.5,1.1842e-15,0,0.66667
0.14285,0.52089,0.28569,0.031338,0.14548,8.0265,-0.023875,0.0079584,-1.9962,-0.031834,-1.0341e-09,-0.9981,0,0,0.5,-0,-0,0.66667
0.84418,0.86043,1.6884,0.54065,0.67711,0.90637,-2.4342,0.81139,-0.96032,-3.2455,3.1668e-09,-0.48016,0,0,0.5,-1.1842e-15,0,0.66667
0.97846,0.028444,1.9569,-0.70733,-0.11513,0.50108,3.6912,-1.2304,-0.22156,4.9216,1.0862e-06,-0.11078,0,0,0.5,1.1842e-15,0,0.66667
0.96625,0.22659,1.9325,-0.41012,0.022538,0.2521,2.1135,-0.70449,-1.4019,2.8179,-1.1155e-08,-0.70093,0,0,0.5,-0,-0,0.66667
0.3364,0.46031,0.67281,-0.059537,-0.24708,5.5394,0.10682,-0.035606,-1.9871,0.14242,3.5656e-11,-0.99354,0,0,0.5,-0,-0,0.66667
0.92595,0.6871,1.8519,0.28065,0.072685,0.33169,-1.386,0.46199,-1.721,-1.848,1.8338e-08,-0.86048,0,0,0.5,1.2953e-15,0,0.66667
0.13324,0.94588,0.26649,0.66881,3.4238,8.207,-0.47528,0.15843,-0.40925,-0.63371,-9.2939e-09,-0.20462,0,0,0.5,-0,-0,0.66667
0.93972,0.9198,1.8794,0.6297,0.28428,0.53998,-3.156,1.052,-0.58965,-4.208,-1.7835e-08,-0.29483,0,0,0.5,-0,-0,0.66667
0.0441,0.52136,0.088201,0.03204,0.15189,9.3494,-0.0075348,0.0025115,-1.996,-0.010046,-1.6268e-07,-0.99802,0,0,0.5,-0,-0,0.66667
0.40908,0.77445,0.81816,0.41167,1.6604,4.7269,-0.89817,0.29939,-1.3974,-1.1976,-7.0674e-11,-0.69871,0,0,0.5,-0,-0,0.66667
0.84301,0.25814,1.686,-0.36279,-0.39773,0.79258,1.6311,-0.5437,-1.532,2.1748,7.9618e-10,-0.76601,0,0,0.5,-0,-0,0.66667
0.72623,0.86015,1.4525,0.54022,1.21,1.6906,-2.0924,0.69746,-0.96169,-2.7899,5.4834e-10,-0.48084,0,0,0.5,-8.6003e-16,0,0.66667
0.72093,0.58245,1.4419,0.12367,0.2466,1.554,-0.47551,0.1585,-1.9452,-0.63402,1.0072e-10,-0.97262,0,0,0.5,-0,-0,0.66667
0.27735,0.50647,0.55469,0.0097109,0.042139,6.2762,-0.014364,0.004788,-1.9997,-0.019152,-1.0719e-11,-0.99983,0,0,0.5,-0,-0,0.66667
0.42121,0.15878,0.84243,-0.51183,-2.0859,4.6219,1.1498,-0.38327,-1.0693,1.5331,4.0307e-11,-0.53467,0,0,0.5,-1.1842e-15,0,0.66667
0.58955,0.098303,1.1791,-0.60255,-1.972,2.9043,1.8946,-0.63152,-0.70937,2.5261,-2.1572e-11,-0.35468,0,0,0.5,-0,-0,0.66667
0.38914,0.70633,0.77828,0.30949,1.2509,4.9337,-0.64232,0.21411,-1.659,-0.85642,-9.0505e-11,-0.82952,0,0,0.5,-0,-0,0.66667
0.50598,0.72314,1.012,0.33472,1.1718,3.6247,-0.90324,0.30108,-1.6019,-1.2043,3.9157e-12,-0.80094,0,0,0.5,-1.1842e-15,0,0.66667
0.54035,0.21788,1.0807,-0.42318,-1.4297,3.2967,1.2195,-0.40652,-1.3641,1.6261,-2.4904e-11,-0.68206,0,0,0.5,-1.5543e-15,0,0.66667
0.82427,0.37278,1.6485,-0.19082,-0.22215,0.83468,0.83888,-0.27963,-1.8712,1.1185,1.5755e-10,-0.9356,0,0,0.5,-0,-0,0.66667
0.72498,0.44651,1.45,-0.080231,-0.15674,1.5162,0.31022,-0.10341,-1.9768,0.41362,-8.199e-11,-0.98838,0,0,0.5,-0,-0,0.66667
0.66049,0.41929,1.321,-0.12107,-0.29523,2.0609,0.42647,-0.14216,-1.9473,0.56863,-6.6279e-11,-0.97366,0,0,0.5,-1.1842e-15,0,0.66667
0.035884,0.8363,0.071768,0.50445,2.5258,9.4683,-0.096542,0.032181,-1.0951,-0.12872,-3.0831e-08,-0.54754,0,0,0.5,-0,-0,0.66667
0.15539,0.93296,0.31077,0.64944,3.2853,7.9183,-0.5382,0.1794,-0.50081,-0.71761,-6.4743e-09,-0.2504,0,0,0.5,1.4803e-16,-2.9412e-16,0.66667
0.88653,0.021107,1.7731,-0.71834,-0.7855,0.86029,3.3964,-1.1321,-0.1649,4.5285,-1.1054e-08,-0.082449,0,0,0.5,-0,-0,0.66667
0.76576,0.83426,1.5315,0.50138,0.94428,1.3744,-2.0477,0.68256,-1.1061,-2.7302,1.0211e-09,-0.55304,0,0,0.5,5.9212e-16,0,0.66667
0.18038,0.79132,0.36077,0.43699,2.0864,7.5607,-0.4204,0.14013,-1.3206,-0.56054,-4.4032e-10,-0.66029,0,0,0.5,2.9606e-16,0,0.66667
0.065156,0.19595,0.13031,-0.45607,-2.2544,9.0779,0.15849,-0.052828,-1.2603,0.21131,-6.2782e-09,-0.63013,0,0,0.5,-0,-0,0.66667
0.16273,0.59753,0.32546,0.1463,0.6775,7.766,-0.12697,0.042324,-1.9242,-0.1693,-7.1635e-11,-0.96211,0,0,0.5,-0,-0,0.66667
0.83741,0.24947,1.6748,-0.3758,-0.4346,0.83252,1.6784,-0.55946,-1.4988,2.2378,6.0507e-10,-0.7494,0,0,0.5,7.4015e-17,0,0.66667
0.97311,0.56584,1.9462,0.098756,-0.028664,0.092277,-0.51254,0.17084,-1.9658,-0.68338,-2.4436e-06,-0.98288,0,0,0.5,-0,-0,0.66667
0.7551,0.55649,1.5102,0.084735,0.14545,1.2862,-0.34125,0.11375,-1.9745,-0.455,1.3044e-10,-0.98724,0,0,0.5,-0,-0,0.66667
0.7846,0.48547,1.5692,-0.021795,-0.031978,1.07,0.091203,-0.030401,-1.9977,0.1216,-7.195e-11,-0.99887,0,0,0.5,-0,-0,0.66667
0.029384,0.80094,0.058769,0.45141,2.2375,9.5532,-0.070743,0.023581,-1.2751,-0.094324,-2.008e-08,-0.63756,0,0,0.5,3.7007e-17,0,0.66667
0.87464,0.12655,1.7493,-0.56018,-0.55764,0.75978,2.6131,-0.87102,-0.88528,3.4841,-5.5041e-09,-0.44264,0,0,0.5,-0,1.1306e-16,0.66667
0.68115,0.84575,1.3623,0.51863,1.3248,2.0354,-1.8841,0.62802,-1.0443,-2.5121,2.5679e-10,-0.52214,0,0,0.5,-0,-0,0.66667
0.34905,0.69207,0.69809,0.2881,1.2061,5.4093,-0.53633,0.17878,-1.7051,-0.71511,-1.2965e-10,-0.85254,0,0,0.5,-1.1842e-15,0,0.66667
0.49958,0.18161,0.99916,-0.47759,-1.7458,3.7447,1.2725,-0.42417,-1.1893,1.6967,1.7719e-13,-0.59464,0,0,0.5,-2.9606e-16,-2.1057e-17,0.66667
0.95006,0.90026,1.9001,0.60039,0.18606,0.47207,-3.0421,1.014,-0.71844,-4.0562,-1.2023e-07,-0.35922,0,0,0.5,5.9212e-16,3.868e-16,0.66667
0.054088,0.81076,0.10818,0.46613,2.3119,9.2253,-0.13446,0.044821,-1.2281,-0.17929,-2.2578e-08,-0.61406,0,0,0.5,-9.2519e-18,0,0.66667
0.1917,0.65963,0.3834,0.23944,1.1047,7.3913,-0.2448,0.081602,-1.7966,-0.32641,2.4145e-10,-0.8983,0,0,0.5,-0,-0,0.66667
0.15015,0.93317,0.3003,0.64975,3.2926,7.9858,-0.52032,0.17344,-0.49917,-0.69376,-7.6129e-09,-0.24959,0,0,0.5,3.7007e-16,0,0.66667
0.53825,0.75052,1.0765,0.37578,1.2593,3.3001,-1.0787,0.35957,-1.4989,-1.4383,2.5684e-11,-0.74943,0,0,0.5,-0,-0,0.66667
0.23563,0.25034,0.47125,-0.37449,-1.7224,6.8394,0.47061,-0.15687,-1.5025,0.62748,2.9677e-10,-0.75127,0,0,0.5,-0,-0,0.66667
0.076734,0.46742,0.15347,-0.048864,-0.23069,8.9103,0.019998,-0.0066659,-1.9925,0.026663,-1.0862e-07,-0.99624,0,0,0.5,2.0354e-16,0,0.66667
0.515,0.90438,1.03,0.60657,2.2546,3.646,-1.666,0.55534,-0.69275,-2.2214,2.0087e-12,-0.34638,0,0,0.5,7.4015e-17,0,0.66667
0.83625,0.84836,1.6725,0.52254,0.68109,0.9373,-2.3305,0.77684,-1.0293,-3.1074,2.3737e-09,-0.51467,0,0,0.5,-0,-0,0.66667
0.68195,0.55467,1.3639,0.082006,0.18671,1.8698,-0.29826,0.09942,-1.9759,-0.39768,5.5903e-11,-0.98793,0,0,0.5,5.9212e-16,0,0.66667
0.036724,0.025988,0.073447,-0.71102,-3.745,9.4654,0.13926,-0.04642,-0.2026,0.18568,-4.2382e-07,-0.1013,0,0,0.5,-0,-0,0.66667
0.04527,0.03859,0.09054,-0.69211,-3.6238,9.3529,0.1671,-0.055701,-0.29681,0.22281,5.3476e-07,-0.14841,0,0,0.5,-0,-4.2564e-16,0.66667
0.53809,0.072325,1.0762,-0.64151,-2.3304,3.4311,1.841,-0.61367,-0.53631,2.4547,-3.2091e-12,-0.26816,0,0,0.5,-0,-0,0.66667
0.14142,0.23022,0.28283,-0.40467,-1.9477,8.066,0.30521,-0.10174,-1.4175,0.40695,-1.2194e-09,-0.70873,0,0,0.5,-0,-0,0.66667
0.70723,0.11713,1.4145,-0.5743,-1.3923,1.8619,2.1662,-0.72207,-0.82711,2.8883,-3.3543e-10,-0.41356,0,0,0.5,-5.9212e-16,0,0.66667
0.24745,0.18911,0.49489,-0.46633,-2.1679,6.7056,0.61542,-0.20514,-1.2276,0.82056,7.2548e-10,-0.61382,0,0,0.5,-0,-0,0.66667
0.43996,0.88505,0.87992,0.57758,2.347,4.4382,-1.3553,0.45175,-0.81358,-1.807,-1.5491e-11,-0.40679,0,0,0.5,1.1842e-15,0,0.66667
0.62029,0.35326,1.2406,-0.22011,-0.60491,2.4458,0.72817,-0.24272,-1.8274,0.9709,-7.8902e-11,-0.91369,0,0,0.5,-0,-0,0.66667
0.97274,0.2423,1.9455,-0.38655,0.054717,0.21429,2.0054,-0.66846,-1.4686,2.6739,-2.0066e-09,-0.73428,0,0,0.5,-5.9212e-16,0,0.66667
0.19701,0.49506,0.39401,-0.0074058,-0.03364,7.3121,0.0077813,-0.0025938,-1.9999,0.010375,1.5819e-10,-0.99997,0,0,0.5,-0,-0,0.66667
0.91184,0.9253,1.8237,0.63795,0.47059,0.66012,-3.1024,1.0341,-0.55239,-4.1366,4.4029e-08,-0.2762,0,0,0.5,-0,-0,0.66667
0.35078,0.97482,0.70155,0.71223,3.2904,5.5206,-1.3324,0.44415,-0.19633,-1.7766,-4.8083e-12,-0.098165,0,0,0.5,-0,-0,0.66667
0.16192,0.63754,0.32385,0.2063,0.9602,7.7797,-0.17816,0.059388,-1.8481,-0.23755,3.1266e-10,-0.92404,0,0,0.5,-0,-0,0.66667
0.42086,0.34494,0.84173,-0.23258,-0.89811,4.5481,0.52206,-0.17402,-1.8087,0.69608,5.055e-11,-0.90434,0,0,0.5,-1.1842e-15,0,0.66667
0.84148,0.0782,1.683,-0.6327,-0.87861,1.0024,2.8395,-0.9465,-0.57616,3.786,-5.5233e-09,-0.28808,0,0,0.5,1.1842e-15,0,0.66667
0.043786,0.93575,0.087572,0.65362,3.3876,9.3703,-0.15264,0.05088,-0.48179,-0.20352,6.489e-07,-0.24089,0,0,0.5,1.0177e-16,-1.2731e-16,0.66667
0.13697,0.14018,0.27394,-0.53974,-2.6728,8.1399,0.39428,-0.13143,-0.96363,0.52571,2.4954e-09,-0.48181,0,0,0.5,-2.9606e-16,0,0.66667
0.58994,0.33376,1.1799,-0.24936,-0.73767,2.7429,0.78456,-0.26152,-1.7785,1.0461,-6.1131e-11,-0.88927,0,0,0.5,-0,-0,0.66667
0.40858,0.96915,0.81716,0.70372,3.0775,4.851,-1.5335,0.51116,-0.24032,-2.0446,-9.6445e-13,-0.12016,0,0,0.5,-0,-0,0.66667
0.47828,0.54932,0.95656,0.073976,0.26156,3.879,-0.1887,0.0629,-1.9799,-0.2516,-4.8851e-12,-0.98996,0,0,0.5,-5.9212e-16,0,0.66667
0.82205,0.36567,1.6441,-0.20149,-0.23937,0.85157,0.88341,-0.29447,-1.8553,1.1779,2.3245e-10,-0.92763,0,0,0.5,-0,-0,0.66667
0.16727,0.79239,0.33454,0.43858,2.1053,7.7315,-0.39127,0.13042,-1.3156,-0.52169,-1.5324e-10,-0.65779,0,0,0.5,2.9606e-16,0,0.66667
0.32202,0.70099,0.64404,0.30148,1.2937,5.7419,-0.51778,0.17259,-1.6762,-0.69037,-1.6562e-10,-0.8381,0,0,0.5,5.9212e-16,0,0.66667
0.20551,0.45933,0.41102,-0.061004,-0.27626,7.2016,0.066863,-0.022288,-1.9865,0.089151,2.6005e-10,-0.99326,0,0,0.5,2.9606e-16,0,0.66667
0.099323,0.71998,0.19865,0.32997,1.5872,8.6167,-0.17479,0.058264,-1.6137,-0.23306,1.8479e-09,-0.80684,0,0,0.5,-0,-0,0.66667
0.52436,0.27671,1.0487,-0.33493,-1.1388,3.4305,0.93667,-0.31222,-1.6013,1.2489,-1.6328e-11,-0.80066,0,0,0.5,-8.8818e-16,0,0.66667
0.21257,0.6649,0.42514,0.24735,1.131,7.1204,-0.28043,0.093476,-1.7821,-0.37391,6.9901e-11,-0.89107,0,0,0.5,-0,-0,0.66667
0.90438,0.51361,1.8088,0.020417,0.0079265,0.36569,-0.098478,0.032826,-1.9981,-0.1313,5.6576e-11,-0.99903,0,0,0.5,-0,-0,0.66667
0.046031,0.22699,0.092061,-0.40952,-2.0118,9.3302,0.10054,-0.033512,-1.4037,0.13405,3.1708e-09,-0.70183,0,0,0.5,-0,-0,0.66667
0.89727,0.77021,1.7945,0.40531,0.25393,0.53078,-1.9396,0.64653,-1.4154,-2.5861,-1.3915e-09,-0.70769,0,0,0.5,-0,-0,0.66667
0.58773,0.0021656,1.1755,-0.74675,-2.6032,3.0232,2.3408,-0.78025,-0.017895,3.121,3.1064e-13,-0.0089473,0,0,0.5,-0,-0,0.66667
0.8616,0.33154,1.7232,-0.25268,-0.21655,0.63594,1.1611,-0.38704,-1.7726,1.5482,1.2031e-09,-0.88628,0,0,0.5,-0,-0,0.66667
0.02917,0.4359,0.058341,-0.096156,-0.45722,9.551,0.01496,-0.0049883,-1.968,0.019946,-2.4487e-06,-0.984,0,0,0.5,-4.1941e-17,0,0.66667
0.33301,0.64438,0.66602,0.21657,0.91116,5.594,-0.38464,0.12821,-1.8327,-0.51286,-1.1181e-10,-0.91635,0,0,0.5,5.9212e-16,0,0.66667
0.50111,0.48759,1.0022,-0.018616,-0.063498,3.627,0.049752,-0.016584,-1.9984,0.066336,-8.7624e-14,-0.9992,0,0,0.5,5.9212e-16,0,0.66667
0.21711,0.23808,0.43422,-0.39288,-1.8303,7.0796,0.45493,-0.15164,-1.4508,0.60657,3.4438e-10,-0.7254,0,0,0.5,-0,-0,0.66667
0.4226,0.50424,0.84519,0.0063536,0.024124,4.5077,-0.01432,0.0047733,-2.0004,-0.019093,-1.711e-12,-1.0002,0,0,0.5,-0,-0,0.66667
0.029533,0.25831,0.059065,-0.36254,-1.7698,9.5493,0.057102,-0.019034,-1.5326,0.076136,-3.2356e-09,-0.76629,0,0,0.5,-0,-0,0.66667
0.58718,0.57368,1.1744,0.11053,0.32315,2.7437,-0.34613,0.11538,-1.956,-0.4615,3.0185e-11,-0.97802,0,0,0.5,-0,-0,0.66667
0.92973,0.69916,1.8595,0.29873,0.06942,0.32427,-1.4813,0.49376,-1.6821,-1.9751,9.005e-09,-0.84106,0,0,0.5,-0,-0,0.66667
0.075808,0.19848,0.15162,-0.45228,-2.2304,8.9364,0.18286,-0.060954,-1.2723,0.24382,-1.078e-08,-0.63616,0,0,0.5,-0,-0,0.66667
0.84182,0.40509,1.6836,-0.14237,-0.14115,0.71614,0.63919,-0.21306,-1.9289,0.85226,-5.2301e-10,-0.96445,0,0,0.5,1.3323e-15,0,0.66667
0.74778,0.026843,1.4956,-0.70973,-1.6254,1.671,2.8305,-0.94351,-0.20935,3.774,-6.886e-11,-0.10468,0,0,0.5,5.9212e-16,0,0.66667
0.22999,0.47214,0.45997,-0.041792,-0.1868,6.8832,0.051261,-0.017087,-1.9942,0.068349,1.1089e-10,-0.99711,0,0,0.5,-0,-0,0.66667
0.51812,0.92372,1.0362,0.63557,2.3753,3.6304,-1.7563,0.58543,-0.56321,-2.3417,1.5625e-12,-0.28161,0,0,0.5,5.9212e-16,0,0.66667
0.31376,0.18887,0.62752,-0.4667,-2.0772,5.8793,0.78096,-0.26032,-1.2266,1.0413,2.943e-10,-0.61328,0,0,0.5,1.1842e-15,0,0.66667
0.61579,0.20308,1.2316,-0.44539,-1.3065,2.5701,1.4627,-0.48758,-1.294,1.9503,-9.9461e-11,-0.64701,0,0,0.5,-0,-0,0.66667
0.21317,0.967,0.42635,0.7005,3.5141,7.194,-0.79641,0.26547,-0.25599,-1.0619,-2.8958e-10,-0.128,0,0,0.5,3.7007e-17,0,0.66667
0.43589,0.61309,0.87178,0.16964,0.63894,4.3656,-0.39436,0.13145,-1.8973,-0.52582,-3.1479e-11,-0.94865,0,0,0.5,-0,-0,0.66667
0.78908,0.60201,1.5782,0.15301,0.2224,1.0552,-0.64393,0.21464,-1.9165,-0.85857,1.5678e-10,-0.95823,0,0,0.5,-2.3685e-15,0,0.66667
0.46647,0.89657,0.93294,0.59486,2.3535,4.1547,-1.4799,0.4933,-0.74158,-1.9732,-5.972e-12,-0.37079,0,0,0.5,5.9212e-16,0,0.66667
0.67355,0.026473,1.3471,-0.71029,-2.0269,2.24,2.5516,-0.85052,-0.20653,3.4021,-8.9129e-12,-0.10326,0,0,0.5,5.9212e-16,0,0.66667
0.88484,0.41989,1.7697,-0.12016,-0.070813,0.47369,0.56704,-0.18901,-1.948,0.75605,1.205e-09,-0.97402,0,0,0.5,-0,-0,0.66667
0.93814,0.55829,1.8763,0.08743,0.0056037,0.22162,-0.43745,0.14582,-1.9733,-0.58326,-2.6016e-07,-0.98666,0,0,0.5,5.9212e-16,0,0.66667
0.98474,0.47971,1.9695,-0.03044,0.012806,0.046524,0.15988,-0.053292,-1.9965,0.21317,2.7727e-07,-0.99823,0,0,0.5,-0,-0,0.66667
0.88356,0.40096,1.7671,-0.14857,-0.090517,0.48627,0.70009,-0.23336,-1.9216,0.93345,-2.176e-09,-0.9608,0,0,0.5,-1.1842e-15,0,0.66667
0.24358,0.51227,0.48716,0.018398,0.08157,6.7076,-0.0239,0.0079667,-1.9982,-0.031867,-3.4722e-11,-0.9991,0,0,0.5,-0,-0,0.66667
0.4083,0.74213,0.81661,0.36319,1.4519,4.7222,-0.79089,0.26363,-1.5309,-1.0545,-7.3538e-11,-0.76546,0,0,0.5,-0,-0,0.66667
0.37481,0.2551,0.74961,-0.36736,-1.5211,5.1167,0.73433,-0.24478,-1.5206,0.97911,1.1735e-10,-0.76029,0,0,0.5,-1.1842e-15,0,0.66667
0.15223,0.80743,0.30446,0.46115,2.2352,7.9307,-0.3744,0.1248,-1.2441,-0.4992,-1.511e-10,-0.62203,0,0,0.5,-0,-0,0.66667
0.070456,0.32084,0.14091,-0.26874,-1.2896,8.9991,0.10098,-0.033662,-1.7429,0.13465,1.1532e-09,-0.87145,0,0,0.5,-0,-0,0.66667
0.29574,0.65293,0.59149,0.2294,0.99516,6.0577,-0.36183,0.12061,-1.8135,-0.48244,-1.3029e-10,-0.90676,0,0,0.5,4.4409e-16,0,0.66667
0.85996,0.73063,1.7199,0.34595,0.3217,0.68767,-1.5867,0.52889,-1.5742,-2.1156,-1.1008e-09,-0.78709,0,0,0.5,-0,-0,0.66667
0.038983,0.89515,0.077967,0.59272,3.0266,9.4306,-0.12323,0.041078,-0.75034,-0.16431,-3.2068e-08,-0.37517,0,0,0.5,-3.7007e-17,0,0.66667
0.21547,0.85315,0.43093,0.52972,2.5392,7.125,-0.60873,0.20291,-1.002,-0.81164,-1.5089e-09,-0.501,0,0,0.5,-0,-0,0.66667
0.34655,0.42606,0.6931,-0.11091,-0.45722,5.4178,0.205,-0.068333,-1.9558,0.27333,5.8292e-11,-0.97792,0,0,0.5,-0,-0,0.66667
0.64816,0.53466,1.2963,0.051989,0.1306,2.164,-0.17972,0.059906,-1.9908,-0.23963,2.759e-11,-0.99538,0,0,0.5,-0,-0,0.66667
0.56317,0.93398,1.1263,0.65097,2.2771,3.1889,-1.9552,0.65175,-0.49389,-2.607,4.7747e-12,-0.24695,0,0,0.5,-0,-0,0.66667
0.79618,0.04826,1.5924,-0.67761,-1.2504,1.3154,2.8773,-0.95911,-0.36705,3.8365,-9.3248e-10,-0.18353,0,0,0.5,-2.1271e-15,0,0.66667
0.68696,0.38658,1.3739,-0.17013,-0.38504,1.8408,0.62334,-0.20778,-1.8968,0.83112,-1.0153e-10,-0.9484,0,0,0.5,-0,-0,0.66667
0.8895,0.80695,1.779,0.46043,0.34534,0.60613,-2.1843,0.72809,-1.2465,-2.9124,-4.4447e-09,-0.62326,0,0,0.5,-1.7764e-15,0,0.66667
0.4869,0.91927,0.9738,0.6289,2.4501,3.9529,-1.6331,0.54438,-0.59322,-2.1775,-1.2814e-12,-0.29661,0,0,0.5,-0,-0,0.66667
0.53592,0.51386,1.0718,0.020796,0.066933,3.257,-0.059439,0.019813,-1.9979,-0.079253,2.28e-12,-0.99893,0,0,0.5,-0,-0,0.66667
0.83765,0.31094,1.6753,-0.28359,-0.30947,0.78583,1.2669,-0.4223,-1.7148,1.6892,6.0692e-10,-0.85739,0,0,0.5,-1.4803e-16,0,0.66667
0.0056932,0.87851,0.011386,0.56777,2.8866,9.8692,-0.017239,0.0057464,-0.85421,-0.022986,4.5727e-10,-0.42711,0,0,0.5,-0,-0,0.66667
0.24257,0.67887,0.48514,0.2683,1.2103,6.736,-0.3471,0.1157,-1.7437,-0.4628,-7.6078e-11,-0.87186,0,0,0.5,2.9606e-16,0,0.66667
0.22151,0.22852,0.44301,-0.40722,-1.8978,7.0254,0.48108,-0.16036,-1.4101,0.64144,4.583e-10,-0.70504,0,0,0.5,-0,-0,0.66667
0.56155,0.60838,1.1231,0.16258,0.50328,3.0064,-0.4869,0.1623,-1.9056,-0.64921,2.8978e-11,-0.9528,0,0,0.5,1.1842e-15,0,0.66667
0.71761,0.1372,1.4352,-0.54421,-1.2575,1.7595,2.0828,-0.69427,-0.94663,2.7771,-4.644e-10,-0.47331,0,0,0.5,-0,-0,0.66667
0.2525,0.85647,0.50499,0.5347,2.5166,6.6572,-0.72005,0.24002,-0.98298,-0.96007,-8.1652e-10,-0.49149,0,0,0.5,-0,-0,0.66667
0.50602,0.12309,1.012,-0.56537,-2.1008,3.7176,1.5258,-0.5086,-0.86416,2.0344,-1.4481e-12,-0.43208,0,0,0.5,-7.4015e-16,0,0.66667
0.73927,0.39609,1.4785,-0.15586,-0.28996,1.4168,0.61451,-0.20484,-1.9132,0.81935,-1.158e-10,-0.9566,0,0,0.5,-0,-0,0.66667
0.7223,0.39672,1.4446,-0.15492,-0.30866,1.5486,0.5968,-0.19893,-1.9143,0.79573,-1.1043e-10,-0.95717,0,0,0.5,-0,-0,0.66667
0.46831,0.78613,0.93662,0.4292,1.6187,4.0641,-1.072,0.35733,-1.3454,-1.4293,-1.8744e-11,-0.67272,0,0,0.5,-0,-0,0.66667
0.70619,0.12307,1.4124,-0.56539,-1.3692,1.8637,2.1295,-0.70982,-0.86416,2.8393,-3.4903e-10,-0.43208,0,0,0.5,1.3323e-15,0,0.66667
0.55907,0.17539,1.1181,-0.48691,-1.6209,3.1362,1.4518,-0.48394,-1.1565,1.9358,-3.0646e-11,-0.57827,0,0,0.5,5.9212e-16,0,0.66667
0.078411,0.80388,0.15682,0.45581,2.2484,8.9021,-0.19062,0.063539,-1.2612,-0.25416,7.9565e-09,-0.63062,0,0,0.5,7.4015e-17,0,0.66667
0.9528,0.75248,1.9056,0.37871,0.021565,0.27858,-1.9245,0.64149,-1.4909,-2.566,-3.753e-10,-0.74544,0,0,0.5,-0,-0,0.66667
0.97565,0.51169,1.9513,0.017535,-0.0057283,0.075515,-0.091249,0.030414,-1.9983,-0.12167,-3.8846e-06,-0.99917,0,0,0.5,-0,-0,0.66667
0.16201,0.17765,0.32403,-0.48352,-2.3463,7.806,0.4178,-0.13927,-1.1683,0.55706,1.015e-09,-0.58416,0,0,0.5,-0,-0,0.66667
0.41783,0.48323,0.83565,-0.025161,-0.096105,4.5634,0.056069,-0.01869,-1.9972,0.074759,6.619e-12,-0.99858,0,0,0.5,-0,-0,0.66667
0.61959,0.84469,1.2392,0.51704,1.5407,2.5729,-1.7086,0.56952,-1.0503,-2.2781,8.4827e-11,-0.52517,0,0,0.5,2.3685e-15,0,0.66667
0.56812,0.55051,1.1362,0.075765,0.22992,2.9297,-0.22957,0.076522,-1.979,-0.30609,1.6089e-11,-0.98951,0,0,0.5,5.9212e-16,0,0.66667
0.37473,0.2973,0.74946,-0.30405,-1.2457,5.1035,0.60767,-0.20256,-1.6709,0.81022,1.0563e-10,-0.83546,0,0,0.5,-1.0359e-15,0,0.66667
0.90355,0.70891,1.8071,0.31336,0.15594,0.44815,-1.5101,0.50335,-1.6506,-2.0134,7.4684e-10,-0.82528,0,0,0.5,-1.1842e-15,0,0.66667
0.67718,0.81142,1.3544,0.46713,1.1821,2.038,-1.6871,0.56237,-1.225,-2.2495,2.5606e-10,-0.61249,0,0,0.5,-4.4409e-16,0,0.66667
0.11263,0.37792,0.22526,-0.18312,-0.86378,8.4324,0.11,-0.036665,-1.8813,0.14666,8.0606e-11,-0.94067,0,0,0.5,-2.9606e-16,0,0.66667
0.66956,0.74831,1.3391,0.37246,0.93221,2.0552,-1.3301,0.44335,-1.5076,-1.7734,1.9856e-10,-0.7538,0,0,0.5,1.7764e-15,0,0.66667
0.21799,0.38985,0.43598,-0.16522,-0.74762,7.0437,0.19209,-0.064031,-1.9025,0.25612,1.0866e-10,-0.95126,0,0,0.5,2.9606e-16,0,0.66667
0.086095,0.94362,0.17219,0.66542,3.44,8.8183,-0.30554,0.10185,-0.42559,-0.40739,-5.1303e-08,-0.2128,0,0,0.5,-0,-0,0.66667
0.35993,0.23136,0.71986,-0.40295,-1.7035,5.3031,0.77352,-0.25784,-1.4223,1.0314,1.4591e-10,-0.71117,0,0,0.5,-0,-0,0.66667
0.049607,0.068751,0.099215,-0.64687,-3.3449,9.2936,0.17114,-0.057048,-0.51227,0.22819,-1.1094e-08,-0.25613,0,0,0.5,-0,-0,0.66667
0.14662,0.22325,0.29323,-0.41512,-1.9984,7.9988,0.3246,-0.1082,-1.3875,0.4328,-1.0407e-09,-0.69375,0,0,0.5,-0,-0,0.66667
0.45307,0.36716,0.90613,-0.19926,-0.73653,4.1747,0.48147,-0.16049,-1.8589,0.64197,2.5507e-11,-0.92945,0,0,0.5,-0,-0,0.66667
0.9832,0.067792,1.9664,-0.64831,-0.019592,0.41792,3.3996,-1.1332,-0.50588,4.5328,4.6698e-08,-0.25294,0,0,0.5,-0,-3.3317e-16,0.66667
0.84187,0.3386,1.6837,-0.2421,-0.24955,0.74457,1.087,-0.36233,-1.7919,1.4493,5.6376e-10,-0.89594,0,0,0.5,5.9212e-16,0,0.66667
0.013205,0.20892,0.02641,-0.43663,-2.1599,9.7684,0.03075,-0.01025,-1.3219,0.041,2.3079e-08,-0.66093,0,0,0.5,-1.8504e-17,0,0.66667
0.86889,0.16389,1.7378,-0.50417,-0.49765,0.74312,2.3364,-0.77879,-1.096,3.1152,-1.8903e-10,-0.548,0,0,0.5,-0,-0,0.66667
0.28341,0.57191,0.56683,0.10787,0.46745,6.2022,-0.16305,0.054348,-1.9584,-0.21739,-9.1544e-11,-0.9792,0,0,0.5,-0,-0,0.66667
0.19764,0.32075,0.39528,-0.26888,-1.2413,7.3165,0.28342,-0.094472,-1.7427,0.37789,-2.1302e-10,-0.87134,0,0,0.5,-0,-0,0.66667
0.30963,0.38352,0.61927,-0.17472,-0.74611,5.8784,0.28853,-0.096176,-1.8913,0.3847,1.0485e-10,-0.94563,0,0,0.5,-0,-0,0.66667
0.52923,0.1359,1.0585,-0.54615,-1.9473,3.4672,1.5416,-0.51385,-0.9391,2.0554,-8.8032e-12,-0.46955,0,0,0.5,-1.1842e-15,0,0.66667
0.48269,0.68024,0.96537,0.27037,0.96879,3.8594,-0.69601,0.232,-1.7401,-0.92802,-1.1007e-11,-0.87005,0,0,0.5,-0,-0,0.66667
0.62987,0.90466,1.2597,0.60699,1.8308,2.536,-2.0391,0.67969,-0.69074,-2.7188,4.7828e-11,-0.34537,0,0,0.5,-2.9606e-16,0,0.66667
0.16677,0.89205,0.33354,0.58808,2.9171,7.7608,-0.52307,0.17436,-0.76972,-0.69742,-4.4738e-09,-0.38486,0,0,0.5,2.9606e-16,0,0.66667
0.3743,0.98364,0.74859,0.72546,3.2998,5.253,-1.4482,0.48273,-0.12833,-1.9309,-1.6929e-12,-0.064167,0,0,0.5,5.9212e-16,-5.9081e-16,0.66667
0.58249,0.14137,1.165,-0.53794,-1.7432,2.9334,1.6712,-0.55706,-0.97048,2.2282,-3.639e-11,-0.48524,0,0,0.5,-0,-0,0.66667
0.81078,0.18814,1.6216,-0.4678,-0.68812,1.0516,2.0228,-0.67428,-1.223,2.6971,-1.0087e-09,-0.61151,0,0,0.5,2.3685e-15,0,0.66667
0.36845,0.57641,0.73689,0.11461,0.463,5.1526,-0.22522,0.075074,-1.9526,-0.3003,-5.005e-11,-0.97632,0,0,0.5,-0,-0,0.66667
0.83938,0.49715,1.6788,-0.0042777,-0.0042413,0.71554,0.01915,-0.0063833,-2.0005,0.025533,-1.6866e-10,-1.0002,0,0,0.5,2.9606e-16,0,0.66667
0.41681,0.062978,0.83362,-0.65553,-2.7985,4.7342,1.4572,-0.48575,-0.47306,1.943,6.5742e-12,-0.23653,0,0,0.5,1.1842e-15,0,0.66667
0.94249,0.79262,1.885,0.43893,0.093177,0.35896,-2.2063,0.73545,-1.3145,-2.9418,8.5717e-10,-0.65723,0,0,0.5,-0,-0,0.66667
0.29636,0.61458,0.59273,0.17187,0.74114,6.0439,-0.27166,0.090553,-1.8948,-0.36221,-1.0857e-10,-0.94738,0,0,0.5,2.9606e-16,0,0.66667
0.3686,0.15679,0.73721,-0.51481,-2.2138,5.2332,1.0121,-0.33735,-1.0586,1.3494,1.0622e-10,-0.52929,0,0,0.5,-0,-0,0.66667
0.65273,0.37856,1.3055,-0.18216,-0.45762,2.1406,0.63415,-0.21138,-1.8825,0.84553,-8.858e-11,-0.94123,0,0,0.5,2.3685e-15,0,0.66667
0.58342,0.50998,1.1668,0.014963,0.043911,2.7745,-0.046558,0.015519,-1.9988,-0.062078,4.0396e-12,-0.99939,0,0,0.5,-0,-0,0.66667
0.35417,0.54389,0.70834,0.065832,0.26896,5.3225,-0.12435,0.04145,-1.984,-0.1658,-3.3766e-11,-0.99201,0,0,0.5,-0,-0,0.66667
0.48431,0.090671,0.96861,-0.61399,-2.3884,3.9725,1.5859,-0.52864,-0.66034,2.1146,1.8645e-12,-0.33017,0,0,0.5,1.4803e-16,0,0.66667
0.66432,0.93303,1.3286,0.64955,1.8407,2.2677,-2.3014,0.76713,-0.50006,-3.0685,5.2657e-11,-0.25003,0,0,0.5,-1.4803e-15,0,0.66667
0.05634,0.4518,0.11268,-0.072304,-0.34261,9.1848,0.021726,-0.0072419,-1.9808,0.028968,1.4398e-07,-0.99038,0,0,0.5,-0,-0,0.66667
0.6064,0.11304,1.2128,-0.58043,-1.8215,2.7325,1.8772,-0.62574,-0.80166,2.5029,-4.0714e-11,-0.40083,0,0,0.5,-0,-0,0.66667
0.74678,0.32404,1.4936,-0.26394,-0.48775,1.3899,1.0512,-0.35041,-1.7519,1.4017,-1.0651e-10,-0.87593,0,0,0.5,-0,-0,0.66667
0.79397,0.52707,1.5879,0.040601,0.056425,1.0066,-0.17192,0.057308,-1.9945,-0.22923,2.052e-10,-0.99725,0,0,0.5,-8.3611e-16,0,0.66667
0.21378,0.15008,0.42757,-0.52488,-2.5152,7.1455,0.59845,-0.19948,-1.0205,0.79794,1.5198e-09,-0.51023,0,0,0.5,-0,-0,0.66667
0.64111,0.51463,1.2822,0.02194,0.05613,2.2267,-0.075017,0.025006,-1.9979,-0.10002,1.1056e-11,-0.99895,0,0,0.5,-2.3685e-15,0,0.66667
0.73113,0.92557,1.4623,0.63836,1.482,1.7286,-2.4892,0.82973,-0.55064,-3.3189,3.1525e-10,-0.27532,0,0,0.5,-0,-0,0.66667
0.095062,0.31706,0.19012,-0.27441,-1.3117,8.6705,0.13913,-0.046376,-1.7327,0.1855,-4.4523e-09,-0.86633,0,0,0.5,-2.9606e-16,0,0.66667
0.070073,0.1833,0.14015,-0.47505,-2.3552,9.0137,0.17754,-0.059179,-1.1978,0.23672,-1.3392e-08,-0.59892,0,0,0.5,-0,-0,0.66667
0.88595,0.6207,1.7719,0.18105,0.10823,0.4824,-0.85549,0.28516,-1.8837,-1.1407,-1.164e-09,-0.94186,0,0,0.5,1.4803e-15,0,0.66667
0.36132,0.91635,0.72265,0.62453,2.7843,5.3596,-1.2035,0.40117,-0.61292,-1.6047,-4.6816e-11,-0.30646,0,0,0.5,-0,-0,0.66667
0.70343,0.4219,1.4069,-0.11715,-0.24897,1.6943,0.43951,-0.1465,-1.9508,0.58601,-8.6652e-11,-0.97541,0,0,0.5,1.1842e-15,0,0.66667
0.56015,0.76839,1.1203,0.40258,1.3062,3.0881,-1.2027,0.4009,-1.4233,-1.6036,4.1097e-11,-0.71164,0,0,0.5,5.9212e-16,0,0.66667
0.33775,0.58366,0.67549,0.12549,0.5218,5.5266,-0.22605,0.075351,-1.9436,-0.3014,-6.9342e-11,-0.97178,0,0,0.5,-0,-0,0.66667
0.34565,0.51714,0.69131,0.025704,0.10573,5.4252,-0.047385,0.015795,-1.9972,-0.06318,-1.4577e-11,-0.99859,0,0,0.5,-1.1842e-15,0,0.66667
0.90546,0.4408,1.8109,-0.088801,-0.034244,0.36653,0.42883,-0.14294,-1.9726,0.57177,2.435e-08,-0.98631,0,0,0.5,-0,-0,0.66667
0.45348,0.48383,0.90697,-0.024261,-0.088644,4.1542,0.058676,-0.019559,-1.9975,0.078235,3.4427e-12,-0.99876,0,0,0.5,5.9212e-16,0,0.66667
0.48253,0.11957,0.96506,-0.57064,-2.1946,3.9694,1.4685,-0.48951,-0.84243,1.9581,3.9457e-12,-0.42122,0,0,0.5,-0,-7.4423e-16,0.66667
0.97915,0.53962,1.9583,0.059437,-0.021375,0.066764,-0.31038,0.10346,-1.9872,-0.41384,1.3493e-06,-0.99358,0,0,0.5,-0,-0,0.66667
0.41169,0.62297,0.82338,0.18445,0.71591,4.6472,-0.40499,0.135,-1.8797,-0.53998,-4.8208e-11,-0.93984,0,0,0.5,-8.1416e-16,0,0.66667
0.36945,0.28011,0.73889,-0.32984,-1.3638,5.1719,0.64991,-0.21664,-1.614,0.86655,1.1853e-10,-0.807,0,0,0.5,7.4015e-16,0,0.66667
0.079963,0.4915,0.15993,-0.012749,-0.06012,8.8668,0.0054369,-0.0018122,-1.9993,0.0072492,9.6742e-08,-0.99964,0,0,0.5,-1.4803e-16,0,0.66667
0.38778,0.74477,0.77556,0.36715,1.5008,4.9632,-0.75933,0.25311,-1.5209,-1.0124,-9.8827e-11,-0.76046,0,0,0.5,8.8818e-16,0,0.66667
0.17793,0.79104,0.35586,0.43657,2.0863,7.5925,-0.41429,0.1381,-1.3219,-0.55238,-3.9252e-10,-0.66096,0,0,0.5,-2.9606e-16,0,0.66667
0.13134,0.73756,0.26268,0.35634,1.7067,8.1942,-0.24961,0.083204,-1.5479,-0.33281,1.533e-09,-0.77397,0,0,0.5,-0,-0,0.66667
0.36767,0.8591,0.73535,0.53865,2.3323,5.2524,-1.0562,0.35208,-0.96772,-1.4083,-9.4416e-11,-0.48386,0,0,0.5,-0,-0,0.66667
0.15881,0.21267,0.31762,-0.431,-2.0723,7.841,0.36505,-0.12168,-1.3396,0.48673,-3.2323e-10,-0.66981,0,0,0.5,3.7007e-16,0,0.66667
0.30756,0.79601,0.61513,0.44401,1.9758,5.9497,-0.72833,0.24278,-1.2984,-0.97111,-3.0733e-10,-0.6492,0,0,0.5,5.9212e-16,0,0.66667
0.68798,0.24931,1.376,-0.37603,-0.89206,1.901,1.3798,-0.45992,-1.4984,1.8397,-2.4053e-10,-0.7492,0,0,0.5,-4.811e-16,0,0.66667
0.83844,0.54326,1.6769,0.064885,0.065215,0.72431,-0.29015,0.096716,-1.9845,-0.38686,8.4978e-10,-0.99224,0,0,0.5,-0,-0,0.66667
0.30482,0.83603,0.60964,0.50405,2.2772,5.9989,-0.81944,0.27315,-1.0964,-1.0926,-3.3286e-10,-0.54821,0,0,0.5,-2.9606e-16,0,0.66667
0.3531,0.206,0.7062,-0.441,-1.8905,5.3952,0.83049,-0.27683,-1.3079,1.1073,1.6098e-10,-0.65395,0,0,0.5,-1.0103e-15,0,0.66667
0.73064,0.65868,1.4613,0.23802,0.46691,1.5044,-0.92752,0.30917,-1.7992,-1.2367,1.1947e-10,-0.89959,0,0,0.5,-0,-0,0.66667
0.77783,0.81568,1.5557,0.47352,0.83138,1.272,-1.9644,0.65479,-1.2033,-2.6192,9.7707e-10,-0.60164,0,0,0.5,-0,-0,0.66667
0.17703,0.72441,0.35406,0.33662,1.5822,7.5921,-0.31782,0.10594,-1.5972,-0.42376,4.0662e-10,-0.79859,0,0,0.5,-0,-0,0.66667
0.40176,0.086231,0.80351,-0.62065,-2.6617,4.8889,1.3299,-0.44329,-0.6302,1.7732,2.0366e-11,-0.3151,0,0,0.5,-0,-0,0.66667
0.0029414,0.092431,0.0058829,-0.61135,-3.1409,9.9057,0.0095906,-0.0031977,-0.67198,0.012787,-1.211e-06,-0.33599,0,0,0.5,-5.2042e-18,0,0.66667
0.4006,0.34493,0.80119,-0.2326,-0.91883,4.7842,0.49696,-0.16565,-1.8084,0.66261,6.5823e-11,-0.90422,0,0,0.5,1.1842e-15,0,0.66667
0.8932,0.77894,1.7864,0.4184,0.28308,0.55891,-1.9932,0.66439,-1.3783,-2.6576,-1.4877e-09,-0.68913,0,0,0.5,-1.7764e-15,0,0.66667
0.057463,0.40294,0.11493,-0.14558,-0.69215,9.1704,0.044617,-0.014872,-1.9251,0.059489,2.0798e-07,-0.96253,0,0,0.5,9.2519e-17,0,0.66667
0.38963,0.068362,0.77926,-0.64746,-2.8327,5.0399,1.3454,-0.44848,-0.50975,1.7939,1.606e-11,-0.25487,0,0,0.5,-0,-0,0.66667
0.26534,0.7912,0.53069,0.4368,1.9972,6.4737,-0.61815,0.20605,-1.3215,-0.8242,-4.9886e-10,-0.66073,0,0,0.5,-0,-0,0.66667
0.036777,0.4591,0.073553,-0.061354,-0.29122,9.4483,0.012034,-0.0040114,-1.9862,0.016045,-1.3258e-07,-0.99311,0,0,0.5,3.7007e-17,0,0.66667
0.4005,0.90449,0.80101,0.60674,2.5946,4.8971,-1.296,0.432,-0.69178,-1.728,-2.5086e-11,-0.34589,0,0,0.5,2.2204e-16,0,0.66667
0.23781,0.74657,0.47562,0.36985,1.6977,6.8108,-0.46909,0.15636,-1.5141,-0.62545,-2.8863e-10,-0.75705,0,0,0.5,-0,-0,0.66667
0.83097,0.80227,1.6619,0.45341,0.58058,0.91835,-2.0094,0.66981,-1.2687,-2.6792,4.1444e-10,-0.63436,0,0,0.5,-0,-0,0.66667
0.64363,0.54294,1.2873,0.064415,0.16393,2.2059,-0.22111,0.073705,-1.9848,-0.29482,3.2413e-11,-0.9924,0,0,0.5,-1.1842e-15,0,0.66667
0.47657,0.7714,0.95314,0.40711,1.5106,3.9658,-1.0347,0.34491,-1.4103,-1.3797,-1.4371e-11,-0.70514,0,0,0.5,-0,-0,0.66667
0.70881,0.93015,1.4176,0.64523,1.6145,1.904,-2.4392,0.81305,-0.51958,-3.2522,1.6426e-10,-0.25979,0,0,0.5,-0,-0,0.66667
0.099384,0.78849,0.19877,0.43273,2.1167,8.6228,-0.22937,0.076456,-1.334,-0.30582,4.2783e-09,-0.66702,0,0,0.5,-0,-0,0.66667
0.75698,0.54939,1.514,0.074088,0.12592,1.2712,-0.29911,0.099703,-1.9799,-0.39881,1.2314e-10,-0.98993,0,0,0.5,1.1842e-15,0,0.66667
0.29859,0.16286,0.59718,-0.50571,-2.2958,6.076,0.80534,-0.26845,-1.0908,1.0738,3.713e-10,-0.54538,0,0,0.5,-0,-0,0.66667
0.50277,0.54955,1.0055,0.074328,0.25328,3.6113,-0.19931,0.066436,-1.9799,-0.26574,5.8452e-13,-0.98993,0,0,0.5,-5.9212e-16,0,0.66667
0.094178,0.89047,0.18836,0.58571,2.9628,8.7047,-0.29419,0.098064,-0.77985,-0.39226,-2.4753e-09,-0.38992,0,0,0.5,-0,-0,0.66667
0.81456,0.35541,1.6291,-0.21688,-0.2733,0.90363,0.94221,-0.31407,-1.8324,1.2563,1.8865e-10,-0.91618,0,0,0.5,-0,-0,0.66667
0.51047,0.15369,1.0209,-0.51947,-1.8909,3.6485,1.4142,-0.47142,-1.0411,1.8857,-3.7959e-12,-0.52055,0,0,0.5,7.4015e-16,0,0.66667
0.44197,0.071251,0.88394,-0.64312,-2.6607,4.4473,1.516,-0.50532,-0.52911,2.0213,5.3075e-12,-0.26455,0,0,0.5,-1.1842e-15,0,0.66667
0.13489,0.0659,0.26978,-0.65115,-3.3161,8.183,0.46845,-0.15615,-0.49285,0.6246,9.3317e-09,-0.24642,0,0,0.5,2.9606e-16,0,0.66667
0.63488,0.46804,1.2698,-0.047942,-0.12478,2.2848,0.16233,-0.05411,-1.9927,0.21644,-2.2797e-11,-0.99636,0,0,0.5,1.5913e-15,0,0.66667
0.35231,0.22836,0.70462,-0.40745,-1.7358,5.3957,0.7656,-0.2552,-1.4093,1.0208,1.62e-10,-0.70464,0,0,0.5,-0,-0,0.66667
0.68271,0.11074,1.3654,-0.5839,-1.5285,2.0662,2.126,-0.70868,-0.78717,2.8347,-1.8764e-10,-0.39358,0,0,0.5,-1.9927e-15,0,0.66667
0.76246,0.28724,1.5249,-0.31915,-0.56015,1.2963,1.2978,-0.4326,-1.6379,1.7304,-1.2484e-10,-0.81897,0,0,0.5,-0,-0,0.66667
0.0067478,0.4084,0.013496,-0.1374,-0.65532,9.8535,0.0049446,-0.0016483,-1.9335,0.0065927,-2.1812e-07,-0.96674,0,0,0.5,1.8504e-17,0,0.66667
0.25906,0.70363,0.51812,0.30544,1.3711,6.5304,-0.42201,0.14067,-1.6676,-0.56269,-1.6944e-10,-0.83381,0,0,0.5,5.9212e-16,0,0.66667
0.67791,0.25964,1.3558,-0.36053,-0.87746,1.9787,1.3035,-0.43451,-1.5374,1.738,-2.0704e-10,-0.76871,0,0,0.5,-0,-0,0.66667
0.3361,0.91638,0.6722,0.62456,2.843,5.6586,-1.1195,0.37318,-0.61259,-1.4927,-8.1463e-11,-0.30629,0,0,0.5,-0,-0,0.66667
0.75013,0.95869,1.5003,0.68803,1.5411,1.6341,-2.7526,0.91753,-0.31669,-3.6701,1.886e-10,-0.15835,0,0,0.5,1.1842e-15,0,0.66667
0.55698,0.90543,1.114,0.60815,2.1158,3.2227,-1.8065,0.60218,-0.68588,-2.4087,9.2045e-12,-0.34294,0,0,0.5,-2.5905e-16,0,0.66667
0.85824,0.25463,1.7165,-0.36806,-0.35411,0.70922,1.6847,-0.56157,-1.5187,2.2463,1.066e-09,-0.75937,0,0,0.5,-0,-0,0.66667
0.57058,0.99432,1.1412,0.74148,2.6573,3.1809,-2.2564,0.75213,-0.045191,-3.0085,4.8628e-14,-0.022596,0,0,0.5,2.9606e-16,0,0.66667
0.8894,0.98808,1.7788,0.73211,0.79582,0.86278,-3.4728,1.1576,-0.093901,-4.6303,-1.4173e-09,-0.04695,0,0,0.5,-0,-0,0.66667
0.22748,0.53957,0.45496,0.05935,0.26574,6.916,-0.072004,0.024001,-1.9872,-0.096005,-1.4543e-10,-0.99359,0,0,0.5,-0,-0,0.66667
0.79398,0.89735,1.588,0.59602,1.0468,1.2561,-2.5239,0.8413,-0.73668,-3.3652,1.9865e-09,-0.36834,0,0,0.5,-0,-3.0282e-16,0.66667
0.033947,0.88993,0.067893,0.58489,2.9822,9.4966,-0.10589,0.035298,-0.78311,-0.14119,4.5281e-08,-0.39155,0,0,0.5,7.4015e-17,0,0.66667
0.077267,0.75948,0.15453,0.38922,1.8975,8.9134,-0.16039,0.053465,-1.4612,-0.21386,2.5231e-09,-0.7306,0,0,0.5,-0,-0,0.66667
0.3959,0.79709,0.7918,0.44563,1.836,4.8903,-0.94094,0.31365,-1.2933,-1.2546,-8.2363e-11,-0.64664,0,0,0.5,-0,-0,0.66667
0.18577,0.71553,0.37153,0.3233,1.5112,7.4766,-0.32031,0.10677,-1.629,-0.42708,3.1334e-10,-0.81448,0,0,0.5,-1.9017e-17,0,0.66667
0.94419,0.54458,1.8884,0.066873,-4.1792e-06,0.19447,-0.33675,0.11225,-1.9835,-0.449,2.7397e-07,-0.99173,0,0,0.5,-0,-0,0.66667
0.77968,0.66242,1.5594,0.24363,0.38234,1.1451,-1.0131,0.33769,-1.7891,-1.3508,-2.8226e-11,-0.89456,0,0,0.5,-0,-0,0.66667
0.74367,0.74282,1.4873,0.36423,0.70589,1.455,-1.4446,0.48154,-1.5281,-1.9261,2.9742e-10,-0.76407,0,0,0.5,5.9212e-16,0,0.66667
0.492,0.27352,0.984,-0.33972,-1.2157,3.7764,0.89141,-0.29714,-1.5894,1.1885,5.2499e-12,-0.79471,0,0,0.5,2.9606e-16,0,0.66667
0.49005,0.14433,0.9801,-0.53351,-2.0083,3.8712,1.3944,-0.46479,-0.98742,1.8592,3.1912e-12,-0.49371,0,0,0.5,-5.9212e-16,0,0.66667
0.58111,0.91334,1.1622,0.62002,2.0756,2.9957,-1.9216,0.64053,-0.63313,-2.5621,1.4075e-11,-0.31657,0,0,0.5,-1.1842e-15,0,0.66667
0.59663,0.99058,1.1933,0.73588,2.5116,2.9323,-2.3416,0.78052,-0.074341,-3.1221,3.1219e-13,-0.037171,0,0,0.5,1.7764e-15,0,0.66667
0.89803,0.58576,1.7961,0.12864,0.05996,0.40928,-0.6161,0.20537,-1.9409,-0.82146,-4.967e-09,-0.97045,0,0,0.5,-5.9212e-16,0,0.66667
0.12083,0.91703,0.24167,0.62555,3.1765,8.3615,-0.40313,0.13438,-0.60824,-0.53751,-1.1736e-08,-0.30412,0,0,0.5,-2.9606e-16,0,0.66667
0.50961,0.017617,1.0192,-0.72357,-2.8276,3.7724,1.9666,-0.65554,-0.13782,2.6222,-5.107e-14,-0.068911,0,0,0.5,-0,-0,0.66667
0.99552,0.23744,1.991,-0.39384,0.14762,0.15016,2.0911,-0.69702,-1.4479,2.7881,-9.9359e-09,-0.72397,0,0,0.5,-0,9.5643e-17,0.66667
0.48143,0.36443,0.96286,-0.20336,-0.72328,3.8596,0.52214,-0.17405,-1.8526,0.69619,1.0013e-11,-0.9263,0,0,0.5,-5.9212e-16,0,0.66667
0.83781,0.050104,1.6756,-0.67484,-0.99786,1.0641,3.0154,-1.0051,-0.38017,4.0206,-3.5477e-09,-0.19008,0,0,0.5,-0,-0,0.66667
0.60366,0.62256,1.2073,0.18384,0.5224,2.5954,-0.59187,0.19729,-1.8804,-0.78916,5.7563e-11,-0.9402,0,0,0.5,1.3323e-15,0,0.66667
0.66437,0.83198,1.3287,0.49796,1.3211,2.1645,-1.7644,0.58815,-1.1178,-2.3526,1.9815e-10,-0.55888,0,0,0.5,-0,-0,0.66667
0.27246,0.90328,0.54492,0.60492,2.8634,6.4268,-0.87902,0.29301,-0.69938,-1.172,-4.2104e-10,-0.34969,0,0,0.5,3.7007e-16,0,0.66667
0.83093,0.65853,1.6619,0.23779,0.2678,0.80849,-1.0538,0.35127,-1.7997,-1.4051,-6.5716e-10,-0.89983,0,0,0.5,-0,-0,0.66667
0.24447,0.96022,0.48893,0.69033,3.4002,6.7997,-0.90007,0.30002,-0.30528,-1.2001,-2.0184e-10,-0.15264,0,0,0.5,-2.9606e-16,0,0.66667
0.67336,0.97752,1.3467,0.71628,2.0513,2.2467,-2.5723,0.85745,-0.17567,-3.4298,7.994e-12,-0.087833,0,0,0.5,1.1842e-15,0,0.66667
0.08813,0.96777,0.17626,0.70165,3.662,8.7957,-0.32979,0.10993,-0.25041,-0.43973,2.0934e-08,-0.1252,0,0,0.5,1.6653e-16,0,0.66667
0.018852,0.0022623,0.037704,-0.74661,-3.9766,9.6993,0.075064,-0.025027,-0.018764,0.10008,-8.5409e-06,-0.0093818,0,0,0.5,-0,-0,0.66667
0.47235,0.33858,0.94469,-0.24213,-0.87673,3.9671,0.60998,-0.20333,-1.7917,0.8133,1.6771e-11,-0.89586,0,0,0.5,-5.9212e-16,0,0.66667
0.939,0.26801,1.878,-0.34798,-0.060237,0.3128,1.7427,-0.58089,-1.569,2.3236,-2.7171e-09,-0.78452,0,0,0.5,1.1842e-15,0,0.66667
0.32557,0.055699,0.65115,-0.66645,-3.0958,5.8004,1.1572,-0.38574,-0.42079,1.543,4.8217e-11,-0.2104,0,0,0.5,2.9606e-16,0,0.66667
0.32215,0.1398,0.64431,-0.5403,-2.4309,5.7978,0.92831,-0.30944,-0.9614,1.2377,2.203e-10,-0.4807,0,0,0.5,-0,-0,0.66667
0.052031,0.84613,0.10406,0.5192,2.6038,9.255,-0.14408,0.048025,-1.0421,-0.1921,2.6475e-08,-0.52107,0,0,0.5,-1.4803e-16,0,0.66667
0.67529,0.72947,1.3506,0.34421,0.84014,1.9941,-1.2397,0.41322,-1.5783,-1.6529,1.9079e-10,-0.78917,0,0,0.5,-0,-0,0.66667
0.72174,0.55175,1.4435,0.077621,0.15354,1.5416,-0.29879,0.099596,-1.9782,-0.39838,7.6897e-11,-0.98909,0,0,0.5,-5.9212e-16,0,0.66667
0.90372,0.87191,1.8074,0.55787,0.39999,0.61851,-2.6888,0.89628,-0.89401,-3.5851,-2.0871e-09,-0.44701,0,0,0.5,-0,-0,0.66667
0.43715,0.36262,0.8743,-0.20608,-0.77791,4.3565,0.48046,-0.16015,-1.8487,0.64061,3.572e-11,-0.92435,0,0,0.5,-0,-0,0.66667
0.10952,0.29585,0.21903,-0.30623,-1.4648,8.4798,0.17886,-0.059622,-1.6662,0.23849,-1.5019e-09,-0.83311,0,0,0.5,-1.4803e-16,0,0.66667
0.037607,0.80895,0.075214,0.46343,2.301,9.4441,-0.092951,0.030984,-1.2367,-0.12393,3.1788e-08,-0.61837,0,0,0.5,7.4015e-17,0,0.66667
0.88077,0.71417,1.7615,0.32125,0.2312,0.56423,-1.5091,0.50302,-1.6332,-2.0121,-6.8563e-10,-0.81662,0,0,0.5,1.1136e-15,0,0.66667
0.65226,0.3708,1.3045,-0.1938,-0.48837,2.1474,0.67419,-0.22473,-1.8668,0.89892,-9.2958e-11,-0.93338,0,0,0.5,-0,-0,0.66667
0.9155,0.93726,1.831,0.65589,0.47623,0.66353,-3.2025,1.0675,-0.47142,-4.27,6.6418e-08,-0.23571,0,0,0.5,2.0354e-16,0,0.66667
0.8806,0.63529,1.7612,0.20293,0.13331,0.51656,-0.95306,0.31769,-1.8531,-1.2707,-3.5723e-09,-0.92656,0,0,0.5,-2.3685e-15,0,0.66667
0.47024,0.13954,0.94048,-0.54068,-2.0945,4.0881,1.356,-0.452,-0.96011,1.808,9.4046e-12,-0.48006,0,0,0.5,-0,-0,0.66667
0.67034,0.30475,1.3407,-0.29287,-0.71529,2.017,1.047,-0.34902,-1.695,1.3961,-1.5221e-10,-0.8475,0,0,0.5,-5.9212e-16,0,0.66667
0.74507,0.65826,1.4901,0.23739,0.43864,1.394,-0.94331,0.31444,-1.8003,-1.2577,9.5554e-11,-0.90015,0,0,0.5,-0,-0,0.66667
0.42221,0.73487,0.84442,0.35231,1.3839,4.5588,-0.79333,0.26444,-1.5583,-1.0578,-5.898e-11,-0.77915,0,0,0.5,-0,-0,0.66667
0.15392,0.28192,0.30784,-0.32712,-1.5488,7.8942,0.26853,-0.089511,-1.6206,0.35805,-6.7512e-10,-0.81028,0,0,0.5,-0,-0,0.66667
0.28408,0.90538,0.56817,0.60806,2.8597,6.2842,-0.92128,0.30709,-0.68634,-1.2284,-3.1645e-10,-0.34317,0,0,0.5,-1.8504e-16,0,0.66667
0.54848,0.071755,1.097,-0.64237,-2.2955,3.3278,1.8791,-0.62635,-0.53266,2.5054,-4.2152e-12,-0.26633,0,0,0.5,-0,-0,0.66667
0.25574,0.98992,0.51147,0.73488,3.6459,6.6742,-1.0023,0.3341,-0.079412,-1.3364,-1.879e-11,-0.039706,0,0,0.5,-5.9212e-16,0,0.66667
0.89173,0.19672,1.7835,-0.45493,-0.32919,0.59131,2.1636,-0.7212,-1.264,2.8848,4.9259e-09,-0.632,0,0,0.5,-0,-0,0.66667
0.58075,0.82853,1.1615,0.4928,1.5785,2.9261,-1.5264,0.50879,-1.136,-2.0352,4.6233e-11,-0.568,0,0,0.5,-0,-0,0.66667
0.71867,0.91353,1.4373,0.62029,1.4852,1.8079,-2.3775,0.79251,-0.63209,-3.17,2.976e-10,-0.31604,0,0,0.5,-0,-0,0.66667
0.86203,0.93594,1.7241,0.6539,0.80446,0.91226,-3.0063,1.0021,-0.48053,-4.0084,8.3734e-09,-0.24027,0,0,0.5,-2.9606e-16,0,0.66667
0.89656,0.84404,1.7931,0.51605,0.38142,0.6155,-2.4676,0.82253,-1.0541,-3.2901,5.4822e-10,-0.52705,0,0,0.5,-2.3685e-15,0,0.66667
0.95761,0.90462,1.9152,0.60693,0.14642,0.45255,-3.0997,1.0332,-0.69103,-4.133,2.1633e-07,-0.34552,0,0,0.5,1.6283e-15,0,0.66667
0.62751,0.83674,1.255,0.50511,1.4721,2.4939,-1.6904,0.56348,-1.0929,-2.2539,1.0263e-10,-0.54643,0,0,0.5,-0,-0,0.66667
0.99898,0.18864,1.998,-0.46704,0.16172,0.19659,2.4883,-0.82945,-1.2255,3.3178,1.0043e-07,-0.61274,0,0,0.5,-2.3685e-15,0,0.66667
0.79051,0.61114,1.581,0.16672,0.24108,1.0485,-0.70288,0.23429,-1.9005,-0.93717,1.0458e-10,-0.95027,0,0,0.5,1.1842e-15,0,0.66667
0.27082,0.39733,0.54165,-0.15401,-0.67508,6.3647,0.22245,-0.07415,-1.9153,0.2966,1.1294e-10,-0.95767,0,0,0.5,-0,-0,0.66667
0.99055,0.66225,1.9811,0.24337,-0.10261,0.079871,-1.2857,0.42857,-1.7894,-1.7143,3.0247e-08,-0.8947,0,0,0.5,-0,-0,0.66667
0.80151,0.29131,1.603,-0.31303,-0.4462,1.0247,1.3381,-0.44603,-1.6512,1.7841,1.8013e-10,-0.8256,0,0,0.5,-0,-0,0.66667
0.25311,0.42333,0.50623,-0.115,-0.50853,6.588,0.15524,-0.051748,-1.9524,0.20699,1.2429e-10,-0.97622,0,0,0.5,-0,-0,0.66667
0.031897,0.73674,0.063795,0.35511,1.7313,9.5175,-0.06041,0.020137,-1.5513,-0.080547,7.3865e-09,-0.77564,0,0,0.5,-0,-0,0.66667
0.95281,0.73377,1.9056,0.35066,0.012507,0.26122,-1.7819,0.59397,-1.5624,-2.3759,5.4769e-09,-0.78121,0,0,0.5,-1.1842e-15,0,0.66667
0.55683,0.15503,1.1137,-0.51746,-1.7459,3.1736,1.5367,-0.51224,-1.0488,2.049,-2.4363e-11,-0.52438,0,0,0.5,-2.8765e-16,0,0.66667
0.55271,0.82495,1.1054,0.48743,1.6412,3.1999,-1.4368,0.47894,-1.1547,-1.9158,2.6404e-11,-0.57734,0,0,0.5,-0,-0,0.66667
0.047378,0.51354,0.094756,0.02031,0.096236,9.3052,-0.0051308,0.0017098,-1.9982,-0.0068413,-6.8195e-07,-0.99909,0,0,0.5,1.4803e-16,0,0.66667
0.63904,0.34107,1.2781,-0.2384,-0.62722,2.2776,0.81251,-0.27084,-1.7986,1.0834,-9.9915e-11,-0.89931,0,0,0.5,-1.4803e-16,0,0.66667
0.5001,0.19252,1.0002,-0.46123,-1.6774,3.7323,1.2302,-0.41006,-1.2441,1.6403,-1.1402e-13,-0.62203,0,0,0.5,1.1842e-15,0,0.66667
0.80429,0.95777,1.6086,0.68665,1.2283,1.2735,-2.9454,0.98181,-0.32307,-3.9272,9.4566e-10,-0.16154,0,0,0.5,-1.1842e-15,0,0.66667
0.06955,0.88797,0.1391,0.58195,2.9536,9.0277,-0.21586,0.071955,-0.79522,-0.28782,1.2264e-08,-0.39761,0,0,0.5,-0,-0,0.66667
0.56293,0.6373,1.1259,0.20595,0.63925,3.0004,-0.61832,0.20611,-1.8489,-0.82443,3.5743e-11,-0.92444,0,0,0.5,1.1842e-15,0,0.66667
0.40868,0.27336,0.81736,-0.33996,-1.3527,4.7119,0.74098,-0.24699,-1.589,0.98797,7.236e-11,-0.79449,0,0,0.5,-2.9606e-16,0,0.66667
0.55177,0.25238,1.1035,-0.37143,-1.2143,3.1605,1.093,-0.36434,-1.5101,1.4574,-3.6058e-11,-0.75504,0,0,0.5,-0,-0,0.66667
0.35846,0.49466,0.71693,-0.0080068,-0.032541,5.269,0.015308,-0.0051025,-2.0001,0.02041,3.9924e-12,-1,0,0,0.5,-1.1842e-15,0,0.66667
0.99938,0.97886,1.9988,0.7183,-0.029893,0.46011,-3.8285,1.2762,-0.16537,-5.1047,3.5203e-05,-0.082686,0,0,0.5,-0,-1.5554e-15,0.66667
0.45032,0.75416,0.90065,0.38124,1.456,4.248,-0.91564,0.30521,-1.4836,-1.2209,-3.4015e-11,-0.7418,0,0,0.5,-0,-0,0.66667
0.34582,0.069376,0.69165,-0.64594,-2.9357,5.5511,1.1914,-0.39712,-0.51653,1.5885,4.522e-11,-0.25827,0,0,0.5,-0,-0,0.66667
0.18973,0.48952,0.37945,-0.015713,-0.071618,7.4075,0.015899,-0.0052997,-1.9988,0.021199,9.9249e-11,-0.9994,0,0,0.5,2.9606e-16,0,0.66667
0.92353,0.31245,1.8471,-0.28132,-0.079684,0.34242,1.3856,-0.46188,-1.7198,1.8475,-1.624e-08,-0.85992,0,0,0.5,1.434e-15,0,0.66667
0.10429,0.64551,0.20859,0.21826,1.0349,8.5449,-0.12141,0.040469,-1.8301,-0.16187,2.0788e-09,-0.91507,0,0,0.5,-0,-0,0.66667
0.44034,0.14551,0.88069,-0.53174,-2.1318,4.4141,1.2488,-0.41626,-0.99429,1.6651,2.3419e-11,-0.49715,0,0,0.5,-0,-0,0.66667
0.6862,0.70325,1.3724,0.30488,0.71192,1.8863,-1.1158,0.37192,-1.6691,-1.4877,1.7571e-10,-0.83453,0,0,0.5,1.1842e-15,0,0.66667
0.14241,0.89648,0.28481,0.59472,2.9788,8.077,-0.45169,0.15056,-0.74216,-0.60225,-7.2352e-09,-0.37108,0,0,0.5,1.4803e-16,0,0.66667
0.9315,0.088475,1.863,-0.61729,-0.31944,0.55851,3.0667,-1.0222,-0.64527,4.0889,1.6745e-08,-0.32263,0,0,0.5,-5.9212e-16,0,0.66667
0.058875,0.82102,0.11775,0.48153,2.3942,9.1625,-0.1512,0.050401,-1.1753,-0.2016,-1.9286e-09,-0.58766,0,0,0.5,-0,-0,0.66667
0.2181,0.50082,0.4362,0.0012249,0.0055061,7.037,-0.0014248,0.00047492,-2.0011,-0.0018997,2.6681e-11,-1.0006,0,0,0.5,-0,-0,0.66667
0.077195,0.8302,0.15439,0.49529,2.4629,8.9208,-0.20392,0.067972,-1.1274,-0.27189,7.4518e-09,-0.56369,0,0,0.5,-2.3945e-16,0,0.66667
0.41151,0.27601,0.82302,-0.33598,-1.3318,4.6781,0.73739,-0.2458,-1.5987,0.98318,6.9306e-11,-0.79937,0,0,0.5,-0,-0,0.66667
0.59726,0.83998,1.1945,0.50996,1.5897,2.777,-1.6244,0.54148,-1.0757,-2.1659,5.7996e-11,-0.53787,0,0,0.5,-5.9212e-16,0,0.66667
0.73114,0.79938,1.4623,0.44908,0.9467,1.5948,-1.7511,0.58371,-1.2824,-2.3348,5.1126e-10,-0.64122,0,0,0.5,-8.6585e-16,0,0.66667
0.87843,0.5875,1.7569,0.13125,0.085634,0.50914,-0.61489,0.20496,-1.9388,-0.81985,3.4632e-09,-0.9694,0,0,0.5,-0,-0,0.66667
0.35325,0.77228,0.7065,0.40841,1.7388,5.3847,-0.76945,0.25648,-1.4066,-1.0259,-1.6024e-10,-0.70329,0,0,0.5,2.9606e-16,0,0.66667
0.70246,0.63224,1.4049,0.19836,0.42827,1.7182,-0.74316,0.24772,-1.8602,-0.99087,1.1812e-10,-0.93009,0,0,0.5,-2.3685e-15,0,0.66667
0.048616,0.39034,0.097233,-0.16448,-0.78384,9.2897,0.042649,-0.014216,-1.9033,0.056865,9.5355e-08,-0.95166,0,0,0.5,-0,-0,0.66667
0.81926,0.70255,1.6385,0.30382,0.38465,0.90676,-1.3275,0.4425,-1.6711,-1.77,-4.2818e-10,-0.83557,0,0,0.5,-1.1842e-15,0,0.66667
0.31828,0.8403,0.63655,0.51045,2.2868,5.8361,-0.86648,0.28883,-1.0739,-1.1553,-2.6352e-10,-0.53697,0,0,0.5,-0,-0,0.66667
0.22164,0.81954,0.44328,0.47931,2.2653,7.0362,-0.56659,0.18886,-1.1831,-0.75545,-1.0262e-09,-0.59156,0,0,0.5,-0,-0,0.66667
0.36104,0.19907,0.72207,-0.45139,-1.9257,5.3032,0.86916,-0.28972,-1.2752,1.1589,1.4198e-10,-0.63759,0,0,0.5,5.9212e-16,0,0.66667
0.11407,0.92768,0.22814,0.64152,3.2765,8.4515,-0.39028,0.13009,-0.53633,-0.52038,-1.9649e-08,-0.26817,0,0,0.5,-1.4803e-16,0,0.66667
0.29371,0.39314,0.58741,-0.16029,-0.69189,6.0762,0.25108,-0.083693,-1.9081,0.33477,1.0559e-10,-0.95407,0,0,0.5,-2.9606e-16,0,0.66667
0.008789,0.091676,0.017578,-0.61249,-3.1473,9.8287,0.028711,-0.0095701,-0.66678,0.038282,4.9559e-07,-0.33339,0,0,0.5,-6.9389e-18,0,0.66667
0.25326,0.0082937,0.50653,-0.73756,-3.6672,6.7056,0.99625,-0.33208,-0.065608,1.3283,1.1315e-11,-0.032804,0,0,0.5,1.1842e-15,0,0.66667
0.83771,0.76864,1.6754,0.40297,0.47376,0.84646,-1.8004,0.60012,-1.422,-2.4005,-3.6994e-10,-0.71102,0,0,0.5,-1.1842e-15,0,0.66667
0.80776,0.26752,1.6155,-0.34872,-0.48691,1.001,1.5023,-0.50077,-1.567,2.0031,1.512e-10,-0.78351,0,0,0.5,-0,-0,0.66667
0.38257,0.11092,0.76514,-0.58361,-2.5227,5.0947,1.1908,-0.39693,-0.7883,1.5877,4.9247e-11,-0.39415,0,0,0.5,-0,-0,0.66667
0.43068,0.60817,0.86136,0.16226,0.61465,4.4244,-0.37271,0.12424,-1.9057,-0.49694,-3.2975e-11,-0.95286,0,0,0.5,-0,-0,0.66667
0.18259,0.62822,0.36517,0.19233,0.88675,7.5072,-0.18729,0.06243,-1.8689,-0.24972,1.9956e-10,-0.93446,0,0,0.5,-0,-0,0.66667
0.31687,0.04861,0.63375,-0.67708,-3.1755,5.9089,1.1443,-0.38142,-0.36938,1.5257,4.808e-11,-0.18469,0,0,0.5,-0,-0,0.66667
0.41737,0.18496,0.83474,-0.47255,-1.915,4.6513,1.0519,-0.35063,-1.2066,1.4025,5.2572e-11,-0.6033,0,0,0.5,5.9212e-16,0,0.66667
0.066468,0.93124,0.13294,0.64686,3.338,9.0729,-0.22931,0.076437,-0.51226,-0.30575,-2.2883e-08,-0.25613,0,0,0.5,7.4015e-17,0,0.66667
0.33789,0.11261,0.67577,-0.58109,-2.6098,5.6215,1.0472,-0.34905,-0.79884,1.3962,1.2551e-10,-0.39942,0,0,0.5,-0,-0,0.66667
0.49567,0.024039,0.99134,-0.71394,-2.8331,3.9105,1.8874,-0.62912,-0.18757,2.5165,-2.5535e-14,-0.093785,0,0,0.5,5.9212e-16,-7.708e-16,0.66667
0.0067213,0.86003,0.013443,0.54005,2.7285,9.8554,-0.019359,0.006453,-0.96234,-0.025812,-1.1372e-07,-0.48117,0,0,0.5,9.2519e-18,0,0.66667
0.43808,0.21982,0.87615,-0.42026,-1.6431,4.3981,0.9819,-0.3273,-1.3731,1.3092,4.1546e-11,-0.68655,0,0,0.5,-0,-0,0.66667
0.21869,0.84929,0.43738,0.52393,2.5042,7.0827,-0.61109,0.2037,-1.0243,-0.81478,-1.4147e-09,-0.51217,0,0,0.5,-0,-0,0.66667
0.2134,0.64424,0.4268,0.21636,0.98566,7.107,-0.24624,0.082081,-1.833,-0.32833,2.1677e-11,-0.9165,0,0,0.5,-0,-0,0.66667
0.24924,0.77146,0.49848,0.40719,1.8693,6.6715,-0.54127,0.18042,-1.4103,-0.72169,-4.5587e-10,-0.70515,0,0,0.5,2.9606e-16,0,0.66667
0.12833,0.62819,0.25665,0.19229,0.90387,8.2238,-0.1316,0.043868,-1.869,-0.17547,1.4496e-09,-0.93452,0,0,0.5,-2.9606e-16,0,0.66667
0.94481,0.17354,1.8896,-0.48969,-0.11642,0.38963,2.4675,-0.82251,-1.1467,3.29,2.5631e-08,-0.57337,0,0,0.5,1.1842e-15,0,0.66667
0.16907,0.18691,0.33815,-0.46964,-2.2666,7.7123,0.42349,-0.14116,-1.2168,0.56465,6.2191e-10,-0.60841,0,0,0.5,3.0531e-16,0,0.66667
0.56761,0.46806,1.1352,-0.047908,-0.14535,2.9331,0.14503,-0.048343,-1.9928,0.19337,-1.0347e-11,-0.99638,0,0,0.5,1.5913e-15,0,0.66667
0.17151,0.68881,0.34301,0.28322,1.3244,7.6593,-0.25906,0.086355,-1.7158,-0.34542,4.6878e-10,-0.85792,0,0,0.5,-5.9212e-16,0,0.66667
0.26092,0.90297,0.52184,0.60446,2.8808,6.5699,-0.84115,0.28038,-0.70134,-1.1215,-5.5021e-10,-0.35067,0,0,0.5,-7.4015e-17,0,0.66667
0.67678,0.24808,1.3536,-0.37788,-0.9278,1.996,1.3639,-0.45465,-1.493,1.8186,-2.1694e-10,-0.74649,0,0,0.5,-1.4803e-15,0,0.66667
0.50327,0.022845,1.0065,-0.71573,-2.8131,3.8327,1.9211,-0.64036,-0.17838,2.5614,-3.4972e-14,-0.089192,0,0,0.5,-0,-0,0.66667
0.15729,0.96524,0.31458,0.69785,3.5752,7.903,-0.58541,0.19514,-0.26904,-0.78054,-1.9681e-09,-0.13452,0,0,0.5,-2.9606e-16,0,0.66667
0.082507,0.62724,0.16501,0.19085,0.90683,8.8353,-0.083982,0.027994,-1.8711,-0.11198,5.4167e-09,-0.93556,0,0,0.5,-2.9606e-16,0,0.66667
0.88189,0.79276,1.7638,0.43914,0.35221,0.62874,-2.0655,0.68849,-1.3138,-2.754,-2.2607e-09,-0.65689,0,0,0.5,-0,-0,0.66667
0.24189,0.88857,0.48378,0.58285,2.792,6.8023,-0.75192,0.25064,-0.79149,-1.0026,-9.3043e-10,-0.39574,0,0,0.5,-0,-0,0.66667
0.95897,0.63286,1.9179,0.19929,-0.022626,0.1678,-1.0193,0.33976,-1.8586,-1.359,1.3034e-07,-0.92928,0,0,0.5,-0,-0,0.66667
0.89236,0.43385,1.7847,-0.099221,-0.050916,0.43192,0.47222,-0.15741,-1.9655,0.62963,-1.5618e-08,-0.98276,0,0,0.5,2.9606e-16,0,0.66667
0.15998,0.77837,0.31996,0.41755,2.0019,7.8241,-0.35626,0.11875,-1.3806,-0.47502,4.1367e-10,-0.69032,0,0,0.5,-0,-0,0.66667
0.50371,0.66382,1.0074,0.24572,0.85006,3.6259,-0.66012,0.22004,-1.7852,-0.88016,2.2277e-12,-0.89259,0,0,0.5,-1.1842e-15,0,0.66667
0.11892,0.74561,0.23784,0.36841,1.774,8.3593,-0.23366,0.077887,-1.5176,-0.31155,1.4933e-09,-0.75882,0,0,0.5,-0,-0,0.66667
0.11084,0.31804,0.22168,-0.27295,-1.2997,8.4603,0.16135,-0.053783,-1.7354,0.21513,8.2935e-10,-0.86768,0,0,0.5,-0,-0,0.66667
0.6963,0.15929,1.3926,-0.51106,-1.2445,1.9064,1.8979,-0.63262,-1.0718,2.5305,-3.3993e-10,-0.53589,0,0,0.5,-0,-0,0.66667
0.27155,0.6912,0.5431,0.28679,1.2739,6.3696,-0.41536,0.13845,-1.7079,-0.55381,-1.5841e-10,-0.85394,0,0,0.5,-0,-0,0.66667
0.96639,0.47602,1.9328,-0.035968,0.0082491,0.10826,0.18538,-0.061794,-1.9954,0.24717,-6.8215e-07,-0.99769,0,0,0.5,-2.3685e-15,0,0.66667
0.83925,0.38764,1.6785,-0.16853,-0.17241,0.73753,0.75435,-0.25145,-1.8985,1.0058,1.394e-10,-0.94923,0,0,0.5,1.1842e-15,0,0.66667
0.09252,0.63288,0.18504,0.19931,0.94585,8.7015,-0.09835,0.032783,-1.8587,-0.13113,1.2606e-08,-0.92936,0,0,0.5,-0,-0,0.66667
0.39056,0.17051,0.78111,-0.49424,-2.0708,4.9685,1.0295,-0.34316,-1.1311,1.3727,7.7827e-11,-0.56556,0,0,0.5,-5.9212e-16,1.7512e-16,0.66667
0.12422,0.48099,0.24843,-0.028517,-0.13314,8.2744,0.018892,-0.0062975,-1.9968,0.02519,2.4524e-09,-0.99839,0,0,0.5,-0,-0,0.66667
0.55539,0.68838,1.1108,0.28257,0.90073,3.0952,-0.83699,0.279,-1.717,-1.116,3.7707e-11,-0.85848,0,0,0.5,2.3685e-15,0,0.66667
0.16211,0.60796,0.32421,0.16194,0.75093,7.775,-0.14001,0.04667,-1.9061,-0.18668,5.1137e-11,-0.95306,0,0,0.5,-0,-0,0.66667
0.83177,0.049378,1.6635,-0.67593,-1.0369,1.0994,2.9985,-0.9995,-0.37498,3.998,-2.7997e-09,-0.18749,0,0,0.5,-0,-0,0.66667
0.25769,0.24392,0.51539,-0.38412,-1.7473,6.5602,0.52793,-0.17598,-1.4753,0.7039,3.5716e-10,-0.73767,0,0,0.5,-2.9606e-16,0,0.66667
0.51057,0.17655,1.0211,-0.48517,-1.7485,3.6318,1.3211,-0.44038,-1.1626,1.7615,-4.7813e-12,-0.58129,0,0,0.5,5.9212e-16,0,0.66667
0.78245,0.19913,1.5649,-0.4513,-0.7654,1.2262,1.8833,-0.62778,-1.2755,2.5111,-8.1413e-10,-0.63774,0,0,0.5,-0,-0,0.66667
0.53834,0.56889,1.0767,0.10334,0.33229,3.2367,-0.29671,0.098904,-1.9619,-0.39561,1.1786e-11,-0.98097,0,0,0.5,-0,-0,0.66667
0.52882,0.91703,1.0576,0.62555,2.2922,3.5151,-1.7643,0.5881,-0.6083,-2.3524,3.1303e-12,-0.30415,0,0,0.5,-0,7.8925e-16,0.66667
0.85484,0.20663,1.7097,-0.44005,-0.46358,0.77231,2.0062,-0.66875,-1.311,2.675,6.1675e-10,-0.65548,0,0,0.5,1.1842e-15,0,0.66667
0.2451,0.082677,0.4902,-0.62598,-3.0272,6.7733,0.81829,-0.27276,-0.60624,1.0911,6.5453e-10,-0.30312,0,0,0.5,-0,-0,0.66667
0.1271,0.87104,0.2542,0.55656,2.7745,8.2709,-0.37728,0.12576,-0.89907,-0.50303,-4.0414e-09,-0.44954,0,0,0.5,1.4803e-16,0,0.66667
0.56024,0.70531,1.1205,0.30797,0.97759,3.0536,-0.92019,0.30673,-1.6623,-1.2269,4.2446e-11,-0.83115,0,0,0.5,-0,-0,0.66667
0.12838,0.63065,0.25676,0.19598,0.92149,8.2232,-0.13419,0.044729,-1.8636,-0.17892,1.1923e-09,-0.93178,0,0,0.5,-0,-0,0.66667
0.33116,0.0071143,0.66231,-0.73933,-3.4985,5.7638,1.3058,-0.43526,-0.05646,1.741,6.5081e-13,-0.02823,0,0,0.5,-0,-0,0.66667
0.32644,0.60926,0.65288,0.16389,0.68991,5.669,-0.28534,0.095113,-1.904,-0.38045,-9.2529e-11,-0.95201,0,0,0.5,5.9212e-16,0,0.66667
0.94804,0.79681,1.8961,0.44522,0.072137,0.34254,-2.2511,0.75038,-1.2946,-3.0015,1.101e-08,-0.64729,0,0,0.5,-0,-0,0.66667
0.37591,0.52619,0.75183,0.039288,0.15708,5.059,-0.078769,0.026256,-1.9949,-0.10502,-1.6888e-11,-0.99743,0,0,0.5,2.9606e-16,0,0.66667
0.46911,0.15871,0.93822,-0.51194,-1.97,4.0878,1.2808,-0.42695,-1.069,1.7078,1.221e-11,-0.53449,0,0,0.5,-0,-0,0.66667
0.94734,0.6721,1.8947,0.25815,0.0084343,0.23437,-1.3043,0.43477,-1.7624,-1.7391,2.5964e-08,-0.8812,0,0,0.5,-1.1842e-15,0,0.66667
0.82838,0.15169,1.6568,-0.52246,-0.71747,0.98344,2.3082,-0.76942,-1.0299,3.0777,-2.3899e-09,-0.51497,0,0,0.5,1.4803e-15,0,0.66667
0.672,0.43977,1.344,-0.090339,-0.2123,1.9563,0.32378,-0.10793,-1.9719,0.4317,-5.6893e-11,-0.98593,0,0,0.5,2.3685e-15,0,0.66667
0.26731,0.52533,0.53462,0.038,0.16608,6.404,-0.054176,0.018059,-1.995,-0.072234,-5.0663e-11,-0.99752,0,0,0.5,2.9606e-16,0,0.66667
0.13326,0.44762,0.26653,-0.078572,-0.36628,8.1545,0.055845,-0.018615,-1.9776,0.07446,2.4871e-09,-0.98879,0,0,0.5,-0,-0,0.66667
0.33396,0.64467,0.66793,0.217,0.91227,5.5824,-0.38651,0.12884,-1.832,-0.51534,-1.1136e-10,-0.91601,0,0,0.5,-2.9606e-16,0,0.66667
0.15982,0.52645,0.31964,0.039673,0.18311,7.8016,-0.033816,0.011272,-1.9946,-0.045089,-1.0804e-09,-0.99732,0,0,0.5,2.9606e-16,0,0.66667
0.9604,0.16475,1.9208,-0.50287,-0.046745,0.34458,2.5758,-0.85859,-1.1006,3.4344,-6.0557e-08,-0.55028,0,0,0.5,-0,-0,0.66667
0.20094,0.87979,0.40188,0.56969,2.7751,7.3186,-0.61052,0.20351,-0.84636,-0.81403,-2.2255e-09,-0.42318,0,0,0.5,-0,-0,0.66667
0.31067,0.37074,0.62133,-0.19389,-0.82874,5.8674,0.32126,-0.10709,-1.8667,0.42834,1.1267e-10,-0.93337,0,0,0.5,-4.4409e-16,0,0.66667
0.66142,0.93218,1.3228,0.64828,1.8493,2.2912,-2.2868,0.76228,-0.50584,-3.0491,5.0708e-11,-0.25292,0,0,0.5,-2.9606e-16,0,0.66667
0.43762,0.007813,0.87525,-0.73828,-3.1701,4.5466,1.7231,-0.57438,-0.06208,2.2975,-3.3307e-16,-0.03104,0,0,0.5,-0,-0,0.66667
0.58983,0.1248,1.1797,-0.5628,-1.8139,2.8774,1.7705,-0.59015,-0.87485,2.3606,-3.407e-11,-0.43743,0,0,0.5,-4.3484e-16,0,0.66667
0.84885,0.71031,1.6977,0.31547,0.31873,0.73478,-1.4282,0.47606,-1.6459,-1.9042,-8.2177e-10,-0.82294,0,0,0.5,-0,-0,0.66667
0.58815,0.055265,1.1763,-0.6671,-2.2459,2.9605,2.0926,-0.69752,-0.41753,2.7901,-6.2761e-12,-0.20876,0,0,0.5,5.9212e-16,0,0.66667
0.49698,0.79371,0.99396,0.44056,1.601,3.7574,-1.1677,0.38924,-1.3094,-1.557,-1.648e-12,-0.6547,0,0,0.5,-0,-0,0.66667
0.83558,0.56519,1.6712,0.097782,0.10132,0.74553,-0.43576,0.14525,-1.9665,-0.58101,1.1612e-09,-0.98325,0,0,0.5,-2.3685e-15,0,0.66667
0.79797,0.49385,1.5959,-0.009229,-0.012492,0.97856,0.039277,-0.013092,-1.9999,0.05237,-1.345e-10,-0.99994,0,0,0.5,2.3685e-15,0,0.66667
0.98116,0.36389,1.9623,-0.20417,0.069635,0.093495,1.0684,-0.35613,-1.8514,1.4245,3.9316e-07,-0.92568,0,0,0.5,1.1842e-15,0,0.66667
0.94861,0.49415,1.8972,-0.0087718,0.00043611,0.17337,0.044379,-0.014793,-1.9998,0.059172,-1.5968e-07,-0.99989,0,0,0.5,1.7764e-15,0,0.66667
0.91719,0.27032,1.8344,-0.34452,-0.13315,0.40253,1.6853,-0.56176,-1.5775,2.247,-1.7117e-09,-0.78875,0,0,0.5,-1.1842e-15,0,0.66667
0.49483,0.19346,0.98965,-0.45981,-1.6845,3.7881,1.2135,-0.40449,-1.2483,1.618,2.5981e-12,-0.62414,0,0,0.5,-0,-0,0.66667
0.73715,0.52341,1.4743,0.035108,0.065066,1.4179,-0.13803,0.046009,-1.9955,-0.18403,4.9907e-11,-0.99775,0,0,0.5,-1.1842e-15,0,0.66667
0.60052,0.10126,1.201,-0.59812,-1.9126,2.7984,1.9156,-0.63855,-0.72781,2.5542,-2.9174e-11,-0.3639,0,0,0.5,-0,-0,0.66667
0.738,0.39337,1.476,-0.15994,-0.29937,1.4274,0.62953,-0.20984,-1.9085,0.83937,-1.1458e-10,-0.95426,0,0,0.5,-1.1842e-15,0,0.66667
0.37576,0.6771,0.75152,0.26566,1.0813,5.0839,-0.53239,0.17746,-1.7489,-0.70985,-9.496e-11,-0.87443,0,0,0.5,-0,-0,0.66667
0.91111,0.45029,1.8222,-0.074558,-0.024494,0.33815,0.3623,-0.12077,-1.9797,0.48306,-1.0803e-08,-0.98983,0,0,0.5,-0,-0,0.66667
0.87231,0.5237,1.7446,0.035555,0.024647,0.52929,-0.16541,0.055138,-1.9954,-0.22055,4.4317e-09,-0.99771,0,0,0.5,1.1842e-15,0,0.66667
0.70467,0.62868,1.4093,0.19303,0.41314,1.6989,-0.72543,0.24181,-1.8681,-0.96724,1.1638e-10,-0.93403,0,0,0.5,-2.3685e-15,0,0.66667
0.26123,0.57984,0.52246,0.11975,0.52703,6.4846,-0.16684,0.055614,-1.9484,-0.22246,-1.1457e-10,-0.97421,0,0,0.5,-2.9606e-16,0,0.66667
0.50107,0.11302,1.0021,-0.58047,-2.1828,3.7774,1.5512,-0.51708,-0.80162,2.0683,-2.5291e-13,-0.40081,0,0,0.5,-5.9212e-16,0,0.66667
0.21771,0.55662,0.43541,0.084935,0.38261,7.0435,-0.098618,0.032873,-1.9746,-0.13149,-2.1855e-10,-0.98729,0,0,0.5,-4.4409e-16,0,0.66667
0.10252,0.64209,0.20504,0.21314,1.0105,8.5684,-0.11654,0.038847,-1.8378,-0.15539,-4.4421e-10,-0.91891,0,0,0.5,-1.4803e-16,0,0.66667
0.57796,0.31422,1.1559,-0.27866,-0.84964,2.8683,0.85897,-0.28632,-1.7249,1.1453,-5.5424e-11,-0.86244,0,0,0.5,-0,-0,0.66667
0.4796,0.69801,0.95919,0.29701,1.0736,3.8997,-0.75971,0.25324,-1.6859,-1.013,-1.34e-11,-0.84295,0,0,0.5,1.1842e-15,0,0.66667
0.24749,0.81062,0.49498,0.46593,2.1658,6.705,-0.61501,0.205,-1.2289,-0.82001,-7.2319e-10,-0.61446,0,0,0.5,-3.7007e-17,0,0.66667
0.44668,0.003778,0.89335,-0.74433,-3.1712,4.4512,1.7732,-0.59107,-0.030424,2.3643,-1.6165e-13,-0.015212,0,0,0.5,-0,-0,0.66667
0.13839,0.5755,0.27679,0.11325,0.52785,8.0871,-0.083587,0.027862,-1.9539,-0.11145,-1.5607e-09,-0.97697,0,0,0.5,-0,-0,0.66667
0.5228,0.10844,1.0456,-0.58733,-2.1438,3.555,1.6376,-0.54588,-0.77281,2.1835,-4.3749e-12,-0.3864,0,0,0.5,1.1842e-15,0,0.66667
0.97037,0.025917,1.9407,-0.71112,-0.17952,0.52941,3.6803,-1.2268,-0.20223,4.9071,2.1019e-06,-0.10112,0,0,0.5,1.1842e-15,0,0.66667
0.82378,0.73619,1.6476,0.35428,0.44671,0.90297,-1.5565,0.51885,-1.5531,-2.0754,-3.5179e-10,-0.77656,0,0,0.5,2.0868e-16,0,0.66667
0.0044396,0.58786,0.0088793,0.13179,0.62838,9.8846,-0.0031209,0.0010404,-1.9383,-0.0041612,2.0594e-07,-0.96914,0,0,0.5,2.313e-18,0,0.66667
0.09162,0.85325,0.18324,0.52987,2.6474,8.7332,-0.25891,0.086305,-1.0015,-0.34522,1.3879e-08,-0.50075,0,0,0.5,-0,5.4683e-17,0.66667
0.025576,0.10481,0.051151,-0.59279,-3.0297,9.6072,0.080858,-0.026953,-0.75008,0.10781,-8.6169e-07,-0.37504,0,0,0.5,7.4015e-17,0,0.66667
0.30843,0.74443,0.61685,0.36665,1.6067,5.9219,-0.60311,0.20104,-1.5221,-0.80415,-2.3908e-10,-0.76107,0,0,0.5,7.4015e-16,0,0.66667
0.98064,0.89841,1.9613,0.59762,-0.0050636,0.37013,-3.1256,1.0419,-0.72998,-4.1675,-8.1659e-07,-0.36499,0,0,0.5,-0,-0,0.66667
0.4604,0.41938,0.92081,-0.12092,-0.43952,4.082,0.29693,-0.098976,-1.9474,0.3959,1.4083e-11,-0.97369,0,0,0.5,-0,-0,0.66667
0.40975,0.4452,0.81949,-0.082201,-0.31743,4.6599,0.17964,-0.059878,-1.9758,0.23951,2.3805e-11,-0.98792,0,0,0.5,-0,-0,0.66667
0.40822,0.057261,0.81644,-0.66411,-2.868,4.8354,1.4459,-0.48196,-0.43211,1.9278,7.064e-12,-0.21606,0,0,0.5,-5.9212e-16,0,0.66667
0.82481,0.81368,1.6496,0.47052,0.63578,0.96692,-2.0698,0.68994,-1.2137,-2.7598,8.6574e-10,-0.60686,0,0,0.5,2.3685e-15,0,0.66667
0.58171,0.29952,1.1634,-0.30072,-0.91393,2.8381,0.93298,-0.31099,-1.6779,1.244,-6.0275e-11,-0.83896,0,0,0.5,-0,-0,0.66667
0.11935,0.27295,0.2387,-0.34058,-1.6328,8.3515,0.21679,-0.072264,-1.5873,0.28906,-6.0212e-10,-0.79365,0,0,0.5,-0,-0,0.66667
0.44473,0.41263,0.88947,-0.13106,-0.48663,4.2601,0.31086,-0.10362,-1.9388,0.41449,2.1551e-11,-0.96942,0,0,0.5,-1.1842e-15,0,0.66667
0.1464,0.00071456,0.29281,-0.74893,-3.9074,8.0521,0.58478,-0.19493,-0.0066126,0.77971,8.3161e-11,-0.0033063,0,0,0.5,-0,-0,0.66667
0.66607,0.41235,1.3321,-0.13148,-0.31578,2.0134,0.46706,-0.15569,-1.9385,0.62274,-7.4164e-11,-0.96926,0,0,0.5,-0,-0,0.66667
0.12237,0.035943,0.24474,-0.69609,-3.6006,8.3517,0.45429,-0.15143,-0.27751,0.60572,3.9684e-09,-0.13875,0,0,0.5,-0,-0,0.66667
0.086689,0.37305,0.17338,-0.19043,-0.90405,8.7793,0.088042,-0.029347,-1.8717,0.11739,-2.3757e-08,-0.93585,0,0,0.5,2.0354e-16,0,0.66667
0.70336,0.16039,1.4067,-0.50941,-1.2127,1.8485,1.9109,-0.63698,-1.0779,2.5479,-3.8527e-10,-0.53894,0,0,0.5,-0,-0,0.66667
0.41126,0.58077,0.82252,0.12116,0.46805,4.6451,-0.26574,0.08858,-1.9472,-0.35432,-3.3549e-11,-0.97361,0,0,0.5,-0,-0,0.66667
0.99611,0.19017,1.9922,-0.46474,0.14776,0.20242,2.469,-0.82299,-1.2326,3.292,2.3545e-08,-0.61632,0,0,0.5,-2.3685e-15,0,0.66667
0.53405,0.89124,1.0681,0.58686,2.1045,3.4398,-1.6715,0.55718,-0.77489,-2.2287,6.7581e-12,-0.38744,0,0,0.5,1.1842e-15,0,0.66667
0.77901,0.87135,1.558,0.55703,1.0222,1.3235,-2.3143,0.77144,-0.89727,-3.0857,1.5229e-09,-0.44864,0,0,0.5,1.4803e-15,-4.6195e-16,0.66667
0.86863,0.22467,1.7373,-0.413,-0.37286,0.67994,1.9133,-0.63776,-1.3935,2.551,1.4178e-09,-0.69677,0,0,0.5,2.3685e-15,0,0.66667
0.79875,0.9449,1.5975,0.66735,1.2074,1.2895,-2.8429,0.94763,-0.41651,-3.7905,1.2233e-09,-0.20826,0,0,0.5,-0,-0,0.66667
0.21409,0.55583,0.42817,0.083748,0.37795,7.0905,-0.095623,0.031874,-1.975,-0.1275,-2.3364e-10,-0.9875,0,0,0.5,-0,-0,0.66667
0.68037,0.69326,1.3607,0.28989,0.68655,1.9301,-1.0519,0.35063,-1.7012,-1.4025,1.5954e-10,-0.85061,0,0,0.5,-0,-0,0.66667
0.0046244,0.54912,0.0092489,0.073681,0.35039,9.882,-0.0018165,0.00060123,-1.9801,-0.0024242,-6.4334e-06,-0.99005,0,0,0.5,-0,-0,0.66667
0.7958,0.13228,1.5916,-0.55158,-0.93104,1.2083,2.3411,-0.78035,-0.9183,3.1214,-2.0067e-09,-0.45915,0,0,0.5,-0,-0,0.66667
0.21583,0.018666,0.43167,-0.722,-3.6404,7.1665,0.8311,-0.27703,-0.14605,1.1081,1.6285e-10,-0.073026,0,0,0.5,-0,5.697e-16,0.66667
0.98672,0.63188,1.9734,0.19783,-0.079544,0.073813,-1.0411,0.34702,-1.8609,-1.3881,-7.4643e-08,-0.93043,0,0,0.5,-0,-0,0.66667
0.94415,0.26021,1.8883,-0.35968,-0.046751,0.29948,1.8112,-0.60372,-1.5395,2.4149,-5.2684e-09,-0.76977,0,0,0.5,-2.3685e-15,0,0.66667
0.58512,0.95673,1.1702,0.6851,2.3368,3.0017,-2.1379,0.71265,-0.33057,-2.8506,3.7319e-12,-0.16529,0,0,0.5,-6.9292e-16,0,0.66667
0.16047,0.66185,0.32094,0.24278,1.1347,7.8012,-0.20778,0.06926,-1.7905,-0.27704,6.3873e-10,-0.89526,0,0,0.5,-0,-0,0.66667
0.7034,0.3659,1.4068,-0.20115,-0.43311,1.7112,0.75461,-0.25154,-1.8561,1.0062,-1.1937e-10,-0.92803,0,0,0.5,5.9212e-16,0,0.66667
0.41745,0.89585,0.83491,0.59377,2.4857,4.6983,-1.322,0.44066,-0.746,-1.7627,-2.1037e-11,-0.373,0,0,0.5,-0,-0,0.66667
0.46677,0.78309,0.93354,0.42463,1.603,4.0795,-1.0571,0.35236,-1.3597,-1.4095,-2.0019e-11,-0.67986,0,0,0.5,-1.1842e-15,0,0.66667
0.30497,0.45951,0.60994,-0.060728,-0.25856,5.9292,0.098774,-0.032925,-1.9865,0.1317,4.7682e-11,-0.99325,0,0,0.5,-0,-0,0.66667
0.86917,0.59235,1.7383,0.13853,0.10263,0.56015,-0.64217,0.21406,-1.9325,-0.85623,-7.8212e-10,-0.96626,0,0,0.5,-0,-0,0.66667
0.46942,0.84225,0.93884,0.51337,1.9755,4.085,-1.2853,0.42842,-1.0639,-1.7137,-1.2017e-11,-0.53196,0,0,0.5,2.9606e-16,0,0.66667
0.80616,0.94861,1.6123,0.67291,1.1799,1.2486,-2.8932,0.96439,-0.3895,-3.8576,1.3879e-09,-0.19475,0,0,0.5,-0,-0,0.66667
0.8068,0.5848,1.6136,0.1272,0.16475,0.93151,-0.54733,0.18244,-1.9421,-0.72978,2.8662e-10,-0.97106,0,0,0.5,-5.9212e-16,0,0.66667
0.55703,0.23813,1.1141,-0.39281,-1.2787,3.1155,1.167,-0.38899,-1.4508,1.5559,-3.9141e-11,-0.72542,0,0,0.5,5.9212e-16,0,0.66667
0.38613,0.75043,0.77226,0.37564,1.5406,4.9848,-0.77358,0.25786,-1.4993,-1.0314,-1.0189e-10,-0.74964,0,0,0.5,-0,-0,0.66667
0.68707,0.25157,1.3741,-0.37265,-0.88555,1.9071,1.3655,-0.45517,-1.5072,1.8207,-2.3553e-10,-0.75362,0,0,0.5,-0,-0,0.66667
0.6809,0.43568,1.3618,-0.096483,-0.22065,1.8803,0.35038,-0.11679,-1.9676,0.46717,-6.4481e-11,-0.98378,0,0,0.5,5.4488e-16,0,0.66667
0.18194,0.85222,0.36389,0.52834,2.5693,7.5548,-0.51268,0.17089,-1.0072,-0.68357,-2.2819e-09,-0.50361,0,0,0.5,-0,-0,0.66667
0.76415,0.2725,1.5283,-0.34125,-0.5994,1.294,1.3908,-0.46359,-1.5858,1.8543,-1.813e-10,-0.79291,0,0,0.5,-0,-0,0.66667
0.16518,0.19291,0.33035,-0.46064,-2.2224,7.7617,0.40579,-0.13526,-1.2456,0.54106,3.8493e-10,-0.62281,0,0,0.5,-0,-0,0.66667
0.32411,0.22206,0.64821,-0.41691,-1.8219,5.7401,0.72066,-0.24022,-1.3825,0.96087,2.3759e-10,-0.69123,0,0,0.5,-0,-0,0.66667
0.87021,0.71548,1.7404,0.32322,0.26491,0.62045,-1.5001,0.50003,-1.629,-2.0001,-1.029e-09,-0.81449,0,0,0.5,-2.9606e-16,0,0.66667
0.57167,0.5681,1.1433,0.10215,0.30826,2.8965,-0.31144,0.10381,-1.9629,-0.41525,2.2647e-11,-0.98147,0,0,0.5,-0,-0,0.66667
0.2566,0.0028742,0.5132,-0.74569,-3.7102,6.6673,1.0205,-0.34017,-0.023396,1.3607,-1.5405e-11,-0.011698,0,0,0.5,-0,-0,0.66667
0.92392,0.57012,1.8478,0.10518,0.021951,0.2848,-0.51828,0.17276,-1.9606,-0.69105,4.4755e-08,-0.98031,0,0,0.5,-0,-0,0.66667
0.66058,0.12216,1.3212,-0.56676,-1.5619,2.2402,1.9967,-0.66558,-0.85844,2.6623,-1.3696e-10,-0.42922,0,0,0.5,-4.4409e-16,0,0.66667
0.55451,0.9045,1.109,0.60674,2.1187,3.2462,-1.7944,0.59813,-0.69173,-2.3925,8.8752e-12,-0.34587,0,0,0.5,-4.4409e-16,0,0.66667
0.99332,0.17595,1.9866,-0.48607,0.12993,0.22801,2.575,-0.85835,-1.1594,3.4334,-7.0382e-10,-0.5797,0,0,0.5,-1.1842e-15,0,0.66667
0.84555,0.95639,1.6911,0.68458,0.97408,1.0312,-3.0872,1.0291,-0.33328,-4.1163,3.5147e-09,-0.16664,0,0,0.5,-0,-0,0.66667
0.67719,0.3039,1.3544,-0.29415,-0.70417,1.9586,1.0624,-0.35413,-1.6921,1.4165,-1.5978e-10,-0.84603,0,0,0.5,5.9212e-16,0,0.66667
0.081731,0.85741,0.16346,0.53612,2.6873,8.8639,-0.23369,0.077897,-0.9775,-0.31159,5.8056e-09,-0.48875,0,0,0.5,-0,-0,0.66667
0.36445,0.54278,0.72889,0.064174,0.25964,5.1979,-0.12474,0.041578,-1.9848,-0.16631,-3.0086e-11,-0.99242,0,0,0.5,-5.9212e-16,0,0.66667
0.50217,0.48077,1.0043,-0.028847,-0.098255,3.6158,0.077259,-0.025753,-1.9966,0.10301,-2.0724e-13,-0.99831,0,0,0.5,-0,-0,0.66667
0.61766,0.53276,1.2353,0.049133,0.13353,2.4452,-0.16185,0.05395,-1.9921,-0.2158,1.9594e-11,-0.99607,0,0,0.5,2.3685e-15,0,0.66667
0.63988,0.045828,1.2798,-0.68126,-2.0762,2.5016,2.3249,-0.77497,-0.34942,3.0999,-1.5155e-11,-0.17471,0,0,0.5,-1.1842e-15,-5.8946e-16,0.66667
0.72511,0.27032,1.4502,-0.34452,-0.71275,1.5875,1.3323,-0.44411,-1.5775,1.7765,-2.51e-10,-0.78874,0,0,0.5,-0,-0,0.66667
0.91024,0.80438,1.8205,0.45656,0.24989,0.50635,-2.2164,0.73881,-1.2586,-2.9553,-1.0674e-10,-0.62932,0,0,0.5,1.1842e-15,0,0.66667
0.56828,0.63492,1.1366,0.20238,0.62133,2.9459,-0.61337,0.20446,-1.8539,-0.81783,3.8607e-11,-0.92697,0,0,0.5,-0,-0,0.66667
0.98027,0.7613,1.9605,0.39194,-0.08452,0.19389,-2.0491,0.68304,-1.4533,-2.7322,-8.5315e-09,-0.72666,0,0,0.5,-0,-0,0.66667
0.1132,0.87359,0.2264,0.56038,2.806,8.453,-0.33832,0.11277,-0.88428,-0.45109,-5.6394e-10,-0.44214,0,0,0.5,-1.8504e-17,0,0.66667
0.46568,0.67703,0.93136,0.26555,0.97367,4.046,-0.65953,0.21984,-1.7489,-0.87937,-2.1958e-11,-0.87445,0,0,0.5,5.9212e-16,0,0.66667
0.10167,0.90383,0.20335,0.60575,3.0744,8.6088,-0.32847,0.10949,-0.69591,-0.43796,-1.8541e-08,-0.34796,0,0,0.5,-0,-0,0.66667
0.74245,0.35396,1.4849,-0.21906,-0.40743,1.4082,0.86742,-0.28914,-1.8289,1.1566,-1.0256e-10,-0.91445,0,0,0.5,-0,-0,0.66667
0.80683,0.7336,1.6137,0.35039,0.49248,1.0078,-1.5078,0.50259,-1.5628,-2.0104,-1.3119e-10,-0.78141,0,0,0.5,-0,-0,0.66667
0.52316,0.14529,1.0463,-0.53207,-1.9069,3.5226,1.4846,-0.49486,-0.9929,1.9794,-7.795e-12,-0.49645,0,0,0.5,-0,-0,0.66667
0.43253,0.37518,0.86506,-0.18723,-0.70932,4.4065,0.4319,-0.14397,-1.8764,0.57587,3.6197e-11,-0.9382,0,0,0.5,-0,-0,0.66667
0.066995,0.60593,0.13399,0.1589,0.75513,9.0426,-0.056776,0.018925,-1.9097,-0.075702,2.4885e-08,-0.95484,0,0,0.5,-0,-0,0.66667
0.56461,0.93203,1.1292,0.64805,2.2587,3.1729,-1.9515,0.65048,-0.507,-2.6019,5.4711e-12,-0.2535,0,0,0.5,-5.9212e-16,0,0.66667
0.25483,0.3156,0.50966,-0.2766,-1.24,6.5804,0.37593,-0.12531,-1.7284,0.50124,1.159e-10,-0.86422,0,0,0.5,-0,-0,0.66667
0.082332,0.29831,0.16466,-0.30254,-1.4548,8.8416,0.13285,-0.044282,-1.674,0.17713,-3.7809e-09,-0.83698,0,0,0.5,-1.4803e-16,0,0.66667
0.73371,0.39424,1.4674,-0.15864,-0.30221,1.4601,0.62079,-0.20693,-1.9102,0.82772,-1.1405e-10,-0.9551,0,0,0.5,1.1842e-15,0,0.66667
0.74344,0.52461,1.4869,0.036919,0.066593,1.3699,-0.14638,0.048795,-1.995,-0.19518,5.8816e-11,-0.99752,0,0,0.5,-1.1842e-15,0,0.66667
0.37108,0.52504,0.74216,0.037562,0.15089,5.117,-0.074338,0.024779,-1.995,-0.099117,-1.6888e-11,-0.9975,0,0,0.5,-5.9212e-16,0,0.66667
0.18447,0.35779,0.36895,-0.21331,-0.98456,7.4838,0.20987,-0.069955,-1.8377,0.27982,-1.9485e-10,-0.91884,0,0,0.5,-2.9606e-16,0,0.66667
0.51289,0.28806,1.0258,-0.3179,-1.0974,3.5462,0.8696,-0.28987,-1.6407,1.1595,-8.5613e-12,-0.82033,0,0,0.5,-0,-0,0.66667
0.093456,0.74398,0.18691,0.36597,1.7721,8.6968,-0.18241,0.060804,-1.5241,-0.24321,2.2278e-09,-0.76203,0,0,0.5,-1.8678e-17,0,0.66667
0.77844,0.91715,1.5569,0.62572,1.204,1.3836,-2.5978,0.86593,-0.60752,-3.4637,1.1729e-09,-0.30376,0,0,0.5,-0,-0,0.66667
0.47595,0.27968,0.95191,-0.33048,-1.2079,3.9486,0.8389,-0.27963,-1.6124,1.1185,1.6136e-11,-0.80619,0,0,0.5,-7.4015e-16,0,0.66667
0.96096,0.35202,1.9219,-0.22197,0.027513,0.16873,1.1376,-0.37921,-1.8245,1.5169,7.3334e-09,-0.91226,0,0,0.5,-0,-0,0.66667
0.10902,0.097227,0.21804,-0.60416,-3.0602,8.5126,0.35128,-0.11709,-0.70284,0.46838,1.7512e-08,-0.35142,0,0,0.5,-0,-2.3421e-16,0.66667
0.69796,0.66861,1.3959,0.25292,0.56102,1.7706,-0.94147,0.31382,-1.772,-1.2553,1.4463e-10,-0.886,0,0,0.5,1.1842e-15,0,0.66667
0.80356,0.17973,1.6071,-0.4804,-0.74248,1.1061,2.0588,-0.68628,-1.1792,2.7451,-1.2237e-09,-0.58959,0,0,0.5,-0,-0,0.66667
0.72687,0.99026,1.4537,0.73538,1.8333,1.8465,-2.8508,0.95028,-0.076762,-3.8011,1.1624e-11,-0.038381,0,0,0.5,2.045e-15,0,0.66667
0.46145,0.58701,0.92291,0.13051,0.47403,4.0712,-0.32121,0.10707,-1.9393,-0.42828,-1.478e-11,-0.96965,0,0,0.5,-3.1888e-16,0,0.66667
0.54611,0.65954,1.0922,0.23931,0.77028,3.1789,-0.69701,0.23234,-1.797,-0.92934,2.8415e-11,-0.89852,0,0,0.5,-1.1842e-15,0,0.66667
0.61519,0.61921,1.2304,0.17882,0.4944,2.4847,-0.58671,0.19557,-1.8863,-0.78229,6.3457e-11,-0.94316,0,0,0.5,-1.4803e-15,0,0.66667
0.059105,0.57011,0.11821,0.10517,0.4988,9.1478,-0.033153,0.011051,-1.9605,-0.044204,2.8145e-07,-0.98027,0,0,0.5,-0,-0,0.66667
0.99567,0.70411,1.9913,0.30616,-0.13473,0.095418,-1.6258,0.54194,-1.6661,-2.1677,1.8893e-08,-0.83305,0,0,0.5,-0,-0,0.66667
0.25491,0.65454,0.50982,0.23182,1.0337,6.5743,-0.31516,0.10505,-1.8097,-0.42021,-9.4361e-11,-0.90483,0,0,0.5,-3.3307e-16,0,0.66667
0.64341,0.60733,1.2868,0.16099,0.41359,2.2203,-0.55245,0.18415,-1.9073,-0.73659,7.4397e-11,-0.95367,0,0,0.5,1.1842e-15,0,0.66667
0.12643,0.1123,0.25287,-0.58154,-2.9167,8.2828,0.39214,-0.13071,-0.79714,0.52285,7.3142e-09,-0.39857,0,0,0.5,1.4803e-16,0,0.66667
0.16786,0.05337,0.33573,-0.66994,-3.3934,7.7621,0.59978,-0.19993,-0.40387,0.79971,3.1193e-09,-0.20194,0,0,0.5,1.4803e-16,0,0.66667
0.4911,0.17172,0.98221,-0.49242,-1.8294,3.8415,1.2898,-0.42992,-1.1372,1.7197,3.7891e-12,-0.56859,0,0,0.5,-0,-0,0.66667
0.2885,0.73032,0.577,0.34548,1.5304,6.1657,-0.53158,0.17719,-1.5751,-0.70877,-2.4333e-10,-0.78753,0,0,0.5,5.9212e-16,0,0.66667
0.50424,0.043184,1.0085,-0.68522,-2.6593,3.8035,1.8428,-0.61425,-0.33004,2.457,-1.0358e-13,-0.16502,0,0,0.5,-0,-0,0.66667
0.10218,0.47686,0.20436,-0.034713,-0.163,8.5689,0.018917,-0.0063057,-1.9954,0.025223,6.9489e-09,-0.99772,0,0,0.5,-0,-0,0.66667
0.41929,0.31207,0.83859,-0.28189,-1.0979,4.5757,0.63037,-0.21012,-1.7186,0.8405,5.8093e-11,-0.85928,0,0,0.5,-2.7756e-16,0,0.66667
0.2686,0.46217,0.5372,-0.056748,-0.2479,6.388,0.081294,-0.027098,-1.9886,0.10839,6.891e-11,-0.99428,0,0,0.5,2.9606e-16,0,0.66667
0.5819,0.95133,1.1638,0.677,2.3149,3.0264,-2.101,0.70035,-0.36984,-2.8014,4.3743e-12,-0.18492,0,0,0.5,-0,-0,0.66667
0.17171,0.71153,0.34341,0.31729,1.4904,7.6598,-0.29056,0.096854,-1.6422,-0.38741,5.7819e-10,-0.82109,0,0,0.5,-1.4803e-16,0,0.66667
0.96232,0.3213,1.9246,-0.26806,0.030684,0.18317,1.3758,-0.45859,-1.7442,1.8343,6.1101e-09,-0.87209,0,0,0.5,-0,-0,0.66667
0.54421,0.36037,1.0884,-0.20944,-0.67354,3.1919,0.60789,-0.20263,-1.8435,0.81052,-2.485e-11,-0.92175,0,0,0.5,1.1842e-15,0,0.66667
0.70195,0.51346,1.4039,0.020196,0.042863,1.6981,-0.075608,0.025203,-1.9981,-0.10081,1.7968e-11,-0.99907,0,0,0.5,-2.3685e-15,0,0.66667
0.93237,0.113,1.8647,-0.5805,-0.26886,0.5186,2.8866,-0.9622,-0.8013,3.8488,1.1679e-08,-0.40065,0,0,0.5,-0,-0,0.66667
0.34537,0.84351,0.69074,0.51526,2.2616,5.51,-0.94909,0.31636,-1.0572,-1.2655,-1.6194e-10,-0.5286,0,0,0.5,6.1062e-16,0,0.66667
0.51572,0.419,1.0314,-0.12149,-0.40663,3.4767,0.33417,-0.11139,-1.9472,0.44556,-5.6088e-12,-0.97361,0,0,0.5,-0,-0,0.66667
0.78659,0.039177,1.5732,-0.69124,-1.3449,1.39,2.8998,-0.96661,-0.3009,3.8664,-4.6462e-10,-0.15045,0,0,0.5,-0,-0,0.66667
0.06941,0.32548,0.13882,-0.26179,-1.2554,9.0128,0.09691,-0.032303,-1.7557,0.12921,-6.7222e-09,-0.87785,0,0,0.5,-0,-0,0.66667
0.75322,0.42424,1.5064,-0.11364,-0.19745,1.304,0.45651,-0.15217,-1.9536,0.60868,-1.3315e-10,-0.97678,0,0,0.5,-1.1842e-15,0,0.66667
0.11748,0.95419,0.23496,0.68128,3.5139,8.4127,-0.42686,0.14229,-0.34903,-0.56915,-1.1645e-08,-0.17452,0,0,0.5,-1.4803e-16,0,0.66667
0.38913,0.64055,0.77826,0.21082,0.84085,4.9161,-0.43753,0.14584,-1.8415,-0.58337,-6.9312e-11,-0.92075,0,0,0.5,-0,-0,0.66667
0.69699,0.57905,1.394,0.11858,0.25775,1.7477,-0.44079,0.14693,-1.9493,-0.58772,8.3497e-11,-0.97467,0,0,0.5,-1.1842e-15,0,0.66667
0.059872,0.71595,0.11974,0.32393,1.5677,9.1425,-0.10343,0.034478,-1.6275,-0.13791,-1.2522e-08,-0.81377,0,0,0.5,1.8504e-17,0,0.66667
0.66498,0.064142,1.33,-0.65379,-1.8534,2.2654,2.3187,-0.7729,-0.48092,3.0916,-4.7943e-11,-0.24046,0,0,0.5,-0,-0,0.66667
0.97191,0.60156,1.9438,0.15234,-0.040206,0.10796,-0.78966,0.26322,-1.9173,-1.0529,1.0247e-06,-0.95867,0,0,0.5,-0,-0,0.66667
0.24942,0.25854,0.49884,-0.36219,-1.6495,6.6615,0.4818,-0.1606,-1.5335,0.6424,2.854e-10,-0.76677,0,0,0.5,-0,-0,0.66667
0.25914,0.33311,0.51827,-0.25034,-1.1157,6.5224,0.34598,-0.11533,-1.7767,0.46131,1.128e-10,-0.88834,0,0,0.5,-0,-0,0.66667
0.087231,0.61674,0.17446,0.1751,0.83021,8.7716,-0.081464,0.027155,-1.8907,-0.10862,8.6066e-09,-0.94535,0,0,0.5,-1.4803e-16,0,0.66667
0.093025,0.68387,0.18605,0.27581,1.3191,8.6978,-0.13684,0.045613,-1.7301,-0.18245,6.6823e-09,-0.86506,0,0,0.5,3.7007e-17,0,0.66667
0.31441,0.11066,0.62881,-0.584,-2.6727,5.9058,0.97927,-0.32642,-0.78686,1.3057,1.9937e-10,-0.39343,0,0,0.5,-5.9212e-16,0,0.66667
0.83253,0.30777,1.6651,-0.28835,-0.32861,0.81848,1.2803,-0.42677,-1.7046,1.7071,4.9823e-10,-0.8523,0,0,0.5,-1.1842e-15,0,0.66667
0.51242,0.21617,1.0248,-0.42575,-1.5061,3.5877,1.1635,-0.38785,-1.3561,1.5514,-7.2939e-12,-0.67806,0,0,0.5,8.9186e-16,0,0.66667
0.38564,0.8473,0.77128,0.52094,2.2079,5.0352,-1.0714,0.35715,-1.0355,-1.4286,-7.5242e-11,-0.51774,0,0,0.5,-0,-0,0.66667
0.1825,0.9761,0.36501,0.71415,3.6431,7.585,-0.69512,0.23171,-0.18647,-0.92683,-5.9836e-10,-0.093233,0,0,0.5,-5.9212e-16,0,0.66667
0.97602,0.47668,1.952,-0.03498,0.011515,0.075095,0.18209,-0.060697,-1.9954,0.24279,5.5916e-07,-0.99769,0,0,0.5,-0,-0,0.66667
0.74144,0.91258,1.4829,0.61886,1.371,1.6367,-2.4472,0.81573,-0.63818,-3.2629,5.1371e-10,-0.31909,0,0,0.5,-0,-0,0.66667
0.34016,0.79368,0.68033,0.44052,1.9093,5.5509,-0.79919,0.2664,-1.3095,-1.0656,-1.9447e-10,-0.65476,0,0,0.5,-0,-0,0.66667
0.92233,0.0018629,1.8447,-0.74721,-0.59173,0.74046,3.6756,-1.2252,-0.015812,4.9008,2.6093e-07,-0.0079058,0,0,0.5,-0,-0,0.66667
0.58633,0.84497,1.1727,0.51746,1.6528,2.8852,-1.6181,0.53938,-1.0487,-2.1575,4.5204e-11,-0.52436,0,0,0.5,-0,-0,0.66667
0.2652,0.4424,0.5304,-0.086401,-0.37867,6.4324,0.1222,-0.040735,-1.9739,0.16294,1.0006e-10,-0.98694,0,0,0.5,-0,-0,0.66667
0.48157,0.46284,0.96313,-0.055736,-0.19598,3.8417,0.14315,-0.047717,-1.9891,0.19087,3.0708e-12,-0.99454,0,0,0.5,5.9212e-16,0,0.66667
0.43439,0.6225,0.86877,0.18375,0.69435,4.3847,-0.42571,0.1419,-1.8806,-0.56761,-3.4529e-11,-0.9403,0,0,0.5,-2.9606e-16,0,0.66667
0.3025,0.62677,0.605,0.19016,0.81759,5.9688,-0.3068,0.10227,-1.8721,-0.40906,-1.137e-10,-0.93606,0,0,0.5,-0,-0,0.66667
0.65676,0.83246,1.3135,0.49869,1.3502,2.2306,-1.7468,0.58226,-1.1155,-2.329,1.7424e-10,-0.55775,0,0,0.5,-0,-0,0.66667
0.79219,0.17371,1.5844,-0.48944,-0.80825,1.1862,2.0679,-0.6893,-1.1477,2.7572,-1.2633e-09,-0.57383,0,0,0.5,-1.1842e-15,0,0.66667
0.35326,0.69306,0.70653,0.2896,1.208,5.3585,-0.54562,0.18187,-1.7019,-0.72749,-1.2566e-10,-0.85093,0,0,0.5,-0,-0,0.66667
0.43787,0.45644,0.87575,-0.065336,-0.24382,4.3333,0.15258,-0.05086,-1.9845,0.20344,1.2637e-11,-0.99226,0,0,0.5,-0,-0,0.66667
0.96304,0.018192,1.9261,-0.72271,-0.24956,0.56624,3.712,-1.2373,-0.14228,4.9493,8.5068e-07,-0.071141,0,0,0.5,-2.2809e-15,0,0.66667
0.25951,0.47543,0.51903,-0.036859,-0.1619,6.5035,0.051015,-0.017005,-1.9951,0.06802,5.5406e-11,-0.99753,0,0,0.5,-0,-0,0.66667
0.71926,0.8446,1.4385,0.5169,1.1723,1.7283,-1.9828,0.66095,-1.0512,-2.6438,5.1013e-10,-0.52558,0,0,0.5,-0,-0,0.66667
0.85114,0.21637,1.7023,-0.42545,-0.45695,0.78336,1.9313,-0.64376,-1.357,2.5751,8.5079e-10,-0.67848,0,0,0.5,-1.5244e-15,0,0.66667
0.74183,0.96338,1.4837,0.69508,1.6098,1.6998,-2.75,0.91668,-0.28226,-3.6667,1.1294e-10,-0.14113,0,0,0.5,-5.9212e-16,0,0.66667
0.21655,0.87343,0.43311,0.56015,2.7029,7.1175,-0.64695,0.21565,-0.88525,-0.8626,-1.6843e-09,-0.44262,0,0,0.5,3.3307e-16,0,0.66667
0.43531,0.60887,0.87062,0.1633,0.61516,4.3714,-0.37912,0.12637,-1.9047,-0.5055,-3.0782e-11,-0.95234,0,0,0.5,-5.9212e-16,0,0.66667
0.60876,0.65497,1.2175,0.23245,0.65774,2.5576,-0.7547,0.25157,-1.8089,-1.0063,7.3263e-11,-0.90446,0,0,0.5,1.7023e-15,0,0.66667
0.59156,0.56195,1.1831,0.09293,0.26881,2.699,-0.29319,0.097731,-1.9704,-0.39092,2.7371e-11,-0.98519,0,0,0.5,-1.3323e-15,0,0.66667
0.95189,0.15731,1.9038,-0.51403,-0.098468,0.38419,2.6096,-0.86987,-1.0616,3.4795,-2.9251e-08,-0.53078,0,0,0.5,-0,-0,0.66667
0.3584,0.072437,0.71681,-0.64134,-2.8806,5.4007,1.2259,-0.40864,-0.53732,1.6346,3.7498e-11,-0.26866,0,0,0.5,5.9212e-16,-5.1366e-16,0.66667
0.53179,0.92257,1.0636,0.63385,2.3189,3.4899,-1.7978,0.59925,-0.5711,-2.397,3.0093e-12,-0.28555,0,0,0.5,-0,-0,0.66667
0.39838,0.20662,0.79675,-0.44007,-1.8062,4.8597,0.93501,-0.31167,-1.3108,1.2467,7.9972e-11,-0.65541,0,0,0.5,-4.7177e-16,0,0.66667
0.61473,0.051728,1.2295,-0.67241,-2.154,2.7186,2.2045,-0.73484,-0.39194,2.9394,-1.0585e-11,-0.19597,0,0,0.5,-5.9212e-16,0,0.66667
0.46485,0.25474,0.92969,-0.36788,-1.3751,4.0821,0.91205,-0.30402,-1.519,1.2161,2.3495e-11,-0.75952,0,0,0.5,-1.1842e-15,0,0.66667
0.95549,0.54183,1.911,0.062752,-0.0072207,0.15029,-0.31978,0.10659,-1.9857,-0.42638,-3.2571e-07,-0.99283,0,0,0.5,-2.3685e-15,0,0.66667
0.70849,0.44988,1.417,-0.07518,-0.15628,1.6479,0.28407,-0.094691,-1.9793,0.37876,-6.5089e-11,-0.98967,0,0,0.5,1.1842e-15,0,0.66667
0.49885,0.94631,0.9977,0.66946,2.6026,3.8501,-1.7811,0.5937,-0.40637,-2.3748,-1.4877e-14,-0.20319,0,0,0.5,-1.1842e-15,0,0.66667
0.49291,0.27747,0.98582,-0.33379,-1.1916,3.7648,0.87749,-0.2925,-1.6042,1.17,4.6424e-12,-0.80208,0,0,0.5,7.4015e-16,0,0.66667
0.2485,0.39876,0.49699,-0.15187,-0.67497,6.6494,0.20127,-0.06709,-1.918,0.26836,1.2442e-10,-0.959,0,0,0.5,-0,-0,0.66667
0.21539,0.16364,0.43077,-0.50455,-2.405,7.121,0.57959,-0.1932,-1.0948,0.77278,1.3294e-09,-0.54739,0,0,0.5,-0,-0,0.66667
0.38386,0.34359,0.76772,-0.23461,-0.94344,4.9822,0.48031,-0.1601,-1.8053,0.64042,7.9794e-11,-0.90265,0,0,0.5,-6.8464e-16,0,0.66667
0.26942,0.35289,0.53883,-0.22066,-0.97386,6.3885,0.31706,-0.10569,-1.8266,0.42275,1.1612e-10,-0.91329,0,0,0.5,-0,-0,0.66667
0.29831,0.33635,0.59661,-0.24547,-1.0648,6.0277,0.39053,-0.13018,-1.7858,0.52071,1.3991e-10,-0.89289,0,0,0.5,-2.9606e-16,0,0.66667
0.21497,0.020409,0.42995,-0.71939,-3.6259,7.1765,0.8248,-0.27493,-0.15951,1.0997,1.8182e-10,-0.079755,0,0,0.5,-0,-0,0.66667
0.43072,0.15501,0.86143,-0.51749,-2.0898,4.5164,1.1887,-0.39625,-1.0486,1.585,3.1998e-11,-0.52431,0,0,0.5,-7.4015e-16,0,0.66667
0.23735,0.75909,0.4747,0.38863,1.7901,6.8196,-0.49196,0.16399,-1.4627,-0.65594,-3.752e-10,-0.73136,0,0,0.5,-0,-0,0.66667
0.42905,0.17085,0.8581,-0.49372,-1.9853,4.5261,1.1298,-0.37659,-1.1326,1.5063,3.7892e-11,-0.56632,0,0,0.5,-0,-0,0.66667
0.73823,0.60584,1.4765,0.15875,0.2968,1.4254,-0.62505,0.20835,-1.9099,-0.8334,1.1487e-10,-0.95494,0,0,0.5,-0,-0,0.66667
0.19031,0.11985,0.38062,-0.57023,-2.7907,7.4547,0.57878,-0.19293,-0.8441,0.77171,2.7499e-09,-0.42205,0,0,0.5,-4.4409e-16,0,0.66667
0.98048,0.16187,1.961,-0.50719,0.055975,0.28354,2.6522,-0.88407,-1.0855,3.5363,1.9933e-07,-0.54273,0,0,0.5,2.3685e-15,0,0.66667
0.25094,0.1722,0.50188,-0.4917,-2.2937,6.6669,0.65806,-0.21935,-1.14,0.87742,7.6916e-10,-0.56998,0,0,0.5,-0,-0,0.66667
0.091928,0.4598,0.18386,-0.060295,-0.28391,8.7065,0.029561,-0.0098538,-1.9869,0.039415,4.5413e-08,-0.99345,0,0,0.5,-0,-0,0.66667
0.6622,0.95684,1.3244,0.68526,1.9861,2.3136,-2.4202,0.80673,-0.3298,-3.2269,2.3001e-11,-0.1649,0,0,0.5,-0,-0,0.66667
0.12414,0.13506,0.24827,-0.54741,-2.7253,8.3085,0.36242,-0.12081,-0.93435,0.48322,3.1098e-09,-0.46717,0,0,0.5,-0,5.7839e-16,0.66667
0.45854,0.48308,0.91709,-0.025377,-0.092102,4.0972,0.062062,-0.020687,-1.9971,0.082749,3.2211e-12,-0.99854,0,0,0.5,5.9212e-16,0,0.66667
0.55491,0.83972,1.1098,0.50959,1.7209,3.1888,-1.5081,0.50271,-1.077,-2.0108,2.4476e-11,-0.53848,0,0,0.5,-0,-0,0.66667
0.91222,0.64111,1.8244,0.21167,0.075856,0.36483,-1.0298,0.34326,-1.84,-1.373,-7.2128e-09,-0.92002,0,0,0.5,1.1842e-15,0,0.66667
0.84078,0.79813,1.6816,0.44719,0.5309,0.85663,-2.0053,0.66842,-1.2884,-2.6737,-1.0143e-11,-0.64421,0,0,0.5,-0,-0,0.66667
0.47647,0.52464,0.95295,0.036956,0.13085,3.8972,-0.093911,0.031304,-1.995,-0.12521,-2.7173e-12,-0.99752,0,0,0.5,-0,-0,0.66667
0.8806,0.82029,1.7612,0.48043,0.41009,0.66499,-2.2564,0.75213,-1.1791,-3.0085,-2.0098e-09,-0.58955,0,0,0.5,-0,-0,0.66667
0.81353,0.16821,1.6271,-0.49769,-0.73514,1.0553,2.1594,-0.7198,-1.119,2.8792,-1.5871e-09,-0.55948,0,0,0.5,-0,-0,0.66667
0.19464,0.39622,0.38928,-0.15566,-0.71186,7.3472,0.16159,-0.053864,-1.9134,0.21545,1.3207e-10,-0.95669,0,0,0.5,-2.9606e-16,0,0.66667
0.67245,0.58822,1.3449,0.13233,0.31185,1.958,-0.4746,0.1582,-1.9381,-0.6328,7.7858e-11,-0.96903,0,0,0.5,-0,-0,0.66667
0.71923,0.41989,1.4385,-0.12017,-0.24107,1.5669,0.46096,-0.15365,-1.9483,0.61461,-9.8254e-11,-0.97415,0,0,0.5,1.1842e-15,0,0.66667
0.65257,0.12506,1.3051,-0.56241,-1.5786,2.3063,1.9574,-0.65247,-0.87646,2.6099,-1.2068e-10,-0.43823,0,0,0.5,-0,-0,0.66667
0.40566,0.80602,0.81131,0.45903,1.8778,4.7814,-0.99311,0.33104,-1.251,-1.3241,-6.7871e-11,-0.6255,0,0,0.5,-0,-0,0.66667
0.04361,0.98809,0.087221,0.73213,3.8772,9.3768,-0.17029,0.056763,-0.093706,-0.22705,1.7627e-06,-0.046853,0,0,0.5,2.237e-17,0,0.66667
0.37899,0.23112,0.75799,-0.40332,-1.6749,5.0764,0.81523,-0.27174,-1.4211,1.087,1.1196e-10,-0.71055,0,0,0.5,5.9212e-16,0,0.66667
0.033161,0.86161,0.066322,0.54241,2.7388,9.5056,-0.09593,0.031977,-0.95347,-0.12791,-2.1506e-08,-0.47674,0,0,0.5,-3.7007e-17,0,0.66667
0.2442,0.48693,0.48841,-0.019599,-0.086868,6.6996,0.025526,-0.0085088,-1.998,0.034035,3.6682e-11,-0.99901,0,0,0.5,-0,-0,0.66667
0.84278,0.47684,1.6856,-0.034735,-0.033458,0.69618,0.15613,-0.052043,-1.9957,0.20817,-1.1703e-09,-0.99784,0,0,0.5,-0,-0,0.66667
0.47471,0.64723,0.94943,0.22085,0.79477,3.9367,-0.55914,0.18638,-1.8262,-0.74552,-1.4517e-11,-0.91311,0,0,0.5,5.9212e-16,0,0.66667
0.19554,0.60545,0.39108,0.15817,0.72315,7.3356,-0.16495,0.054984,-1.9105,-0.21994,-1.1983e-10,-0.95524,0,0,0.5,-2.9606e-16,0,0.66667
0.93344,0.088897,1.8669,-0.61665,-0.3067,0.55031,3.0699,-1.0233,-0.64817,4.0932,5.517e-08,-0.32408,0,0,0.5,-0,-0,0.66667
0.17584,0.69495,0.35169,0.29243,1.3668,7.6032,-0.27425,0.091418,-1.6958,-0.36567,4.962e-10,-0.8479,0,0,0.5,-0,-0,0.66667
0.71019,0.86153,1.4204,0.54229,1.2825,1.8161,-2.054,0.68468,-0.95374,-2.7387,4.0344e-10,-0.47687,0,0,0.5,-0,-0,0.66667
0.25216,0.30615,0.50432,-0.29077,-1.308,6.6163,0.39104,-0.13035,-1.6995,0.52139,1.2732e-10,-0.84974,0,0,0.5,1.4803e-16,0,0.66667
0.12576,0.67788,0.25151,0.26683,1.2646,8.2618,-0.17896,0.059653,-1.7467,-0.23861,1.6563e-09,-0.87335,0,0,0.5,-1.4803e-16,0,0.66667
0.42352,0.61043,0.84704,0.16565,0.63309,4.5073,-0.37417,0.12472,-1.902,-0.49889,-3.7383e-11,-0.95098,0,0,0.5,-5.9212e-16,0,0.66667
0.30687,0.21702,0.61375,-0.42447,-1.8823,5.9535,0.69471,-0.23157,-1.3601,0.92628,2.993e-10,-0.68005,0,0,0.5,-8.1416e-16,0,0.66667
0.55624,0.17689,1.1125,-0.48466,-1.6205,3.1633,1.4378,-0.47926,-1.1643,1.9171,-2.9068e-11,-0.58216,0,0,0.5,-5.9212e-16,0,0.66667
0.0056956,0.16886,0.011391,-0.49671,-2.4864,9.8688,0.015088,-0.0050294,-1.1222,0.020118,6.9231e-09,-0.56109,0,0,0.5,-9.2519e-18,0,0.66667
0.40187,0.72846,0.80375,0.34268,1.3743,4.7919,-0.73449,0.24483,-1.5821,-0.97932,-7.9844e-11,-0.79105,0,0,0.5,-0,-0,0.66667
0.32437,0.085679,0.64875,-0.62148,-2.8522,5.7981,1.0752,-0.35839,-0.62652,1.4335,1.0989e-10,-0.31326,0,0,0.5,-0,-0,0.66667
0.20888,0.59186,0.41776,0.13778,0.62513,7.1605,-0.15349,0.051164,-1.9332,-0.20466,-2.0417e-10,-0.96658,0,0,0.5,-1.1102e-16,0,0.66667
0.7647,0.14669,1.5294,-0.52996,-1.0189,1.4019,2.1614,-0.72046,-1.0012,2.8819,-1.1017e-09,-0.50061,0,0,0.5,5.9212e-16,-7.8815e-16,0.66667
0.21573,0.59044,0.43145,0.13565,0.61328,7.0714,-0.15608,0.052026,-1.9351,-0.2081,-1.9897e-10,-0.96754,0,0,0.5,4.4409e-16,0,0.66667
0.36723,0.19459,0.73446,-0.45811,-1.9463,5.2314,0.89724,-0.29908,-1.2536,1.1963,1.2796e-10,-0.62682,0,0,0.5,-0,-0,0.66667
0.061462,0.39229,0.12292,-0.16157,-0.76858,9.117,0.052962,-0.017654,-1.9068,0.070616,2.4797e-08,-0.95338,0,0,0.5,-0,-0,0.66667
0.79907,0.030563,1.5981,-0.70416,-1.3089,1.3233,3.0009,-1.0003,-0.23808,4.0012,-4.0135e-10,-0.11904,0,0,0.5,-1.3323e-15,0,0.66667
0.85776,0.92974,1.7155,0.64461,0.8102,0.92539,-2.9489,0.98298,-0.52254,-3.9319,8.5233e-09,-0.26127,0,0,0.5,-1.1842e-15,0,0.66667
0.979,0.76823,1.958,0.40235,-0.077988,0.20503,-2.1008,0.70026,-1.4238,-2.801,-1.2542e-08,-0.71191,0,0,0.5,-1.1842e-15,0,0.66667
0.95064,0.52667,1.9013,0.040011,-0.0027237,0.16675,-0.20286,0.06762,-1.9946,-0.27048,-1.4906e-07,-0.99732,0,0,0.5,-0,-0,0.66667
0.48709,0.67411,0.97418,0.26117,0.92855,3.8092,-0.67846,0.22615,-1.757,-0.90462,-8.0507e-12,-0.87849,0,0,0.5,-0,-0,0.66667
0.29631,0.18938,0.59263,-0.46594,-2.0999,6.0939,0.73634,-0.24545,-1.229,0.98178,3.8046e-10,-0.61451,0,0,0.5,-1.1842e-15,0,0.66667
0.69417,0.60314,1.3883,0.15471,0.34111,1.7773,-0.57277,0.19092,-1.9145,-0.7637,9.8654e-11,-0.95725,0,0,0.5,-0,-0,0.66667
0.72461,0.63265,1.4492,0.19898,0.39612,1.5405,-0.76898,0.25633,-1.859,-1.0253,1.1676e-10,-0.9295,0,0,0.5,-2.3685e-15,0,0.66667
0.86836,0.68137,1.7367,0.27205,0.21906,0.60686,-1.2599,0.41997,-1.7368,-1.6799,-8.8328e-10,-0.8684,0,0,0.5,-5.9212e-16,0,0.66667
0.20632,0.21398,0.41264,-0.42903,-2.0224,7.2241,0.4721,-0.15737,-1.3458,0.62946,5.8089e-10,-0.6729,0,0,0.5,1.4803e-16,0,0.66667
0.39895,0.35357,0.79791,-0.21965,-0.86788,4.8015,0.46736,-0.15579,-1.828,0.62315,6.4078e-11,-0.91401,0,0,0.5,-1.1842e-15,0,0.66667
0.78884,0.11693,1.5777,-0.5746,-1.0191,1.2719,2.4174,-0.80581,-0.8258,3.2232,-1.8172e-09,-0.4129,0,0,0.5,5.9212e-16,0,0.66667
0.22269,0.9841,0.44537,0.72615,3.6542,7.0818,-0.86242,0.28747,-0.1246,-1.1499,-1.0474e-10,-0.062298,0,0,0.5,-0,-0,0.66667
0.48218,0.71631,0.96436,0.32446,1.1743,3.8787,-0.8344,0.27813,-1.6264,-1.1125,-1.1914e-11,-0.8132,0,0,0.5,1.4275e-16,0,0.66667
0.78097,0.98027,1.5619,0.7204,1.4663,1.4552,-3.0006,1.0002,-0.15448,-4.0008,1.4536e-10,-0.077241,0,0,0.5,-1.1842e-15,0,0.66667
0.60466,0.8741,1.2093,0.56114,1.7545,2.7368,-1.8096,0.6032,-0.88131,-2.4128,4.6758e-11,-0.44066,0,0,0.5,-3.2532e-16,0,0.66667
0.19904,0.019905,0.39808,-0.72014,-3.6558,7.3772,0.76447,-0.25482,-0.1556,1.0193,2.8306e-10,-0.077798,0,0,0.5,-0,-0,0.66667
0.49234,0.79671,0.98468,0.44506,1.6301,3.8089,-1.1686,0.38955,-1.295,-1.5582,-4.0979e-12,-0.64752,0,0,0.5,-5.9212e-16,0,0.66667
0.98027,0.33228,1.9605,-0.25158,0.077833,0.11516,1.3153,-0.43842,-1.7745,1.7537,-1.7503e-07,-0.88724,0,0,0.5,-0,-0,0.66667
0.19192,0.006661,0.38383,-0.74001,-3.7899,7.4721,0.75744,-0.25248,-0.052879,1.0099,4.1355e-12,-0.026439,0,0,0.5,-0,-0,0.66667
0.24271,0.98931,0.48542,0.73397,3.6658,6.8349,-0.95008,0.31669,-0.084084,-1.2668,-3.4665e-11,-0.042042,0,0,0.5,2.9606e-16,0,0.66667
0.41545,0.075015,0.83091,-0.63748,-2.7098,4.7408,1.4125,-0.47083,-0.5545,1.8833,1.1386e-11,-0.27725,0,0,0.5,-0,-0,0.66667
0.79504,0.88159,1.5901,0.57238,0.98369,1.2297,-2.427,0.80901,-0.83521,-3.236,2.0627e-09,-0.4176,0,0,0.5,-2.3685e-15,0,0.66667
0.85992,0.20208,1.7198,-0.44688,-0.45281,0.74905,2.0495,-0.68316,-1.2896,2.7327,9.5967e-10,-0.64479,0,0,0.5,-1.1842e-15,0,0.66667
0.76878,0.93642,1.5376,0.65463,1.3369,1.4743,-2.6841,0.89471,-0.4772,-3.5788,6.3992e-10,-0.2386,0,0,0.5,4.4409e-16,0,0.66667
0.42266,0.42529,0.84532,-0.11206,-0.42699,4.5117,0.25261,-0.084204,-1.955,0.33682,2.6772e-11,-0.97751,0,0,0.5,-0,-0,0.66667
0.26259,0.41026,0.52519,-0.1346,-0.5924,6.468,0.18851,-0.062838,-1.936,0.25135,1.1658e-10,-0.96798,0,0,0.5,-0,-0,0.66667
0.59111,0.54918,1.1822,0.073766,0.21334,2.7017,-0.23255,0.077518,-1.9802,-0.31007,2.1607e-11,-0.99008,0,0,0.5,1.1842e-15,0,0.66667
0.55633,0.69535,1.1127,0.29302,0.93425,3.0887,-0.86941,0.2898,-1.6945,-1.1592,3.8784e-11,-0.84724,0,0,0.5,-0,-0,0.66667
0.32302,0.30077,0.64604,-0.29885,-1.2809,5.7292,0.51485,-0.17162,-1.6819,0.68647,1.6276e-10,-0.84096,0,0,0.5,-3.8253e-16,0,0.66667
0.2448,0.59919,0.48961,0.14879,0.66259,6.6966,-0.19426,0.064753,-1.9214,-0.25901,-1.2966e-10,-0.96069,0,0,0.5,-0,-0,0.66667
0.62917,0.66007,1.2583,0.2401,0.64793,2.3684,-0.80568,0.26856,-1.7954,-1.0742,9.2109e-11,-0.8977,0,0,0.5,-0,-0,0.66667
0.36144,0.13262,0.72288,-0.55107,-2.4072,5.3305,1.0623,-0.3541,-0.9202,1.4164,9.8438e-11,-0.4601,0,0,0.5,-0,-0,0.66667
0.44656,0.0040602,0.89312,-0.74391,-3.1693,4.4522,1.7717,-0.59058,-0.032616,2.3623,-8.149e-14,-0.016308,0,0,0.5,-0,-0,0.66667
0.42369,0.47054,0.84738,-0.044197,-0.16771,4.4958,0.099871,-0.03329,-1.9939,0.13316,1.0804e-11,-0.99695,0,0,0.5,-0,-0,0.66667
0.60498,0.78444,1.21,0.42666,1.2743,2.6624,-1.3767,0.45889,-1.3532,-1.8356,8.7033e-11,-0.6766,0,0,0.5,-0,-0,0.66667
0.067117,0.11203,0.13423,-0.58195,-2.9547,9.0596,0.20831,-0.069438,-0.79527,0.27775,-1.0396e-08,-0.39763,0,0,0.5,-0,-0,0.66667
0.46478,0.8614,0.92957,0.5421,2.1156,4.1483,-1.3438,0.44793,-0.95455,-1.7917,-1.1245e-11,-0.47727,0,0,0.5,-0,-0,0.66667
0.93632,0.049022,1.8726,-0.67647,-0.37129,0.60363,3.3781,-1.126,-0.37254,4.5041,-8.0835e-08,-0.18627,0,0,0.5,1.1842e-15,0,0.66667
0.14808,0.36654,0.29617,-0.20019,-0.93581,7.9621,0.15811,-0.052702,-1.8572,0.21081,-9.417e-10,-0.92859,0,0,0.5,-1.4803e-16,0,0.66667
0.88159,0.62735,1.7632,0.19102,0.12278,0.50774,-0.89814,0.29938,-1.8708,-1.1975,-5.2749e-09,-0.93541,0,0,0.5,-2.3685e-15,0,0.66667
0.19859,0.79705,0.39718,0.44558,2.1145,7.3264,-0.47194,0.15731,-1.2934,-0.62925,-7.4579e-10,-0.64672,0,0,0.5,-0,-0,0.66667
0.48283,0.46615,0.96566,-0.050771,-0.17817,3.8276,0.13074,-0.04358,-1.9916,0.17432,2.6229e-12,-0.99578,0,0,0.5,-2.9606e-16,0,0.66667
0.49097,0.46971,0.98193,-0.045434,-0.1575,3.7381,0.11897,-0.039656,-1.9935,0.15862,1.2178e-12,-0.99675,0,0,0.5,1.1842e-15,0,0.66667
0.2348,0.76103,0.4696,0.39155,1.807,6.8527,-0.49033,0.16344,-1.4546,-0.65377,-3.8687e-10,-0.72732,0,0,0.5,-0,-0,0.66667
0.59658,0.98386,1.1932,0.72579,2.4663,2.9249,-2.3093,0.76977,-0.12648,-3.0791,8.1313e-13,-0.063239,0,0,0.5,1.1842e-15,0,0.66667
0.83706,0.94017,1.6741,0.66025,0.96738,1.0538,-2.9476,0.98252,-0.45054,-3.9301,4.3581e-09,-0.22527,0,0,0.5,-0,-0,0.66667
0.24277,0.73399,0.48554,0.35099,1.6017,6.7445,-0.45445,0.15148,-1.5613,-0.60594,-2.4036e-10,-0.78065,0,0,0.5,2.9606e-16,0,0.66667
0.50573,0.24703,1.0115,-0.37945,-1.3415,3.6418,1.0235,-0.34115,-1.4885,1.3646,-3.707e-12,-0.74426,0,0,0.5,7.4015e-16,0,0.66667
0.46839,0.64587,0.93679,0.21881,0.79417,4.0064,-0.5466,0.1822,-1.8296,-0.7288,-1.8087e-11,-0.91479,0,0,0.5,-0,-0,0.66667
0.8049,0.69937,1.6098,0.29906,0.41493,0.99637,-1.2838,0.42793,-1.6814,-1.7117,-2.2482e-10,-0.84071,0,0,0.5,-1.1842e-15,0,0.66667
0.48547,0.79099,0.97093,0.43648,1.6109,3.8797,-1.1301,0.37671,-1.3224,-1.5068,-8.1135e-12,-0.66121,0,0,0.5,-0,-0,0.66667
0.047994,0.56902,0.095988,0.10353,0.49164,9.2974,-0.0265,0.0088335,-1.962,-0.035334,6.6589e-08,-0.98102,0,0,0.5,-0,-0,0.66667
0.29891,0.054888,0.59782,-0.66767,-3.1619,6.1226,1.0644,-0.35479,-0.41496,1.4192,9.0541e-11,-0.20748,0,0,0.5,-0,-0,0.66667
0.72163,0.78061,1.4433,0.42092,0.90766,1.6522,-1.62,0.54,-1.3711,-2.16,4.0555e-10,-0.68554,0,0,0.5,2.2204e-16,0,0.66667
0.54076,0.55602,1.0815,0.084023,0.26869,3.2098,-0.24233,0.080776,-1.9748,-0.3231,1.0348e-11,-0.98741,0,0,0.5,8.8818e-16,0,0.66667
0.71301,0.79379,1.426,0.44069,0.98715,1.7307,-1.6758,0.55861,-1.3089,-2.2344,3.9694e-10,-0.65444,0,0,0.5,-0,-0,0.66667
0.89043,0.44086,1.7809,-0.088714,-0.046986,0.44008,0.4213,-0.14043,-1.9727,0.56173,-1.4132e-08,-0.98635,0,0,0.5,-2.3685e-15,0,0.66667
0.036948,0.26201,0.073895,-0.35698,-1.7403,9.45,0.070345,-0.023448,-1.5463,0.093794,-8.2448e-09,-0.77316,0,0,0.5,-0,-0,0.66667
0.16157,0.6831,0.32315,0.27465,1.2879,7.789,-0.23668,0.078893,-1.732,-0.31557,6.6329e-10,-0.86601,0,0,0.5,1.4803e-16,0,0.66667
0.20618,0.93382,0.41236,0.65073,3.2292,7.2698,-0.71556,0.23852,-0.49486,-0.95409,-1.3532e-09,-0.24743,0,0,0.5,-4.4409e-16,0,0.66667
0.54819,0.36489,1.0964,-0.20266,-0.64646,3.1496,0.59252,-0.19751,-1.8537,0.79003,-2.6579e-11,-0.92686,0,0,0.5,-5.9212e-16,0,0.66667
0.6875,0.13204,1.375,-0.55194,-1.4048,2.0048,2.0238,-0.6746,-0.91699,2.6984,-2.5394e-10,-0.4585,0,0,0.5,2.3685e-15,0,0.66667
0.34233,0.21535,0.68466,-0.42697,-1.842,5.5211,0.77955,-0.25985,-1.3524,1.0394,1.8913e-10,-0.6762,0,0,0.5,5.9212e-16,0,0.66667
0.8698,0.73147,1.7396,0.3472,0.29166,0.63506,-1.6106,0.53688,-1.5708,-2.1475,-1.5141e-09,-0.7854,0,0,0.5,-0,-0,0.66667
0.8792,0.14304,1.7584,-0.53544,-0.49512,0.71572,2.5107,-0.8369,-0.98009,3.3476,-6.1831e-10,-0.49004,0,0,0.5,-0,-0,0.66667
0.19012,0.73826,0.38024,0.35738,1.676,7.4238,-0.36238,0.12079,-1.5454,-0.48317,1.4505e-10,-0.77272,0,0,0.5,-0,-0,0.66667
0.53183,0.077815,1.0637,-0.63328,-2.3162,3.4892,1.7962,-0.59874,-0.57368,2.395,-3.082e-12,-0.28684,0,0,0.5,-0,-0,0.66667
0.98953,0.23623,1.9791,-0.39565,0.12262,0.16851,2.0881,-0.69602,-1.4428,2.7841,9.8081e-09,-0.7214,0,0,0.5,1.2396e-17,0,0.66667
0.057573,0.18054,0.11515,-0.4792,-2.3818,9.1796,0.14714,-0.049046,-1.1834,0.19619,4.8939e-09,-0.59171,0,0,0.5,-1.1102e-16,0,0.66667
0.083431,0.12343,0.16686,-0.56485,-2.849,8.8439,0.25134,-0.08378,-0.86631,0.33512,-9.1789e-09,-0.43316,0,0,0.5,-7.4015e-17,0,0.66667
0.41763,0.37178,0.83526,-0.19233,-0.74203,4.5792,0.42839,-0.1428,-1.8689,0.57118,4.5912e-11,-0.93447,0,0,0.5,-5.9212e-16,0,0.66667
0.85461,0.86451,1.7092,0.54677,0.63685,0.85357,-2.4921,0.83071,-0.93661,-3.3228,3.6907e-09,-0.46831,0,0,0.5,1.1842e-15,0,0.66667
0.39859,0.87339,0.79718,0.56008,2.368,4.8998,-1.1906,0.39688,-0.88534,-1.5875,-4.4166e-11,-0.44267,0,0,0.5,8.1416e-16,0,0.66667
0.0099489,0.23513,0.019898,-0.3973,-1.952,9.8115,0.021081,-0.0070271,-1.4381,0.028108,-9.7023e-09,-0.71905,0,0,0.5,-1.1782e-17,0,0.66667
0.64554,0.83317,1.2911,0.49976,1.3926,2.3294,-1.7206,0.57354,-1.1115,-2.2942,1.4293e-10,-0.55575,0,0,0.5,-0,-0,0.66667
0.2938,0.61627,0.58761,0.1744,0.75363,6.0762,-0.27328,0.091093,-1.8916,-0.36437,-1.101e-10,-0.94581,0,0,0.5,-0,-0,0.66667
0.14993,0.39599,0.29986,-0.15601,-0.72627,7.9356,0.12475,-0.041583,-1.913,0.16633,4.337e-10,-0.9565,0,0,0.5,-1.4803e-16,0,0.66667
0.10779,0.76584,0.21557,0.39876,1.9351,8.509,-0.22923,0.076409,-1.4342,-0.30564,2.2003e-09,-0.71709,0,0,0.5,-0,-0,0.66667
0.8689,0.90366,1.7378,0.60549,0.66823,0.82994,-2.8059,0.93531,-0.69699,-3.7412,1.0491e-08,-0.34849,0,0,0.5,-1.2231e-15,0,0.66667
0.0032652,0.16902,0.0065305,-0.49647,-2.4851,9.9011,0.0086459,-0.0028819,-1.1231,0.011528,4.4847e-08,-0.56155,0,0,0.5,-4.6259e-18,0,0.66667
0.51859,0.51887,1.0372,0.028305,0.093877,3.4398,-0.078286,0.026095,-1.9967,-0.10438,1.5681e-12,-0.99834,0,0,0.5,-0,-0,0.66667
0.55082,0.56016,1.1016,0.090235,0.28337,3.1066,-0.26508,0.088361,-1.9717,-0.35344,1.4043e-11,-0.98584,0,0,0.5,-2.9606e-16,0,0.66667
0.11595,0.8304,0.2319,0.4956,2.4448,8.41,-0.30648,0.10216,-1.126,-0.40864,3.792e-09,-0.56302,0,0,0.5,1.4803e-16,0,0.66667
0.20004,0.71909,0.40008,0.32864,1.5277,7.2916,-0.35062,0.11687,-1.6171,-0.46749,1.5736e-10,-0.80853,0,0,0.5,-0,-0,0.66667
0.86222,0.77056,1.7244,0.40584,0.38793,0.70978,-1.8662,0.62208,-1.414,-2.4883,-1.176e-09,-0.70701,0,0,0.5,1.1842e-15,0,0.66667
0.11697,0.99245,0.23394,0.73867,3.8728,8.4277,-0.46082,0.15361,-0.059744,-0.61443,-1.1559e-08,-0.029872,0,0,0.5,-4.4409e-16,0,0.66667
0.8247,0.20683,1.6494,-0.43975,-0.58185,0.94705,1.9342,-0.64474,-1.3119,2.5789,-3.9737e-10,-0.65597,0,0,0.5,-0,-0,0.66667
0.19309,0.65675,0.38618,0.23513,1.0836,7.3728,-0.24214,0.080712,-1.8044,-0.32285,2.3204e-10,-0.90219,0,0,0.5,-5.9212e-16,0,0.66667
0.99555,0.84449,1.9911,0.51673,-0.13385,0.24912,-2.7436,0.91454,-1.0516,-3.6582,6.1108e-08,-0.52578,0,0,0.5,-0,5.4553e-17,0.66667
0.47141,0.5506,0.94282,0.075894,0.271,3.9553,-0.19081,0.063604,-1.9791,-0.25442,-6.6111e-12,-0.98954,0,0,0.5,-0,-0,0.66667
0.54727,0.051508,1.0945,-0.67274,-2.4366,3.3592,1.9636,-0.65452,-0.39061,2.6181,-1.9378e-12,-0.1953,0,0,0.5,-5.9212e-16,0,0.66667
0.082274,0.82521,0.16455,0.48782,2.4199,8.8531,-0.21405,0.071351,-1.1533,-0.2854,1.308e-08,-0.57667,0,0,0.5,1.4803e-16,0,0.66667
0.051293,0.18006,0.10259,-0.47992,-2.3875,9.263,0.13129,-0.043763,-1.1809,0.17505,-1.4867e-08,-0.59047,0,0,0.5,7.4015e-17,0,0.66667
0.20742,0.92561,0.41485,0.63842,3.1558,7.2511,-0.70626,0.23542,-0.55032,-0.94168,-1.4807e-09,-0.27516,0,0,0.5,-0,-0,0.66667
0.16079,0.48158,0.32158,-0.027637,-0.12749,7.7887,0.0237,-0.0079001,-1.9967,0.0316,7.1872e-10,-0.99836,0,0,0.5,-0,-0,0.66667
0.45106,0.29321,0.90213,-0.31018,-1.1677,4.22,0.74619,-0.24873,-1.6575,0.99492,3.3678e-11,-0.82876,0,0,0.5,-0,-0,0.66667
0.62995,0.83047,1.2599,0.49571,1.4318,2.4666,-1.6654,0.55515,-1.1257,-2.2206,1.1052e-10,-0.56286,0,0,0.5,1.1842e-15,0,0.66667
0.72633,0.68441,1.4527,0.27661,0.55758,1.5508,-1.0715,0.35718,-1.7284,-1.4287,1.4989e-10,-0.86418,0,0,0.5,-0,-0,0.66667
0.45605,0.7094,0.9121,0.3141,1.1757,4.165,-0.76397,0.25466,-1.6489,-1.0186,-3.0128e-11,-0.82447,0,0,0.5,5.9212e-16,0,0.66667
0.37693,0.88298,0.75386,0.57448,2.4901,5.1569,-1.1549,0.38495,-0.8265,-1.5398,-6.0534e-11,-0.41325,0,0,0.5,-0,-0,0.66667
0.064415,0.017369,0.12883,-0.72395,-3.8162,9.1058,0.24871,-0.082903,-0.13607,0.33161,2.7113e-08,-0.068033,0,0,0.5,-1.4803e-16,0,0.66667
0.53834,0.38627,1.0767,-0.17059,-0.55179,3.2455,0.48979,-0.16326,-1.896,0.65305,-1.8368e-11,-0.94799,0,0,0.5,-0,-0,0.66667
0.45104,0.69432,0.90207,0.29148,1.094,4.2158,-0.70116,0.23372,-1.698,-0.93489,-3.3282e-11,-0.84898,0,0,0.5,-0,-0,0.66667
0.40236,0.24368,0.80472,-0.38448,-1.5533,4.7971,0.82506,-0.27502,-1.4744,1.1001,8.0188e-11,-0.7372,0,0,0.5,2.3824e-16,0,0.66667
0.073837,0.21207,0.14767,-0.43189,-2.1225,8.9613,0.17008,-0.056693,-1.3367,0.22677,-1.1442e-09,-0.66836,0,0,0.5,-7.4015e-17,0,0.66667
0.19382,0.35916,0.38763,-0.21126,-0.97096,7.3615,0.21838,-0.072793,-1.8406,0.29117,-1.0694e-10,-0.92032,0,0,0.5,-0,-0,0.66667
0.60843,0.69692,1.2169,0.29538,0.84661,2.5786,-0.95851,0.3195,-1.6896,-1.278,8.5552e-11,-0.84481,0,0,0.5,1.1842e-15,0,0.66667
0.91508,0.77214,1.8302,0.40821,0.18647,0.45087,-1.9922,0.66408,-1.4071,-2.6563,-5.7439e-09,-0.70357,0,0,0.5,-1.1842e-15,0,0.66667
0.63152,0.47343,1.263,-0.039862,-0.10463,2.3153,0.13426,-0.044753,-1.9945,0.17901,-1.8358e-11,-0.99726,0,0,0.5,-0,-0,0.66667
0.57768,0.17616,1.1554,-0.48577,-1.5617,2.9524,1.4966,-0.49887,-1.1607,1.9955,-4.52e-11,-0.58037,0,0,0.5,5.9212e-16,-7.8021e-17,0.66667
0.34238,0.69081,0.68476,0.28622,1.2049,5.4899,-0.52265,0.17422,-1.7093,-0.69686,-1.3588e-10,-0.85466,0,0,0.5,-1.1842e-15,0,0.66667
0.13547,0.12426,0.27094,-0.56361,-2.8076,8.1627,0.40722,-0.13574,-0.87148,0.54296,3.063e-09,-0.43574,0,0,0.5,3.7007e-17,0,0.66667
0.50839,0.27324,1.0168,-0.34014,-1.1876,3.6007,0.92225,-0.30742,-1.5884,1.2297,-5.5542e-12,-0.79418,0,0,0.5,-0,-0,0.66667
0.64626,0.39138,1.2925,-0.16293,-0.41547,2.1948,0.56157,-0.18719,-1.905,0.74876,-7.6873e-11,-0.95248,0,0,0.5,1.1842e-15,0,0.66667
0.96752,0.81559,1.935,0.47339,-0.0047697,0.2959,-2.4427,0.81424,-1.2039,-3.257,3.0671e-08,-0.60193,0,0,0.5,-0,-0,0.66667
0.76195,0.85486,1.5239,0.53229,1.0366,1.4228,-2.1631,0.72103,-0.99215,-2.8841,1.0512e-09,-0.49607,0,0,0.5,-0,-0,0.66667
0.183,0.64412,0.366,0.21618,0.99873,7.5034,-0.21099,0.07033,-1.8333,-0.28132,2.1625e-10,-0.91665,0,0,0.5,-0,-0,0.66667
0.23966,0.22336,0.47932,-0.41496,-1.918,6.7946,0.5304,-0.1768,-1.388,0.70719,5.0688e-10,-0.69399,0,0,0.5,-0,-0,0.66667
0.95701,0.3396,1.914,-0.2406,0.017941,0.19049,1.228,-0.40934,-1.7945,1.6374,9.5875e-08,-0.89725,0,0,0.5,-1.7764e-15,0,0.66667
0.758,0.23111,1.516,-0.40333,-0.74793,1.3696,1.6305,-0.54352,-1.421,2.1741,-4.4924e-10,-0.71049,0,0,0.5,-0,-0,0.66667
0.19292,0.84703,0.38584,0.52055,2.5156,7.412,-0.5356,0.17853,-1.037,-0.71413,-1.9382e-09,-0.51848,0,0,0.5,-0,-0,0.66667
0.70195,0.38441,1.4039,-0.17338,-0.37334,1.7166,0.6491,-0.21637,-1.8929,0.86547,-1.0846e-10,-0.94647,0,0,0.5,-0,-0,0.66667
0.83347,0.60193,1.6669,0.15289,0.16348,0.76851,-0.67962,0.22654,-1.9166,-0.90616,-2.2565e-11,-0.95832,0,0,0.5,-0,-0,0.66667
0.43625,0.13515,0.8725,-0.54728,-2.2141,4.4664,1.2733,-0.42444,-0.93483,1.6978,2.2576e-11,-0.46742,0,0,0.5,-0,-0,0.66667
0.0094767,0.45364,0.018953,-0.069545,-0.33065,9.8166,0.0035173,-0.001172,-1.9821,0.00469,6.0461e-07,-0.99107,0,0,0.5,-1.8504e-17,0,0.66667
0.66811,0.47907,1.3362,-0.031388,-0.074406,1.9859,0.11184,-0.037281,-1.9961,0.14913,-2.0045e-11,-0.99805,0,0,0.5,-0,-0,0.66667
0.069735,0.47072,0.13947,-0.043927,-0.20761,9.0043,0.016337,-0.0054458,-1.9938,0.021783,-2.8167e-08,-0.99688,0,0,0.5,-0,-0,0.66667
0.2378,0.35642,0.47561,-0.21538,-0.96844,6.7917,0.27316,-0.091052,-1.8346,0.36421,6.4534e-11,-0.91728,0,0,0.5,-0,-0,0.66667
0.097031,0.025205,0.19406,-0.71219,-3.7218,8.6815,0.36856,-0.12285,-0.19663,0.49141,1.2716e-08,-0.098316,0,0,0.5,1.4803e-16,0,0.66667
0.87047,0.11661,1.7409,-0.57508,-0.60488,0.79415,2.6698,-0.88994,-0.82385,3.5598,-6.0337e-09,-0.41192,0,0,0.5,-5.9212e-16,0,0.66667
0.83404,0.4647,1.6681,-0.05295,-0.055219,0.74985,0.23553,-0.078511,-1.9903,0.31404,-4.8705e-10,-0.99516,0,0,0.5,1.9779e-16,0,0.66667
0.23516,0.93252,0.47032,0.64878,3.1736,6.904,-0.8137,0.27123,-0.50378,-1.0849,-6.3124e-10,-0.25189,0,0,0.5,-0,-0,0.66667
0.75438,0.78506,1.5088,0.4276,0.81433,1.4093,-1.7204,0.57346,-1.3503,-2.2938,5.5246e-10,-0.67513,0,0,0.5,-0,-0,0.66667
0.50836,0.37029,1.0167,-0.19457,-0.66366,3.5658,0.52753,-0.17584,-1.8656,0.70337,-4.375e-12,-0.93278,0,0,0.5,-0,-0,0.66667
0.42116,0.14188,0.84231,-0.53718,-2.2042,4.6325,1.2066,-0.40219,-0.97362,1.6088,3.3955e-11,-0.48681,0,0,0.5,-0,-7.6111e-16,0.66667
0.21872,0.14525,0.43744,-0.53212,-2.5481,7.084,0.62072,-0.20691,-0.99303,0.82763,1.4496e-09,-0.49651,0,0,0.5,-2.9606e-16,7.8888e-16,0.66667
0.22166,0.93891,0.44332,0.65837,3.2507,7.0762,-0.77831,0.25944,-0.45969,-1.0377,-8.0221e-10,-0.22985,0,0,0.5,5.9212e-16,0,0.66667
0.090802,0.76097,0.1816,0.39146,1.9044,8.7336,-0.18957,0.063191,-1.4548,-0.25277,3.013e-09,-0.72738,0,0,0.5,1.4803e-16,0,0.66667
0.24882,0.026728,0.49763,-0.70991,-3.5087,6.7516,0.94207,-0.31402,-0.20852,1.2561,7.5034e-11,-0.10426,0,0,0.5,-2.9606e-16,2.9316e-16,0.66667
0.58965,0.62878,1.1793,0.19316,0.56681,2.7327,-0.60746,0.20249,-1.8677,-0.80995,5.0695e-11,-0.93386,0,0,0.5,-0,-0,0.66667
0.88221,0.63154,1.7644,0.19731,0.12616,0.50643,-0.92838,0.30946,-1.8615,-1.2378,-4.3201e-09,-0.93074,0,0,0.5,-2.3685e-15,0,0.66667
0.15505,0.93265,0.3101,0.64898,3.2829,7.9226,-0.53665,0.17888,-0.50287,-0.71554,-6.5423e-09,-0.25144,0,0,0.5,3.1385e-16,0,0.66667
0.26188,0.66923,0.52376,0.25385,1.1299,6.4879,-0.35455,0.11818,-1.7703,-0.47273,-1.2003e-10,-0.88517,0,0,0.5,-0,-0,0.66667
0.63358,0.49126,1.2672,-0.01311,-0.034203,2.2955,0.044301,-0.014767,-1.999,0.059067,-6.1551e-12,-0.99952,0,0,0.5,-0,-0,0.66667
0.1012,0.7394,0.20239,0.35909,1.7341,8.5936,-0.19381,0.064603,-1.541,-0.25841,2.4863e-09,-0.77051,0,0,0.5,-0,-0,0.66667
0.51534,0.57134,1.0307,0.10701,0.35798,3.4792,-0.2941,0.098034,-1.9592,-0.39214,4.8064e-12,-0.97962,0,0,0.5,-1.1842e-15,0,0.66667
0.44685,0.77241,0.89371,0.40861,1.5765,4.2955,-0.9738,0.3246,-1.406,-1.2984,-3.5045e-11,-0.70301,0,0,0.5,-0,-0,0.66667
0.050434,0.58372,0.10087,0.12559,0.59689,9.2647,-0.033781,0.01126,-1.9436,-0.045041,1.4373e-07,-0.97178,0,0,0.5,7.4015e-17,0,0.66667
0.76578,0.93336,1.5316,0.65005,1.3395,1.4908,-2.6549,0.88496,-0.49812,-3.5398,6.3493e-10,-0.24906,0,0,0.5,-1.1842e-15,0,0.66667
0.095195,0.17618,0.19039,-0.48573,-2.4026,8.6823,0.24661,-0.082203,-1.1608,0.32881,-3.8085e-09,-0.5804,0,0,0.5,-1.4803e-16,0,0.66667
0.33837,0.15823,0.67674,-0.51265,-2.2618,5.5932,0.92515,-0.30838,-1.0662,1.2335,1.8403e-10,-0.53311,0,0,0.5,1.1842e-15,0,0.66667
0.57897,0.89137,1.1579,0.58705,1.9488,2.9958,-1.8127,0.60424,-0.77422,-2.417,2.1255e-11,-0.38711,0,0,0.5,1.1842e-15,0,0.66667
0.85085,0.17392,1.7017,-0.48912,-0.55615,0.829,2.2196,-0.73986,-1.1487,2.9594,-5.8591e-10,-0.57436,0,0,0.5,-0,-0,0.66667
0.26085,0.13156,0.52171,-0.55266,-2.5996,6.5568,0.76888,-0.25629,-0.91395,1.0252,6.9473e-10,-0.45698,0,0,0.5,-0,-0,0.66667
0.81028,0.34521,1.6206,-0.23218,-0.30283,0.93601,1.0034,-0.33446,-1.8092,1.3378,2.2249e-10,-0.90461,0,0,0.5,2.3685e-15,0,0.66667
0.43666,0.88637,0.87333,0.57956,2.3654,4.4759,-1.3497,0.44991,-0.80543,-1.7996,-1.6342e-11,-0.40272,0,0,0.5,-0,-0,0.66667
0.82762,0.9403,1.6552,0.66046,1.0232,1.1081,-2.9152,0.97174,-0.44981,-3.887,3.2078e-09,-0.22491,0,0,0.5,2.3685e-15,-1.9346e-16,0.66667
0.92159,0.2574,1.8432,-0.36391,-0.13012,0.3945,1.7887,-0.59622,-1.5292,2.3849,-6.5745e-10,-0.76462,0,0,0.5,-0,-0,0.66667
0.4382,0.095884,0.87641,-0.60617,-2.4895,4.471,1.4167,-0.47223,-0.69439,1.8889,1.0707e-11,-0.34719,0,0,0.5,-1.1842e-15,0,0.66667
0.26206,0.77643,0.52411,0.41464,1.8916,6.5107,-0.57952,0.19317,-1.3889,-0.77269,-4.4915e-10,-0.69447,0,0,0.5,2.9606e-16,0,0.66667
0.46144,0.92486,0.92288,0.63729,2.5719,4.2309,-1.5684,0.5228,-0.55532,-2.0912,-3.5385e-12,-0.27766,0,0,0.5,5.9212e-16,0,0.66667
0.094812,0.0021036,0.18962,-0.74684,-3.9437,8.7145,0.37765,-0.12588,-0.017638,0.50354,4.1546e-08,-0.0088191,0,0,0.5,-0,-0,0.66667
0.65878,0.3059,1.3176,-0.29115,-0.73466,2.1171,1.023,-0.34098,-1.6986,1.3639,-1.3938e-10,-0.84932,0,0,0.5,-1.1842e-15,0,0.66667
0.63235,0.068554,1.2647,-0.64717,-1.975,2.5422,2.1826,-0.72753,-0.5108,2.9101,-2.6844e-11,-0.2554,0,0,0.5,-0,-0,0.66667
0.4968,0.75362,0.9936,0.38042,1.3633,3.7375,-1.008,0.33599,-1.4859,-1.344,-2.0449e-12,-0.74294,0,0,0.5,-0,-0,0.66667
0.47016,0.6291,0.94031,0.19365,0.69909,3.9825,-0.48559,0.16186,-1.8671,-0.64745,-1.5746e-11,-0.93356,0,0,0.5,1.1842e-15,0,0.66667
0.12851,0.39432,0.25701,-0.15852,-0.74314,8.22,0.10864,-0.036215,-1.9102,0.14486,-9.6906e-10,-0.95509,0,0,0.5,1.4803e-16,0,0.66667
0.33439,0.65505,0.66878,0.23257,0.97907,5.5792,-0.41477,0.13826,-1.8085,-0.55303,-1.1778e-10,-0.90424,0,0,0.5,8.5117e-16,0,0.66667
0.2686,0.044112,0.53719,-0.68383,-3.3167,6.4989,0.9796,-0.32653,-0.33683,1.3061,1.3355e-10,-0.16841,0,0,0.5,-0,-0,0.66667
0.53581,0.33024,1.0716,-0.25463,-0.83675,3.2888,0.72766,-0.24255,-1.7689,0.97021,-2.2425e-11,-0.88444,0,0,0.5,-0,-0,0.66667
0.41981,0.20545,0.83962,-0.44183,-1.7728,4.6129,0.98924,-0.32975,-1.3055,1.319,5.5217e-11,-0.65273,0,0,0.5,-0,-0,0.66667
0.83603,0.20952,1.6721,-0.43572,-0.53121,0.87676,1.9428,-0.64761,-1.3246,2.5904,1.0969e-11,-0.66229,0,0,0.5,5.9212e-16,0,0.66667
0.70121,0.67707,1.4024,0.26561,0.58456,1.748,-0.99332,0.33111,-1.7489,-1.3244,1.5313e-10,-0.87443,0,0,0.5,-5.9212e-16,0,0.66667
0.4959,0.20641,0.9918,-0.44038,-1.6028,3.7689,1.1647,-0.38824,-1.3099,1.553,2.2026e-12,-0.65496,0,0,0.5,-0,-0,0.66667
0.59952,0.74057,1.199,0.36086,1.0711,2.6865,-1.1538,0.38461,-1.5366,-1.5384,8.2284e-11,-0.7683,0,0,0.5,-0,-0,0.66667
0.39672,0.19321,0.79343,-0.46018,-1.9006,4.8854,0.97366,-0.32455,-1.2471,1.2982,7.8717e-11,-0.62354,0,0,0.5,-0,-0,0.66667
0.21745,0.25738,0.4349,-0.36393,-1.6869,7.071,0.42206,-0.14069,-1.5291,0.56274,1.7303e-10,-0.76456,0,0,0.5,5.9212e-16,0,0.66667
0.74224,0.067516,1.4845,-0.64873,-1.4585,1.6558,2.5681,-0.85602,-0.50377,3.4241,-3.5152e-10,-0.25188,0,0,0.5,-2.3685e-15,0,0.66667
0.92264,0.03978,1.8453,-0.69033,-0.4861,0.67222,3.3969,-1.1323,-0.30552,4.5292,-9.9987e-08,-0.15276,0,0,0.5,-0,-0,0.66667
0.26129,0.86916,0.52257,0.55373,2.6047,6.5517,-0.77164,0.25721,-0.90985,-1.0289,-6.89e-10,-0.45492,0,0,0.5,-0,-0,0.66667
0.63229,0.85857,1.2646,0.53785,1.5693,2.4699,-1.8137,0.60458,-0.97078,-2.4183,9.4845e-11,-0.48539,0,0,0.5,-1.1842e-15,0,0.66667
0.70958,0.56351,1.4192,0.095258,0.19757,1.6412,-0.3605,0.12017,-1.9686,-0.48066,8.1449e-11,-0.98428,0,0,0.5,-2.3685e-15,0,0.66667
0.73708,0.73766,1.4742,0.35649,0.70736,1.5009,-1.4014,0.46713,-1.5477,-1.8685,2.7916e-10,-0.77384,0,0,0.5,1.1842e-15,0,0.66667
0.27022,0.14358,0.54044,-0.53463,-2.4897,6.4353,0.77049,-0.25683,-0.98317,1.0273,5.9136e-10,-0.49158,0,0,0.5,-2.9606e-16,0,0.66667
0.10234,0.55983,0.20469,0.089748,0.42204,8.5673,-0.048987,0.016329,-1.9719,-0.065317,-1.5407e-08,-0.98593,0,0,0.5,-0,-0,0.66667
0.71856,0.61273,1.4371,0.16909,0.34257,1.5813,-0.64801,0.216,-1.8981,-0.86401,1.112e-10,-0.94903,0,0,0.5,-2.0352e-15,0,0.66667
0.44319,0.60296,0.88639,0.15443,0.57559,4.2802,-0.36503,0.12168,-1.9148,-0.48671,-2.5585e-11,-0.95742,0,0,0.5,-0,-0,0.66667
0.6827,0.5378,1.3654,0.056698,0.12856,1.8613,-0.20644,0.068814,-1.9885,-0.27526,4.0233e-11,-0.99426,0,0,0.5,-0,-0,0.66667
0.058429,0.079962,0.11686,-0.63006,-3.2407,9.177,0.19634,-0.065447,-0.58797,0.26179,1.3424e-08,-0.29398,0,0,0.5,7.4015e-17,1.1527e-16,0.66667
0.65428,0.65854,1.3086,0.23781,0.6006,2.1404,-0.82985,0.27662,-1.7997,-1.1065,1.1193e-10,-0.89983,0,0,0.5,-2.3685e-15,0,0.66667
0.28838,0.50181,0.57676,0.0027126,0.011679,6.1366,-0.0041719,0.0013906,-2.0006,-0.0055626,-3.2667e-12,-1.0003,0,0,0.5,-0,-0,0.66667
0.87785,0.94264,1.7557,0.66396,0.72851,0.84278,-3.1086,1.0362,-0.43279,-4.1447,1.9697e-08,-0.21639,0,0,0.5,-0,-0,0.66667
0.1653,0.16239,0.3306,-0.50642,-2.4664,7.7666,0.44646,-0.14882,-1.0881,0.59527,1.897e-09,-0.54406,0,0,0.5,-0,-0,0.66667
0.44557,0.6772,0.89114,0.2658,1.0006,4.2718,-0.63164,0.21055,-1.7483,-0.84219,-3.5837e-11,-0.87416,0,0,0.5,-5.9212e-16,0,0.66667
0.96915,0.79812,1.9383,0.44718,-0.023253,0.26971,-2.3114,0.77047,-1.2886,-3.0819,2.1298e-09,-0.64431,0,0,0.5,-1.1842e-15,0,0.66667
0.086128,0.09899,0.17226,-0.60151,-3.0591,8.8117,0.27631,-0.092102,-0.71361,0.36841,-2.7073e-08,-0.3568,0,0,0.5,-0,-0,0.66667
0.40046,0.55068,0.80093,0.076022,0.29654,4.7686,-0.16237,0.054123,-1.9789,-0.21649,-2.4657e-11,-0.98945,0,0,0.5,-0,-0,0.66667
0.28546,0.22438,0.57092,-0.41343,-1.8574,6.2168,0.62943,-0.20981,-1.3923,0.83924,3.6346e-10,-0.69617,0,0,0.5,-0,-0,0.66667
0.082679,0.83941,0.16536,0.50912,2.5366,8.8493,-0.2245,0.074833,-1.0787,-0.29933,1.5142e-08,-0.53933,0,0,0.5,-1.8504e-16,0,0.66667
0.70977,0.10768,1.4195,-0.58848,-1.4255,1.8523,2.2277,-0.74256,-0.76803,2.9702,-3.1961e-10,-0.38401,0,0,0.5,1.1842e-15,0,0.66667
0.56244,0.5588,1.1249,0.088205,0.27088,2.988,-0.26459,0.088196,-1.973,-0.35278,1.7069e-11,-0.98649,0,0,0.5,-2.9606e-16,0,0.66667
0.98804,0.26266,1.9761,-0.35601,0.11574,0.14671,1.876,-0.62534,-1.5488,2.5014,-1.6477e-08,-0.77441,0,0,0.5,-0,-0,0.66667
0.22761,0.11116,0.45522,-0.58326,-2.8151,6.9825,0.70802,-0.23601,-0.78979,0.94403,1.2603e-09,-0.39489,0,0,0.5,-5.656e-16,0,0.66667
0.10466,0.077583,0.20932,-0.63363,-3.2365,8.5729,0.35369,-0.1179,-0.57188,0.47159,1.6209e-08,-0.28594,0,0,0.5,-0,-0,0.66667
0.46991,0.1978,0.93981,-0.4533,-1.7159,4.0555,1.1361,-0.37868,-1.2692,1.5147,1.6248e-11,-0.63458,0,0,0.5,-0,-0,0.66667
0.72526,0.37891,1.4505,-0.18163,-0.35942,1.5311,0.70255,-0.23418,-1.883,0.93673,-1.1321e-10,-0.9415,0,0,0.5,-2.3685e-15,0,0.66667
0.20312,0.70621,0.40624,0.30932,1.4319,7.2494,-0.33508,0.11169,-1.6595,-0.44678,1.4207e-10,-0.82976,0,0,0.5,-0,-0,0.66667
0.19345,0.1337,0.3869,-0.54945,-2.6722,7.4105,0.56688,-0.18896,-0.92627,0.75585,2.3495e-09,-0.46314,0,0,0.5,-0,-0,0.66667
0.01645,0.13756,0.032899,-0.54366,-2.7483,9.7267,0.047696,-0.015898,-0.94874,0.063595,3.4534e-07,-0.47437,0,0,0.5,-0,-0,0.66667
0.61338,0.56042,1.2268,0.090624,0.2494,2.4889,-0.29646,0.098821,-1.9715,-0.39528,3.4041e-11,-0.98574,0,0,0.5,1.4803e-15,0,0.66667
0.58667,0.097704,1.1733,-0.60344,-1.9865,2.9322,1.8881,-0.62937,-0.70554,2.5175,-1.9973e-11,-0.35277,0,0,0.5,-0,-0,0.66667
0.46014,0.28463,0.92029,-0.32305,-1.2047,4.1216,0.7928,-0.26427,-1.6293,1.0571,2.7276e-11,-0.81465,0,0,0.5,-0,-0,0.66667
0.7062,0.97831,1.4124,0.71747,1.8826,1.9861,-2.7023,0.90076,-0.16942,-3.6031,1.9065e-11,-0.08471,0,0,0.5,-0,-0,0.66667
0.059315,0.41156,0.11863,-0.13265,-0.63004,9.1454,0.041964,-0.013988,-1.9376,0.055952,1.2531e-07,-0.96881,0,0,0.5,-0,-0,0.66667
0.66498,0.37536,1.33,-0.18695,-0.4539,2.0334,0.66304,-0.22101,-1.8767,0.88406,-9.7836e-11,-0.93834,0,0,0.5,-2.3685e-15,0,0.66667
0.18851,0.4474,0.37703,-0.078903,-0.36035,7.4244,0.079329,-0.026443,-1.9777,0.10577,4.1948e-10,-0.98883,0,0,0.5,-0,-0,0.66667
0.13418,0.26542,0.26837,-0.35187,-1.6828,8.1563,0.25182,-0.083938,-1.5591,0.33575,-1.4443e-09,-0.77956,0,0,0.5,-0,-0,0.66667
0.89487,0.59422,1.7897,0.14133,0.070636,0.4275,-0.67452,0.22484,-1.93,-0.89936,-1.8208e-08,-0.96499,0,0,0.5,-2.3685e-15,0,0.66667
0.68858,0.36354,1.3772,-0.20469,-0.46357,1.8351,0.75172,-0.25057,-1.8507,1.0023,-1.172e-10,-0.92536,0,0,0.5,1.1842e-15,0,0.66667
0.63478,0.56155,1.2696,0.092321,0.24094,2.2892,-0.31255,0.10418,-1.9705,-0.41674,4.2564e-11,-0.98527,0,0,0.5,4.4409e-16,0,0.66667
0.062431,0.3765,0.12486,-0.18525,-0.8827,9.1044,0.061683,-0.020561,-1.879,0.082244,-8.6407e-08,-0.93951,0,0,0.5,1.4803e-16,0,0.66667
0.10037,0.94613,0.20074,0.66919,3.4535,8.633,-0.35822,0.11941,-0.40743,-0.47763,-2.5485e-08,-0.20372,0,0,0.5,-0,-0,0.66667
0.41814,0.0010114,0.83629,-0.74848,-3.2922,4.7677,1.6692,-0.5564,-0.0089883,2.2256,-4.3343e-13,-0.0044942,0,0,0.5,2.3685e-15,0,0.66667
0.77618,0.4522,1.5524,-0.071707,-0.11059,1.1322,0.29684,-0.098946,-1.9811,0.39579,-1.7664e-10,-0.99054,0,0,0.5,-0,-0,0.66667
0.0092608,0.82901,0.018522,0.49352,2.4686,9.8214,-0.024375,0.0081251,-1.1334,-0.0325,3.7811e-08,-0.56668,0,0,0.5,-0,-0,0.66667
0.46474,0.586,0.92948,0.12901,0.46641,4.0342,-0.31976,0.10659,-1.9407,-0.42634,-1.3354e-11,-0.97033,0,0,0.5,-2.0879e-17,0,0.66667
0.20022,0.36077,0.40045,-0.20884,-0.9568,7.2777,0.22302,-0.074339,-1.8444,0.29736,-6.3447e-11,-0.92219,0,0,0.5,-2.9606e-16,0,0.66667
0.89358,0.11128,1.7872,-0.58308,-0.4921,0.68807,2.7789,-0.92628,-0.79063,3.7051,-4.1219e-09,-0.39531,0,0,0.5,-1.1842e-15,0,0.66667
0.59828,0.60656,1.1966,0.15984,0.45834,2.6426,-0.51004,0.17001,-1.9086,-0.68005,4.7977e-11,-0.9543,0,0,0.5,-0,-0,0.66667
0.68755,0.3002,1.3751,-0.2997,-0.69588,1.873,1.099,-0.36633,-1.6804,1.4653,-1.7274e-10,-0.84018,0,0,0.5,-0,-0,0.66667
0.80757,0.22143,1.6151,-0.41786,-0.60707,1.0402,1.7997,-0.59991,-1.3797,2.3996,-3.394e-10,-0.68986,0,0,0.5,-0,-0,0.66667
0.5879,0.87413,1.1758,0.56119,1.8145,2.8949,-1.7596,0.58653,-0.8811,-2.3461,3.3206e-11,-0.44055,0,0,0.5,-0,-0,0.66667
0.84743,0.9362,1.6949,0.6543,0.89243,0.99045,-2.9572,0.98573,-0.47868,-3.9429,7.3678e-09,-0.23934,0,0,0.5,-1.7764e-15,0,0.66667
0.47046,0.23204,0.94091,-0.40194,-1.5021,4.0311,1.0085,-0.33617,-1.4251,1.3447,1.8507e-11,-0.71257,0,0,0.5,-0,-0,0.66667
0.17437,0.54799,0.34875,0.07199,0.33067,7.61,-0.066951,0.022317,-1.9811,-0.089268,-6.9626e-10,-0.99053,0,0,0.5,-2.9606e-16,0,0.66667
0.64155,0.75616,1.2831,0.38425,1.0405,2.3066,-1.3147,0.43824,-1.4752,-1.753,1.4666e-10,-0.73762,0,0,0.5,-0,-0,0.66667
0.97645,0.26735,1.9529,-0.34897,0.072851,0.17831,1.8174,-0.60579,-1.5663,2.4231,-1.4661e-08,-0.78317,0,0,0.5,1.1842e-15,0,0.66667
0.35024,0.7531,0.70048,0.37965,1.6117,5.4138,-0.70917,0.23639,-1.488,-0.94556,-1.6148e-10,-0.74398,0,0,0.5,-0,-0,0.66667
0.80271,0.2252,1.6054,-0.41221,-0.61408,1.0681,1.7647,-0.58823,-1.3958,2.3529,-3.5736e-10,-0.6979,0,0,0.5,2.3685e-15,0,0.66667
0.67727,0.43628,1.3545,-0.095581,-0.22108,1.9113,0.34525,-0.11508,-1.9683,0.46034,-6.2238e-11,-0.98416,0,0,0.5,-1.4803e-15,0,0.66667
0.52046,0.0078146,1.0409,-0.73828,-2.8575,3.6716,2.0493,-0.68311,-0.061824,2.7324,4.885e-15,-0.030912,0,0,0.5,-2.3685e-15,0,0.66667
0.14443,0.17836,0.28887,-0.48246,-2.3544,8.0352,0.37164,-0.12388,-1.1721,0.49552,-3.2891e-11,-0.58605,0,0,0.5,-0,-0,0.66667
0.83883,0.18186,1.6777,-0.47721,-0.58859,0.88861,2.1349,-0.71165,-1.1904,2.8466,-7.6207e-10,-0.59518,0,0,0.5,1.1842e-15,0,0.66667
0.42617,0.24512,0.85235,-0.38231,-1.5036,4.5217,0.86898,-0.28966,-1.4805,1.1586,5.4661e-11,-0.74025,0,0,0.5,8.8818e-16,0,0.66667
0.78295,0.31725,1.5659,-0.27413,-0.42725,1.1334,1.1447,-0.38156,-1.7332,1.5262,6.7118e-11,-0.86658,0,0,0.5,-2.3685e-15,0,0.66667
0.59163,0.19987,1.1833,-0.45019,-1.3926,2.8003,1.4205,-0.47351,-1.279,1.894,-6.6134e-11,-0.63948,0,0,0.5,-0,-0,0.66667
0.25054,0.27554,0.50108,-0.33669,-1.5261,6.6433,0.44988,-0.14996,-1.5972,0.59985,2.0992e-10,-0.79862,0,0,0.5,-1.4803e-16,0,0.66667
0.17356,0.66649,0.34712,0.24973,1.1623,7.6296,-0.23117,0.077056,-1.778,-0.30822,4.5479e-10,-0.88899,0,0,0.5,-2.9606e-16,0,0.66667
0.73804,0.070876,1.4761,-0.64369,-1.4641,1.6821,2.5337,-0.84457,-0.5266,3.3783,-3.4321e-10,-0.2633,0,0,0.5,-0,-0,0.66667
0.11212,0.81803,0.22423,0.47704,2.3465,8.4586,-0.28525,0.095083,-1.191,-0.38033,4.6024e-09,-0.59552,0,0,0.5,-0,-0,0.66667
0.21762,0.74417,0.43525,0.36626,1.6982,7.0691,-0.4251,0.1417,-1.5233,-0.5668,-1.8313e-10,-0.76164,0,0,0.5,1.4803e-16,0,0.66667
0.86531,0.047775,1.7306,-0.67834,-0.83695,0.92039,3.1305,-1.0435,-0.36328,4.174,-8.0512e-09,-0.18164,0,0,0.5,-0,-0,0.66667
0.9046,0.7924,1.8092,0.4386,0.25666,0.51896,-2.116,0.70534,-1.3157,-2.8214,-5.6476e-09,-0.65785,0,0,0.5,-0,-0,0.66667
0.093513,0.8345,0.18703,0.50175,2.4909,8.7059,-0.25024,0.083414,-1.1048,-0.33366,1.1227e-08,-0.55239,0,0,0.5,-7.4015e-17,-2.9355e-16,0.66667
0.014555,0.89052,0.029111,0.58578,2.9902,9.7524,-0.045472,0.015158,-0.77953,-0.060629,3.3441e-07,-0.38977,0,0,0.5,1.8504e-17,0,0.66667
0.30404,0.056843,0.60808,-0.66474,-3.1344,6.0593,1.0779,-0.3593,-0.42892,1.4372,8.4068e-11,-0.21446,0,0,0.5,1.4803e-16,0,0.66667
0.12829,0.83822,0.25658,0.50733,2.5007,8.2494,-0.34711,0.1157,-1.085,-0.46282,6.5128e-10,-0.5425,0,0,0.5,-1.4803e-16,0,0.66667
0.25704,0.59827,0.51409,0.1474,0.65154,6.5397,-0.20207,0.067358,-1.9229,-0.26943,-1.2055e-10,-0.96147,0,0,0.5,5.9212e-16,0,0.66667
0.50233,0.45725,1.0047,-0.064124,-0.21856,3.6155,0.17179,-0.057265,-1.985,0.22906,-4.545e-13,-0.99249,0,0,0.5,-5.9212e-16,0,0.66667
0.56141,0.43258,1.1228,-0.10113,-0.31143,2.9996,0.3028,-0.10093,-1.964,0.40373,-1.9038e-11,-0.982,0,0,0.5,-8.8818e-16,0,0.66667
0.98057,0.62685,1.9611,0.19027,-0.064792,0.090619,-0.99506,0.33169,-1.872,-1.3267,-4.97e-07,-0.93601,0,0,0.5,-0,-0,0.66667
0.42958,0.18921,0.85915,-0.46619,-1.8607,4.51,1.0681,-0.35603,-1.2279,1.4241,4.2645e-11,-0.61397,0,0,0.5,1.1842e-15,0,0.66667
0.67931,0.31843,1.3586,-0.27236,-0.64436,1.9332,0.98675,-0.32892,-1.7362,1.3157,-1.4776e-10,-0.86812,0,0,0.5,-0,-0,0.66667
0.88941,0.93667,1.7788,0.655,0.63926,0.77816,-3.107,1.0357,-0.47564,-4.1427,1.6851e-08,-0.23782,0,0,0.5,-1.2583e-15,0,0.66667
0.15189,0.8952,0.30378,0.5928,2.9589,7.9538,-0.48022,0.16007,-0.75007,-0.64029,-5.7203e-09,-0.37503,0,0,0.5,-0,-0,0.66667
0.09317,0.76162,0.18634,0.39243,1.9085,8.7023,-0.195,0.064999,-1.4522,-0.26,1.9732e-09,-0.72608,0,0,0.5,1.4803e-16,0,0.66667
0.29675,0.39727,0.5935,-0.15409,-0.66336,6.0375,0.24388,-0.081292,-1.9155,0.32517,1.0252e-10,-0.95776,0,0,0.5,2.9606e-16,0,0.66667
0.12968,0.40991,0.25935,-0.13513,-0.63232,8.2037,0.093458,-0.031153,-1.9355,0.12461,2.0481e-10,-0.96773,0,0,0.5,2.9606e-16,0,0.66667
0.16102,0.81612,0.32205,0.47418,2.2974,7.8176,-0.40723,0.13574,-1.2009,-0.54297,-6.4245e-10,-0.60046,0,0,0.5,-0,-0,0.66667
0.34358,0.97471,0.68716,0.71206,3.3084,5.6052,-1.3048,0.43493,-0.19752,-1.7397,-5.3937e-12,-0.09876,0,0,0.5,-0,-0,0.66667
0.31134,0.46702,0.62267,-0.049475,-0.20955,5.8494,0.082152,-0.027384,-1.9922,0.10954,3.8019e-11,-0.9961,0,0,0.5,8.1416e-16,0,0.66667
0.76235,0.29486,1.5247,-0.30771,-0.53805,1.2922,1.2511,-0.41704,-1.6628,1.6682,-1.0678e-10,-0.8314,0,0,0.5,-0,-0,0.66667
0.94892,0.56358,1.8978,0.095363,-0.0040959,0.17977,-0.48262,0.16087,-1.9685,-0.6435,-2.1477e-07,-0.98427,0,0,0.5,-2.3685e-15,0,0.66667
0.58072,0.58003,1.1614,0.12005,0.35611,2.8085,-0.37181,0.12394,-1.9483,-0.49575,2.9895e-11,-0.97413,0,0,0.5,-1.1842e-15,0,0.66667
0.98347,0.50288,1.9669,0.0043156,-0.0017665,0.049742,-0.022639,0.0075567,-2.0007,-0.03018,1.5526e-05,-1.0003,0,0,0.5,-0,-0,0.66667
0.95183,0.40946,1.9037,-0.1358,0.0085199,0.17644,0.6894,-0.2298,-1.9351,0.91919,1.5343e-07,-0.96753,0,0,0.5,-0,-0,0.66667
0.25764,0.23644,0.51529,-0.39533,-1.802,6.5628,0.54323,-0.18108,-1.4437,0.72431,3.9636e-10,-0.72183,0,0,0.5,-2.9606e-16,0,0.66667
0.30135,0.78665,0.60271,0.42998,1.9166,6.023,-0.69108,0.23036,-1.3427,-0.92143,-3.2353e-10,-0.67137,0,0,0.5,-0,-0,0.66667
0.84189,0.8618,1.6838,0.5427,0.69208,0.92096,-2.4368,0.81226,-0.95235,-3.2491,3.2302e-09,-0.47617,0,0,0.5,-1.1842e-15,0,0.66667
0.58489,0.39145,1.1698,-0.16282,-0.48081,2.7736,0.50791,-0.1693,-1.9051,0.67721,-4.1324e-11,-0.95254,0,0,0.5,-0,-0,0.66667
0.17505,0.14134,0.3501,-0.53799,-2.629,7.6454,0.50227,-0.16742,-0.97034,0.66969,2.7371e-09,-0.48517,0,0,0.5,-0,-0,0.66667
0.052125,0.49578,0.10425,-0.0063334,-0.029988,9.2413,0.0017604,-0.00058678,-2.0001,0.0023471,2.7011e-09,-1.0001,0,0,0.5,-7.4015e-17,0,0.66667
0.54514,0.32836,1.0903,-0.25746,-0.83256,3.1932,0.74853,-0.24951,-1.7638,0.99803,-2.8803e-11,-0.88192,0,0,0.5,1.1842e-15,0,0.66667
0.14795,0.34725,0.2959,-0.22912,-1.074,7.9656,0.18079,-0.060263,-1.8137,0.24105,-5.3636e-10,-0.90685,0,0,0.5,5.9212e-16,0,0.66667
0.77243,0.82979,1.5449,0.49468,0.90112,1.3233,-2.0379,0.6793,-1.1293,-2.7172,1.069e-09,-0.56464,0,0,0.5,1.1842e-15,0,0.66667
0.60364,0.78353,1.2073,0.42529,1.2734,2.6744,-1.3692,0.4564,-1.3575,-1.8256,8.5453e-11,-0.67874,0,0,0.5,-0,-0,0.66667
0.2545,0.086973,0.50899,-0.61954,-2.9754,6.6542,0.84091,-0.2803,-0.6352,1.1212,5.6244e-10,-0.3176,0,0,0.5,-2.9606e-16,0,0.66667
0.0097104,0.56805,0.019421,0.10207,0.48589,9.8134,-0.0052862,0.0017611,-1.963,-0.0070487,-1.4468e-06,-0.98151,0,0,0.5,-0,-0,0.66667
0.29272,0.16565,0.58543,-0.50153,-2.2839,6.1474,0.78296,-0.26099,-1.1053,1.0439,4.0794e-10,-0.55267,0,0,0.5,-0,-0,0.66667
0.61384,0.18713,1.2277,-0.46931,-1.3933,2.6002,1.5364,-0.51214,-1.2179,2.0485,-9.2432e-11,-0.60895,0,0,0.5,2.2204e-16,0,0.66667
0.19308,0.60797,0.38617,0.16195,0.74148,7.3679,-0.16678,0.055593,-1.9061,-0.22237,-1.0294e-10,-0.95305,0,0,0.5,-0,-0,0.66667
0.29108,0.9694,0.58217,0.7041,3.3883,6.2308,-1.0931,0.36436,-0.23825,-1.4574,-2.4811e-11,-0.11912,0,0,0.5,-1.1842e-15,0,0.66667
0.98264,0.34097,1.9653,-0.23854,0.081295,0.10207,1.2501,-0.41671,-1.7984,1.6668,-1.8621e-07,-0.89918,0,0,0.5,2.9606e-16,0,0.66667
0.77969,0.5394,1.5594,0.059102,0.089321,1.1063,-0.24577,0.081922,-1.9875,-0.32769,1.8294e-10,-0.99375,0,0,0.5,-0,-0,0.66667
0.23048,0.27843,0.46095,-0.33235,-1.5226,6.8992,0.40853,-0.13618,-1.6078,0.5447,1.2075e-10,-0.80391,0,0,0.5,-7.4015e-17,0,0.66667
0.27348,0.64063,0.54696,0.21095,0.92761,6.336,-0.30768,0.10256,-1.8411,-0.41024,-1.1834e-10,-0.92055,0,0,0.5,-5.9212e-16,0,0.66667
0.68583,0.59511,1.3717,0.14266,0.32276,1.8451,-0.52182,0.17394,-1.9286,-0.69576,9.0009e-11,-0.96429,0,0,0.5,-0,-0,0.66667
0.97299,0.56159,1.946,0.092385,-0.026815,0.091618,-0.47941,0.1598,-1.9706,-0.63921,-2.5311e-06,-0.98528,0,0,0.5,7.4015e-17,0,0.66667
0.36782,0.57037,0.73564,0.10556,0.42645,5.1594,-0.20708,0.069026,-1.9601,-0.2761,-4.6762e-11,-0.98006,0,0,0.5,-0,-0,0.66667
0.02374,0.36914,0.047479,-0.19628,-0.9396,9.6248,0.024852,-0.0082844,-1.863,0.033136,-5.9385e-07,-0.9315,0,0,0.5,-3.7007e-17,0,0.66667
0.81142,0.74186,1.6228,0.36279,0.49885,0.98473,-1.57,0.52333,-1.532,-2.0933,-1.4811e-10,-0.76599,0,0,0.5,-5.9212e-16,0,0.66667
0.45963,0.17044,0.91925,-0.49434,-1.9164,4.1846,1.2118,-0.40393,-1.1305,1.6157,1.8434e-11,-0.56523,0,0,0.5,-0,-0,0.66667
0.58271,0.16764,1.1654,-0.49854,-1.5937,2.9101,1.5493,-0.51645,-1.1158,2.0658,-4.6636e-11,-0.5579,0,0,0.5,-0,-0,0.66667
0.55146,0.5329,1.1029,0.049349,0.15449,3.0972,-0.14514,0.04838,-1.9921,-0.19352,7.8464e-12,-0.99604,0,0,0.5,-0,-0,0.66667
0.63102,0.039716,1.262,-0.69043,-2.1546,2.5864,2.3236,-0.77453,-0.30481,3.0981,-8.886e-12,-0.1524,0,0,0.5,1.1842e-15,0,0.66667
0.72115,0.65868,1.4423,0.23803,0.48442,1.5787,-0.91547,0.30516,-1.7993,-1.2206,1.2869e-10,-0.89963,0,0,0.5,-0,-0,0.66667
0.37326,0.32717,0.74653,-0.25924,-1.0568,5.1126,0.51608,-0.17203,-1.7606,0.6881,9.5464e-11,-0.88029,0,0,0.5,-5.9212e-16,0,0.66667
0.86276,0.27615,1.7255,-0.33578,-0.30121,0.66704,1.5451,-0.51502,-1.5993,2.0601,1.3743e-09,-0.79966,0,0,0.5,-1.7764e-15,0,0.66667
0.044935,0.49823,0.08987,-0.0026499,-0.012556,9.3381,0.00063483,-0.00020931,-2.0008,0.00084759,3.4469e-06,-1.0004,0,0,0.5,8.3267e-17,0,0.66667
0.63268,0.76952,1.2654,0.40429,1.1258,2.3956,-1.3642,0.45473,-1.4183,-1.8189,1.3189e-10,-0.70914,0,0,0.5,-0,-0,0.66667
0.32943,0.69593,0.65886,0.29389,1.2522,5.6496,-0.51636,0.17212,-1.6928,-0.68847,-1.5315e-10,-0.8464,0,0,0.5,-0,-0,0.66667
0.5372,0.78836,1.0744,0.43254,1.4727,3.3328,-1.2393,0.41309,-1.3346,-1.6523,2.2023e-11,-0.66732,0,0,0.5,-0,-0,0.66667
0.25122,0.80612,0.50245,0.45918,2.127,6.6564,-0.61524,0.20508,-1.2505,-0.82033,-6.632e-10,-0.62523,0,0,0.5,4.4409e-16,0,0.66667
0.30016,0.31266,0.60031,-0.28101,-1.2228,6.0096,0.44985,-0.14995,-1.7203,0.5998,1.6237e-10,-0.86017,0,0,0.5,1.1842e-15,0,0.66667
0.68492,0.93824,1.3698,0.65737,1.7724,2.1036,-2.4013,0.80043,-0.46456,-3.2017,7.118e-11,-0.23228,0,0,0.5,-0,-0,0.66667
0.30867,0.061581,0.61733,-0.65763,-3.0845,6.0007,1.0826,-0.36087,-0.46323,1.4435,8.2969e-11,-0.23161,0,0,0.5,2.5905e-16,-6.2542e-16,0.66667
0.48557,0.87777,0.97114,0.56666,2.1677,3.9349,-1.4675,0.48916,-0.85902,-1.9566,-3.3838e-12,-0.42951,0,0,0.5,-0,-0,0.66667
0.72351,0.48597,1.447,-0.021049,-0.041226,1.5239,0.081222,-0.027074,-1.9978,0.1083,-2.3921e-11,-0.99891,0,0,0.5,-1.1842e-15,0,0.66667
0.93934,0.28048,1.8787,-0.32929,-0.051533,0.30085,1.6497,-0.54989,-1.6155,2.1996,-1.3642e-08,-0.80776,0,0,0.5,-1.4803e-16,0,0.66667
0.18872,0.52448,0.37744,0.036714,0.16747,7.4208,-0.036953,0.012318,-1.9953,-0.049271,-3.6731e-10,-0.99765,0,0,0.5,-0,-0,0.66667
0.52997,0.4294,1.0599,-0.1059,-0.3456,3.3244,0.29931,-0.099771,-1.9601,0.39909,-9.4625e-12,-0.98004,0,0,0.5,5.9212e-16,0,0.66667
0.74163,0.24219,1.4833,-0.38671,-0.76246,1.4813,1.5296,-0.50986,-1.468,2.0395,-3.6551e-10,-0.73402,0,0,0.5,-0,-0,0.66667
0.53447,0.5874,1.0689,0.1311,0.42534,3.2801,-0.37371,0.12457,-1.9389,-0.49828,1.3158e-11,-0.96946,0,0,0.5,5.9212e-16,0,0.66667
0.78526,0.015055,1.5705,-0.72742,-1.4621,1.4345,3.0465,-1.0155,-0.11803,4.0619,-1.3938e-10,-0.059014,0,0,0.5,-0,-0,0.66667
0.74517,0.86547,1.4903,0.5482,1.1513,1.5549,-2.1787,0.72623,-0.9311,-2.9049,7.8111e-10,-0.46555,0,0,0.5,1.1842e-15,0,0.66667
0.76862,0.49539,1.5372,-0.0069182,-0.011059,1.1826,0.02836,-0.0094532,-2.0001,0.037813,-3.5032e-11,-1.0001,0,0,0.5,2.0724e-15,0,0.66667
0.77155,0.9836,1.5431,0.72541,1.5385,1.5224,-2.985,0.995,-0.12836,-3.98,9.1026e-11,-0.064181,0,0,0.5,6.4316e-16,0,0.66667
0.88414,0.19785,1.7683,-0.45323,-0.35983,0.62735,2.1372,-0.71239,-1.2692,2.8495,2.0748e-09,-0.63458,0,0,0.5,-0,-0,0.66667
0.45436,0.36201,0.90873,-0.20699,-0.7645,4.1614,0.5016,-0.1672,-1.8473,0.6688,2.5408e-11,-0.92363,0,0,0.5,-0,-0,0.66667
0.45973,0.72499,0.91947,0.33749,1.2625,4.1301,-0.8275,0.27583,-1.595,-1.1033,-2.762e-11,-0.79748,0,0,0.5,-0,-0,0.66667
0.14676,0.58809,0.29353,0.13214,0.61488,7.9766,-0.10343,0.034477,-1.9379,-0.13791,-5.2478e-10,-0.96897,0,0,0.5,-0,-0,0.66667
0.23564,0.030415,0.47128,-0.70438,-3.4996,6.9137,0.88522,-0.29507,-0.237,1.1803,1.2104e-10,-0.1185,0,0,0.5,1.4803e-16,0,0.66667
0.26969,0.0085646,0.53938,-0.73715,-3.6309,6.5036,1.0603,-0.35343,-0.067675,1.4137,8.2884e-12,-0.033838,0,0,0.5,-1.1842e-15,0,0.66667
0.73747,0.54593,1.4749,0.068902,0.12777,1.4178,-0.271,0.090334,-1.9826,-0.36133,8.5345e-11,-0.99128,0,0,0.5,-0,-0,0.66667
0.15702,0.43756,0.31404,-0.093663,-0.43344,7.8397,0.078437,-0.026146,-1.9701,0.10458,5.9331e-10,-0.98505,0,0,0.5,-5.9212e-16,0,0.66667
0.72315,0.84583,1.4463,0.51875,1.162,1.6995,-2.0007,0.6669,-1.0439,-2.6676,5.4173e-10,-0.52194,0,0,0.5,2.3685e-15,0,0.66667
0.59594,0.15424,1.1919,-0.51863,-1.6258,2.7943,1.6484,-0.54947,-1.0444,2.1979,-5.4096e-11,-0.52221,0,0,0.5,1.3323e-15,0,0.66667
0.9303,0.58654,1.8606,0.12982,0.019703,0.26205,-0.6441,0.2147,-1.9399,-0.8588,-2.416e-08,-0.96995,0,0,0.5,-1.1842e-15,0,0.66667
0.72528,0.87418,1.4506,0.56127,1.2748,1.7128,-2.1711,0.72369,-0.88077,-2.8948,5.2502e-10,-0.44038,0,0,0.5,-1.4803e-16,0,0.66667
0.69888,0.4145,1.3978,-0.12825,-0.2773,1.7335,0.47805,-0.15935,-1.9413,0.6374,-8.9424e-11,-0.97064,0,0,0.5,-0,-0,0.66667
0.075963,0.58761,0.15193,0.13141,0.62251,8.9217,-0.053239,0.017746,-1.9387,-0.070985,6.4198e-08,-0.96936,0,0,0.5,-3.7007e-17,0,0.66667
0.50651,0.51371,1.013,0.020562,0.069541,3.5687,-0.055546,0.018515,-1.9979,-0.074061,3.6099e-13,-0.99893,0,0,0.5,-0,-0,0.66667
0.76296,0.79402,1.5259,0.44103,0.81463,1.3555,-1.7946,0.5982,-1.3079,-2.3928,6.572e-10,-0.65397,0,0,0.5,-0,-0,0.66667
0.29181,0.026241,0.58362,-0.71064,-3.425,6.2244,1.106,-0.36866,-0.20457,1.4746,2.3137e-11,-0.10229,0,0,0.5,2.9606e-16,0,0.66667
0.49858,0.83079,0.99715,0.49618,1.8257,3.7634,-1.3194,0.4398,-1.1242,-1.7592,-5.9308e-13,-0.56211,0,0,0.5,-0,-0,0.66667
0.30177,0.7986,0.60353,0.44789,2.0032,6.0221,-0.72085,0.24028,-1.2861,-0.96113,-3.3513e-10,-0.64306,0,0,0.5,2.3476e-16,0,0.66667
0.4502,0.77404,0.9004,0.41105,1.5802,4.2588,-0.98696,0.32899,-1.3992,-1.316,-3.2395e-11,-0.69959,0,0,0.5,-0,-0,0.66667
0.24377,0.95846,0.48753,0.68769,3.3858,6.8076,-0.89405,0.29802,-0.31807,-1.1921,-2.2752e-10,-0.15903,0,0,0.5,-2.9606e-16,0,0.66667
0.5657,0.12472,1.1314,-0.56292,-1.8981,3.1105,1.6984,-0.56612,-0.8744,2.2645,-2.0305e-11,-0.4372,0,0,0.5,1.8504e-17,0,0.66667
0.94963,0.34226,1.8993,-0.23662,0.00036866,0.21657,1.1984,-0.39946,-1.8018,1.5979,-6.0716e-09,-0.90088,0,0,0.5,-1.7764e-15,0,0.66667
0.2179,0.39203,0.4358,-0.16195,-0.73266,7.0447,0.18821,-0.062735,-1.9063,0.25094,1.191e-10,-0.95317,0,0,0.5,-0,-0,0.66667
0.4385,0.10384,0.877,-0.59423,-2.4308,4.4621,1.3897,-0.46324,-0.74427,1.853,1.2981e-11,-0.37214,0,0,0.5,-0,-0,0.66667
0.76894,0.080707,1.5379,-0.62894,-1.2621,1.4506,2.5793,-0.85976,-0.59302,3.4391,-8.9471e-10,-0.29651,0,0,0.5,-0,-0,0.66667
0.14093,0.63588,0.28186,0.20383,0.95537,8.057,-0.1532,0.051068,-1.8521,-0.20427,6.1709e-10,-0.92603,0,0,0.5,-0,-0,0.66667
0.9131,0.24378,1.8262,-0.38434,-0.17544,0.44431,1.8717,-0.62389,-1.4747,2.4956,3.1965e-09,-0.73737,0,0,0.5,1.7764e-15,0,0.66667
0.39416,0.29986,0.78832,-0.30021,-1.2053,4.8726,0.63109,-0.21036,-1.679,0.84145,8.3555e-11,-0.83952,0,0,0.5,-0,-0,0.66667
0.32525,0.83584,0.6505,0.50377,2.2413,5.7493,-0.87386,0.29129,-1.0975,-1.1651,-2.3492e-10,-0.54877,0,0,0.5,-0,-0,0.66667
0.57673,0.40088,1.1535,-0.14868,-0.44587,2.852,0.45731,-0.15244,-1.9217,0.60974,-3.4321e-11,-0.96084,0,0,0.5,-2.9606e-16,0,0.66667
0.24807,0.98425,0.49614,0.72637,3.6093,6.7661,-0.96102,0.32034,-0.12355,-1.2814,-4.9044e-11,-0.061777,0,0,0.5,-5.9212e-16,5.9208e-16,0.66667
0.81192,0.36376,1.6238,-0.20436,-0.26107,0.91668,0.88495,-0.29498,-1.8512,1.1799,1.351e-10,-0.92562,0,0,0.5,-1.1842e-15,0,0.66667
0.88291,0.59285,1.7658,0.13928,0.085331,0.48753,-0.65582,0.21861,-1.9319,-0.87443,3.1087e-09,-0.96594,0,0,0.5,4.4409e-16,0,0.66667
0.83441,0.64376,1.6688,0.21564,0.23396,0.77998,-0.95964,0.31988,-1.8341,-1.2795,-3.9333e-10,-0.91703,0,0,0.5,-0,-0,0.66667
0.35124,0.25397,0.70247,-0.36904,-1.5623,5.3993,0.69132,-0.23044,-1.516,0.92175,1.5661e-10,-0.75802,0,0,0.5,-0,-0,0.66667
0.14604,0.26902,0.29209,-0.34647,-1.6495,7.9995,0.26987,-0.089955,-1.5726,0.35982,-8.5245e-10,-0.78631,0,0,0.5,-0,-0,0.66667
0.60481,0.18451,1.2096,-0.47324,-1.4345,2.6866,1.5265,-0.50883,-1.2042,2.0353,-7.8053e-11,-0.60211,0,0,0.5,-0,-0,0.66667
0.9963,0.96892,1.9926,0.70338,-0.021742,0.44876,-3.7375,1.2458,-0.24202,-4.9833,-2.7675e-05,-0.12101,0,0,0.5,-2.3685e-15,0,0.66667
0.80367,0.81149,1.6073,0.46724,0.71565,1.0965,-2.0027,0.66756,-1.2246,-2.6702,1.0069e-09,-0.61231,0,0,0.5,-0,-0,0.66667
0.74154,0.58003,1.4831,0.12004,0.21994,1.3929,-0.47474,0.15825,-1.9481,-0.63299,1.1751e-10,-0.97406,0,0,0.5,-0,-0,0.66667
0.38666,0.13967,0.77332,-0.54049,-2.3001,5.0305,1.1146,-0.37153,-0.96071,1.4861,6.5097e-11,-0.48036,0,0,0.5,-0,-0,0.66667
0.40617,0.50856,0.81234,0.01284,0.049691,4.6994,-0.027815,0.0092717,-1.9994,-0.037087,-4.0623e-12,-0.9997,0,0,0.5,-0,-0,0.66667
0.29465,0.0027351,0.58929,-0.7459,-3.628,6.2034,1.1721,-0.39071,-0.022472,1.5628,-5.8792e-12,-0.011236,0,0,0.5,-0,-0,0.66667
0.29924,0.72252,0.59847,0.33377,1.4646,6.0296,-0.53268,0.17756,-1.6044,-0.71024,-2.158e-10,-0.80218,0,0,0.5,-0,-0,0.66667
0.65307,0.7729,1.3061,0.40934,1.0844,2.2156,-1.4258,0.47525,-1.404,-1.901,1.7451e-10,-0.70202,0,0,0.5,5.9212e-16,0,0.66667
0.042617,0.90375,0.085234,0.60563,3.1013,9.3833,-0.13766,0.045885,-0.69645,-0.18354,-2.0293e-07,-0.34823,0,0,0.5,1.8504e-17,0,0.66667
0.60103,0.23314,1.2021,-0.40028,-1.1967,2.6881,1.2831,-0.4277,-1.4296,1.7108,-8.3512e-11,-0.71482,0,0,0.5,1.1842e-15,0,0.66667
0.45501,0.80477,0.91002,0.45715,1.7658,4.2213,-1.1094,0.36979,-1.2569,-1.4792,-2.5074e-11,-0.62844,0,0,0.5,-2.9606e-16,0,0.66667
0.38402,0.73484,0.76805,0.35227,1.4415,5.0039,-0.72149,0.2405,-1.5581,-0.96198,-1.0222e-10,-0.77906,0,0,0.5,5.9212e-16,0,0.66667
0.72104,0.75542,1.4421,0.38312,0.81583,1.6373,-1.4733,0.49111,-1.4783,-1.9644,3.2202e-10,-0.73916,0,0,0.5,-0,-0,0.66667
0.090843,0.66278,0.18169,0.24417,1.1641,8.7255,-0.1183,0.039432,-1.7881,-0.15773,-1.0092e-08,-0.89403,0,0,0.5,-0,-0,0.66667
0.24894,0.2326,0.49788,-0.4011,-1.8396,6.6742,0.53253,-0.17751,-1.4276,0.71004,4.3134e-10,-0.71379,0,0,0.5,-0,-0,0.66667
0.16059,0.26301,0.32118,-0.35548,-1.6862,7.8092,0.30446,-0.10149,-1.5501,0.40595,-7.2276e-10,-0.77507,0,0,0.5,-2.9606e-16,0,0.66667
0.67252,0.43446,1.345,-0.098317,-0.23083,1.9527,0.35264,-0.11755,-1.9663,0.47019,-6.1314e-11,-0.98317,0,0,0.5,5.9212e-16,0,0.66667
0.19789,0.31044,0.39579,-0.28435,-1.3151,7.3146,0.30011,-0.10004,-1.7132,0.40014,-2.1374e-10,-0.85659,0,0,0.5,4.0708e-16,0,0.66667
0.47419,0.44472,0.94838,-0.082925,-0.29504,3.9249,0.20972,-0.069906,-1.9754,0.27962,6.4224e-12,-0.9877,0,0,0.5,-0,-0,0.66667
0.95248,0.16332,1.905,-0.50502,-0.088891,0.37428,2.5654,-0.85515,-1.0933,3.4206,-1.0613e-08,-0.54664,0,0,0.5,2.3685e-15,0,0.66667
0.79059,0.82106,1.5812,0.4816,0.798,1.1914,-2.0306,0.67688,-1.175,-2.7075,1.1578e-09,-0.58751,0,0,0.5,-0,-0,0.66667
0.6679,0.30867,1.3358,-0.287,-0.70495,2.0361,1.0223,-0.34078,-1.7075,1.3631,-1.4646e-10,-0.85375,0,0,0.5,1.4803e-15,0,0.66667
0.85654,0.90607,1.7131,0.60911,0.74428,0.89799,-2.7825,0.92751,-0.68198,-3.71,8.7566e-09,-0.34099,0,0,0.5,-7.6669e-17,-5.8533e-16,0.66667
0.28897,0.98897,0.57795,0.73346,3.5665,6.2673,-1.1304,0.3768,-0.08671,-1.5072,-9.312e-12,-0.043355,0,0,0.5,-2.9606e-16,0,0.66667
0.77802,0.63128,1.556,0.19692,0.30756,1.1425,-0.8171,0.27237,-1.8622,-1.0895,4.6746e-11,-0.93109,0,0,0.5,-0,-0,0.66667
0.019068,0.51385,0.038137,0.02077,0.098626,9.6871,-0.002105,0.00070132,-1.9979,-0.0028068,-4.9553e-07,-0.99896,0,0,0.5,-7.4015e-17,0,0.66667
0.87353,0.51688,1.7471,0.025323,0.017247,0.52223,-0.11798,0.039326,-1.9973,-0.1573,1.9633e-09,-0.99863,0,0,0.5,-0,-0,0.66667
0.24772,0.057296,0.49544,-0.66406,-3.2406,6.7514,0.87733,-0.29244,-0.43235,1.1698,3.5916e-10,-0.21617,0,0,0.5,1.4803e-16,0,0.66667
0.12308,0.25167,0.24616,-0.37249,-1.7928,8.3047,0.24451,-0.081503,-1.5075,0.32601,-1.6452e-09,-0.75377,0,0,0.5,-0,-0,0.66667
0.12635,0.28386,0.2527,-0.3242,-1.5477,8.2577,0.21847,-0.072824,-1.627,0.2913,-6.9253e-10,-0.8135,0,0,0.5,-2.9606e-16,0,0.66667
0.58781,0.20525,1.1756,-0.44212,-1.375,2.8333,1.386,-0.46201,-1.3044,1.848,-6.312e-11,-0.65218,0,0,0.5,-0,-0,0.66667
0.89189,0.26146,1.7838,-0.35781,-0.2291,0.52798,1.702,-0.56734,-1.5445,2.2693,1.4604e-09,-0.77223,0,0,0.5,-0,-0,0.66667
0.092472,0.81384,0.18494,0.47077,2.3229,8.7171,-0.23217,0.077392,-1.213,-0.30957,-9.8885e-10,-0.6065,0,0,0.5,-2.9606e-16,0,0.66667
0.48349,0.19925,0.96697,-0.45113,-1.6756,3.9067,1.1633,-0.38776,-1.2761,1.551,8.7511e-12,-0.63804,0,0,0.5,-0,-0,0.66667
0.88532,0.85798,1.7706,0.53698,0.46654,0.68677,-2.5354,0.84515,-0.97414,-3.3806,5.4571e-10,-0.48707,0,0,0.5,1.1842e-15,0,0.66667
0.95716,0.88716,1.9143,0.58073,0.12404,0.42762,-2.9646,0.98818,-0.80037,-3.9527,-7.7046e-08,-0.40018,0,0,0.5,-0,-0,0.66667
0.99077,0.98505,1.9815,0.72757,0.046269,0.49324,-3.8446,1.2815,-0.11719,-5.1261,2.4584e-06,-0.058596,0,0,0.5,1.1842e-15,0,0.66667
0.36192,0.079453,0.72384,-0.63082,-2.816,5.3551,1.2176,-0.40588,-0.5846,1.6235,4.2022e-11,-0.2923,0,0,0.5,-0,-0,0.66667
0.58532,0.88982,1.1706,0.58474,1.9164,2.9335,-1.8254,0.60846,-0.78362,-2.4338,2.5019e-11,-0.39181,0,0,0.5,1.1842e-15,0,0.66667
0.38493,0.55988,0.76985,0.089824,0.35644,4.9535,-0.1844,0.061468,-1.9718,-0.24587,-3.4362e-11,-0.98592,0,0,0.5,1.4803e-16,0,0.66667
0.13587,0.62579,0.27174,0.18868,0.88464,8.1234,-0.13673,0.045575,-1.8743,-0.1823,-8.4688e-10,-0.93716,0,0,0.5,-5.9212e-16,0,0.66667
0.76152,0.28575,1.523,-0.32138,-0.56698,1.304,1.3053,-0.43509,-1.633,1.7404,-1.3262e-10,-0.81651,0,0,0.5,-0,-0,0.66667
0.22086,0.91893,0.44172,0.6284,3.0787,7.0787,-0.7402,0.24673,-0.59553,-0.98693,-1.1621e-09,-0.29777,0,0,0.5,-0,-0,0.66667
0.6968,0.81949,1.3936,0.47924,1.1495,1.8828,-1.781,0.59366,-1.1833,-2.3746,3.4348e-10,-0.59163,0,0,0.5,-0,-0,0.66667
0.80946,0.14408,1.6189,-0.53388,-0.82806,1.1076,2.3048,-0.76827,-0.9861,3.0731,-2.1839e-09,-0.49305,0,0,0.5,1.1842e-15,0,0.66667
0.27256,0.92771,0.54512,0.64157,3.0671,6.4366,-0.93262,0.31087,-0.53606,-1.2435,-2.7412e-10,-0.26803,0,0,0.5,-2.9606e-16,0,0.66667
0.5085,0.79705,1.017,0.44557,1.5937,3.6369,-1.2084,0.4028,-1.2934,-1.6112,4.57e-12,-0.64671,0,0,0.5,-1.1842e-15,0,0.66667
0.42229,0.85988,0.84459,0.53982,2.2139,4.6206,-1.2158,0.40527,-0.9635,-1.6211,-3.2537e-11,-0.48175,0,0,0.5,-0,-0,0.66667
0.054664,0.58636,0.10933,0.12953,0.61548,9.2079,-0.037764,0.012588,-1.9401,-0.050353,-1.2057e-08,-0.97007,0,0,0.5,-0,-0,0.66667
0.74161,0.59326,1.4832,0.13989,0.257,1.3959,-0.55331,0.18444,-1.9313,-0.73775,1.2167e-10,-0.96567,0,0,0.5,5.0854e-16,0,0.66667
0.80872,0.17886,1.6174,-0.48171,-0.72378,1.0742,2.0777,-0.69257,-1.1747,2.7703,-1.2686e-09,-0.58734,0,0,0.5,5.9212e-16,0,0.66667
0.53813,0.90951,1.0763,0.61427,2.2094,3.4142,-1.763,0.58766,-0.65879,-2.3506,5.0545e-12,-0.3294,0,0,0.5,-0,-0,0.66667
0.75933,0.96086,1.5187,0.69129,1.5004,1.5727,-2.7996,0.93319,-0.30061,-3.7328,2.1621e-10,-0.1503,0,0,0.5,-5.9212e-16,0,0.66667
0.041085,0.10174,0.082171,-0.59739,-3.0533,9.4031,0.1309,-0.043634,-0.73086,0.17454,9.9106e-08,-0.36543,0,0,0.5,-0,-0,0.66667
0.18226,0.92309,0.36452,0.63464,3.1672,7.5707,-0.6169,0.20563,-0.56731,-0.82254,-2.966e-09,-0.28366,0,0,0.5,-2.9606e-16,0,0.66667
0.5671,0.98912,1.1342,0.73368,2.6361,3.2084,-2.219,0.73968,-0.085628,-2.9587,2.327e-13,-0.042814,0,0,0.5,-1.1842e-15,0,0.66667
0.62121,0.67436,1.2424,0.26155,0.72261,2.4483,-0.86652,0.28884,-1.7562,-1.1554,9.0885e-11,-0.87812,0,0,0.5,-1.1842e-15,0,0.66667
0.78202,0.95959,1.564,0.68938,1.3658,1.418,-2.8752,0.95841,-0.31012,-3.8337,4.3556e-10,-0.15506,0,0,0.5,5.9212e-16,0,0.66667
0.60149,0.78602,1.203,0.42903,1.292,2.6965,-1.3763,0.45877,-1.3457,-1.8351,8.1826e-11,-0.67284,0,0,0.5,-0,-0,0.66667
0.56027,0.64982,1.1205,0.22473,0.703,3.0313,-0.6715,0.22383,-1.8205,-0.89534,3.6354e-11,-0.91026,0,0,0.5,-5.5643e-16,0,0.66667
0.66962,0.97796,1.3392,0.71694,2.0731,2.2781,-2.5604,0.85347,-0.17221,-3.4139,7.1974e-12,-0.086103,0,0,0.5,-1.1842e-15,4.9232e-16,0.66667
0.18539,0.29702,0.37078,-0.30447,-1.4197,7.4796,0.30105,-0.10035,-1.6699,0.4014,-3.5237e-10,-0.83494,0,0,0.5,-0,-0,0.66667
0.14813,0.40063,0.29626,-0.14906,-0.694,7.9591,0.11776,-0.039253,-1.921,0.15701,6.035e-10,-0.96051,0,0,0.5,8.7712e-17,0,0.66667
0.2334,0.74877,0.4668,0.37315,1.718,6.8677,-0.4645,0.15483,-1.5059,-0.61933,-2.8613e-10,-0.75297,0,0,0.5,-1.1102e-16,0,0.66667
0.88661,0.57757,1.7732,0.11635,0.066515,0.46392,-0.55019,0.1834,-1.9513,-0.73359,-1.4078e-09,-0.97563,0,0,0.5,-0,-0,0.66667
0.62684,0.65672,1.2537,0.23508,0.63747,2.3886,-0.78592,0.26197,-1.8046,-1.0479,8.8713e-11,-0.90231,0,0,0.5,2.3685e-15,0,0.66667
0.65717,0.14509,1.3143,-0.53236,-1.459,2.2473,1.8659,-0.62196,-0.99204,2.4879,-1.559e-10,-0.49602,0,0,0.5,-0,-0,0.66667
0.3064,0.70785,0.6128,0.31177,1.3563,5.9368,-0.50948,0.16983,-1.6539,-0.67931,-1.8824e-10,-0.82694,0,0,0.5,-0,-0,0.66667
0.25905,0.83032,0.5181,0.49548,2.3023,6.5656,-0.68455,0.22818,-1.1265,-0.91273,-6.9019e-10,-0.56324,0,0,0.5,-0,-0,0.66667
0.59709,0.85008,1.1942,0.52512,1.646,2.787,-1.6722,0.55741,-1.0196,-2.2296,5.301e-11,-0.50979,0,0,0.5,-1.1842e-15,0,0.66667
0.21493,0.16032,0.42985,-0.50952,-2.4319,7.1278,0.58404,-0.19468,-1.0773,0.77873,1.3876e-09,-0.53865,0,0,0.5,-0,-0,0.66667
0.93549,0.81204,1.871,0.46806,0.14499,0.40839,-2.3353,0.77843,-1.2221,-3.1137,3.5552e-09,-0.61107,0,0,0.5,4.0708e-16,0,0.66667
0.80368,0.67108,1.6074,0.25662,0.35247,0.98752,-1.0999,0.36665,-1.7652,-1.4666,-2.219e-10,-0.88259,0,0,0.5,-0,-0,0.66667
0.077647,0.31879,0.15529,-0.27182,-1.3032,8.903,0.11257,-0.037522,-1.7375,0.15009,1.0604e-08,-0.86876,0,0,0.5,-0,-0,0.66667
0.17487,0.50876,0.34974,0.013146,0.060297,7.6027,-0.012261,0.0040869,-1.9992,-0.016347,-2.6169e-10,-0.99958,0,0,0.5,-0,-0,0.66667
0.48717,0.46685,0.97434,-0.049732,-0.1734,3.7798,0.12922,-0.043072,-1.992,0.17229,1.9264e-12,-0.99599,0,0,0.5,-1.4803e-16,0,0.66667
0.26934,0.37478,0.53867,-0.18783,-0.8264,6.3863,0.26981,-0.089937,-1.8756,0.35975,1.1271e-10,-0.93782,0,0,0.5,6.3375e-16,0,0.66667
0.2902,0.61015,0.5804,0.16523,0.71531,6.1207,-0.25573,0.085244,-1.9023,-0.34098,-1.0831e-10,-0.95113,0,0,0.5,5.9212e-16,0,0.66667
0.96137,0.73957,1.9227,0.35936,-0.016277,0.23552,-1.8425,0.61418,-1.5404,-2.4567,-6.0176e-09,-0.77018,0,0,0.5,1.1842e-15,0,0.66667
0.34206,0.85788,0.68411,0.53682,2.3753,5.5566,-0.97932,0.32644,-0.97493,-1.3058,-1.5449e-10,-0.48746,0,0,0.5,-0,1.2102e-16,0.66667
0.8359,0.38975,1.6718,-0.16538,-0.17395,0.75682,0.73727,-0.24576,-1.9021,0.98302,4.7459e-11,-0.95104,0,0,0.5,-1.1842e-15,0,0.66667
0.34459,0.88581,0.68919,0.57872,2.5834,5.5405,-1.0636,0.35453,-0.80895,-1.4181,-1.1212e-10,-0.40447,0,0,0.5,-0,-0,0.66667
0.72145,0.95561,1.4429,0.68341,1.6801,1.8395,-2.6296,0.87652,-0.33889,-3.5061,1.0461e-10,-0.16945,0,0,0.5,-0,-0,0.66667
0.18399,0.30215,0.36798,-0.29678,-1.3832,7.4971,0.29123,-0.097076,-1.6864,0.38831,-3.9615e-10,-0.84322,0,0,0.5,1.4803e-16,0,0.66667
0.68595,0.46095,1.3719,-0.058575,-0.13144,1.8338,0.21429,-0.071431,-1.9878,0.28572,-4.2668e-11,-0.99388,0,0,0.5,-5.9212e-16,0,0.66667
0.57425,0.40398,1.1485,-0.14402,-0.43391,2.8759,0.4411,-0.14703,-1.9269,0.58813,-3.2272e-11,-0.96345,0,0,0.5,1.7001e-16,0,0.66667
0.72788,0.25412,1.4558,-0.36881,-0.76176,1.5772,1.4317,-0.47725,-1.5166,1.909,-3.0204e-10,-0.75831,0,0,0.5,-2.3685e-15,0,0.66667
0.43689,0.28551,0.87379,-0.32173,-1.2352,4.3831,0.74966,-0.24989,-1.6325,0.99955,4.5442e-11,-0.81623,0,0,0.5,-0,-0,0.66667
0.94886,0.7014,1.8977,0.3021,0.01294,0.24928,-1.5288,0.5096,-1.6749,-2.0384,-1.2957e-08,-0.83746,0,0,0.5,-0,-0,0.66667
0.98993,0.48451,1.9799,-0.02324,0.011061,0.030071,0.12271,-0.040902,-1.9974,0.16361,-6.7435e-07,-0.99872,0,0,0.5,-2.3566e-15,0,0.66667
0.37841,0.39853,0.75681,-0.1522,-0.61036,5.0364,0.30716,-0.10239,-1.9175,0.40955,5.8813e-11,-0.95875,0,0,0.5,-5.9212e-16,0,0.66667
0.75586,0.011683,1.5117,-0.73248,-1.6549,1.6362,2.9528,-0.98427,-0.091821,3.9371,-3.8693e-11,-0.04591,0,0,0.5,2.3685e-15,0,0.66667
0.93393,0.78293,1.8679,0.42439,0.12092,0.38227,-2.1138,0.70462,-1.3604,-2.8185,-3.7838e-09,-0.6802,0,0,0.5,2.3685e-15,0,0.66667
0.81266,0.43779,1.6253,-0.09331,-0.1154,0.88804,0.40442,-0.13481,-1.9703,0.53923,-4.2121e-10,-0.98516,0,0,0.5,-0,-0,0.66667
0.44965,0.018959,0.8993,-0.72156,-3.0389,4.4055,1.7304,-0.5768,-0.1483,2.3072,2.1105e-13,-0.074149,0,0,0.5,-0,5.6516e-16,0.66667
0.0019673,0.20045,0.0039346,-0.44933,-2.2284,9.9182,0.0047145,-0.0015715,-1.2817,0.0062859,-3.5002e-08,-0.64086,0,0,0.5,-0,-0,0.66667
0.94677,0.115,1.8935,-0.5775,-0.18204,0.46118,2.916,-0.97202,-0.81375,3.8881,8.0068e-08,-0.40688,0,0,0.5,-0,-0,0.66667
0.34939,0.57471,0.69878,0.11206,0.4608,5.3832,-0.20882,0.069608,-1.9548,-0.27843,-5.7605e-11,-0.97739,0,0,0.5,5.9212e-16,0,0.66667
0.037035,0.09806,0.07407,-0.60291,-3.0867,9.4566,0.11909,-0.039696,-0.70779,0.15878,-7.76e-08,-0.3539,0,0,0.5,1.4803e-16,0,0.66667
0.24443,0.3046,0.48887,-0.2931,-1.3249,6.7152,0.3821,-0.12737,-1.6943,0.50946,1.0754e-10,-0.84716,0,0,0.5,1.4803e-16,0,0.66667
0.96294,0.67631,1.9259,0.26446,-0.032481,0.17933,-1.3582,0.45273,-1.7508,-1.8109,-1.8593e-08,-0.8754,0,0,0.5,-1.1842e-15,0,0.66667
0.46377,0.11732,0.92754,-0.57402,-2.2643,4.174,1.4198,-0.47327,-0.82827,1.8931,8.3905e-12,-0.41414,0,0,0.5,-2.9606e-16,0,0.66667
0.12421,0.10987,0.24842,-0.5852,-2.9394,8.3122,0.38767,-0.12922,-0.78194,0.5169,7.3571e-09,-0.39097,0,0,0.5,-1.4803e-16,5.9154e-16,0.66667
0.66748,0.057237,1.335,-0.66414,-1.8804,2.2525,2.3643,-0.7881,-0.43183,3.1524,-4.2532e-11,-0.21591,0,0,0.5,5.9212e-16,0,0.66667
0.013877,0.98545,0.027754,0.72818,3.8585,9.7637,-0.053899,0.017972,-0.11421,-0.071863,8.6191e-06,-0.057104,0,0,0.5,-1.8504e-17,-5.893e-16,0.66667
0.79892,0.42357,1.5978,-0.11465,-0.15587,0.98145,0.48852,-0.16284,-1.9528,0.65135,-2.9214e-10,-0.97639,0,0,0.5,-0,-0,0.66667
0.53493,0.28333,1.0699,-0.32501,-1.0834,3.3173,0.92725,-0.30908,-1.6251,1.2363,-2.383e-11,-0.81256,0,0,0.5,1.1842e-15,0,0.66667
0.85021,0.49177,1.7004,-0.012342,-0.01104,0.6519,0.055964,-0.018655,-1.9992,0.074619,1.1124e-09,-0.99959,0,0,0.5,1.7764e-15,0,0.66667
0.2292,0.39748,0.4584,-0.15379,-0.69117,6.8979,0.18799,-0.062663,-1.9156,0.25065,1.2899e-10,-0.9578,0,0,0.5,2.9606e-16,0,0.66667
0.090134,0.75312,0.18027,0.37968,1.8438,8.7418,-0.18252,0.060838,-1.488,-0.24335,2.2487e-09,-0.74398,0,0,0.5,-0,-0,0.66667
0.6928,0.87025,1.3856,0.55538,1.394,1.9639,-2.0521,0.68402,-0.9035,-2.7361,2.7721e-10,-0.45175,0,0,0.5,-2.9606e-16,0,0.66667
0.81499,0.88573,1.63,0.57859,0.89953,1.1093,-2.5149,0.8383,-0.80936,-3.3532,3.0587e-09,-0.40468,0,0,0.5,-0,-0,0.66667
0.63154,0.75341,1.2631,0.38012,1.0539,2.3953,-1.2803,0.42678,-1.4866,-1.7071,1.2878e-10,-0.74331,0,0,0.5,-0,-0,0.66667
0.77283,0.25272,1.5457,-0.37091,-0.63326,1.247,1.5288,-0.5096,-1.5113,2.0384,-2.5611e-10,-0.75566,0,0,0.5,-0,-0,0.66667
0.63111,0.69567,1.2622,0.2935,0.79688,2.3666,-0.9879,0.3293,-1.6934,-1.3172,1.0953e-10,-0.84672,0,0,0.5,-0,-0,0.66667
0.89066,0.21171,1.7813,-0.43243,-0.30837,0.58071,2.0541,-0.68471,-1.3353,2.7388,2.0352e-09,-0.66764,0,0,0.5,-5.9212e-16,0,0.66667
0.99276,0.68328,1.9855,0.27491,-0.11766,0.087765,-1.4556,0.4852,-1.7315,-1.9408,-3.2692e-09,-0.86576,0,0,0.5,-1.7764e-15,0,0.66667
0.17377,0.15252,0.34754,-0.52122,-2.5387,7.6592,0.48305,-0.16102,-1.0346,0.64407,2.2939e-09,-0.51728,0,0,0.5,-4.4409e-16,0,0.66667
0.54939,0.89922,1.0988,0.59883,2.1032,3.2924,-1.7546,0.58487,-0.72498,-2.3395,8.9363e-12,-0.36249,0,0,0.5,-5.9212e-16,0,0.66667
0.11999,0.51846,0.23999,0.027697,0.12946,8.3307,-0.017725,0.0059085,-1.9967,-0.023634,-2.7121e-10,-0.99835,0,0,0.5,-2.9606e-16,0,0.66667
0.76715,0.62586,1.5343,0.18879,0.31117,1.2175,-0.77243,0.25748,-1.8743,-1.0299,8.4119e-11,-0.93717,0,0,0.5,2.3685e-15,0,0.66667
0.22811,0.13594,0.45622,-0.54608,-2.6112,6.9677,0.66435,-0.22145,-0.9392,0.8858,1.28e-09,-0.4696,0,0,0.5,-0,-0,0.66667
0.11092,0.93622,0.22184,0.65434,3.3557,8.4941,-0.38709,0.12903,-0.47864,-0.51612,-1.7577e-08,-0.23932,0,0,0.5,-7.4015e-17,0,0.66667
0.96882,0.67706,1.9376,0.2656,-0.048544,0.15935,-1.3724,0.45745,-1.749,-1.8298,-2.8161e-08,-0.87451,0,0,0.5,-0,-0,0.66667
0.44753,0.59294,0.89506,0.13941,0.51608,4.2292,-0.33274,0.11091,-1.9318,-0.44365,-2.1736e-11,-0.96589,0,0,0.5,1.4415e-16,0,0.66667
0.82994,0.93803,1.6599,0.65705,1.0014,1.0913,-2.9083,0.96944,-0.46613,-3.8778,3.5166e-09,-0.23307,0,0,0.5,-0,-0,0.66667
0.025977,0.7558,0.051955,0.38369,1.8797,9.5972,-0.053159,0.01772,-1.4766,-0.070879,-4.8533e-10,-0.73829,0,0,0.5,-0,-0,0.66667
0.090511,0.88705,0.18102,0.58058,2.9353,8.7523,-0.28026,0.09342,-0.80105,-0.37368,1.4114e-09,-0.40053,0,0,0.5,-1.4803e-16,0,0.66667
0.81523,0.42493,1.6305,-0.1126,-0.13722,0.87446,0.48957,-0.16319,-1.9544,0.65276,-3.8753e-10,-0.97722,0,0,0.5,-0,-0,0.66667
0.90936,0.78987,1.8187,0.4348,0.23292,0.4946,-2.1088,0.70292,-1.3276,-2.8117,-5.1074e-09,-0.6638,0,0,0.5,-0,-0,0.66667
0.068241,0.54807,0.13648,0.072099,0.34107,9.0246,-0.02624,0.0087467,-1.9809,-0.034987,2.1604e-08,-0.99044,0,0,0.5,1.4803e-16,0,0.66667
0.65027,0.57187,1.3005,0.1078,0.27024,2.1501,-0.37387,0.12462,-1.9583,-0.4985,5.547e-11,-0.97915,0,0,0.5,-0,-0,0.66667
0.55332,0.81868,1.1066,0.47802,1.6033,3.1894,-1.4106,0.47021,-1.1875,-1.8808,2.8104e-11,-0.59376,0,0,0.5,-0,-0,0.66667
0.20654,0.83462,0.41308,0.50193,2.4011,7.2337,-0.5529,0.1843,-1.104,-0.7372,-1.4389e-09,-0.55198,0,0,0.5,1.4803e-16,0,0.66667
0.4248,0.36788,0.84959,-0.19818,-0.75871,4.4971,0.449,-0.14967,-1.8603,0.59867,4.2374e-11,-0.93015,0,0,0.5,-2.9606e-16,0,0.66667
0.4726,0.24122,0.94521,-0.38816,-1.442,4.0029,0.97839,-0.32613,-1.464,1.3045,1.7545e-11,-0.73201,0,0,0.5,-0,-0,0.66667
0.011484,0.19768,0.022968,-0.45348,-2.2504,9.7915,0.027775,-0.0092582,-1.2684,0.037033,6.0914e-08,-0.63422,0,0,0.5,-0,-0,0.66667
0.54494,0.030193,1.0899,-0.70471,-2.5942,3.4036,2.0482,-0.68272,-0.23524,2.7309,-2.5713e-13,-0.11762,0,0,0.5,-4.4409e-16,-7.7434e-17,0.66667
0.7824,0.56254,1.5648,0.093817,0.14019,1.0911,-0.39148,0.13049,-1.97,-0.52197,2.3182e-10,-0.98498,0,0,0.5,-0,-0,0.66667
0.91446,0.69653,1.8289,0.2948,0.11207,0.38881,-1.4378,0.47926,-1.6906,-1.9171,-5.8218e-09,-0.84531,0,0,0.5,-0,-0,0.66667
0.046043,0.5624,0.092086,0.093599,0.44439,9.3236,-0.022985,0.0076614,-1.9701,-0.030646,-3.2506e-07,-0.98506,0,0,0.5,-1.0987e-16,0,0.66667
0.79178,0.84718,1.5836,0.52077,0.87891,1.2112,-2.1991,0.73303,-1.0361,-2.9321,1.6208e-09,-0.51807,0,0,0.5,-0,-0,0.66667
0.43939,0.49438,0.87878,-0.0084251,-0.03134,4.3143,0.019743,-0.0065811,-2,0.026325,1.5828e-12,-0.99998,0,0,0.5,-5.9212e-16,0,0.66667
0.70462,0.8257,1.4092,0.48855,1.1479,1.8254,-1.836,0.61199,-1.1509,-2.4479,3.8853e-10,-0.57546,0,0,0.5,1.1842e-15,0,0.66667
0.60938,0.72096,1.2188,0.33144,0.95566,2.5819,-1.0772,0.35906,-1.6103,-1.4362,9.2214e-11,-0.80517,0,0,0.5,2.3685e-15,0,0.66667
0.91416,0.091372,1.8283,-0.61294,-0.4184,0.62485,2.9884,-0.99614,-0.66474,3.9845,1.9349e-08,-0.33237,0,0,0.5,-2.9606e-16,0,0.66667
0.67954,0.21584,1.3591,-0.42624,-1.0552,1.9961,1.5448,-0.51493,-1.3545,2.0597,-2.5291e-10,-0.67724,0,0,0.5,-1.1842e-15,0,0.66667
0.20458,0.61786,0.40916,0.17679,0.80604,7.2188,-0.1929,0.064299,-1.8889,-0.2572,-6.8846e-11,-0.94445,0,0,0.5,1.4803e-16,0,0.66667
0.98969,0.11041,1.9794,-0.58438,0.070019,0.33076,3.0846,-1.0282,-0.78512,4.1128,9.153e-08,-0.39256,0,0,0.5,-0,-0,0.66667
0.80836,0.96883,1.6167,0.70325,1.2503,1.2651,-3.0319,1.0106,-0.24266,-4.0425,5.072e-10,-0.12133,0,0,0.5,-0,-0,0.66667
0.05115,0.84838,0.1023,0.52257,2.6229,9.2668,-0.14256,0.047519,-1.0293,-0.19008,4.0658e-09,-0.51464,0,0,0.5,-0,-0,0.66667
0.99025,0.55421,1.9805,0.081317,-0.038453,0.034465,-0.42946,0.14315,-1.9762,-0.57261,1.7164e-06,-0.9881,0,0,0.5,-0,-0,0.66667
0.084374,0.42204,0.16875,-0.11695,-0.55272,8.8086,0.052626,-0.017542,-1.9507,0.070167,-2.216e-08,-0.97535,0,0,0.5,1.4803e-16,0,0.66667
0.41597,0.6851,0.83195,0.27765,1.0848,4.6132,-0.61598,0.20533,-1.7265,-0.82131,-6.0402e-11,-0.86323,0,0,0.5,-0,-0,0.66667
0.88805,0.48665,1.7761,-0.020019,-0.010896,0.4462,0.094815,-0.031605,-1.9981,0.12642,-5.638e-09,-0.99904,0,0,0.5,-0,-0,0.66667
0.76211,0.85011,1.5242,0.52516,1.0179,1.4166,-2.1346,0.71153,-1.0194,-2.8461,1.0484e-09,-0.5097,0,0,0.5,-0,-0,0.66667
0.67305,0.223,1.3461,-0.4155,-1.0442,2.0456,1.4915,-0.49716,-1.3866,1.9886,-2.2862e-10,-0.69332,0,0,0.5,-0,-0,0.66667
0.53369,0.95804,1.0674,0.68706,2.5562,3.504,-1.9556,0.65187,-0.32124,-2.6075,8.2867e-13,-0.16062,0,0,0.5,5.9212e-16,0,0.66667
0.34698,0.67441,0.69395,0.26161,1.0933,5.4299,-0.48413,0.16138,-1.7561,-0.64551,-1.2085e-10,-0.87806,0,0,0.5,5.9212e-16,0,0.66667
0.89994,0.24899,1.7999,-0.37652,-0.21746,0.50012,1.8072,-0.60239,-1.4968,2.4096,1.6778e-09,-0.74839,0,0,0.5,-5.181e-16,0,0.66667
0.81896,0.76853,1.6379,0.40279,0.54024,0.95958,-1.7593,0.58643,-1.4225,-2.3457,1.9325e-11,-0.71127,0,0,0.5,1.1842e-15,0,0.66667
0.94589,0.56327,1.8918,0.094906,-0.0011834,0.19154,-0.47878,0.15959,-1.9688,-0.63837,-3.8664e-07,-0.98442,0,0,0.5,-0,-0,0.66667
0.39956,0.6123,0.79912,0.16845,0.66169,4.7873,-0.35897,0.11966,-1.8985,-0.47863,-5.15e-11,-0.94925,0,0,0.5,-5.9212e-16,0,0.66667
0.23362,0.88896,0.46724,0.58343,2.8074,6.9066,-0.72695,0.24232,-0.78931,-0.96927,-1.113e-09,-0.39465,0,0,0.5,-0,-0,0.66667
0.72322,0.45298,1.4464,-0.070529,-0.13863,1.5292,0.27204,-0.090681,-1.9817,0.36272,-7.2256e-11,-0.99085,0,0,0.5,-1.1842e-15,0,0.66667
0.6891,0.71709,1.3782,0.32564,0.75788,1.87,-1.1968,0.39892,-1.6239,-1.5957,1.9509e-10,-0.81193,0,0,0.5,-1.6283e-15,0,0.66667
0.54337,0.36183,1.0867,-0.20725,-0.66733,3.2002,0.60061,-0.2002,-1.8467,0.80081,-2.4153e-11,-0.92337,0,0,0.5,-0,-0,0.66667
0.53711,0.91797,1.0742,0.62695,2.269,3.4321,-1.7959,0.59865,-0.60188,-2.3946,4.0898e-12,-0.30094,0,0,0.5,-0,-0,0.66667
0.80969,0.85471,1.6194,0.53207,0.82313,1.1048,-2.2977,0.76588,-0.99305,-3.0635,2.1587e-09,-0.49652,0,0,0.5,-0,-0,0.66667
0.79958,0.93922,1.5992,0.65883,1.1795,1.2762,-2.8095,0.93651,-0.45751,-3.7461,1.4281e-09,-0.22876,0,0,0.5,-2.3685e-15,0,0.66667
0.84777,0.23007,1.6955,-0.40489,-0.44005,0.78947,1.8307,-0.61023,-1.4166,2.4409,8.2794e-10,-0.70832,0,0,0.5,-0,-0,0.66667
0.19036,0.017808,0.38072,-0.72329,-3.6882,7.4876,0.73433,-0.24478,-0.13942,0.9791,3.3946e-10,-0.069708,0,0,0.5,-0,-0,0.66667
0.20027,0.21397,0.40055,-0.42905,-2.0281,7.3021,0.45828,-0.15276,-1.3457,0.61104,5.4952e-10,-0.67287,0,0,0.5,-0,-0,0.66667
0.77366,0.37533,1.5473,-0.18701,-0.29809,1.1705,0.77164,-0.25721,-1.8766,1.0289,-7.4809e-11,-0.93831,0,0,0.5,-2.3685e-15,0,0.66667
0.56553,0.59476,1.1311,0.14214,0.43568,2.963,-0.42872,0.14291,-1.9291,-0.57163,2.78e-11,-0.96455,0,0,0.5,2.3685e-15,0,0.66667
0.2689,0.094748,0.53781,-0.60788,-2.8859,6.4717,0.87179,-0.2906,-0.68709,1.1624,4.4949e-10,-0.34355,0,0,0.5,-0,-0,0.66667
0.47936,0.47423,0.95871,-0.038656,-0.13631,3.8654,0.098825,-0.032942,-1.9948,0.13177,2.3847e-12,-0.99739,0,0,0.5,-0,-0,0.66667
0.67466,0.39539,1.3493,-0.15692,-0.36843,1.9432,0.56461,-0.1882,-1.9121,0.75281,-9.0049e-11,-0.95603,0,0,0.5,-0,-0,0.66667
0.68423,0.27147,1.3685,-0.34279,-0.81412,1.9178,1.2509,-0.41698,-1.5819,1.6679,-2.0372e-10,-0.79093,0,0,0.5,-0,-0,0.66667
0.82139,0.41112,1.6428,-0.13332,-0.156,0.83905,0.58403,-0.19468,-1.9369,0.77871,-3.5764e-10,-0.96847,0,0,0.5,-0,-0,0.66667
0.36466,0.0047454,0.72933,-0.74288,-3.427,5.3728,1.4448,-0.4816,-0.037967,1.9264,-3.1375e-13,-0.018984,0,0,0.5,-0,-0,0.66667
0.67275,0.24439,1.3455,-0.38341,-0.95417,2.0328,1.3757,-0.45856,-1.4776,1.8343,-2.109e-10,-0.7388,0,0,0.5,-5.9212e-16,0,0.66667
0.55308,0.35718,1.1062,-0.21423,-0.67829,3.102,0.63193,-0.21064,-1.8362,0.84257,-3.0598e-11,-0.91809,0,0,0.5,-0,-0,0.66667
0.40642,0.13019,0.81283,-0.55471,-2.3232,4.8077,1.2024,-0.40079,-0.90634,1.6031,3.9635e-11,-0.45317,0,0,0.5,-0,-0,0.66667
0.39796,0.34808,0.79592,-0.22788,-0.90221,4.8145,0.48366,-0.16122,-1.8156,0.64487,6.6734e-11,-0.90779,0,0,0.5,-0,-0,0.66667
0.61288,0.81187,1.2258,0.4678,1.3911,2.6083,-1.5291,0.5097,-1.2229,-2.0388,9.1336e-11,-0.61146,0,0,0.5,-1.4433e-15,0,0.66667
0.061349,0.072785,0.1227,-0.64082,-3.304,9.1394,0.20968,-0.069892,-0.53965,0.27957,1.0498e-07,-0.26983,0,0,0.5,-0,5.2295e-16,0.66667
0.7645,0.67763,1.529,0.26644,0.45469,1.2606,-1.0864,0.36212,-1.7474,-1.4485,4.685e-11,-0.87369,0,0,0.5,-0,-0,0.66667
0.23365,0.93904,0.46729,0.65856,3.2326,6.9256,-0.82065,0.27355,-0.45891,-1.0942,-5.6774e-10,-0.22945,0,0,0.5,-0,-0,0.66667
0.16594,0.55642,0.33188,0.084633,0.39021,7.7216,-0.074901,0.024967,-1.9745,-0.099868,-1.0597e-09,-0.98726,0,0,0.5,-1.978e-16,0,0.66667
0.42348,0.15657,0.84697,-0.51515,-2.096,4.5973,1.1635,-0.38783,-1.0576,1.5513,3.7777e-11,-0.52881,0,0,0.5,-1.1842e-15,0,0.66667
0.46845,0.72071,0.9369,0.33106,1.2227,4.0315,-0.82712,0.27571,-1.6112,-1.1028,-2.1466e-11,-0.80562,0,0,0.5,1.1842e-15,0,0.66667
0.27444,0.64514,0.54887,0.21771,0.95739,6.3246,-0.31866,0.10622,-1.8309,-0.42488,-1.2013e-10,-0.91547,0,0,0.5,-0,-0,0.66667
0.31013,0.37143,0.62026,-0.19285,-0.82455,5.874,0.31898,-0.10633,-1.8683,0.42531,1.124e-10,-0.93413,0,0,0.5,6.8394e-16,0,0.66667
0.67315,0.48338,1.3463,-0.024926,-0.058177,1.9418,0.089487,-0.029829,-1.9973,0.11932,-1.6647e-11,-0.99867,0,0,0.5,-0,-0,0.66667
0.030054,0.92243,0.060108,0.63365,3.2706,9.5495,-0.10157,0.033855,-0.57196,-0.13542,-3.2168e-07,-0.28598,0,0,0.5,3.7007e-17,-5.9136e-16,0.66667
0.65518,0.84641,1.3104,0.51961,1.424,2.2567,-1.8157,0.60523,-1.0407,-2.4209,1.6038e-10,-0.52037,0,0,0.5,-2.3685e-15,6.8005e-16,0.66667
0.52145,0.99389,1.0429,0.74083,2.8662,3.6634,-2.0603,0.68677,-0.048583,-2.7471,-7.9048e-14,-0.024291,0,0,0.5,2.0724e-15,0,0.66667
0.47871,0.60007,0.95742,0.15011,0.53306,3.8815,-0.38325,0.12775,-1.9198,-0.511,-9.1339e-12,-0.95992,0,0,0.5,-0,-0,0.66667
0.72049,0.077973,1.441,-0.63304,-1.5174,1.8043,2.4325,-0.81084,-0.57466,3.2434,-2.6366e-10,-0.28733,0,0,0.5,-0,-0,0.66667
0.68825,0.062768,1.3765,-0.65585,-1.7509,2.0754,2.4074,-0.80247,-0.47187,3.2099,-7.8995e-11,-0.23593,0,0,0.5,-0,-0,0.66667
0.064811,0.85186,0.12962,0.52779,2.6476,9.0865,-0.18243,0.060812,-1.0094,-0.24325,3.6791e-08,-0.50472,0,0,0.5,-0,-0,0.66667
0.80024,0.17718,1.6005,-0.48423,-0.76402,1.1301,2.0667,-0.68889,-1.1659,2.7555,-1.2655e-09,-0.58296,0,0,0.5,-0,-0,0.66667
0.039175,0.31591,0.07835,-0.27613,-1.3312,9.4184,0.057693,-0.019231,-1.7293,0.076924,3.213e-08,-0.86463,0,0,0.5,-0,-0,0.66667
0.027013,0.73317,0.054025,0.34976,1.7044,9.5828,-0.050389,0.016796,-1.5644,-0.067185,-6.6173e-09,-0.78222,0,0,0.5,3.7007e-17,0,0.66667
0.52587,0.23344,1.0517,-0.39983,-1.3758,3.437,1.1214,-0.37379,-1.4309,1.4952,-1.6178e-11,-0.71547,0,0,0.5,-1.1842e-15,0,0.66667
0.7348,0.49708,1.4696,-0.0043849,-0.0081978,1.4353,0.017184,-0.005728,-2.0007,0.022912,-8.3795e-12,-1.0003,0,0,0.5,-1.7764e-15,0,0.66667
0.50557,0.70884,1.0111,0.31326,1.0928,3.6228,-0.84469,0.28156,-1.6507,-1.1262,3.6488e-12,-0.82533,0,0,0.5,5.9212e-16,0,0.66667
0.29367,0.9591,0.58734,0.68866,3.2931,6.1938,-1.0786,0.35953,-0.31347,-1.4381,-5.9538e-11,-0.15674,0,0,0.5,2.9606e-16,-5.0541e-16,0.66667
0.18618,0.37326,0.37236,-0.19011,-0.87499,7.4599,0.18877,-0.062924,-1.8724,0.2517,-1.5818e-10,-0.9362,0,0,0.5,-4.0708e-16,0,0.66667
0.66274,0.91465,1.3255,0.62198,1.7469,2.2603,-2.1985,0.73282,-0.6242,-2.9313,8.2093e-11,-0.3121,0,0,0.5,-1.1842e-15,0,0.66667
0.94213,0.57844,1.8843,0.11766,0.0035864,0.2106,-0.59122,0.19707,-1.9502,-0.78829,-1.185e-07,-0.97508,0,0,0.5,-1.1842e-15,0,0.66667
0.15878,0.65999,0.31756,0.23998,1.122,7.8233,-0.20322,0.067739,-1.7957,-0.27096,5.6441e-10,-0.89785,0,0,0.5,-0,-0,0.66667
0.27586,0.95722,0.55173,0.68583,3.3139,6.4103,-1.0091,0.33635,-0.32705,-1.3454,-1.0405e-10,-0.16353,0,0,0.5,2.9606e-16,0,0.66667
0.99109,0.69236,1.9822,0.28855,-0.11612,0.099426,-1.5252,0.5084,-1.7041,-2.0336,-2.6134e-08,-0.85205,0,0,0.5,-0,-0,0.66667
0.83374,0.1849,1.6675,-0.47265,-0.60232,0.91514,2.1017,-0.70056,-1.2062,2.8022,-6.6714e-10,-0.60312,0,0,0.5,-5.9212e-16,0,0.66667
0.75016,0.47517,1.5003,-0.037248,-0.065197,1.3192,0.14902,-0.049675,-1.9953,0.1987,-6.92e-11,-0.99765,0,0,0.5,-2.3685e-15,0,0.66667
0.042073,0.27303,0.084146,-0.34046,-1.6549,9.3811,0.076396,-0.025465,-1.5876,0.10186,-1.3083e-08,-0.79381,0,0,0.5,-0,-0,0.66667
0.027017,0.59236,0.054034,0.13854,0.66026,9.5802,-0.019961,0.0066528,-1.9326,-0.026616,-1.4123e-06,-0.96628,0,0,0.5,-1.8504e-17,0,0.66667
0.48721,0.38564,0.97442,-0.17154,-0.60289,3.7911,0.44575,-0.14858,-1.895,0.59433,6.0416e-12,-0.9475,0,0,0.5,-0,-0,0.66667
0.032196,0.75526,0.064392,0.38289,1.8748,9.5141,-0.065747,0.021916,-1.4791,-0.087663,-6.7353e-09,-0.73953,0,0,0.5,-7.4015e-17,0,0.66667
0.10153,0.068736,0.20305,-0.6469,-3.3179,8.6153,0.35027,-0.11676,-0.51203,0.46703,1.6415e-08,-0.25601,0,0,0.5,-0,-0,0.66667
0.56329,0.20885,1.1266,-0.43673,-1.4218,3.071,1.312,-0.43735,-1.3216,1.7494,-4.07e-11,-0.66082,0,0,0.5,-0,-0,0.66667
0.4278,0.23171,0.85561,-0.40244,-1.5864,4.5091,0.91822,-0.30607,-1.4235,1.2243,5.167e-11,-0.71177,0,0,0.5,-0,-0,0.66667
0.79087,0.71861,1.5817,0.32791,0.50027,1.1021,-1.3831,0.46103,-1.6187,-1.8441,-5.2935e-11,-0.80936,0,0,0.5,-5.7362e-16,0,0.66667
0.27399,0.50562,0.54798,0.0084336,0.036679,6.3187,-0.012324,0.0041079,-1.9998,-0.016432,-9.9088e-12,-0.99989,0,0,0.5,-0,-0,0.66667
0.27245,0.50798,0.5449,0.011964,0.052088,6.3383,-0.017384,0.0057947,-1.9992,-0.023179,-1.4525e-11,-0.99961,0,0,0.5,-0,-0,0.66667
0.40582,0.33431,0.81164,-0.24854,-0.97816,4.7258,0.53793,-0.17931,-1.7803,0.71724,6.4448e-11,-0.89013,0,0,0.5,-0,-0,0.66667
0.67323,0.63754,1.3465,0.20631,0.49037,1.9662,-0.74078,0.24693,-1.8483,-0.9877,1.1084e-10,-0.92413,0,0,0.5,1.1842e-15,0,0.66667
0.9815,0.87609,1.963,0.56413,-0.032595,0.3337,-2.953,0.98434,-0.86941,-3.9374,3.6592e-07,-0.4347,0,0,0.5,2.3685e-15,-7.149e-19,0.66667
0.39748,0.70174,0.79497,0.30262,1.2112,4.8341,-0.64152,0.21384,-1.6737,-0.85536,-8.0524e-11,-0.83687,0,0,0.5,-0,-0,0.66667
0.74457,0.49309,1.4891,-0.010359,-0.018572,1.3604,0.041136,-0.013712,-1.9995,0.054848,-1.7938e-11,-0.99975,0,0,0.5,1.7764e-15,0,0.66667
0.85672,0.19742,1.7134,-0.45388,-0.47616,0.77133,2.0739,-0.69129,-1.2672,2.7651,6.3367e-10,-0.63362,0,0,0.5,-0,-0,0.66667
0.67501,0.62333,1.35,0.185,0.43577,1.9459,-0.66601,0.222,-1.8791,-0.88802,1.0242e-10,-0.93956,0,0,0.5,-1.4803e-15,0,0.66667
0.77949,0.11469,1.559,-0.57797,-1.0726,1.3368,2.4028,-0.80092,-0.81198,3.2037,-1.4958e-09,-0.40599,0,0,0.5,1.1842e-15,0,0.66667
0.81192,0.48144,1.6238,-0.027839,-0.034383,0.8871,0.12055,-0.040184,-1.9969,0.16074,-2.4728e-10,-0.99845,0,0,0.5,-1.1842e-15,0,0.66667
0.59693,0.29305,1.1939,-0.31043,-0.91564,2.6933,0.98828,-0.32943,-1.6569,1.3177,-7.5802e-11,-0.82845,0,0,0.5,-0,-0,0.66667
0.439,0.91189,0.87799,0.61784,2.5443,4.4678,-1.4466,0.48218,-0.64299,-1.9287,-9.01e-12,-0.32149,0,0,0.5,1.1842e-15,0,0.66667
0.16875,0.6492,0.3375,0.22381,1.0407,7.6909,-0.20143,0.067142,-1.8219,-0.26857,5.1922e-10,-0.91093,0,0,0.5,3.9598e-16,0,0.66667
0.78139,0.85571,1.5628,0.53357,0.95446,1.2897,-2.2236,0.7412,-0.98749,-2.9648,1.4589e-09,-0.49375,0,0,0.5,-0,-0,0.66667
0.19409,0.21275,0.38818,-0.43088,-2.043,7.3822,0.44602,-0.14867,-1.3399,0.5947,5.1675e-10,-0.66994,0,0,0.5,-2.9606e-16,0,0.66667
0.99872,0.067145,1.9974,-0.64928,0.086034,0.37789,3.4584,-1.1528,-0.50148,4.6112,-1.1522e-05,-0.25074,0,0,0.5,-2.3685e-15,0,0.66667
0.5426,0.83692,1.0852,0.50537,1.7408,3.3105,-1.4625,0.4875,-1.0918,-1.95,1.8397e-11,-0.54591,0,0,0.5,-0,-0,0.66667
0.0093665,0.55067,0.018733,0.076006,0.36145,9.818,-0.0037993,0.0012655,-1.9789,-0.0050662,-1.3298e-06,-0.98945,0,0,0.5,-0,-0,0.66667
0.4188,0.72064,0.8376,0.33096,1.3001,4.5926,-0.73924,0.24641,-1.6113,-0.98565,-6.2191e-11,-0.80565,0,0,0.5,-0,-0,0.66667
0.24105,0.44452,0.4821,-0.083227,-0.37014,6.7415,0.107,-0.035666,-1.9752,0.14266,1.387e-10,-0.98761,0,0,0.5,-5.9212e-16,0,0.66667
0.053138,0.55421,0.10628,0.081314,0.38558,9.2279,-0.023045,0.0076816,-1.9762,-0.030727,1.1328e-09,-0.9881,0,0,0.5,3.7007e-17,0,0.66667
0.71613,0.503,1.4323,0.0045025,0.009068,1.5825,-0.017197,0.0057322,-2.0005,-0.022929,4.918e-12,-1.0003,0,0,0.5,-0,-0,0.66667
0.31649,0.553,0.63298,0.079499,0.33567,5.7863,-0.13419,0.04473,-1.9772,-0.17892,-5.507e-11,-0.9886,0,0,0.5,-2.9606e-16,0,0.66667
0.82107,0.47779,1.6421,-0.033312,-0.038502,0.82892,0.14588,-0.048625,-1.9957,0.1945,-3.9334e-10,-0.99784,0,0,0.5,-0,-0,0.66667
0.76442,0.10543,1.5288,-0.59186,-1.1818,1.451,2.4129,-0.80431,-0.75417,3.2173,-1.0358e-09,-0.37709,0,0,0.5,-1.1842e-15,-6.3706e-16,0.66667
0.065672,0.63317,0.13134,0.19975,0.95247,9.0612,-0.069962,0.023321,-1.858,-0.093282,-4.3256e-09,-0.92898,0,0,0.5,-0,-0,0.66667
0.71272,0.63446,1.4254,0.20169,0.42012,1.6357,-0.76667,0.25556,-1.855,-1.0222,1.2005e-10,-0.92748,0,0,0.5,-1.1842e-15,0,0.66667
0.19497,0.38152,0.38994,-0.17772,-0.81398,7.3442,0.1848,-0.061601,-1.8876,0.2464,3.865e-11,-0.9438,0,0,0.5,-0,-0,0.66667
0.77656,0.66816,1.5531,0.25223,0.40351,1.1699,-1.0447,0.34822,-1.7733,-1.3929,-1.3208e-11,-0.88663,0,0,0.5,1.1842e-15,0,0.66667
0.25043,0.5076,0.50086,0.011397,0.050319,6.6195,-0.015222,0.005074,-1.9996,-0.020296,-1.8715e-11,-0.9998,0,0,0.5,1.1842e-15,0,0.66667
0.40375,0.97453,0.80749,0.7118,3.1362,4.9097,-1.5327,0.51091,-0.19872,-2.0436,-1.1365e-12,-0.09936,0,0,0.5,-1.1842e-15,0,0.66667
0.8833,0.82686,1.7666,0.49029,0.41094,0.65903,-2.3097,0.7699,-1.1446,-3.0796,-3.4082e-09,-0.57232,0,0,0.5,-0,-0,0.66667
0.65698,0.97919,1.314,0.71879,2.1447,2.3852,-2.5185,0.83952,-0.16278,-3.3581,4.8315e-12,-0.081388,0,0,0.5,-0,-0,0.66667
0.081501,0.95598,0.163,0.68396,3.5564,8.88,-0.2973,0.0991,-0.33617,-0.3964,-2.5308e-08,-0.16808,0,0,0.5,-0,-0,0.66667
0.13451,0.37497,0.26901,-0.18754,-0.87958,8.1415,0.13454,-0.044846,-1.876,0.17938,7.4554e-10,-0.93799,0,0,0.5,-3.1861e-16,0,0.66667
0.007682,0.092827,0.015364,-0.61076,-3.1372,9.8433,0.025024,-0.0083411,-0.67451,0.033365,2.1192e-07,-0.33726,0,0,0.5,-0,-0,0.66667
0.98219,0.018289,1.9644,-0.72257,-0.10577,0.50965,3.785,-1.2617,-0.14317,5.0467,5.5907e-07,-0.071586,0,0,0.5,-0,-5.749e-16,0.66667
0.047674,0.90892,0.095348,0.61338,3.1455,9.3172,-0.15596,0.051987,-0.66302,-0.20795,-1.0035e-07,-0.33151,0,0,0.5,1.4803e-16,0,0.66667
0.10538,0.80014,0.21076,0.45022,2.2065,8.545,-0.25303,0.084343,-1.2788,-0.33737,5.4053e-09,-0.63939,0,0,0.5,-0,-0,0.66667
0.45747,0.79156,0.91493,0.43734,1.676,4.1868,-1.067,0.35567,-1.3195,-1.4227,-2.5235e-11,-0.65977,0,0,0.5,1.1842e-15,0,0.66667
0.054401,0.030179,0.1088,-0.70473,-3.6993,9.2346,0.20447,-0.068156,-0.23495,0.27262,-2.6197e-07,-0.11747,0,0,0.5,2.7756e-17,0,0.66667
0.28909,0.93075,0.57817,0.64612,3.0608,6.235,-0.99618,0.33206,-0.51553,-1.3282,-1.7008e-10,-0.25777,0,0,0.5,2.3144e-17,0,0.66667
0.67797,0.15526,1.3559,-0.5171,-1.332,2.061,1.8698,-0.62326,-1.0501,2.493,-2.4403e-10,-0.52505,0,0,0.5,-0,-0,0.66667
0.048629,0.10223,0.097258,-0.59665,-3.0468,9.3037,0.15474,-0.051581,-0.73413,0.20633,-9.3389e-08,-0.36707,0,0,0.5,-0,-0,0.66667
0.45797,0.27436,0.91594,-0.33847,-1.2693,4.15,0.82671,-0.27557,-1.5926,1.1023,2.8878e-11,-0.79629,0,0,0.5,-2.9606e-16,0,0.66667
0.57276,0.1317,1.1455,-0.55245,-1.8324,3.0357,1.6876,-0.56252,-0.91476,2.2501,-2.6325e-11,-0.45738,0,0,0.5,-0,-0,0.66667
0.19927,0.979,0.39853,0.7185,3.6454,7.3739,-0.76359,0.25453,-0.16406,-1.0181,-3.0067e-10,-0.082029,0,0,0.5,-0,-0,0.66667
0.18617,0.27618,0.37234,-0.33574,-1.5719,7.4728,0.33335,-0.11112,-1.5995,0.44447,-2.7637e-10,-0.79977,0,0,0.5,1.8425e-16,0,0.66667
0.10269,0.15264,0.20538,-0.52104,-2.5923,8.5868,0.28536,-0.095119,-1.0351,0.38047,-1.4936e-09,-0.51754,0,0,0.5,1.8504e-16,0,0.66667
0.0688,0.62323,0.1376,0.18485,0.8799,9.0189,-0.067826,0.022609,-1.8792,-0.090435,-2.2433e-08,-0.9396,0,0,0.5,7.4015e-17,0,0.66667
0.16898,0.44195,0.33797,-0.087082,-0.40107,7.6814,0.078483,-0.026161,-1.9734,0.10464,1.082e-09,-0.98668,0,0,0.5,-0,-0,0.66667
0.060817,0.56416,0.12163,0.09624,0.45616,9.1247,-0.031216,0.010406,-1.968,-0.041621,3.6604e-07,-0.98398,0,0,0.5,-0,-0,0.66667
0.55168,0.48582,1.1034,-0.02127,-0.066515,3.094,0.062581,-0.02086,-1.9978,0.083442,-3.4654e-12,-0.99889,0,0,0.5,-0,-0,0.66667
0.80791,0.36717,1.6158,-0.19925,-0.26102,0.94118,0.85854,-0.28618,-1.8586,1.1447,7.3159e-11,-0.92932,0,0,0.5,-5.9212e-16,0,0.66667
0.80434,0.79191,1.6087,0.43787,0.65607,1.0732,-1.8784,0.62612,-1.3178,-2.5045,6.2693e-10,-0.6589,0,0,0.5,-2.3685e-15,0,0.66667
0.63118,0.95628,1.2624,0.68443,2.1293,2.5804,-2.304,0.76799,-0.33385,-3.072,1.1355e-11,-0.16692,0,0,0.5,-1.1842e-15,0,0.66667
0.54175,0.27632,1.0835,-0.33551,-1.1077,3.2504,0.96941,-0.32314,-1.5999,1.2925,-2.8745e-11,-0.79996,0,0,0.5,2.9606e-16,0,0.66667
0.46714,0.39516,0.93427,-0.15726,-0.568,4.0108,0.3918,-0.1306,-1.9117,0.5224,1.4611e-11,-0.95587,0,0,0.5,-0,-0,0.66667
0.96014,0.44631,1.9203,-0.080539,0.012872,0.1352,0.41242,-0.13747,-1.9766,0.54989,-4.9527e-09,-0.98829,0,0,0.5,-0,-0,0.66667
0.2899,0.52914,0.57979,0.043714,0.18814,6.118,-0.067586,0.022529,-1.9938,-0.090115,-4.2659e-11,-0.99691,0,0,0.5,7.4015e-16,0,0.66667
0.36643,0.44034,0.73287,-0.089489,-0.36173,5.1751,0.17489,-0.058296,-1.972,0.23319,4.0764e-11,-0.986,0,0,0.5,-0,-0,0.66667
0.57534,0.97488,1.1507,0.71232,2.5008,3.114,-2.1857,0.72858,-0.19601,-2.9143,6.4704e-13,-0.098004,0,0,0.5,-0,-0,0.66667
0.51258,0.54727,1.0252,0.07091,0.23783,3.5057,-0.19385,0.064617,-1.9816,-0.25847,2.6245e-12,-0.99078,0,0,0.5,5.9212e-16,0,0.66667
0.67424,0.021483,1.3485,-0.71778,-2.0527,2.2408,2.5811,-0.86036,-0.16789,3.4414,-8.0624e-12,-0.083947,0,0,0.5,-0,-0,0.66667
0.77467,0.9113,1.5493,0.61695,1.1994,1.4014,-2.549,0.84965,-0.64679,-3.3986,1.1654e-09,-0.3234,0,0,0.5,-0,-0,0.66667
0.18244,0.86178,0.36488,0.54267,2.6471,7.5508,-0.52803,0.17601,-0.95231,-0.70404,-2.6414e-09,-0.47616,0,0,0.5,-2.9606e-16,0,0.66667
0.6289,0.1619,1.2578,-0.50715,-1.4745,2.4825,1.701,-0.56701,-1.0856,2.268,-1.0437e-10,-0.54281,0,0,0.5,-2.3685e-15,0,0.66667
0.69402,0.58745,1.388,0.13118,0.28846,1.7743,-0.48555,0.16185,-1.9388,-0.64741,8.8321e-11,-0.96938,0,0,0.5,-0,-0,0.66667
0.27231,0.79202,0.54462,0.43804,1.9946,6.3865,-0.63616,0.21205,-1.3173,-0.84822,-4.6587e-10,-0.65863,0,0,0.5,-0,-0,0.66667
0.92808,0.17284,1.8562,-0.49073,-0.19923,0.4563,2.429,-0.80967,-1.1431,3.2387,2.5676e-09,-0.57155,0,0,0.5,1.1842e-15,0,0.66667
0.34525,0.51288,0.6905,0.019322,0.079501,5.43,-0.035578,0.011859,-1.9983,-0.047437,-1.1065e-11,-0.99913,0,0,0.5,1.1842e-15,0,0.66667
0.63808,0.87711,1.2762,0.56566,1.6463,2.4355,-1.925,0.64167,-0.86307,-2.5667,8.8137e-11,-0.43154,0,0,0.5,-0,-0,0.66667
0.9258,0.6681,1.8516,0.25216,0.06171,0.31984,-1.245,0.41501,-1.7734,-1.66,-1.2238e-08,-0.88672,0,0,0.5,-0,-0,0.66667
0.98063,0.70771,1.9613,0.31157,-0.086631,0.14347,-1.6295,0.54318,-1.6544,-2.1727,-2.5817e-08,-0.8272,0,0,0.5,-1.1842e-15,0,0.66667
0.24873,0.16139,0.49746,-0.50792,-2.3809,6.6984,0.67378,-0.22459,-1.0831,0.89837,8.4963e-10,-0.54153,0,0,0.5,-0,-0,0.66667
0.94195,0.0028303,1.8839,-0.74575,-0.44344,0.66537,3.7465,-1.2488,-0.023106,4.9953,-1.0832e-06,-0.011553,0,0,0.5,-0,-0,0.66667
0.90908,0.0056606,1.8182,-0.74151,-0.67671,0.78742,3.5951,-1.1984,-0.045178,4.7935,-1.0602e-07,-0.022589,0,0,0.5,-0,-0,0.66667
0.25098,0.69021,0.50195,0.28532,1.2835,6.6306,-0.38191,0.1273,-1.7113,-0.50921,-1.131e-10,-0.85565,0,0,0.5,-5.9212e-16,0,0.66667
0.10105,0.12034,0.2021,-0.5695,-2.8656,8.613,0.30693,-0.10231,-0.84701,0.40924,-4.542e-09,-0.4235,0,0,0.5,1.8504e-16,0,0.66667
0.36236,0.45733,0.72471,-0.064002,-0.25946,5.2231,0.12369,-0.04123,-1.985,0.16492,3.0543e-11,-0.9925,0,0,0.5,5.9212e-16,0,0.66667
0.92363,0.63064,1.8473,0.19596,0.047029,0.30854,-0.96529,0.32176,-1.8637,-1.2871,3.2636e-08,-0.93184,0,0,0.5,-0,-0,0.66667
0.84527,0.95444,1.6905,0.68165,0.96884,1.0297,-3.073,1.0243,-0.34745,-4.0973,3.8487e-09,-0.17372,0,0,0.5,-0,-0,0.66667
0.25812,0.29777,0.51624,-0.30335,-1.3621,6.5421,0.41761,-0.1392,-1.6721,0.55681,1.6427e-10,-0.83607,0,0,0.5,-3.0568e-16,0,0.66667
0.27562,0.96631,0.55124,0.69947,3.394,6.4179,-1.0282,0.34273,-0.261,-1.3709,-5.3094e-11,-0.1305,0,0,0.5,6.6613e-16,0,0.66667
0.29828,0.38595,0.59656,-0.17108,-0.73664,6.0198,0.27215,-0.090718,-1.8956,0.36287,1.0758e-10,-0.94782,0,0,0.5,-0,-0,0.66667
0.081417,0.65253,0.16283,0.22879,1.0911,8.851,-0.099346,0.033115,-1.8143,-0.13246,5.66e-09,-0.90715,0,0,0.5,7.4015e-17,0,0.66667
0.16833,0.73778,0.33667,0.35666,1.6873,7.7079,-0.32021,0.10674,-1.5472,-0.42694,5.3083e-10,-0.7736,0,0,0.5,2.9606e-16,0,0.66667
0.61444,0.93696,1.2289,0.65544,2.0856,2.709,-2.1479,0.71596,-0.47347,-2.8638,1.3917e-11,-0.23673,0,0,0.5,-1.7023e-15,0,0.66667
0.4924,0.90732,0.98479,0.61098,2.3486,3.885,-1.6045,0.53484,-0.67351,-2.1394,-9.357e-13,-0.33675,0,0,0.5,-1.1842e-15,0,0.66667
0.41191,0.2003,0.82381,-0.44955,-1.8228,4.7062,0.98758,-0.32919,-1.2809,1.3168,6.2184e-11,-0.64043,0,0,0.5,-5.9212e-16,0,0.66667
0.5157,0.56419,1.0314,0.096291,0.32173,3.4743,-0.26484,0.08828,-1.968,-0.35312,4.4342e-12,-0.98402,0,0,0.5,1.1842e-15,0,0.66667
0.88736,0.49583,1.7747,-0.0062554,-0.0034391,0.44941,0.029605,-0.0098682,-2.0002,0.039473,-8.5297e-09,-1.0001,0,0,0.5,-0,-0,0.66667
0.9551,0.1493,1.9102,-0.52605,-0.090394,0.38334,2.6796,-0.89321,-1.0161,3.5729,-5.1705e-08,-0.50805,0,0,0.5,5.9212e-16,0,0.66667
0.25568,0.73144,0.51135,0.34715,1.5713,6.5796,-0.47338,0.15779,-1.5709,-0.63118,-2.5056e-10,-0.78545,0,0,0.5,-0,-0,0.66667
0.23367,0.23431,0.46733,-0.39854,-1.8426,6.8683,0.49666,-0.16555,-1.4349,0.66222,4.2434e-10,-0.71743,0,0,0.5,-2.9606e-16,0,0.66667
0.070154,0.19109,0.14031,-0.46336,-2.292,9.012,0.17337,-0.057789,-1.237,0.23116,-1.7871e-08,-0.61848,0,0,0.5,-0,-0,0.66667
0.2597,0.13872,0.5194,-0.54193,-2.5443,6.5686,0.7506,-0.2502,-0.95516,1.0008,7.1204e-10,-0.47758,0,0,0.5,-0,-0,0.66667
0.17421,0.29027,0.34843,-0.31459,-1.4757,7.6267,0.2923,-0.097432,-1.6479,0.38973,-5.2512e-10,-0.82395,0,0,0.5,2.9606e-16,0,0.66667
0.027562,0.31251,0.055125,-0.28124,-1.3578,9.5744,0.041342,-0.013781,-1.7199,0.055123,-9.0302e-08,-0.85994,0,0,0.5,-0,-0,0.66667
0.17447,0.00024811,0.34894,-0.74963,-3.8759,7.6951,0.69753,-0.23251,-0.0031066,0.93004,-5.0867e-10,-0.0015533,0,0,0.5,-0,-0,0.66667
0.78046,0.34589,1.5609,-0.23116,-0.35988,1.1356,0.96218,-0.32073,-1.8109,1.2829,2.2807e-11,-0.90543,0,0,0.5,2.3685e-15,0,0.66667
0.92026,0.96037,1.8405,0.69055,0.50258,0.68201,-3.3893,1.1298,-0.3044,-4.519,6.0862e-08,-0.1522,0,0,0.5,5.9212e-16,0,0.66667
0.72159,0.58927,1.4432,0.1339,0.26668,1.5504,-0.51532,0.17177,-1.9366,-0.68709,1.0569e-10,-0.96829,0,0,0.5,1.4803e-15,0,0.66667
0.29842,0.88849,0.59684,0.58273,2.6964,6.1004,-0.92745,0.30915,-0.79219,-1.2366,-2.8149e-10,-0.39609,0,0,0.5,-5.9212e-16,0,0.66667
0.63146,0.25681,1.2629,-0.36478,-1.0073,2.3897,1.2285,-0.4095,-1.5267,1.638,-1.2632e-10,-0.76337,0,0,0.5,-0,-0,0.66667
0.77018,0.0001895,1.5404,-0.74972,-1.6263,1.5561,3.0796,-1.0265,-0.0025618,4.1061,7.6618e-11,-0.0012809,0,0,0.5,-0,-0,0.66667
0.4425,0.25967,0.88501,-0.3605,-1.3845,4.3298,0.85078,-0.28359,-1.5375,1.1344,4.0715e-11,-0.76877,0,0,0.5,-0,-0,0.66667
0.61945,0.28477,1.2389,-0.32285,-0.90772,2.4844,1.0666,-0.35553,-1.6298,1.4221,-1.0291e-10,-0.81489,0,0,0.5,-0,-0,0.66667
0.57375,0.57005,1.1475,0.10507,0.31581,2.876,-0.32151,0.10717,-1.9606,-0.42869,2.395e-11,-0.98029,0,0,0.5,1.1842e-15,0,0.66667
0.90274,0.61167,1.8055,0.16751,0.072488,0.3957,-0.80648,0.26883,-1.8997,-1.0753,-7.1992e-09,-0.94985,0,0,0.5,-0,-0,0.66667
0.75239,0.17289,1.5048,-0.49067,-0.97177,1.4626,1.9689,-0.65631,-1.1435,2.6252,-8.0184e-10,-0.57174,0,0,0.5,-0,-0,0.66667
0.26495,0.048723,0.52991,-0.67692,-3.2836,6.5416,0.95654,-0.31885,-0.37041,1.2754,1.7642e-10,-0.18521,0,0,0.5,2.9606e-16,0,0.66667
0.22937,0.136,0.45873,-0.546,-2.6091,6.9517,0.66791,-0.22264,-0.93955,0.89055,1.2514e-09,-0.46977,0,0,0.5,-0,-0,0.66667
0.6936,0.33972,1.3872,-0.24042,-0.53953,1.8029,0.88935,-0.29645,-1.7948,1.1858,-1.3561e-10,-0.89738,0,0,0.5,2.9606e-16,0,0.66667
0.23301,0.65629,0.46602,0.23443,1.059,6.8551,-0.29133,0.097111,-1.8058,-0.38845,-2.4759e-11,-0.90292,0,0,0.5,-0,-0,0.66667
0.62193,0.28459,1.2439,-0.32311,-0.90321,2.4615,1.0717,-0.35724,-1.6293,1.429,-1.06e-10,-0.81465,0,0,0.5,-2.3685e-15,0,0.66667
0.25494,0.67987,0.50987,0.26981,1.2084,6.5782,-0.36685,0.12228,-1.741,-0.48913,-1.1377e-10,-0.87049,0,0,0.5,-0,-0,0.66667
0.92042,0.50062,1.8408,0.00092674,0.00021378,0.29124,-0.0045493,0.0015166,-2.0011,-0.0060656,2.1408e-07,-1.0006,0,0,0.5,-0,-0,0.66667
0.30256,0.49417,0.60511,-0.0087448,-0.037264,5.9584,0.014111,-0.0047036,-1.9997,0.018814,7.4098e-12,-0.99987,0,0,0.5,2.9606e-16,0,0.66667
0.84854,0.45807,1.6971,-0.062901,-0.057486,0.66444,0.28466,-0.094888,-1.9855,0.37955,-1.9149e-09,-0.99274,0,0,0.5,1.1842e-15,0,0.66667
0.22971,0.052843,0.45942,-0.67074,-3.3102,6.9783,0.82173,-0.27391,-0.40003,1.0956,5.1722e-10,-0.20001,0,0,0.5,-0,-5.6544e-17,0.66667
0.5721,0.47714,1.1442,-0.034287,-0.10306,2.8875,0.10461,-0.034872,-1.9955,0.13949,-7.9334e-12,-0.99776,0,0,0.5,-0,-0,0.66667
0.1889,0.92066,0.3778,0.631,3.1377,7.4851,-0.63572,0.21191,-0.58388,-0.84762,-2.5548e-09,-0.29194,0,0,0.5,-0,-0,0.66667
0.42001,0.78668,0.84002,0.43001,1.7205,4.6068,-0.96325,0.32108,-1.3428,-1.2843,-5.6901e-11,-0.67139,0,0,0.5,-0,-0,0.66667
0.37624,0.11005,0.75248,-0.58493,-2.5444,5.169,1.1737,-0.39124,-0.78304,1.565,5.5341e-11,-0.39152,0,0,0.5,-0,-0,0.66667
0.039037,0.31379,0.078074,-0.27932,-1.3471,9.4204,0.058153,-0.019384,-1.7234,0.077537,4.459e-08,-0.86168,0,0,0.5,1.4803e-16,0,0.66667
0.12795,0.87577,0.2559,0.56366,2.8139,8.2607,-0.38464,0.12821,-0.87135,-0.51286,-4.8364e-09,-0.43567,0,0,0.5,-0,-0,0.66667
0.75376,0.24184,1.5075,-0.38724,-0.7262,1.3918,1.5567,-0.5189,-1.4666,2.0756,-3.7431e-10,-0.73332,0,0,0.5,5.9212e-16,0,0.66667
0.41261,0.29163,0.82522,-0.31256,-1.2325,4.6598,0.68782,-0.22927,-1.6522,0.91709,6.6547e-11,-0.82608,0,0,0.5,-0,-0,0.66667
0.80409,0.41005,1.6082,-0.13493,-0.17819,0.95077,0.57863,-0.19288,-1.9356,0.7715,-2.2026e-10,-0.96779,0,0,0.5,-2.3685e-15,0,0.66667
0.6699,0.66664,1.3398,0.24996,0.60524,2.0069,-0.89304,0.29768,-1.7776,-1.1907,1.2916e-10,-0.88878,0,0,0.5,-0,-0,0.66667
0.38282,0.14763,0.76564,-0.52855,-2.2506,5.0709,1.0792,-0.35972,-1.0064,1.4389,7.5652e-11,-0.50318,0,0,0.5,-2.9606e-16,0,0.66667
0.49483,0.50932,0.98966,0.013973,0.048122,3.6951,-0.036876,0.012292,-1.9989,-0.049167,-2.977e-13,-0.99947,0,0,0.5,-0,-0,0.66667
0.95056,0.12666,1.9011,-0.56,-0.14351,0.43071,2.839,-0.94634,-0.8858,3.7853,4.5755e-08,-0.4429,0,0,0.5,2.3685e-15,0,0.66667
0.94795,0.81977,1.8959,0.47965,0.094027,0.36974,-2.425,0.80833,-1.1818,-3.2333,-1.1624e-08,-0.59092,0,0,0.5,2.3685e-15,0,0.66667
0.48498,0.57913,0.96997,0.1187,0.41665,3.8088,-0.30702,0.10234,-1.9495,-0.40936,-5.2408e-12,-0.97476,0,0,0.5,-0,-0,0.66667
0.71243,0.94193,1.4249,0.66289,1.6564,1.8906,-2.5188,0.83958,-0.43782,-3.3583,1.3032e-10,-0.21891,0,0,0.5,2.3685e-15,0,0.66667
0.74983,0.30181,1.4997,-0.29728,-0.54788,1.3796,1.1888,-0.39628,-1.6856,1.5851,-1.3282e-10,-0.84279,0,0,0.5,-0,-0,0.66667
0.5106,0.31647,1.0212,-0.2753,-0.94652,3.5591,0.74969,-0.2499,-1.7308,0.99959,-6.7619e-12,-0.86542,0,0,0.5,-1.1842e-15,0,0.66667
0.44701,0.71743,0.89403,0.32615,1.2376,4.2696,-0.77757,0.25919,-1.6225,-1.0368,-3.7426e-11,-0.81127,0,0,0.5,7.4015e-16,0,0.66667
0.76902,0.19985,1.538,-0.45023,-0.81317,1.3183,1.8466,-0.61553,-1.2788,2.4621,-7.4544e-10,-0.63938,0,0,0.5,-0,-0,0.66667
0.41563,0.8541,0.83125,0.53114,2.189,4.693,-1.1774,0.39246,-0.99646,-1.5698,-3.9684e-11,-0.49823,0,0,0.5,-1.1842e-15,0,0.66667
0.50009,0.39768,1.0002,-0.15349,-0.52808,3.6484,0.40937,-0.13646,-1.9162,0.54582,-6.2172e-14,-0.95811,0,0,0.5,-0,-0,0.66667
0.08748,0.21866,0.17496,-0.42201,-2.0652,8.7797,0.19689,-0.06563,-1.3678,0.26252,-6.9672e-09,-0.68391,0,0,0.5,-3.4694e-17,0,0.66667
0.90434,0.31461,1.8087,-0.27809,-0.13028,0.42772,1.3413,-0.44709,-1.7258,1.7883,3.7467e-09,-0.86291,0,0,0.5,2.3685e-15,0,0.66667
0.45473,0.95554,0.90946,0.68331,2.823,4.3287,-1.6572,0.55239,-0.33943,-2.2096,-1.3738e-12,-0.16972,0,0,0.5,-0,-0,0.66667
0.59906,0.65771,1.1981,0.23657,0.68465,2.6514,-0.75583,0.25194,-1.8018,-1.0078,6.6362e-11,-0.90089,0,0,0.5,-0,-0,0.66667
0.070556,0.64267,0.14111,0.21401,1.021,8.9961,-0.080531,0.026843,-1.8365,-0.10737,-1.1329e-08,-0.91826,0,0,0.5,-0,-0,0.66667
0.52944,0.98419,1.0589,0.72629,2.7614,3.5729,-2.0508,0.6836,-0.12398,-2.7344,1.1435e-13,-0.061992,0,0,0.5,-0,-0,0.66667
0.22131,0.21307,0.44262,-0.43039,-2.0146,7.0317,0.50801,-0.16934,-1.3415,0.67734,6.202e-10,-0.67077,0,0,0.5,-0,-0,0.66667
0.38519,0.50439,0.77038,0.0065848,0.026063,4.9476,-0.013527,0.0045091,-2.0001,-0.018037,-2.654e-12,-1,0,0,0.5,-2.3685e-15,0,0.66667
0.56,0.28796,1.12,-0.31806,-1.0122,3.0592,0.94994,-0.31665,-1.6403,1.2666,-4.2759e-11,-0.82017,0,0,0.5,1.1842e-15,0,0.66667
0.81503,0.43318,1.6301,-0.10022,-0.12203,0.87378,0.43565,-0.14522,-1.9647,0.58087,-3.9905e-10,-0.98233,0,0,0.5,2.9606e-16,0,0.66667
0.26284,0.84909,0.52568,0.52364,2.4432,6.5247,-0.73405,0.24468,-1.0253,-0.97873,-6.8626e-10,-0.51264,0,0,0.5,-0,-0,0.66667
0.72782,0.47373,1.4556,-0.039407,-0.075921,1.4907,0.15296,-0.050988,-1.9946,0.20395,-4.8817e-11,-0.9973,0,0,0.5,-0,-0,0.66667
0.49204,0.3654,0.98409,-0.2019,-0.70686,3.7433,0.52984,-0.17661,-1.8546,0.70645,4.236e-12,-0.92732,0,0,0.5,-0,-0,0.66667
0.30424,0.35736,0.60849,-0.21396,-0.92085,5.9497,0.34718,-0.11573,-1.8366,0.46291,1.2346e-10,-0.91829,0,0,0.5,5.9212e-16,0,0.66667
0.29041,0.19412,0.58082,-0.45881,-2.0732,6.1654,0.71063,-0.23688,-1.2514,0.9475,4.0344e-10,-0.62571,0,0,0.5,-0,-0,0.66667
0.2411,0.039655,0.4822,-0.69052,-3.4073,6.8416,0.88792,-0.29597,-0.30436,1.1839,2.2037e-10,-0.15218,0,0,0.5,-5.9212e-16,0,0.66667
0.073163,0.15515,0.14633,-0.51727,-2.5858,8.9755,0.20184,-0.067281,-1.0495,0.26912,1.6109e-08,-0.52474,0,0,0.5,2.0354e-16,0,0.66667
0.58112,0.341,1.1622,-0.2385,-0.71739,2.8265,0.73919,-0.2464,-1.7984,0.98558,-5.2835e-11,-0.89918,0,0,0.5,-0,-0,0.66667
0.62494,0.43467,1.2499,-0.097991,-0.26232,2.3809,0.32661,-0.10887,-1.9666,0.43547,-4.1054e-11,-0.98332,0,0,0.5,1.7764e-15,0,0.66667
0.23524,0.52149,0.47048,0.03224,0.14366,6.8152,-0.040449,0.013483,-1.9961,-0.053932,-7.9147e-11,-0.99806,0,0,0.5,-0,-0,0.66667
0.56429,0.40065,1.1286,-0.14902,-0.45819,2.9765,0.44848,-0.14949,-1.9213,0.59798,-2.8381e-11,-0.96063,0,0,0.5,5.9212e-16,0,0.66667
0.8726,0.7893,1.7452,0.43395,0.38375,0.67282,-2.0195,0.67318,-1.3303,-2.6927,-2.2218e-09,-0.66516,0,0,0.5,-0,-0,0.66667
0.80766,0.36148,1.6153,-0.20778,-0.27339,0.94528,0.895,-0.29833,-1.8459,1.1933,1.0224e-10,-0.92295,0,0,0.5,-0,-0,0.66667
0.40735,0.52843,0.8147,0.042652,0.16494,4.6862,-0.092663,0.030888,-1.9942,-0.12355,-1.3086e-11,-0.99712,0,0,0.5,-0,-0,0.66667
0.49622,0.41891,0.99245,-0.12163,-0.41988,3.6864,0.3219,-0.1073,-1.9469,0.4292,1.2963e-12,-0.97344,0,0,0.5,-0,-0,0.66667
0.70639,0.042664,1.4128,-0.686,-1.7677,1.9569,2.5845,-0.86149,-0.32631,3.4459,-6.578e-11,-0.16315,0,0,0.5,-0,-0,0.66667
0.57792,0.82615,1.1558,0.48922,1.5738,2.9518,-1.5079,0.50264,-1.1487,-2.0105,4.4627e-11,-0.57434,0,0,0.5,-0,-1.1295e-16,0.66667
0.75469,0.004817,1.5094,-0.74277,-1.6969,1.6546,2.9897,-0.99656,-0.038542,3.9862,2.9243e-12,-0.019271,0,0,0.5,-0,-0,0.66667
0.95016,0.2406,1.9003,-0.3891,-0.035821,0.29515,1.9718,-0.65726,-1.4614,2.6291,5.9101e-09,-0.7307,0,0,0.5,-0,-0,0.66667
0.17702,0.42636,0.35405,-0.11047,-0.50765,7.5763,0.10429,-0.034765,-1.9561,0.13906,4.7988e-10,-0.97806,0,0,0.5,-0,-0,0.66667
0.78926,0.94083,1.5785,0.66124,1.2439,1.3443,-2.7834,0.9278,-0.44576,-3.7112,1.0493e-09,-0.22288,0,0,0.5,-2.3685e-15,0,0.66667
0.33497,0.19395,0.66993,-0.45907,-2.0062,5.6188,0.82013,-0.27338,-1.2506,1.0935,2.1105e-10,-0.6253,0,0,0.5,-0,-0,0.66667
0.56378,0.40497,1.1276,-0.14254,-0.43843,2.9807,0.42859,-0.14286,-1.9288,0.57146,-2.7185e-11,-0.96438,0,0,0.5,3.7007e-16,0,0.66667
0.20689,0.20808,0.41378,-0.43789,-2.0671,7.2182,0.48317,-0.16106,-1.3178,0.64423,6.8511e-10,-0.65891,0,0,0.5,2.9606e-16,0,0.66667
0.74097,0.045532,1.4819,-0.6817,-1.5705,1.6939,2.694,-0.89799,-0.34702,3.592,-1.8326e-10,-0.17351,0,0,0.5,-0,-0,0.66667
0.98,0.51363,1.96,0.020449,-0.0076033,0.061258,-0.10689,0.035629,-1.9979,-0.14252,-4.8424e-07,-0.99896,0,0,0.5,-0,-0,0.66667
0.83333,0.19865,1.6667,-0.45203,-0.56876,0.90343,2.009,-0.66967,-1.273,2.6787,-3.1794e-10,-0.63649,0,0,0.5,-0,-0,0.66667
0.62051,0.48939,1.241,-0.015914,-0.042912,2.4172,0.052666,-0.017555,-1.9987,0.070221,-6.5843e-12,-0.99933,0,0,0.5,1.1842e-15,0,0.66667
0.49211,0.53688,0.98421,0.055317,0.19148,3.7261,-0.14518,0.048395,-1.9891,-0.19358,-1.4195e-12,-0.99457,0,0,0.5,1.1842e-15,0,0.66667
0.52358,0.46563,1.0472,-0.051553,-0.16964,3.3877,0.14396,-0.047986,-1.991,0.19194,-3.7325e-12,-0.99548,0,0,0.5,1.4803e-16,0,0.66667
0.93153,0.69868,1.8631,0.29802,0.063795,0.31639,-1.4806,0.49353,-1.6837,-1.9741,8.2382e-09,-0.84185,0,0,0.5,-0,-0,0.66667
0.15835,0.40239,0.31669,-0.14642,-0.67917,7.8239,0.12366,-0.041219,-1.9242,0.16487,3.7725e-10,-0.96212,0,0,0.5,-7.4015e-17,0,0.66667
0.59051,0.34256,1.181,-0.23616,-0.69624,2.734,0.74377,-0.24792,-1.8026,0.9917,-5.9646e-11,-0.90129,0,0,0.5,-1.1842e-15,0,0.66667
0.63801,0.24598,1.276,-0.38104,-1.0401,2.3371,1.2966,-0.43218,-1.4842,1.7287,-1.3993e-10,-0.74209,0,0,0.5,-0,-0,0.66667
0.90792,0.27379,1.8158,-0.33932,-0.16049,0.44146,1.6431,-0.54769,-1.5906,2.1907,-8.8804e-10,-0.79531,0,0,0.5,-1.1842e-15,0,0.66667
0.2694,0.3406,0.5388,-0.2391,-1.0574,6.3908,0.34354,-0.11451,-1.7972,0.45805,1.2034e-10,-0.89862,0,0,0.5,4.4409e-16,0,0.66667
0.71075,0.50843,1.4215,0.012651,0.026006,1.626,-0.047957,0.015986,-1.9991,-0.063942,1.2634e-11,-0.99956,0,0,0.5,-0,-0,0.66667
0.35033,0.7624,0.70065,0.3936,1.6752,5.4162,-0.7354,0.24513,-1.4486,-0.98053,-1.6364e-10,-0.72429,0,0,0.5,-5.9212e-16,0,0.66667
0.36439,0.96919,0.72877,0.70378,3.2061,5.3577,-1.3677,0.45591,-0.23988,-1.8236,-3.5335e-12,-0.11994,0,0,0.5,-0,-0,0.66667
0.081405,0.23915,0.16281,-0.39128,-1.9069,8.8585,0.16988,-0.056626,-1.4552,0.22651,-4.2001e-09,-0.72762,0,0,0.5,-0,-0,0.66667
0.3283,0.55945,0.65661,0.08917,0.37304,5.6405,-0.15613,0.052044,-1.9725,-0.20818,-5.6093e-11,-0.98623,0,0,0.5,-0,-0,0.66667
0.32443,0.42529,0.64886,-0.11206,-0.47084,5.6897,0.1939,-0.064633,-1.9548,0.25853,6.919e-11,-0.97742,0,0,0.5,-0,-0,0.66667
0.029581,0.22891,0.059161,-0.40663,-1.9993,9.5495,0.064152,-0.021384,-1.4118,0.085535,2.7161e-09,-0.70591,0,0,0.5,-0,-0,0.66667
0.54957,0.33671,1.0991,-0.24494,-0.78415,3.1448,0.71793,-0.23931,-1.7867,0.95724,-3.1012e-11,-0.89333,0,0,0.5,-0,-0,0.66667
0.70674,0.3877,1.4135,-0.16844,-0.35634,1.6764,0.63491,-0.21164,-1.8986,0.84655,-1.0827e-10,-0.9493,0,0,0.5,1.1842e-15,0,0.66667
0.4985,0.88039,0.997,0.57059,2.1467,3.7994,-1.517,0.50567,-0.84269,-2.0227,-3.616e-13,-0.42134,0,0,0.5,1.1842e-15,-7.4356e-16,0.66667
0.5273,0.29545,1.0546,-0.30682,-1.0324,3.3913,0.86287,-0.28762,-1.6647,1.1505,-1.819e-11,-0.83235,0,0,0.5,1.1842e-15,0,0.66667
0.10581,0.53832,0.21163,0.057485,0.26981,8.5205,-0.032441,0.010814,-1.9882,-0.043255,7.5289e-09,-0.99409,0,0,0.5,-0,-0,0.66667
0.68474,0.87934,1.3695,0.56901,1.4709,2.039,-2.078,0.69267,-0.84915,-2.7707,2.2001e-10,-0.42458,0,0,0.5,-0,1.1427e-17,0.66667
0.47114,0.11289,0.94229,-0.58066,-2.2737,4.0971,1.4591,-0.48635,-0.80075,1.9454,6.0504e-12,-0.40037,0,0,0.5,-5.9212e-16,0,0.66667
0.22927,0.8793,0.45854,0.56895,2.734,6.9581,-0.6957,0.2319,-0.8493,-0.9276,-1.2798e-09,-0.42465,0,0,0.5,-5.9212e-16,0,0.66667
0.85572,0.85186,1.7114,0.52778,0.59823,0.83203,-2.4087,0.80291,-1.0094,-3.2116,2.3441e-09,-0.50469,0,0,0.5,-0,-0,0.66667
0.56519,0.76802,1.1304,0.40204,1.2921,3.0375,-1.2119,0.40396,-1.4248,-1.6158,4.543e-11,-0.7124,0,0,0.5,-0,-0,0.66667
0.99916,0.89649,1.9983,0.59473,-0.12346,0.31652,-3.1692,1.0564,-0.74222,-4.2256,-1.7615e-06,-0.37111,0,0,0.5,-0,-0,0.66667
0.077097,0.31797,0.15419,-0.27304,-1.3094,8.9104,0.11227,-0.037423,-1.7352,0.14969,1.1335e-08,-0.86761,0,0,0.5,-0,-0,0.66667
0.515,0.17398,1.03,-0.48903,-1.7524,3.5871,1.3432,-0.44774,-1.1493,1.791,-6.6567e-12,-0.57465,0,0,0.5,-0,1.1087e-16,0.66667
0.30396,0.20562,0.60791,-0.44158,-1.9692,5.9936,0.71584,-0.23861,-1.3061,0.95445,3.2072e-10,-0.65304,0,0,0.5,-5.9212e-16,0,0.66667
0.86161,0.78636,1.7232,0.42953,0.42181,0.72827,-1.9738,0.65794,-1.3443,-2.6318,-1.0534e-09,-0.67213,0,0,0.5,-0,-0,0.66667
0.16178,0.44413,0.32355,-0.083803,-0.38698,7.7765,0.072305,-0.024102,-1.9749,0.096407,9.6761e-10,-0.98747,0,0,0.5,5.9212e-16,0,0.66667
0.0013843,0.43984,0.0027686,-0.090236,-0.42939,9.9258,0.00066427,-0.00022763,-1.9718,0.00088258,-9.3177e-06,-0.98591,0,0,0.5,-0,-0,0.66667
0.44299,0.16485,0.88597,-0.50272,-1.9935,4.3727,1.1877,-0.39591,-1.1011,1.5836,2.6682e-11,-0.55055,0,0,0.5,1.1842e-15,0,0.66667
0.67716,0.99973,1.3543,0.7496,2.1642,2.2451,-2.7072,0.90239,-0.0031405,-3.6096,-4.8594e-12,-0.0015702,0,0,0.5,2.1834e-15,0,0.66667
0.96791,0.35873,1.9358,-0.2119,0.042368,0.14043,1.0939,-0.36462,-1.8399,1.4585,9.8985e-09,-0.91997,0,0,0.5,-0,-0,0.66667
0.62011,0.12849,1.2402,-0.55726,-1.6836,2.592,1.843,-0.61433,-0.89626,2.4573,-6.5742e-11,-0.44813,0,0,0.5,2.3685e-15,0,0.66667
0.19035,0.92635,0.38071,0.63953,3.1854,7.4684,-0.64927,0.21642,-0.54537,-0.86569,-2.3092e-09,-0.27268,0,0,0.5,-0,-0,0.66667
0.36217,0.29186,0.72434,-0.31221,-1.2962,5.2554,0.60306,-0.20102,-1.6531,0.80408,1.2283e-10,-0.82653,0,0,0.5,-0,-0,0.66667
0.78006,0.16497,1.5601,-0.50254,-0.88781,1.2765,2.0907,-0.69691,-1.1019,2.7876,-1.2419e-09,-0.55097,0,0,0.5,-0,-0,0.66667
0.32974,0.15921,0.65949,-0.51119,-2.2702,5.697,0.89899,-0.29966,-1.0715,1.1987,2.1551e-10,-0.53577,0,0,0.5,1.1842e-15,0,0.66667
0.16424,0.31847,0.32848,-0.27229,-1.2752,7.7538,0.23852,-0.079506,-1.7364,0.31802,-5.8434e-10,-0.86818,0,0,0.5,-0,-0,0.66667
0.28507,0.99317,0.57014,0.73975,3.613,6.317,-1.1247,0.3749,-0.054246,-1.4996,-1.8772e-12,-0.027123,0,0,0.5,-0,-0,0.66667
0.04034,0.82931,0.080681,0.49397,2.4671,9.4088,-0.10628,0.035426,-1.1318,-0.1417,-3.4521e-08,-0.56588,0,0,0.5,-0,-0,0.66667
0.75512,0.97231,1.5102,0.70847,1.5795,1.6182,-2.8532,0.95107,-0.21575,-3.8043,8.8392e-11,-0.10787,0,0,0.5,2.3685e-15,0,0.66667
0.28529,0.94636,0.57057,0.66953,3.2009,6.2893,-1.0187,0.33957,-0.40585,-1.3583,-1.2327e-10,-0.20293,0,0,0.5,-0,-0,0.66667
0.7645,0.31156,1.529,-0.28265,-0.48497,1.2667,1.1525,-0.38416,-1.717,1.5366,-4.8536e-11,-0.8585,0,0,0.5,-1.1842e-15,0,0.66667
0.84257,0.63037,1.6851,0.19556,0.19622,0.72518,-0.87879,0.29293,-1.8643,-1.1717,-5.7684e-10,-0.93216,0,0,0.5,-2.3685e-15,0,0.66667
0.45502,0.68833,0.91004,0.28249,1.0533,4.1689,-0.68554,0.22851,-1.7173,-0.91405,-3.0193e-11,-0.85865,0,0,0.5,1.1842e-15,0,0.66667
0.85839,0.65863,1.7168,0.23794,0.20913,0.64824,-1.0893,0.36311,-1.7995,-1.4524,-1.3327e-09,-0.89975,0,0,0.5,-0,-0,0.66667
0.99143,0.94876,1.9829,0.67314,-0.015097,0.42437,-3.5593,1.1864,-0.38838,-4.7457,-1.9505e-06,-0.19419,0,0,0.5,-0,-0,0.66667
0.94175,0.82043,1.8835,0.48064,0.1247,0.39391,-2.4141,0.8047,-1.1784,-3.2188,2.7512e-09,-0.58921,0,0,0.5,-0,-0,0.66667
0.97927,0.49542,1.9585,-0.0068697,0.0025088,0.063314,0.035882,-0.011961,-2.0001,0.047843,-9.2143e-07,-1,0,0,0.5,-3.5527e-15,0,0.66667
0.95065,0.89175,1.9013,0.58762,0.16931,0.45714,-2.9793,0.99311,-0.77175,-3.9725,-1.3683e-07,-0.38587,0,0,0.5,1.1842e-15,0,0.66667
0.96389,0.84945,1.9278,0.52417,0.041853,0.35147,-2.6946,0.89821,-1.0231,-3.5928,-1.4545e-08,-0.51157,0,0,0.5,-0,-0,0.66667
0.69794,0.65299,1.3959,0.22948,0.50639,1.7638,-0.8542,0.28473,-1.8132,-1.1389,1.3018e-10,-0.90659,0,0,0.5,1.1842e-15,0,0.66667
0.15618,0.43843,0.31237,-0.092353,-0.42748,7.8507,0.076928,-0.025643,-1.9708,0.10257,4.8454e-10,-0.98541,0,0,0.5,-0,-0,0.66667
0.64676,0.28654,1.2935,-0.32019,-0.84063,2.234,1.1045,-0.36815,-1.6356,1.4726,-1.3711e-10,-0.81778,0,0,0.5,-2.3685e-15,0,0.66667
0.99073,0.98547,1.9815,0.7282,0.047368,0.49417,-3.8477,1.2826,-0.11393,-5.1303,2.1085e-06,-0.056966,0,0,0.5,-1.1842e-15,0,0.66667
0.24429,0.35672,0.48858,-0.21492,-0.96274,6.7084,0.28001,-0.093336,-1.8352,0.37334,8.0886e-11,-0.91758,0,0,0.5,-0,-0,0.66667
0.68176,0.52694,1.3635,0.040405,0.091835,1.8683,-0.14692,0.048972,-1.9944,-0.19589,2.9234e-11,-0.99722,0,0,0.5,1.1842e-15,0,0.66667
0.12926,0.94433,0.25852,0.66649,3.4135,8.2581,-0.45948,0.15316,-0.42052,-0.61264,-1.2334e-08,-0.21026,0,0,0.5,-0,-0,0.66667
0.99818,0.4018,1.9964,-0.1473,0.079763,0.024431,0.78417,-0.26139,-1.9232,1.0456,-1.9984e-06,-0.96162,0,0,0.5,1.7764e-15,0,0.66667
0.41986,0.3835,0.83972,-0.17476,-0.67134,4.5509,0.39132,-0.13044,-1.8913,0.52176,4.1136e-11,-0.94564,0,0,0.5,-0,-0,0.66667
0.35068,0.69955,0.70136,0.29933,1.2533,5.3915,-0.55983,0.18661,-1.6809,-0.74644,-1.3231e-10,-0.84043,0,0,0.5,-5.9212e-16,0,0.66667
0.20659,0.19178,0.41318,-0.46233,-2.1933,7.2261,0.5094,-0.1698,-1.2403,0.6792,9.5507e-10,-0.62017,0,0,0.5,-5.9212e-16,0,0.66667
0.85016,0.0082616,1.7003,-0.73761,-1.0765,1.0632,3.3444,-1.1148,-0.065258,4.4593,-1.7815e-09,-0.032629,0,0,0.5,-0,-0,0.66667
0.6124,0.82578,1.2248,0.48866,1.4647,2.6236,-1.5961,0.53202,-1.1504,-2.1281,8.3729e-11,-0.57522,0,0,0.5,-0,-0,0.66667
0.57534,0.67458,1.1507,0.26187,0.8002,2.8896,-0.80354,0.26785,-1.7557,-1.0714,5.1119e-11,-0.87784,0,0,0.5,-0,-0,0.66667
0.24805,0.19061,0.4961,-0.46409,-2.1558,6.6976,0.61396,-0.20465,-1.2348,0.81861,7.0998e-10,-0.6174,0,0,0.5,5.9212e-16,0,0.66667
0.13351,0.054195,0.26701,-0.66871,-3.4229,8.2036,0.47615,-0.15872,-0.40976,0.63486,9.1648e-09,-0.20488,0,0,0.5,-0,-0,0.66667
0.064967,0.69842,0.12993,0.29763,1.4344,9.0735,-0.10312,0.034375,-1.6847,-0.1375,-2.8741e-09,-0.84234,0,0,0.5,-1.4803e-16,0,0.66667
0.60725,0.31245,1.2145,-0.28132,-0.80609,2.5854,0.91111,-0.3037,-1.7198,1.2148,-8.2315e-11,-0.8599,0,0,0.5,-1.6718e-15,0,0.66667
0.72959,0.57936,1.4592,0.11904,0.22924,1.485,-0.46321,0.1544,-1.949,-0.61762,1.0561e-10,-0.9745,0,0,0.5,-0,-0,0.66667
0.4249,0.43766,0.8498,-0.093517,-0.35501,4.4844,0.21192,-0.07064,-1.97,0.28256,2.2076e-11,-0.98501,0,0,0.5,-0,-0,0.66667
0.099,0.91922,0.198,0.62883,3.212,8.6462,-0.33202,0.11067,-0.59343,-0.4427,-1.3899e-08,-0.29671,0,0,0.5,-0,-0,0.66667
0.089276,0.6007,0.17855,0.15104,0.71461,8.7436,-0.071917,0.023972,-1.9188,-0.09589,-2.0834e-08,-0.9594,0,0,0.5,-0,-0,0.66667
0.52952,0.48026,1.059,-0.029606,-0.096385,3.3242,0.083611,-0.02787,-1.9965,0.11148,-2.6939e-12,-0.99826,0,0,0.5,-0,-0,0.66667
0.33597,0.25846,0.67194,-0.36231,-1.5522,5.5829,0.6492,-0.2164,-1.533,0.86559,1.8182e-10,-0.76648,0,0,0.5,-0,-0,0.66667
0.6614,0.58679,1.3228,0.13019,0.31696,2.0543,-0.45925,0.15308,-1.9396,-0.61233,7.112e-11,-0.96981,0,0,0.5,-0,-0,0.66667
0.9539,0.7147,1.9078,0.32206,0.0015065,0.24089,-1.6384,0.54615,-1.6317,-2.1846,-1.5035e-08,-0.81587,0,0,0.5,-1.7764e-15,0,0.66667
0.048989,0.1339,0.097979,-0.54915,-2.7731,9.2966,0.14348,-0.047826,-0.9276,0.1913,-9.9319e-09,-0.4638,0,0,0.5,1.4803e-16,0,0.66667
0.12125,0.59496,0.2425,0.14244,0.66844,8.3161,-0.092114,0.030705,-1.9287,-0.12282,-5.0874e-09,-0.96436,0,0,0.5,-0,-0,0.66667
0.60823,0.069076,1.2165,-0.64639,-2.0751,2.7593,2.0968,-0.69894,-0.51457,2.7958,-1.5797e-11,-0.25728,0,0,0.5,-0,-3.9352e-16,0.66667
0.29619,0.84512,0.59239,0.51768,2.3606,6.1088,-0.81777,0.27259,-1.0482,-1.0904,-3.8756e-10,-0.52409,0,0,0.5,1.1842e-15,6.4052e-16,0.66667
0.71874,0.77776,1.4375,0.41664,0.90615,1.6725,-1.5971,0.53237,-1.3835,-2.1295,3.8538e-10,-0.69173,0,0,0.5,1.7764e-15,0,0.66667
0.48481,0.8088,0.96963,0.4632,1.7226,3.8971,-1.1977,0.39922,-1.2378,-1.5969,-7.7133e-12,-0.61888,0,0,0.5,7.4015e-16,0,0.66667
0.95416,0.90269,1.9083,0.60404,0.16477,0.4614,-3.0739,1.0246,-0.7033,-4.0985,1.1698e-07,-0.35165,0,0,0.5,-0,-0,0.66667
0.35878,0.25036,0.71755,-0.37446,-1.5761,5.3099,0.71652,-0.23884,-1.5027,0.95537,1.4506e-10,-0.75133,0,0,0.5,1.1842e-15,0,0.66667
0.72512,0.76654,1.4502,0.39981,0.84419,1.6139,-1.5462,0.5154,-1.431,-2.0616,3.6908e-10,-0.7155,0,0,0.5,-0,-0,0.66667
0.59297,0.27261,1.1859,-0.34108,-1.0217,2.742,1.0787,-0.35955,-1.5863,1.4382,-7.4225e-11,-0.79315,0,0,0.5,-0,-0,0.66667
0.70173,0.86943,1.4035,0.55415,1.3534,1.8913,-2.0739,0.69131,-0.9084,-2.7652,3.3308e-10,-0.4542,0,0,0.5,-5.9212e-16,0,0.66667
0.28609,0.64282,0.57217,0.21423,0.9343,6.1772,-0.32688,0.10896,-1.8362,-0.43584,-1.2402e-10,-0.91811,0,0,0.5,-2.9606e-16,0,0.66667
0.55036,0.0073181,1.1007,-0.73902,-2.7351,3.3744,2.1692,-0.72308,-0.058021,2.8923,-5.5733e-14,-0.02901,0,0,0.5,-0,-0,0.66667
0.0072068,0.9965,0.014414,0.74475,3.9657,9.8507,-0.028609,0.0095205,-0.028245,-0.038154,-2.3916e-05,-0.014122,0,0,0.5,-9.2519e-18,0,0.66667
0.95089,0.73424,1.9018,0.35136,0.019566,0.2688,-1.7819,0.59397,-1.5605,-2.3759,7.8172e-09,-0.78027,0,0,0.5,-1.1842e-15,0,0.66667
0.43824,0.37122,0.87647,-0.19317,-0.72715,4.342,0.45148,-0.15049,-1.8679,0.60197,3.3521e-11,-0.93395,0,0,0.5,1.4803e-16,0,0.66667
0.35615,0.7316,0.71229,0.34739,1.4586,5.3353,-0.65985,0.21995,-1.5704,-0.8798,-1.416e-10,-0.7852,0,0,0.5,-0,-0,0.66667
0.10194,0.58169,0.20388,0.12254,0.57719,8.5734,-0.066623,0.022208,-1.946,-0.08883,4.8605e-11,-0.97301,0,0,0.5,-0,-0,0.66667
0.23738,0.33081,0.47476,-0.25378,-1.1461,6.801,0.32129,-0.1071,-1.7705,0.42839,5.2989e-11,-0.88525,0,0,0.5,2.9606e-16,0,0.66667
0.29709,0.17858,0.59417,-0.48213,-2.1794,6.0884,0.76392,-0.25464,-1.1735,1.0186,3.7844e-10,-0.58673,0,0,0.5,-2.9606e-16,0,0.66667
0.47856,0.18239,0.95713,-0.47641,-1.7932,3.9701,1.216,-0.40532,-1.1931,1.6213,1.0252e-11,-0.59656,0,0,0.5,5.9212e-16,0,0.66667
0.41502,0.63324,0.83003,0.19986,0.77401,4.6106,-0.44237,0.14746,-1.8577,-0.58983,-4.8967e-11,-0.92884,0,0,0.5,-0,-0,0.66667
0.056184,0.26058,0.11237,-0.35913,-1.7479,9.193,0.10761,-0.035871,-1.5409,0.14348,5.211e-09,-0.77047,0,0,0.5,-1.4803e-16,0,0.66667
0.58894,0.62004,1.1779,0.18006,0.52826,2.7371,-0.56557,0.18852,-1.8849,-0.75409,4.7462e-11,-0.94244,0,0,0.5,-0,-0,0.66667
0.067005,0.13597,0.13401,-0.54605,-2.7495,9.0587,0.19514,-0.065045,-0.93937,0.26018,-3.6916e-08,-0.46968,0,0,0.5,1.4803e-16,0,0.66667
0.27883,0.90532,0.55766,0.60798,2.8688,6.3489,-0.90412,0.30137,-0.68673,-1.2055,-3.5658e-10,-0.34337,0,0,0.5,-9.0385e-17,0,0.66667
0.93135,0.66958,1.8627,0.25437,0.048561,0.2972,-1.2635,0.42118,-1.7693,-1.6847,-1.1542e-08,-0.88465,0,0,0.5,2.3685e-15,0,0.66667
0.70165,0.30499,1.4033,-0.29252,-0.64734,1.7537,1.0946,-0.36488,-1.6958,1.4595,-1.7442e-10,-0.84788,0,0,0.5,5.9212e-16,0,0.66667
0.68369,0.22207,1.3674,-0.41689,-1.0161,1.9565,1.5201,-0.50672,-1.3825,2.0269,-2.6167e-10,-0.69125,0,0,0.5,2.3685e-15,0,0.66667
0.35623,0.23193,0.71246,-0.4021,-1.7053,5.3473,0.76395,-0.25465,-1.4246,1.0186,1.53e-10,-0.7123,0,0,0.5,-0,-0,0.66667
0.59594,0.52362,1.1919,0.035423,0.10122,2.6525,-0.11259,0.037529,-1.9955,-0.15011,1.1202e-11,-0.99774,0,0,0.5,-0,-0,0.66667
0.82071,0.68626,1.6414,0.27939,0.34606,0.88732,-1.2229,0.40764,-1.7232,-1.6306,-4.7576e-10,-0.86161,0,0,0.5,-0,-0,0.66667
0.77901,0.60893,1.558,0.16339,0.2518,1.1272,-0.67886,0.22629,-1.9046,-0.90514,1.1365e-10,-0.95228,0,0,0.5,-0,-0,0.66667
0.75092,0.77838,1.5018,0.41756,0.80318,1.429,-1.6723,0.55743,-1.3808,-2.2297,4.9829e-10,-0.69039,0,0,0.5,1.1842e-15,0,0.66667
0.53154,0.056081,1.0631,-0.66588,-2.4657,3.5121,1.8877,-0.62923,-0.4237,2.5169,-1.341e-12,-0.21185,0,0,0.5,2.9606e-16,0,0.66667
0.74519,0.8227,1.4904,0.48404,0.98325,1.5109,-1.9238,0.64125,-1.1665,-2.565,7.0721e-10,-0.58326,0,0,0.5,-0,-0,0.66667
0.21772,0.41978,0.43544,-0.12033,-0.54294,7.0447,0.13972,-0.046573,-1.9481,0.18629,2.0245e-10,-0.97406,0,0,0.5,-2.9606e-16,0,0.66667
0.51855,0.57939,1.0371,0.11908,0.39661,3.4463,-0.32933,0.10978,-1.949,-0.4391,6.4107e-12,-0.97452,0,0,0.5,-0,-0,0.66667
0.81265,0.86599,1.6253,0.54898,0.84568,1.0996,-2.3793,0.79312,-0.92837,-3.1725,2.6066e-09,-0.46418,0,0,0.5,5.9212e-16,0,0.66667
0.27694,0.25652,0.55388,-0.36522,-1.6359,6.3141,0.53943,-0.17981,-1.5257,0.71924,2.8995e-10,-0.76286,0,0,0.5,-0,-0,0.66667
0.50368,0.54304,1.0074,0.064559,0.21958,3.601,-0.17342,0.057807,-1.9847,-0.23123,6.6389e-13,-0.99235,0,0,0.5,-0,-0,0.66667
0.65239,0.09754,1.3048,-0.60369,-1.7254,2.3358,2.1005,-0.70016,-0.70459,2.8006,-8.1208e-11,-0.3523,0,0,0.5,-0,-0,0.66667
0.08124,0.28293,0.16248,-0.32561,-1.571,8.8573,0.14108,-0.047026,-1.6238,0.1881,-1.6694e-09,-0.81192,0,0,0.5,-0,-0,0.66667
0.14553,0.27324,0.29105,-0.34014,-1.618,8.0058,0.26399,-0.087997,-1.5884,0.35199,-8.6786e-10,-0.79421,0,0,0.5,1.4803e-16,0,0.66667
0.59348,0.93421,1.187,0.65132,2.1568,2.8995,-2.0616,0.68719,-0.49238,-2.7488,9.7207e-12,-0.24619,0,0,0.5,5.9212e-16,-2.2304e-16,0.66667
0.41393,0.024229,0.82785,-0.71366,-3.1147,4.796,1.5755,-0.52516,-0.18898,2.1006,8.8374e-13,-0.094488,0,0,0.5,-0,-0,0.66667
0.13115,0.39261,0.26229,-0.16109,-0.75472,8.185,0.11267,-0.037557,-1.9071,0.15023,-1.1707e-09,-0.95355,0,0,0.5,-1.4803e-16,0,0.66667
0.80877,0.86814,1.6175,0.55221,0.87119,1.1262,-2.3819,0.79397,-0.91574,-3.1759,2.495e-09,-0.45787,0,0,0.5,1.1842e-15,0,0.66667
0.71564,0.28785,1.4313,-0.31823,-0.67581,1.6509,1.2146,-0.40487,-1.6399,1.6195,-2.059e-10,-0.81997,0,0,0.5,-0,-0,0.66667
0.97583,0.28545,1.9517,-0.32183,0.071193,0.1645,1.6749,-0.55831,-1.632,2.2332,-1.5e-08,-0.81599,0,0,0.5,-0,-0,0.66667
0.040034,0.77323,0.080067,0.40984,2.0146,9.4102,-0.087506,0.029169,-1.4025,-0.11667,-1.4704e-08,-0.70126,0,0,0.5,-0,-0,0.66667
0.80309,0.78713,1.6062,0.43069,0.64716,1.0768,-1.8447,0.61491,-1.3405,-2.4596,5.438e-10,-0.67023,0,0,0.5,-0,-0,0.66667
0.49155,0.76403,0.98311,0.39604,1.4352,3.7993,-1.0383,0.34609,-1.4417,-1.3844,-5.2282e-12,-0.72083,0,0,0.5,-0,-0,0.66667
0.19478,0.51431,0.38955,0.02147,0.097646,7.3413,-0.022303,0.0074343,-1.9977,-0.029737,-1.9109e-10,-0.99885,0,0,0.5,-0,-0,0.66667
0.14213,0.99615,0.28427,0.74423,3.8824,8.1058,-0.56416,0.18805,-0.031182,-0.75221,1.8932e-09,-0.015591,0,0,0.5,7.4015e-17,0,0.66667
0.19893,0.33177,0.39786,-0.25234,-1.162,7.2981,0.26773,-0.089243,-1.7731,0.35697,-1.9562e-10,-0.88654,0,0,0.5,2.9606e-16,0,0.66667
0.0073553,0.33649,0.014711,-0.24526,-1.1802,9.8455,0.0096211,-0.0032071,-1.7859,0.012828,-5.5048e-09,-0.89297,0,0,0.5,-4.6259e-18,0,0.66667
0.12102,0.53567,0.24204,0.053511,0.25015,8.3173,-0.034539,0.011513,-1.9901,-0.046052,-1.2594e-08,-0.99505,0,0,0.5,-0,-0,0.66667
0.69054,0.31819,1.3811,-0.27271,-0.62287,1.8386,1.0044,-0.33479,-1.7357,1.3392,-1.5446e-10,-0.86785,0,0,0.5,-0,-0,0.66667
0.2922,0.89439,0.58439,0.59159,2.7554,6.1794,-0.92192,0.30731,-0.75511,-1.2292,-2.9945e-10,-0.37755,0,0,0.5,2.9606e-16,0,0.66667
0.49257,0.89587,0.98514,0.5938,2.2693,3.8741,-1.5599,0.51998,-0.74584,-2.0799,-1.2635e-12,-0.37292,0,0,0.5,-0,-0,0.66667
0.88095,0.81143,1.7619,0.46714,0.39113,0.65339,-2.1948,0.7316,-1.2249,-2.9264,-1.246e-09,-0.61247,0,0,0.5,-1.7764e-15,0,0.66667
0.5238,0.641,1.0476,0.2115,0.70495,3.405,-0.59084,0.19695,-1.8403,-0.78779,1.3181e-11,-0.92014,0,0,0.5,-0,-0,0.66667
0.70601,0.66852,1.412,0.25279,0.54547,1.7046,-0.95184,0.31728,-1.7723,-1.2691,1.4506e-10,-0.88616,0,0,0.5,-0,-0,0.66667
0.15105,0.79881,0.30211,0.44821,2.1679,7.9445,-0.36109,0.12036,-1.2851,-0.48145,1.8767e-10,-0.64254,0,0,0.5,-0,-0,0.66667
0.43644,0.12165,0.87288,-0.56753,-2.3088,4.473,1.321,-0.44034,-0.85542,1.7614,1.8481e-11,-0.42771,0,0,0.5,1.4803e-16,2.2678e-16,0.66667
0.89086,0.94844,1.7817,0.67266,0.66357,0.78995,-3.196,1.0653,-0.39101,-4.2613,1.4422e-08,-0.1955,0,0,0.5,-0,-0,0.66667
0.15977,0.19566,0.31954,-0.45651,-2.2049,7.8317,0.38899,-0.12966,-1.2588,0.51866,1.8036e-10,-0.62941,0,0,0.5,-0,-0,0.66667
0.11866,0.40741,0.23731,-0.13889,-0.65206,8.3506,0.087892,-0.029297,-1.9322,0.11719,4.3059e-09,-0.96611,0,0,0.5,-0,-0,0.66667
0.82221,0.86054,1.6444,0.54081,0.783,1.0347,-2.3715,0.7905,-0.95945,-3.162,2.7387e-09,-0.47973,0,0,0.5,1.1842e-15,0,0.66667
0.058073,0.36444,0.11615,-0.20334,-0.97091,9.1633,0.062978,-0.020993,-1.8526,0.083971,-6.3062e-08,-0.92628,0,0,0.5,7.4015e-17,0,0.66667
0.23225,0.68184,0.46449,0.27276,1.2382,6.869,-0.33785,0.11262,-1.7357,-0.45047,-3.2472e-11,-0.86783,0,0,0.5,-2.9606e-16,0,0.66667
0.59496,0.98912,1.1899,0.73367,2.5094,2.946,-2.328,0.77601,-0.085843,-3.104,4.2943e-13,-0.042921,0,0,0.5,-0,-0,0.66667
0.71146,0.41434,1.4229,-0.12848,-0.26565,1.6306,0.48753,-0.16251,-1.941,0.65004,-9.6594e-11,-0.97051,0,0,0.5,-0,-0,0.66667
0.43296,0.072959,0.86591,-0.64056,-2.6748,4.546,1.4791,-0.49304,-0.54066,1.9722,7.0247e-12,-0.27033,0,0,0.5,-0,-0,0.66667
0.47992,0.005084,0.95984,-0.74237,-3.0386,4.0936,1.9002,-0.63339,-0.040625,2.5336,-1.1169e-13,-0.020312,0,0,0.5,-0,-3.3831e-16,0.66667
0.086929,0.78992,0.17386,0.43489,2.1335,8.7879,-0.20162,0.067208,-1.3272,-0.26883,3.7809e-09,-0.66361,0,0,0.5,-0,-0,0.66667
0.61004,0.94796,1.2201,0.67194,2.1727,2.761,-2.1862,0.72873,-0.39443,-2.9149,9.5026e-12,-0.19722,0,0,0.5,-0,-0,0.66667
0.28032,0.88183,0.56064,0.57274,2.6753,6.3202,-0.85627,0.28542,-0.83377,-1.1417,-4.4013e-10,-0.41689,0,0,0.5,-5.9212e-16,4.0444e-16,0.66667
0.91892,0.34558,1.8378,-0.23163,-0.069988,0.34179,1.1352,-0.3784,-1.81,1.5136,5.7387e-09,-0.90501,0,0,0.5,-0,-0,0.66667
0.23822,0.098807,0.47644,-0.60179,-2.9024,6.8532,0.76457,-0.25486,-0.71254,1.0194,9.4115e-10,-0.35627,0,0,0.5,5.9212e-16,0,0.66667
0.75065,0.098175,1.5013,-0.60274,-1.2787,1.5569,2.4131,-0.80435,-0.70876,3.2174,-7.2628e-10,-0.35438,0,0,0.5,-2.3685e-15,0,0.66667
0.70514,0.74125,1.4103,0.36188,0.8084,1.7537,-1.3609,0.45364,-1.5342,-1.8146,2.584e-10,-0.76711,0,0,0.5,-0,-0,0.66667
0.12278,0.10137,0.24556,-0.59794,-3.0138,8.3325,0.39155,-0.13052,-0.72871,0.52207,6.6084e-09,-0.36435,0,0,0.5,-0,-0,0.66667
0.20873,0.73491,0.41745,0.35236,1.6372,7.182,-0.39226,0.13075,-1.5579,-0.52301,-6.1518e-11,-0.77895,0,0,0.5,-0,-0,0.66667
0.19717,0.33817,0.39434,-0.24274,-1.1175,7.3202,0.25526,-0.085088,-1.7905,0.34035,-2.1249e-10,-0.89527,0,0,0.5,-0,-0,0.66667
0.78433,0.68777,1.5687,0.28165,0.43693,1.1268,-1.1782,0.39272,-1.719,-1.5709,-8.4732e-11,-0.85952,0,0,0.5,2.3685e-15,0,0.66667
0.55115,0.047646,1.1023,-0.67853,-2.4477,3.3247,1.9945,-0.66484,-0.3624,2.6594,-1.9266e-12,-0.1812,0,0,0.5,-1.1842e-15,0,0.66667
0.50799,0.84727,1.016,0.5209,1.9039,3.6752,-1.4112,0.47042,-1.0356,-1.8817,2.8836e-12,-0.5178,0,0,0.5,-0,-0,0.66667
0.74258,0.32315,1.4852,-0.26527,-0.49926,1.422,1.0506,-0.35019,-1.7493,1.4008,-1.1777e-10,-0.87465,0,0,0.5,1.1842e-15,0,0.66667
0.87749,0.77433,1.755,0.41149,0.33702,0.63275,-1.9258,0.64192,-1.398,-2.5677,-2.5409e-09,-0.69898,0,0,0.5,5.9212e-16,0,0.66667
0.070046,0.20967,0.14009,-0.4355,-2.1429,9.0119,0.16269,-0.05423,-1.3253,0.21692,-5.6238e-09,-0.66264,0,0,0.5,-7.4015e-17,0,0.66667
0.37632,0.79928,0.75264,0.44891,1.8871,5.121,-0.901,0.30033,-1.2831,-1.2013,-1.123e-10,-0.64153,0,0,0.5,5.9212e-16,0,0.66667
0.34177,0.35177,0.68355,-0.22235,-0.92903,5.4875,0.40529,-0.1351,-1.8241,0.54039,1.084e-10,-0.91207,0,0,0.5,-0,-0,0.66667
0.84428,0.24471,1.6886,-0.38294,-0.42139,0.79648,1.7243,-0.57477,-1.479,2.2991,7.2911e-10,-0.73948,0,0,0.5,1.1842e-15,0,0.66667
0.76885,0.67753,1.5377,0.2663,0.44495,1.2294,-1.092,0.36399,-1.7475,-1.456,2.7365e-11,-0.87376,0,0,0.5,-5.9212e-16,0,0.66667
0.5325,0.78639,1.065,0.42958,1.4731,3.3799,-1.22,0.40667,-1.3442,-1.6267,1.9232e-11,-0.67209,0,0,0.5,1.1842e-15,0,0.66667
0.089548,0.037124,0.1791,-0.69431,-3.6154,8.7765,0.3316,-0.11053,-0.28602,0.44213,-1.1497e-08,-0.14301,0,0,0.5,-0,-0,0.66667
0.92511,0.70405,1.8502,0.30607,0.086542,0.34756,-1.5101,0.50337,-1.6664,-2.0135,2.2202e-09,-0.83318,0,0,0.5,-0,-0,0.66667
0.55794,0.054578,1.1159,-0.66813,-2.3736,3.2512,1.9882,-0.66272,-0.41259,2.6509,-2.9242e-12,-0.20629,0,0,0.5,5.9212e-16,-3.8051e-17,0.66667
0.023909,0.61852,0.047819,0.17778,0.84974,9.6224,-0.02267,0.0075568,-1.8875,-0.030227,1.0914e-07,-0.94377,0,0,0.5,3.2661e-17,0,0.66667
0.64606,0.72693,1.2921,0.34039,0.90001,2.2479,-1.1729,0.39096,-1.5878,-1.5638,1.4283e-10,-0.79388,0,0,0.5,-0,-0,0.66667
0.27371,0.95235,0.54742,0.67852,3.2758,6.4343,-0.99049,0.33016,-0.36239,-1.3207,-1.3622e-10,-0.18119,0,0,0.5,-0,-0,0.66667
0.45368,0.64093,0.90735,0.21139,0.78185,4.1698,-0.51148,0.17049,-1.8407,-0.68198,-2.625e-11,-0.92036,0,0,0.5,-0,-0,0.66667
0.89562,0.55546,1.7912,0.083191,0.039866,0.41344,-0.39737,0.13246,-1.9753,-0.52983,1.3235e-08,-0.98764,0,0,0.5,-0,-0,0.66667
0.20404,0.24962,0.40809,-0.37557,-1.7555,7.2457,0.40871,-0.13624,-1.4997,0.54494,1.0611e-10,-0.74984,0,0,0.5,-1.3878e-16,0,0.66667
0.11364,0.12572,0.22728,-0.56142,-2.8116,8.4474,0.34026,-0.11342,-0.88026,0.45368,1.1579e-09,-0.44013,0,0,0.5,-2.9606e-16,0,0.66667
0.61817,0.82868,1.2363,0.49303,1.4614,2.5726,-1.6255,0.54182,-1.1351,-2.1673,9.1002e-11,-0.56753,0,0,0.5,-1.1842e-15,0,0.66667
0.67549,0.37953,1.351,-0.1807,-0.42472,1.9408,0.651,-0.217,-1.8842,0.868,-1.0076e-10,-0.94209,0,0,0.5,-0,-0,0.66667
0.98885,0.48398,1.9777,-0.024031,0.011162,0.033415,0.12674,-0.042249,-1.9973,0.16899,-3.2459e-06,-0.99867,0,0,0.5,-0,-0,0.66667
0.32157,0.57126,0.64314,0.10689,0.45003,5.7248,-0.18332,0.061105,-1.959,-0.24442,-6.8181e-11,-0.97952,0,0,0.5,-0,-0,0.66667
0.90723,0.6197,1.8145,0.17955,0.070711,0.37783,-0.86877,0.28959,-1.8857,-1.1584,-1.8426e-08,-0.94285,0,0,0.5,-0,-0,0.66667
0.59047,0.84133,1.1809,0.512,1.6191,2.8427,-1.6124,0.53746,-1.0686,-2.1498,5.0521e-11,-0.53429,0,0,0.5,2.9606e-16,0,0.66667
0.076837,0.81593,0.15367,0.47389,2.3464,8.9241,-0.1942,0.064733,-1.2021,-0.25893,1.9172e-08,-0.60105,0,0,0.5,-0,-0,0.66667
0.93059,0.025954,1.8612,-0.71107,-0.46625,0.66511,3.5291,-1.1764,-0.20232,4.7055,-6.901e-08,-0.10116,0,0,0.5,-0,-0,0.66667
0.54246,0.74558,1.0849,0.36837,1.2235,3.2542,-1.0657,0.35525,-1.5178,-1.421,2.8894e-11,-0.75889,0,0,0.5,2.9606e-16,0,0.66667
0.47386,0.94375,0.94772,0.66563,2.6704,4.1123,-1.6822,0.56074,-0.42464,-2.243,-1.053e-12,-0.21232,0,0,0.5,-1.1842e-15,0,0.66667
0.54448,0.051543,1.089,-0.67268,-2.4473,3.3869,1.9534,-0.65113,-0.39072,2.6045,-1.8053e-12,-0.19536,0,0,0.5,-5.9212e-16,0,0.66667
0.52734,0.99163,1.0547,0.73745,2.8251,3.6017,-2.0741,0.69135,-0.066136,-2.7654,4.6407e-14,-0.033068,0,0,0.5,-5.9212e-16,-4.643e-16,0.66667
0.66148,0.11325,1.323,-0.58013,-1.6043,2.2415,2.0466,-0.68221,-0.80284,2.7288,-1.25e-10,-0.40142,0,0,0.5,-0,-0,0.66667
0.64445,0.93366,1.2889,0.65049,1.9344,2.4384,-2.2358,0.74526,-0.49588,-2.981,3.2399e-11,-0.24794,0,0,0.5,2.9606e-16,0,0.66667
0.17293,0.29964,0.34587,-0.30054,-1.4078,7.6421,0.27719,-0.092397,-1.6785,0.36959,-5.2886e-10,-0.83923,0,0,0.5,2.9606e-16,0,0.66667
0.50754,0.067573,1.0151,-0.64864,-2.4729,3.7473,1.7558,-0.58526,-0.50416,2.341,-4.4242e-13,-0.25208,0,0,0.5,-1.1842e-15,0,0.66667
0.17819,0.88408,0.35637,0.57612,2.8373,7.6116,-0.54751,0.1825,-0.81947,-0.73001,-3.4105e-09,-0.40974,0,0,0.5,-0,-0,0.66667
0.46566,0.75635,0.93133,0.38453,1.4408,4.0782,-0.955,0.31833,-1.4743,-1.2733,-2.2487e-11,-0.73715,0,0,0.5,-1.1842e-15,0,0.66667
0.095605,0.1393,0.19121,-0.54106,-2.7079,8.6818,0.27588,-0.09196,-0.95866,0.36784,-8.2779e-09,-0.47933,0,0,0.5,-0,-0,0.66667
0.90893,0.29188,1.8179,-0.31218,-0.13889,0.42253,1.5133,-0.50445,-1.6531,2.0178,2.323e-11,-0.82656,0,0,0.5,-0,-0,0.66667
0.84302,0.68888,1.686,0.28332,0.2955,0.75406,-1.2738,0.42461,-1.7156,-1.6984,-8.8157e-10,-0.8578,0,0,0.5,-2.3685e-15,0,0.66667
0.20466,0.17407,0.40932,-0.48889,-2.3342,7.2555,0.53364,-0.17788,-1.1497,0.71152,1.2881e-09,-0.57487,0,0,0.5,2.9606e-16,0,0.66667
0.22201,0.42071,0.44402,-0.11894,-0.53543,6.989,0.14083,-0.046942,-1.9491,0.18777,1.8924e-10,-0.97457,0,0,0.5,2.9606e-16,0,0.66667
0.56481,0.059662,1.1296,-0.66051,-2.3125,3.1792,1.9897,-0.66322,-0.44944,2.6529,-3.9054e-12,-0.22472,0,0,0.5,1.3323e-15,0,0.66667
0.041276,0.55519,0.082552,0.082792,0.3931,9.3877,-0.018226,0.0060753,-1.9755,-0.024302,-1.4323e-07,-0.98773,0,0,0.5,-3.7007e-17,0,0.66667
0.97916,0.80337,1.9583,0.45505,-0.06762,0.24387,-2.3764,0.79212,-1.2634,-3.1685,7.1638e-08,-0.6317,0,0,0.5,-1.1842e-15,0,0.66667
0.34441,0.22292,0.68883,-0.41563,-1.7857,5.493,0.76345,-0.25448,-1.3863,1.0179,1.8238e-10,-0.69315,0,0,0.5,-0,-0,0.66667
0.29624,0.012106,0.59249,-0.73184,-3.5402,6.1786,1.1563,-0.38543,-0.095358,1.5417,8.1394e-12,-0.047679,0,0,0.5,-1.1842e-15,0,0.66667
0.92794,0.47992,1.8559,-0.030121,-0.0047781,0.25896,0.14907,-0.049691,-1.9963,0.19876,-7.8381e-08,-0.99813,0,0,0.5,-0,-0,0.66667
0.24446,0.30123,0.48892,-0.29816,-1.3487,6.7155,0.38873,-0.12958,-1.6834,0.5183,1.1729e-10,-0.8417,0,0,0.5,2.9606e-16,0,0.66667
0.40519,0.92071,0.81037,0.63107,2.7056,4.8544,-1.3637,0.45458,-0.58358,-1.8183,-1.6173e-11,-0.29179,0,0,0.5,5.9212e-16,0,0.66667
0.1838,0.8968,0.3676,0.59519,2.9386,7.5431,-0.58345,0.19448,-0.7401,-0.77794,-3.1931e-09,-0.37005,0,0,0.5,-1.4803e-16,0,0.66667
0.086017,0.79136,0.17203,0.43704,2.1453,8.8001,-0.2005,0.066832,-1.3204,-0.26733,2.9982e-09,-0.6602,0,0,0.5,-0,-0,0.66667
0.91325,0.62485,1.8265,0.18727,0.063334,0.35219,-0.91215,0.30405,-1.8763,-1.2162,-2.5317e-08,-0.93815,0,0,0.5,1.6653e-15,0,0.66667
0.27731,0.32441,0.55462,-0.26338,-1.162,6.2937,0.38953,-0.12984,-1.7529,0.51938,1.4545e-10,-0.87643,0,0,0.5,-5.9212e-16,0,0.66667
0.7783,0.62723,1.5566,0.19084,0.29715,1.1389,-0.79217,0.26406,-1.8712,-1.0562,5.4056e-11,-0.93561,0,0,0.5,-2.3685e-15,0,0.66667
0.16216,0.50909,0.32431,0.013641,0.062881,7.7705,-0.011797,0.0039325,-1.999,-0.01573,-5.9086e-10,-0.99949,0,0,0.5,5.9212e-16,0,0.66667
0.66577,0.30113,1.3315,-0.2983,-0.73928,2.0585,1.0592,-0.35306,-1.6831,1.4123,-1.5057e-10,-0.84154,0,0,0.5,-0,-0,0.66667
0.27436,0.80006,0.54872,0.45009,2.0518,6.3634,-0.65859,0.21953,-1.2791,-0.87812,-4.8084e-10,-0.63956,0,0,0.5,-0,-0,0.66667
0.72525,0.54699,1.4505,0.070492,0.13745,1.5131,-0.27267,0.090889,-1.9817,-0.36355,7.3972e-11,-0.99083,0,0,0.5,1.1842e-15,0,0.66667
0.057234,0.30616,0.11447,-0.29077,-1.4015,9.1767,0.088756,-0.029585,-1.6994,0.11834,-2.6397e-08,-0.84968,0,0,0.5,1.1102e-16,0,0.66667
0.66212,0.32105,1.3242,-0.26843,-0.66748,2.0803,0.9479,-0.31597,-1.7435,1.2639,-1.3201e-10,-0.87175,0,0,0.5,-0,-0,0.66667
0.056097,0.61804,0.11219,0.17707,0.84385,9.1893,-0.052975,0.017658,-1.8884,-0.070633,3.2542e-08,-0.94419,0,0,0.5,-3.7007e-17,0,0.66667
0.65752,0.77573,1.315,0.41359,1.0843,2.1786,-1.4504,0.48345,-1.3921,-1.9338,1.8641e-10,-0.69603,0,0,0.5,-2.9606e-16,0,0.66667
0.34971,0.85953,0.69942,0.53929,2.3725,5.4658,-1.0058,0.33528,-0.96526,-1.3411,-1.3193e-10,-0.48263,0,0,0.5,5.9212e-16,0,0.66667
0.73581,0.79016,1.4716,0.43524,0.89608,1.5513,-1.708,0.56934,-1.3263,-2.2774,5.0016e-10,-0.66316,0,0,0.5,-0,-0,0.66667
0.41791,0.029688,0.83582,-0.70547,-3.058,4.7471,1.5724,-0.52413,-0.23124,2.0965,7.7305e-13,-0.11562,0,0,0.5,-0,-1.1245e-16,0.66667
0.55544,0.54425,1.1109,0.066382,0.20639,3.0575,-0.19665,0.065549,-1.9837,-0.2622,1.1344e-11,-0.99185,0,0,0.5,-0,-0,0.66667
0.18966,0.79106,0.37932,0.43659,2.0763,7.4404,-0.44161,0.1472,-1.322,-0.58881,-5.4263e-10,-0.66101,0,0,0.5,-0,-0,0.66667
0.27767,0.57146,0.55535,0.1072,0.46638,6.2748,-0.15875,0.052917,-1.9589,-0.21167,-9.564e-11,-0.97944,0,0,0.5,-5.9212e-16,0,0.66667
0.48609,0.32394,0.97218,-0.26408,-0.94071,3.8207,0.68464,-0.22821,-1.7517,0.91285,8.7359e-12,-0.87584,0,0,0.5,-1.1842e-15,0,0.66667
0.04653,0.67694,0.093061,0.26541,1.277,9.3196,-0.065866,0.021955,-1.7493,-0.087821,-2.7528e-08,-0.87467,0,0,0.5,-7.4015e-17,0,0.66667
0.84893,0.83095,1.6979,0.49643,0.57681,0.84516,-2.2477,0.74922,-1.1232,-2.9969,8.7255e-10,-0.56158,0,0,0.5,-0,-0,0.66667
0.43861,0.11627,0.87723,-0.57559,-2.3412,4.4523,1.3465,-0.44882,-0.82192,1.7953,1.6268e-11,-0.41096,0,0,0.5,-0,-0,0.66667
0.1903,0.8332,0.3806,0.4998,2.407,7.4422,-0.50726,0.16909,-1.1114,-0.67635,-1.611e-09,-0.55572,0,0,0.5,-0,-0,0.66667
0.1496,0.48883,0.29919,-0.016748,-0.077555,7.9368,0.013362,-0.0044541,-1.9985,0.017816,-6.3956e-10,-0.99924,0,0,0.5,-1.4803e-16,0,0.66667
0.12624,0.20331,0.25248,-0.44503,-2.1675,8.2696,0.29963,-0.099875,-1.2954,0.3995,-2.2037e-09,-0.64768,0,0,0.5,1.4803e-16,0,0.66667
0.48221,0.23428,0.96442,-0.39858,-1.4646,3.9014,1.0251,-0.34169,-1.4346,1.3668,1.0969e-11,-0.71732,0,0,0.5,-0,-0,0.66667
0.99442,0.70979,1.9888,0.31468,-0.13256,0.10367,-1.6689,0.55631,-1.6476,-2.2253,5.4427e-09,-0.82378,0,0,0.5,-0,-0,0.66667
0.83565,0.99353,1.6713,0.7403,1.1801,1.1451,-3.2993,1.0998,-0.051331,-4.3991,-4.5244e-10,-0.025665,0,0,0.5,-5.9212e-16,0,0.66667
0.87993,0.21715,1.7599,-0.42427,-0.34246,0.6286,1.9911,-0.6637,-1.3607,2.6548,3.0259e-09,-0.68036,0,0,0.5,1.7764e-15,0,0.66667
0.51326,0.48015,1.0265,-0.029782,-0.099651,3.4966,0.081525,-0.027175,-1.9965,0.1087,-1.2522e-12,-0.99823,0,0,0.5,1.1842e-15,0,0.66667
0.013105,0.87556,0.02621,0.56333,2.8607,9.7712,-0.039373,0.013124,-0.87272,-0.052497,-9.6061e-08,-0.43636,0,0,0.5,-0,-0,0.66667
0.78924,0.063982,1.5785,-0.65403,-1.224,1.3377,2.753,-0.91766,-0.47983,3.6707,-1.1564e-09,-0.23991,0,0,0.5,-0,-0,0.66667
0.91445,0.39321,1.8289,-0.16019,-0.050749,0.33911,0.78126,-0.26042,-1.9081,1.0417,-1.0378e-08,-0.95406,0,0,0.5,1.0132e-16,0,0.66667
0.063162,0.50324,0.12632,0.0048624,0.022989,9.0927,-0.001638,0.00054628,-2.0006,-0.0021838,4.2256e-07,-1.0003,0,0,0.5,-0,-0,0.66667
0.17499,0.31232,0.34998,-0.28153,-1.3144,7.6134,0.26275,-0.087582,-1.7193,0.35033,-4.861e-10,-0.85965,0,0,0.5,-3.3769e-16,0,0.66667
0.50956,0.72985,1.0191,0.34477,1.2027,3.5897,-0.93696,0.31232,-1.5768,-1.2493,6.2995e-12,-0.78842,0,0,0.5,-1.1842e-15,0,0.66667
0.43088,0.94451,0.86175,0.66676,2.8143,4.5823,-1.5322,0.51074,-0.41915,-2.043,-3.9114e-12,-0.20958,0,0,0.5,-0,-0,0.66667
0.95888,0.52057,1.9178,0.030855,-0.0047082,0.13512,-0.1578,0.052599,-1.9961,-0.21039,4.3431e-07,-0.99807,0,0,0.5,-0,-0,0.66667
0.98461,0.16511,1.9692,-0.50233,0.079744,0.26696,2.6379,-0.8793,-1.1027,3.5172,1.4016e-07,-0.55137,0,0,0.5,-0,-0,0.66667
0.15433,0.54281,0.30866,0.064213,0.29712,7.8746,-0.052853,0.017618,-1.985,-0.070471,-1.5717e-09,-0.99248,0,0,0.5,-0,-0,0.66667
0.3531,0.004495,0.70621,-0.74326,-3.462,5.5075,1.3997,-0.46657,-0.036,1.8663,-5.238e-13,-0.018,0,0,0.5,-0,-0,0.66667
0.57686,0.067872,1.1537,-0.64819,-2.211,3.0548,1.9942,-0.66474,-0.50641,2.6589,-7.3472e-12,-0.2532,0,0,0.5,1.1842e-15,-3.3715e-16,0.66667
0.42223,0.36136,0.84445,-0.20796,-0.79939,4.5283,0.46829,-0.1561,-1.8459,0.62439,4.5521e-11,-0.92294,0,0,0.5,5.9212e-16,0,0.66667
0.5079,0.84339,1.0158,0.51509,1.8797,3.6734,-1.3953,0.46509,-1.0576,-1.8604,2.9741e-12,-0.5288,0,0,0.5,-1.1842e-15,0,0.66667
0.87702,0.051475,1.754,-0.67279,-0.75163,0.85602,3.1469,-1.049,-0.39025,4.1959,-1.4827e-08,-0.19513,0,0,0.5,1.1842e-15,0,0.66667
0.060464,0.9197,0.12093,0.62954,3.2368,9.1503,-0.20301,0.06767,-0.59038,-0.27068,2.2792e-08,-0.29519,0,0,0.5,-1.4803e-16,0,0.66667
0.91535,0.011289,1.8307,-0.73307,-0.61477,0.75134,3.5788,-1.1929,-0.088754,4.7717,-6.8095e-08,-0.044377,0,0,0.5,-0,-0,0.66667
0.31256,0.86811,0.62512,0.55217,2.5097,5.9182,-0.92046,0.30682,-0.91611,-1.2273,-2.5344e-10,-0.45806,0,0,0.5,2.9606e-16,0,0.66667
0.72914,0.59123,1.4583,0.13685,0.26467,1.4915,-0.53217,0.17739,-1.934,-0.70956,1.1183e-10,-0.96699,0,0,0.5,1.7764e-15,0,0.66667
0.27511,0.53398,0.55022,0.050977,0.2217,6.3051,-0.074796,0.024932,-1.9913,-0.099728,-5.9022e-11,-0.99563,0,0,0.5,-0,-0,0.66667
0.72986,0.26527,1.4597,-0.35209,-0.71738,1.5541,1.3705,-0.45685,-1.5586,1.8274,-2.6816e-10,-0.7793,0,0,0.5,1.1842e-15,0,0.66667
0.78436,0.72778,1.5687,0.34168,0.54324,1.1528,-1.4293,0.47644,-1.5847,-1.9057,6.9601e-11,-0.79233,0,0,0.5,-0,-0,0.66667
0.56721,0.29885,1.1344,-0.30172,-0.94395,2.9819,0.91274,-0.30425,-1.6757,1.217,-4.7814e-11,-0.83786,0,0,0.5,-5.9212e-16,0,0.66667
0.11097,0.68494,0.22194,0.27741,1.3216,8.4588,-0.16418,0.054727,-1.7271,-0.21891,-8.1994e-10,-0.86355,0,0,0.5,-0,-0,0.66667
0.1247,0.32071,0.2494,-0.26894,-1.2753,8.2759,0.17886,-0.059621,-1.7428,0.23848,-1.8363e-09,-0.87142,0,0,0.5,2.9606e-16,0,0.66667
0.85571,0.090777,1.7114,-0.61383,-0.75838,0.90683,2.8014,-0.9338,-0.66083,3.7352,-8.3704e-09,-0.33041,0,0,0.5,5.494e-16,-5.359e-18,0.66667
0.93388,0.010177,1.8678,-0.73474,-0.48377,0.68106,3.6595,-1.2198,-0.080208,4.8793,3.2838e-10,-0.040104,0,0,0.5,-0,-0,0.66667
0.64865,0.4219,1.2973,-0.11715,-0.29525,2.1659,0.40528,-0.13509,-1.9505,0.54038,-5.8838e-11,-0.97526,0,0,0.5,-1.9524e-15,0,0.66667
0.18497,0.72501,0.36995,0.33751,1.5815,7.4885,-0.33297,0.11099,-1.5951,-0.44395,2.8152e-10,-0.79753,0,0,0.5,-0,-0,0.66667
0.72233,0.58377,1.4447,0.12566,0.24927,1.5432,-0.48408,0.16136,-1.9435,-0.64544,1.0246e-10,-0.97175,0,0,0.5,-0,-0,0.66667
0.22405,0.94462,0.44809,0.66693,3.297,7.0484,-0.79692,0.26564,-0.41837,-1.0626,-6.5244e-10,-0.20919,0,0,0.5,-0,-0,0.66667
0.75275,0.83358,1.5055,0.50037,0.99457,1.4664,-2.0088,0.66961,-1.1095,-2.6784,8.398e-10,-0.55473,0,0,0.5,-1.1842e-15,0,0.66667
0.99863,0.73645,1.9973,0.35467,-0.15543,0.11557,-1.889,0.62966,-1.5523,-2.5186,-2.346e-08,-0.77616,0,0,0.5,-0,-0,0.66667
0.92131,0.72646,1.8426,0.33969,0.1164,0.38178,-1.6691,0.55637,-1.5898,-2.2255,-1.1511e-09,-0.79488,0,0,0.5,-0,-0,0.66667
0.52727,0.85522,1.0545,0.53282,1.8978,3.4806,-1.4984,0.49945,-0.99009,-1.9978,9.1812e-12,-0.49505,0,0,0.5,-0,-0,0.66667
0.62264,0.69028,1.2453,0.28543,0.78972,2.4421,-0.94784,0.31595,-1.711,-1.2638,9.852e-11,-0.85548,0,0,0.5,-0,-0,0.66667
0.31542,0.25648,0.63083,-0.36528,-1.5918,5.8353,0.61448,-0.20483,-1.5256,0.81931,2.2374e-10,-0.76281,0,0,0.5,-0,-0,0.66667
0.88054,0.50339,1.7611,0.0050788,0.0031187,0.48467,-0.023851,0.0079503,-2.0003,-0.031801,-1.5346e-08,-1.0002,0,0,0.5,-0,-0,0.66667
0.86029,0.74133,1.7206,0.36199,0.3398,0.69455,-1.6609,0.55363,-1.534,-2.2145,-1.1072e-09,-0.767,0,0,0.5,1.1842e-15,0,0.66667
0.060565,0.46919,0.12113,-0.04621,-0.2187,9.1277,0.014926,-0.0049751,-1.9935,0.019902,5.8528e-07,-0.99676,0,0,0.5,-0,-0,0.66667
0.54964,0.49547,1.0993,-0.006794,-0.021321,3.1147,0.019916,-0.0066387,-2.0002,0.026555,-1.0831e-12,-1.0001,0,0,0.5,-2.9606e-16,0,0.66667
0.38057,0.38521,0.76113,-0.17219,-0.69019,5.0128,0.34949,-0.1165,-1.8941,0.46598,6.396e-11,-0.94707,0,0,0.5,-0,-0,0.66667
0.55684,0.59003,1.1137,0.13504,0.42067,3.05,-0.40104,0.13368,-1.9355,-0.53472,2.2807e-11,-0.96775,0,0,0.5,1.6486e-16,0,0.66667
0.18217,0.57512,0.36435,0.11268,0.51675,7.5087,-0.10948,0.036492,-1.9543,-0.14597,-3.9849e-10,-0.97714,0,0,0.5,2.9606e-16,0,0.66667
0.79219,0.59841,1.5844,0.14761,0.21043,1.0329,-0.62366,0.20789,-1.9227,-0.83155,1.7474e-10,-0.96137,0,0,0.5,-2.3685e-15,0,0.66667
0.11789,0.92298,0.23579,0.63447,3.2315,8.4009,-0.39893,0.13298,-0.56806,-0.53191,-1.6704e-08,-0.28403,0,0,0.5,8.4155e-18,0,0.66667
0.20303,0.13783,0.40606,-0.54325,-2.6273,7.2865,0.58825,-0.19608,-0.95037,0.78434,1.957e-09,-0.47518,0,0,0.5,-2.9606e-16,-6.7303e-16,0.66667
0.02395,0.25079,0.0479,-0.37382,-1.8287,9.6241,0.047749,-0.015916,-1.504,0.063665,2.573e-10,-0.752,0,0,0.5,-7.4015e-17,0,0.66667
0.058498,0.37725,0.117,-0.18413,-0.87772,9.1572,0.057446,-0.019149,-1.8801,0.076595,-1.0924e-07,-0.94005,0,0,0.5,-0,-0,0.66667
0.11918,0.33199,0.23836,-0.25201,-1.1946,8.3483,0.16018,-0.053394,-1.7736,0.21358,3.6256e-10,-0.88682,0,0,0.5,1.4803e-16,0,0.66667
0.45136,0.15015,0.90273,-0.52478,-2.0723,4.2885,1.2633,-0.42109,-1.021,1.6844,1.8949e-11,-0.5105,0,0,0.5,-8.8818e-16,0,0.66667
0.89569,0.94915,1.7914,0.67372,0.63465,0.76896,-3.2183,1.0728,-0.38562,-4.2911,1.9474e-08,-0.19281,0,0,0.5,-0,-0,0.66667
0.10377,0.30876,0.20754,-0.28686,-1.3706,8.5551,0.15876,-0.052919,-1.7078,0.21167,2.7616e-09,-0.85388,0,0,0.5,-1.4803e-16,0,0.66667
0.99739,0.48015,1.9948,-0.029776,0.01651,0.0082613,0.15839,-0.052778,-1.9965,0.21119,2.6195e-05,-0.99824,0,0,0.5,-0,-0,0.66667
0.92242,0.27988,1.8448,-0.33017,-0.10736,0.37174,1.6243,-0.54144,-1.6134,2.1658,5.4252e-09,-0.80671,0,0,0.5,-1.6283e-15,0,0.66667
0.12597,0.54934,0.25194,0.074016,0.34573,8.2516,-0.049727,0.016576,-1.9801,-0.066303,-1.5887e-09,-0.99007,0,0,0.5,-1.4803e-16,0,0.66667
0.56161,0.92168,1.1232,0.63252,2.2029,3.1923,-1.8945,0.63151,-0.57708,-2.5261,7.3088e-12,-0.28854,0,0,0.5,-0,5.9203e-16,0.66667
0.57872,0.79049,1.1574,0.43574,1.3772,2.9185,-1.3449,0.44831,-1.3248,-1.7932,5.4773e-11,-0.6624,0,0,0.5,-0,-0,0.66667
0.78149,0.63883,1.563,0.20824,0.32023,1.1215,-0.86794,0.28931,-1.8455,-1.1573,1.545e-11,-0.92273,0,0,0.5,1.1842e-15,0,0.66667
0.099377,0.19821,0.19875,-0.45268,-2.2226,8.6244,0.23993,-0.079976,-1.2709,0.3199,-6.2117e-09,-0.63545,0,0,0.5,-0,-0,0.66667
0.089059,0.7685,0.17812,0.40274,1.9637,8.7575,-0.1913,0.063765,-1.4227,-0.25506,4.8852e-09,-0.71136,0,0,0.5,1.4803e-16,0,0.66667
0.94471,0.51726,1.8894,0.025891,-0.00023653,0.18922,-0.13045,0.043484,-1.997,-0.17394,-2.196e-07,-0.99848,0,0,0.5,-0,-0,0.66667
0.42548,0.32683,0.85096,-0.25975,-1.0012,4.4999,0.58944,-0.19648,-1.7595,0.78592,5.0228e-11,-0.87976,0,0,0.5,-0,-0,0.66667
0.81916,0.75611,1.6383,0.38416,0.50872,0.94765,-1.6783,0.55944,-1.4752,-2.2378,-1.4522e-10,-0.73762,0,0,0.5,-0,-0,0.66667
0.78299,0.12535,1.566,-0.56198,-1.0159,1.3007,2.3468,-0.78227,-0.87823,3.1291,-1.6847e-09,-0.43912,0,0,0.5,-2.3685e-15,0,0.66667
0.8379,0.22923,1.6758,-0.40616,-0.47791,0.84728,1.815,-0.60501,-1.413,2.42,3.5847e-10,-0.7065,0,0,0.5,-0,-0,0.66667
0.13975,0.37112,0.2795,-0.19332,-0.90562,8.0721,0.14409,-0.04803,-1.8677,0.19212,2.2444e-10,-0.93383,0,0,0.5,7.4015e-17,0,0.66667
0.091732,0.80778,0.18346,0.46167,2.2743,8.7262,-0.22587,0.075289,-1.2425,-0.30116,-1.0571e-10,-0.62125,0,0,0.5,-1.4803e-16,0,0.66667
0.44285,0.43537,0.8857,-0.096951,-0.36005,4.2784,0.22899,-0.076328,-1.9672,0.30531,1.6966e-11,-0.9836,0,0,0.5,2.2204e-16,0,0.66667
0.8081,0.926,1.6162,0.63901,1.0803,1.2047,-2.754,0.91801,-0.54767,-3.6721,2.2145e-09,-0.27384,0,0,0.5,1.1842e-15,0,0.66667
0.14031,0.93136,0.28063,0.64705,3.2865,8.1123,-0.48421,0.1614,-0.51165,-0.64561,-8.5691e-09,-0.25583,0,0,0.5,2.2204e-16,0,0.66667
0.17975,0.85749,0.35949,0.53624,2.6146,7.5845,-0.51406,0.17135,-0.97694,-0.68541,-2.5518e-09,-0.48847,0,0,0.5,-0,-0,0.66667
0.1606,0.044473,0.3212,-0.68329,-3.4825,7.8578,0.58525,-0.19508,-0.33938,0.78034,3.1317e-09,-0.16969,0,0,0.5,-0,-0,0.66667
0.23062,0.062793,0.46124,-0.65581,-3.2216,6.9628,0.80663,-0.26888,-0.47185,1.0755,6.388e-10,-0.23593,0,0,0.5,-5.9212e-16,0,0.66667
0.32804,0.40405,0.65609,-0.14392,-0.60413,5.6474,0.25181,-0.083935,-1.9273,0.33574,8.3215e-11,-0.96363,0,0,0.5,-8.8818e-16,0,0.66667
0.06778,0.081351,0.13556,-0.62797,-3.2243,9.0543,0.22701,-0.075669,-0.5973,0.30268,-2.9943e-08,-0.29865,0,0,0.5,-6.2525e-18,0,0.66667
0.38652,0.61918,0.77305,0.17877,0.71264,4.9427,-0.36853,0.12284,-1.8864,-0.49137,-6.2422e-11,-0.94322,0,0,0.5,-0,-0,0.66667
0.28048,0.76723,0.56097,0.40084,1.8026,6.2764,-0.59963,0.19988,-1.4283,-0.79951,-3.554e-10,-0.71416,0,0,0.5,-0,-0,0.66667
0.15318,0.87575,0.30637,0.56363,2.7924,7.9325,-0.46047,0.15349,-0.87148,-0.61397,-5.0734e-09,-0.43574,0,0,0.5,-5.9212e-16,3.4236e-19,0.66667
0.31327,0.55583,0.62655,0.083742,0.35456,5.8265,-0.13992,0.046639,-1.9752,-0.18655,-5.949e-11,-0.98761,0,0,0.5,-0,-0,0.66667
0.49926,0.70099,0.99852,0.30148,1.0597,3.6873,-0.80277,0.26759,-1.6764,-1.0704,-4.9205e-13,-0.83822,0,0,0.5,-0,-0,0.66667
0.67091,0.26949,1.3418,-0.34577,-0.85521,2.0322,1.2372,-0.41241,-1.5746,1.6496,-1.8462e-10,-0.78729,0,0,0.5,-1.1842e-15,0,0.66667
0.29158,0.70152,0.58315,0.30228,1.3274,6.12,-0.47006,0.15669,-1.6745,-0.62675,-1.8721e-10,-0.83725,0,0,0.5,-0,-0,0.66667
0.48683,0.93705,0.97366,0.65557,2.5775,3.9685,-1.7021,0.56738,-0.473,-2.2695,-5.5211e-13,-0.2365,0,0,0.5,-7.7716e-16,0,0.66667
0.69406,0.034591,1.3881,-0.69811,-1.8753,2.0641,2.5842,-0.86139,-0.26754,3.4456,-2.6599e-11,-0.13377,0,0,0.5,2.3685e-15,0,0.66667
0.94232,0.17582,1.8846,-0.48626,-0.12614,0.3963,2.4438,-0.81461,-1.1588,3.2584,1.212e-08,-0.57938,0,0,0.5,-0,-0,0.66667
0.11331,0.60785,0.22663,0.16178,0.76177,8.4225,-0.097769,0.03259,-1.9064,-0.13036,-1.4403e-10,-0.95318,0,0,0.5,-0,-0,0.66667
0.37705,0.53276,0.7541,0.049137,0.19626,5.0456,-0.098811,0.032937,-1.9923,-0.13175,-2.078e-11,-0.99615,0,0,0.5,-0,-0,0.66667
0.86667,0.21037,1.7333,-0.43445,-0.40827,0.70435,2.0081,-0.66937,-1.3286,2.6775,1.5502e-09,-0.6643,0,0,0.5,-0,-0,0.66667
0.76793,0.81183,1.5359,0.46774,0.85679,1.3369,-1.9157,0.63857,-1.2232,-2.5543,8.5735e-10,-0.61158,0,0,0.5,7.4015e-17,0,0.66667
0.82594,0.12599,1.6519,-0.56102,-0.80681,1.0287,2.4713,-0.82377,-0.8819,3.2951,-3.4327e-09,-0.44095,0,0,0.5,-0,-0,0.66667
0.036904,0.38288,0.073808,-0.17568,-0.83882,9.4474,0.034577,-0.011526,-1.89,0.046102,-2.0753e-08,-0.94502,0,0,0.5,-0,-0,0.66667
0.80406,0.38067,1.6081,-0.17899,-0.23899,0.96085,0.76755,-0.25585,-1.8861,1.0234,-4.0987e-11,-0.94305,0,0,0.5,-0,-0,0.66667
0.095263,0.42336,0.19053,-0.11496,-0.54206,8.6626,0.058407,-0.019469,-1.9526,0.077876,1.0393e-09,-0.97628,0,0,0.5,1.4803e-16,0,0.66667
0.35271,0.098327,0.70542,-0.60251,-2.689,5.4527,1.1334,-0.3778,-0.70945,1.5112,7.3769e-11,-0.35473,0,0,0.5,-0,-0,0.66667
0.23302,0.85235,0.46605,0.52852,2.5105,6.9015,-0.65684,0.21895,-1.0067,-0.87579,-1.142e-09,-0.50335,0,0,0.5,-0,4.4811e-17,0.66667
0.98438,0.12663,1.9688,-0.56006,0.051935,0.3213,2.9403,-0.9801,-0.88577,3.9204,-2.4855e-07,-0.44289,0,0,0.5,-0,-0,0.66667
0.48234,0.089524,0.96468,-0.61571,-2.4027,3.9944,1.5839,-0.52797,-0.65248,2.1119,2.0411e-12,-0.32624,0,0,0.5,-0,-0,0.66667
0.28033,0.85604,0.56066,0.53407,2.471,6.3094,-0.79848,0.26616,-0.98551,-1.0646,-4.9278e-10,-0.49276,0,0,0.5,-0,7.8308e-16,0.66667
0.42077,0.1314,0.84155,-0.5529,-2.2795,4.6432,1.2408,-0.41359,-0.91324,1.6544,2.9944e-11,-0.45662,0,0,0.5,-0,-0,0.66667
0.13901,0.42191,0.27801,-0.11714,-0.546,8.0791,0.086842,-0.028947,-1.9507,0.11579,9.0249e-10,-0.97537,0,0,0.5,1.3144e-16,0,0.66667
0.78121,0.59495,1.5624,0.14243,0.21594,1.1073,-0.59342,0.19781,-1.929,-0.79123,1.8028e-10,-0.96449,0,0,0.5,-0,-0,0.66667
0.82105,0.86609,1.6421,0.54913,0.80577,1.0483,-2.4046,0.80154,-0.92749,-3.2061,2.9422e-09,-0.46374,0,0,0.5,-5.9212e-16,0,0.66667
0.0059699,0.80743,0.01194,0.46114,2.292,9.865,-0.014682,0.0048941,-1.244,-0.019576,-1.5973e-08,-0.62202,0,0,0.5,1.1565e-17,0,0.66667
0.35861,0.90751,0.71722,0.61127,2.7211,5.3863,-1.1691,0.3897,-0.67249,-1.5588,-5.8263e-11,-0.33624,0,0,0.5,1.1842e-15,0,0.66667
0.92793,0.57732,1.8559,0.11597,0.019905,0.26935,-0.57395,0.19132,-1.9515,-0.76527,1.3103e-08,-0.97576,0,0,0.5,-0,-0,0.66667
0.55859,0.34121,1.1172,-0.23818,-0.74901,3.0514,0.70957,-0.23652,-1.7989,0.94609,-3.6657e-11,-0.89945,0,0,0.5,-1.0189e-15,0,0.66667
0.17029,0.65394,0.34059,0.23091,1.0739,7.6711,-0.20973,0.069908,-1.8112,-0.27963,6.0002e-10,-0.90559,0,0,0.5,7.4015e-17,0,0.66667
0.39769,0.27575,0.79537,-0.33638,-1.3535,4.8393,0.71345,-0.23782,-1.5977,0.95127,8.4249e-11,-0.79887,0,0,0.5,-8.8818e-16,0,0.66667
0.63071,0.012783,1.2614,-0.73083,-2.3257,2.6213,2.4583,-0.81945,-0.10036,3.2778,-1.5796e-12,-0.05018,0,0,0.5,2.3685e-15,0,0.66667
0.7635,0.13408,1.527,-0.54888,-1.0722,1.4241,2.235,-0.74501,-0.92863,2.98,-1.1085e-09,-0.46431,0,0,0.5,-0,-2.9795e-16,0.66667
0.98548,0.12831,1.971,-0.55753,0.059776,0.31567,2.9303,-0.97678,-0.8954,3.9071,-2.2895e-07,-0.4477,0,0,0.5,-0,-0,0.66667
0.97769,0.7979,1.9554,0.44685,-0.062961,0.24202,-2.33,0.77667,-1.2894,-3.1067,4.5929e-08,-0.64469,0,0,0.5,-0,-0,0.66667
0.44414,0.81817,0.88827,0.47725,1.8776,4.35,-1.1305,0.37682,-1.1902,-1.5073,-2.9888e-11,-0.5951,0,0,0.5,-1.1842e-15,0,0.66667
0.91798,0.25069,1.836,-0.37396,-0.14984,0.4163,1.8309,-0.61029,-1.5037,2.4412,1.1969e-09,-0.75187,0,0,0.5,-0,-0,0.66667
0.72376,0.76704,1.4475,0.40056,0.85025,1.6249,-1.5462,0.5154,-1.4289,-2.0616,3.6703e-10,-0.71444,0,0,0.5,-0,-0,0.66667
0.15494,0.29825,0.30988,-0.30262,-1.4274,7.8786,0.25007,-0.083355,-1.6739,0.33342,-7.9956e-10,-0.83697,0,0,0.5,-4.7954e-16,0,0.66667
0.56932,0.47383,1.1386,-0.039254,-0.11867,2.9155,0.11919,-0.03973,-1.9946,0.15892,-8.6796e-12,-0.99731,0,0,0.5,-0,-0,0.66667
0.52955,0.08678,1.0591,-0.61983,-2.2641,3.5043,1.7506,-0.58353,-0.63404,2.3341,-3.5496e-12,-0.31702,0,0,0.5,8.8818e-16,-4.1044e-16,0.66667
0.93954,0.47528,1.8791,-0.037087,-0.0016178,0.21065,0.18584,-0.061946,-1.9952,0.24778,-2.6129e-07,-0.99759,0,0,0.5,-0,-0,0.66667
0.69262,0.80615,1.3852,0.45922,1.1068,1.9053,-1.6964,0.56545,-1.2502,-2.2618,3.1788e-10,-0.62508,0,0,0.5,-0,-0,0.66667
0.53942,0.84989,1.0788,0.52484,1.8284,3.3524,-1.5099,0.50331,-1.0205,-2.0132,1.4739e-11,-0.51027,0,0,0.5,-0,-0,0.66667
0.91872,0.2421,1.8374,-0.38684,-0.15612,0.42104,1.8955,-0.63183,-1.4678,2.5273,3.6542e-09,-0.73389,0,0,0.5,5.9212e-16,0,0.66667
0.080916,0.2071,0.16183,-0.43935,-2.1595,8.8678,0.1896,-0.063201,-1.3132,0.2528,-1.4013e-09,-0.65662,0,0,0.5,-7.4015e-17,0,0.66667
0.30942,0.1449,0.61885,-0.53265,-2.4148,5.9506,0.879,-0.293,-0.99082,1.172,2.8852e-10,-0.49541,0,0,0.5,-0,-0,0.66667
0.36636,0.72165,0.73272,0.33247,1.3793,5.2094,-0.64961,0.21654,-1.6074,-0.86615,-1.2322e-10,-0.80372,0,0,0.5,-0,-0,0.66667
0.011747,0.3301,0.023494,-0.25485,-1.2275,9.7865,0.015966,-0.0053221,-1.7685,0.021289,6.5185e-08,-0.88425,0,0,0.5,-0,-0,0.66667
0.54516,0.50094,1.0903,0.0014064,0.0044497,3.1609,-0.0040891,0.001363,-2.001,-0.0054522,2.1351e-13,-1.0005,0,0,0.5,-0,-0,0.66667
0.38558,0.59638,0.77115,0.14457,0.57521,4.9502,-0.2973,0.099098,-1.9262,-0.39639,-5.2699e-11,-0.96312,0,0,0.5,-0,-0,0.66667
0.46514,0.19373,0.93029,-0.4594,-1.7526,4.1101,1.1397,-0.37989,-1.2496,1.5196,1.856e-11,-0.62482,0,0,0.5,-0,-0,0.66667
0.052614,0.35369,0.10523,-0.21947,-1.0502,9.2369,0.061585,-0.020528,-1.8283,0.082114,-2.1044e-08,-0.91416,0,0,0.5,1.4803e-16,0,0.66667
0.98055,0.26454,1.9611,-0.35319,0.087771,0.16784,1.847,-0.61567,-1.5559,2.4627,-1.781e-08,-0.77795,0,0,0.5,-0,-0,0.66667
0.87537,0.80673,1.7507,0.4601,0.40615,0.67662,-2.1481,0.71602,-1.2476,-2.8641,-1.5432e-09,-0.62381,0,0,0.5,5.9212e-16,0,0.66667
0.31262,0.25213,0.62523,-0.37181,-1.6256,5.8712,0.61992,-0.20664,-1.5094,0.82656,2.3542e-10,-0.75469,0,0,0.5,-0,-0,0.66667
0.081769,0.19176,0.16354,-0.46237,-2.2823,8.858,0.20164,-0.067213,-1.2402,0.26885,-4.6861e-09,-0.6201,0,0,0.5,-0,-0,0.66667
0.1066,0.10151,0.2132,-0.59774,-3.0245,8.5435,0.33984,-0.11328,-0.72951,0.45312,1.5544e-08,-0.36475,0,0,0.5,2.9606e-16,-3.347e-16,0.66667
0.11128,0.15852,0.22256,-0.51222,-2.5386,8.473,0.30399,-0.10133,-1.0679,0.40533,-2.0704e-09,-0.53394,0,0,0.5,-0,-0,0.66667
0.31416,0.97084,0.62833,0.70625,3.3483,5.9528,-1.1834,0.39445,-0.22732,-1.5778,-1.2635e-11,-0.11366,0,0,0.5,-0,-0,0.66667
0.74672,0.34448,1.4934,-0.23328,-0.42752,1.3802,0.92905,-0.30968,-1.8075,1.2387,-9.0327e-11,-0.90374,0,0,0.5,-2.3685e-15,0,0.66667
0.86782,0.0019669,1.7356,-0.74705,-0.98023,0.98315,3.4576,-1.1525,-0.016334,4.6102,5.8919e-09,-0.0081669,0,0,0.5,-0,-0,0.66667
0.45038,0.92507,0.90076,0.6376,2.6077,4.3519,-1.5315,0.51051,-0.55406,-2.0421,-4.8515e-12,-0.27703,0,0,0.5,-0,-6.6108e-16,0.66667
0.7354,0.7774,1.4708,0.41609,0.851,1.5438,-1.632,0.54399,-1.385,-2.176,4.4473e-10,-0.69248,0,0,0.5,1.7764e-15,0,0.66667
0.19541,0.90556,0.39082,0.60834,2.9992,7.3972,-0.63401,0.21134,-0.68505,-0.84535,-2.5975e-09,-0.34252,0,0,0.5,3.3307e-16,0,0.66667
0.1939,0.052008,0.38781,-0.67199,-3.3719,7.4305,0.69494,-0.23165,-0.39395,0.92659,1.4102e-09,-0.19697,0,0,0.5,2.9606e-16,0,0.66667
0.36744,0.091851,0.73489,-0.61222,-2.7052,5.2828,1.1998,-0.39992,-0.66796,1.5997,4.7506e-11,-0.33398,0,0,0.5,-5.9212e-16,0,0.66667
0.34924,0.47648,0.69848,-0.035287,-0.14471,5.3815,0.065726,-0.021909,-1.9954,0.087634,1.9284e-11,-0.99768,0,0,0.5,-0,-0,0.66667
0.30208,0.6383,0.60416,0.20745,0.89367,5.9759,-0.33421,0.1114,-1.8464,-0.44562,-1.2121e-10,-0.92319,0,0,0.5,5.9212e-16,0,0.66667
0.54976,0.12317,1.0995,-0.56524,-1.961,3.2696,1.6573,-0.55244,-0.8648,2.2097,-1.3556e-11,-0.4324,0,0,0.5,1.3323e-15,0,0.66667
0.012695,0.45907,0.02539,-0.061393,-0.2918,9.7731,0.0041598,-0.001389,-1.9863,0.0055452,-3.6322e-06,-0.99314,0,0,0.5,-0,-0,0.66667
0.35923,0.86273,0.71846,0.54409,2.377,5.3542,-1.0424,0.34747,-0.94715,-1.3899,-1.0739e-10,-0.47358,0,0,0.5,-5.9212e-16,-6.5623e-16,0.66667
0.68499,0.67585,1.37,0.26377,0.61187,1.8822,-0.96364,0.32121,-1.7522,-1.2848,1.4634e-10,-0.8761,0,0,0.5,-0,-0,0.66667
0.20754,0.64976,0.41508,0.22464,1.0272,7.1837,-0.24865,0.082883,-1.8205,-0.33153,7.973e-11,-0.91027,0,0,0.5,1.4803e-16,0,0.66667
0.18084,0.94673,0.36168,0.6701,3.3781,7.5963,-0.64629,0.21543,-0.40305,-0.86172,-2.1977e-09,-0.20153,0,0,0.5,-0,-0,0.66667
0.29412,0.78172,0.58823,0.42259,1.8906,6.111,-0.66287,0.22096,-1.3661,-0.88383,-3.4619e-10,-0.68306,0,0,0.5,-1.1842e-15,0,0.66667
0.0056085,0.85954,0.011217,0.53931,2.7243,9.8702,-0.016132,0.0053772,-0.96518,-0.021509,-1.1421e-07,-0.48259,0,0,0.5,-0,-3.0242e-16,0.66667
0.34478,0.093471,0.68957,-0.60979,-2.7451,5.5495,1.1213,-0.37377,-0.67909,1.4951,7.9953e-11,-0.33954,0,0,0.5,2.5905e-16,0,0.66667
0.8284,0.54598,1.6568,0.068969,0.075514,0.7858,-0.30472,0.10157,-1.9827,-0.40629,7.1463e-10,-0.99136,0,0,0.5,-0,-0,0.66667
0.022289,0.46279,0.044579,-0.055819,-0.26517,9.6436,0.0066366,-0.0022109,-1.9889,0.0088494,1.9632e-06,-0.99445,0,0,0.5,1.8504e-17,0,0.66667
0.030319,0.51366,0.060638,0.020497,0.097268,9.5352,-0.0033137,0.001106,-1.9981,-0.0044175,2.1513e-06,-0.99905,0,0,0.5,-0,-0,0.66667
0.37436,0.48691,0.74871,-0.019641,-0.078621,5.0773,0.039215,-0.013072,-1.9983,0.052287,8.5144e-12,-0.99913,0,0,0.5,-0,-0,0.66667
0.06536,0.46196,0.13072,-0.057059,-0.26992,9.0633,0.01989,-0.0066299,-1.9884,0.02652,1.0177e-07,-0.99421,0,0,0.5,-3.7007e-17,0,0.66667
0.85305,0.87188,1.7061,0.55782,0.66475,0.87137,-2.5379,0.84595,-0.89406,-3.3838,4.55e-09,-0.44703,0,0,0.5,-1.1842e-15,0,0.66667
0.36355,0.95926,0.7271,0.68889,3.1256,5.3607,-1.3357,0.44524,-0.31232,-1.7809,-1.0804e-11,-0.15616,0,0,0.5,2.9606e-16,0,0.66667
0.70869,0.054388,1.4174,-0.66842,-1.6943,1.9241,2.5264,-0.84213,-0.41118,3.3685,-1.082e-10,-0.20559,0,0,0.5,-5.9212e-16,0,0.66667
0.34251,0.84271,0.68502,0.51407,2.2611,5.5439,-0.93906,0.31302,-1.0614,-1.2521,-1.7089e-10,-0.53071,0,0,0.5,3.7007e-17,0,0.66667
0.28541,0.31991,0.57083,-0.27014,-1.1862,6.1925,0.4112,-0.13707,-1.7404,0.54827,1.545e-10,-0.8702,0,0,0.5,-5.9212e-16,0,0.66667
0.0054914,0.54289,0.010983,0.064328,0.30582,9.8703,-0.001884,0.00062187,-1.9847,-0.002515,-9.1687e-06,-0.99237,0,0,0.5,-0,-0,0.66667
0.27003,0.96627,0.54007,0.69941,3.405,6.4864,-1.0073,0.33576,-0.2613,-1.343,-6.1875e-11,-0.13065,0,0,0.5,2.9606e-16,0,0.66667
0.55821,0.31488,1.1164,-0.27767,-0.8797,3.0653,0.82666,-0.27555,-1.7265,1.1022,-3.9559e-11,-0.86324,0,0,0.5,-0,-0,0.66667
0.39521,0.10285,0.79042,-0.59572,-2.5527,4.9532,1.2557,-0.41855,-0.73787,1.6742,3.2877e-11,-0.36893,0,0,0.5,1.1842e-15,0,0.66667
0.84515,0.74048,1.6903,0.36073,0.38795,0.77906,-1.626,0.54199,-1.5371,-2.1679,-8.1729e-10,-0.76857,0,0,0.5,-0,-0,0.66667
0.25356,0.77002,0.50713,0.40503,1.8539,6.6163,-0.54773,0.18258,-1.4163,-0.73031,-4.3884e-10,-0.70814,0,0,0.5,-2.9606e-16,0,0.66667
0.92019,0.55431,1.8404,0.081458,0.019627,0.29769,-0.39977,0.13326,-1.9763,-0.53303,4.2538e-08,-0.98816,0,0,0.5,5.9212e-16,0,0.66667
0.14496,0.19467,0.28992,-0.458,-2.2238,8.0254,0.35408,-0.11803,-1.2541,0.47211,-4.4086e-10,-0.62703,0,0,0.5,-0,-0,0.66667
0.48392,0.9817,0.96783,0.72256,2.9209,4.0391,-1.8648,0.62161,-0.14335,-2.4864,-5.5067e-14,-0.071677,0,0,0.5,-0,-0,0.66667
0.20199,0.34741,0.40397,-0.22888,-1.0498,7.2563,0.24657,-0.082189,-1.8143,0.32876,-1.4852e-10,-0.90715,0,0,0.5,-5.9212e-16,0,0.66667
0.11218,0.70238,0.22436,0.30357,1.4506,8.4442,-0.18163,0.060543,-1.6718,-0.24217,1.5953e-09,-0.8359,0,0,0.5,-1.4803e-16,0,0.66667
0.078936,0.89002,0.15787,0.58504,2.9671,8.9046,-0.2463,0.082098,-0.78263,-0.32839,2.4541e-08,-0.39132,0,0,0.5,1.4803e-16,0,0.66667
0.097961,0.085307,0.19592,-0.62204,-3.1725,8.659,0.32499,-0.10833,-0.62399,0.43332,9.7455e-09,-0.31199,0,0,0.5,7.4015e-17,0,0.66667
0.44342,0.31687,0.88685,-0.27469,-1.0382,4.298,0.64963,-0.21654,-1.7319,0.86618,3.8058e-11,-0.86597,0,0,0.5,-0,-0,0.66667
0.49394,0.86576,0.98787,0.54864,2.0634,3.8369,-1.4453,0.48176,-0.9294,-1.927,-1.7125e-12,-0.4647,0,0,0.5,-0,-0,0.66667
0.29445,0.90543,0.5889,0.60815,2.8407,6.1569,-0.95504,0.31835,-0.68601,-1.2734,-2.4948e-10,-0.343,0,0,0.5,7.0314e-16,0,0.66667
0.71033,0.70738,1.4207,0.31106,0.67168,1.6904,-1.1784,0.39281,-1.6554,-1.5713,1.972e-10,-0.82771,0,0,0.5,-0,-0,0.66667
0.0215,0.4948,0.043001,-0.007805,-0.03705,9.6542,0.00089182,-0.00029785,-1.9999,0.0011888,-8.6011e-07,-0.99995,0,0,0.5,3.4789e-18,0,0.66667
0.30959,0.66677,0.61918,0.25015,1.0766,5.8877,-0.41304,0.13768,-1.7771,-0.55072,-1.4092e-10,-0.88857,0,0,0.5,-0,-0,0.66667
0.84278,0.99771,1.6856,0.74657,1.1496,1.1128,-3.3557,1.1186,-0.019081,-4.4743,1.0004e-10,-0.0095407,0,0,0.5,1.6283e-15,1.6073e-16,0.66667
0.54746,0.3655,1.0949,-0.20176,-0.64435,3.157,0.58908,-0.19636,-1.8551,0.78544,-2.6087e-11,-0.92757,0,0,0.5,-5.9212e-16,0,0.66667
0.05517,0.16096,0.11034,-0.50857,-2.5438,9.2129,0.14964,-0.04988,-1.0805,0.19952,-6.2884e-08,-0.54027,0,0,0.5,1.4803e-16,0,0.66667
0.51017,0.8193,1.0203,0.47895,1.7241,3.6333,-1.3032,0.43439,-1.1843,-1.7376,4.7217e-12,-0.59214,0,0,0.5,-0,-0,0.66667
0.29425,0.90758,0.58851,0.61137,2.8587,6.1604,-0.95946,0.31982,-0.6719,-1.2793,-2.4294e-10,-0.33595,0,0,0.5,-0,6.394e-16,0.66667
0.16633,0.020615,0.33265,-0.71908,-3.6951,7.7918,0.63788,-0.21263,-0.16104,0.85051,8.975e-10,-0.080521,0,0,0.5,2.9606e-16,0,0.66667
0.67928,0.38913,1.3586,-0.1663,-0.38545,1.9053,0.6025,-0.20083,-1.901,0.80333,-9.6357e-11,-0.9505,0,0,0.5,-0,-0,0.66667
0.19682,0.54707,0.39363,0.070602,0.32114,7.3154,-0.074111,0.024704,-1.9816,-0.098814,-3.3323e-10,-0.99081,0,0,0.5,-0,-0,0.66667
0.39589,0.89271,0.79179,0.58907,2.5176,4.9426,-1.2438,0.41459,-0.76561,-1.6584,-3.5332e-11,-0.38281,0,0,0.5,-0,-0,0.66667
0.72776,0.28688,1.4555,-0.31969,-0.64936,1.5562,1.2408,-0.41361,-1.6367,1.6545,-2.0516e-10,-0.81833,0,0,0.5,-0,-0,0.66667
0.80994,0.72485,1.6199,0.33727,0.46182,0.98133,-1.4569,0.48563,-1.5957,-1.9425,-2.2853e-10,-0.79783,0,0,0.5,-0,-0,0.66667
0.60148,0.7141,1.203,0.32115,0.94016,2.6533,-1.0302,0.34341,-1.6334,-1.3736,8.1942e-11,-0.81672,0,0,0.5,-0,-0,0.66667
0.13081,0.80871,0.26162,0.46306,2.2602,8.2114,-0.32305,0.10768,-1.2379,-0.43073,1.9059e-09,-0.61897,0,0,0.5,-0,-0,0.66667
0.01089,0.87638,0.021781,0.56457,2.868,9.8005,-0.032791,0.01093,-0.86748,-0.043722,-3.4704e-08,-0.43374,0,0,0.5,-3.7007e-17,0,0.66667
0.29257,0.67485,0.58515,0.26227,1.1448,6.1016,-0.40925,0.13642,-1.7549,-0.54566,-1.5147e-10,-0.87744,0,0,0.5,-0,-0,0.66667
0.48388,0.98115,0.96777,0.72172,2.9168,4.0389,-1.8626,0.62085,-0.14765,-2.4834,-4.6629e-14,-0.073823,0,0,0.5,-0,5.6688e-16,0.66667
0.075671,0.54659,0.15134,0.069881,0.33015,8.9248,-0.028202,0.0094008,-1.9821,-0.037603,-3.4727e-09,-0.99106,0,0,0.5,-1.4803e-16,0,0.66667
0.083491,0.55471,0.16698,0.082062,0.38732,8.8199,-0.036541,0.01218,-1.9758,-0.048722,-1.0775e-08,-0.98792,0,0,0.5,-0,-0,0.66667
0.97949,0.95961,1.959,0.68942,0.086912,0.47638,-3.6015,1.2005,-0.3097,-4.802,-2.1952e-06,-0.15485,0,0,0.5,-0,-0,0.66667
0.62427,0.98317,1.2485,0.72475,2.331,2.6733,-2.413,0.80434,-0.13199,-3.2174,1.664e-12,-0.065993,0,0,0.5,1.1842e-15,-5.8859e-16,0.66667
0.82291,0.23267,1.6458,-0.401,-0.52336,0.93416,1.7599,-0.58664,-1.4276,2.3466,7.7899e-11,-0.71382,0,0,0.5,-1.1842e-15,0,0.66667
0.78101,0.77624,1.562,0.41436,0.69398,1.2139,-1.7259,0.57532,-1.39,-2.3013,4.9564e-10,-0.69498,0,0,0.5,2.2388e-15,0,0.66667
0.51024,0.88808,1.0205,0.58212,2.1614,3.6822,-1.5841,0.52804,-0.79454,-2.1122,2.0141e-12,-0.39727,0,0,0.5,-0,-0,0.66667
0.60696,0.87777,1.2139,0.56665,1.7669,2.7187,-1.8343,0.61144,-0.85897,-2.4458,4.6761e-11,-0.42948,0,0,0.5,2.3685e-15,0,0.66667
0.28245,0.58043,0.5649,0.12065,0.52358,6.2151,-0.18175,0.060583,-1.9478,-0.24233,-9.7335e-11,-0.97392,0,0,0.5,-2.9606e-16,0,0.66667
0.936,0.6952,1.872,0.2928,0.048726,0.29543,-1.4616,0.48721,-1.6952,-1.9488,-2.7615e-09,-0.84758,0,0,0.5,-0,-0,0.66667
0.61687,0.87202,1.2337,0.55803,1.6984,2.6221,-1.8359,0.61197,-0.89323,-2.4479,6.1191e-11,-0.44662,0,0,0.5,-1.3323e-15,0,0.66667
0.40685,0.23849,0.8137,-0.39227,-1.5796,4.7471,0.85116,-0.28372,-1.4526,1.1349,7.4447e-11,-0.72631,0,0,0.5,-0,-0,0.66667
0.050178,0.86192,0.10036,0.54289,2.7373,9.2806,-0.14529,0.048429,-0.95157,-0.19371,-1.8982e-08,-0.47578,0,0,0.5,7.4015e-17,0,0.66667
0.10484,0.33565,0.20969,-0.24652,-1.1721,8.5388,0.13785,-0.045949,-1.7837,0.1838,-5.0636e-09,-0.89185,0,0,0.5,7.4015e-17,0,0.66667
0.44394,0.88971,0.88788,0.58457,2.3694,4.3972,-1.3841,0.46136,-0.78432,-1.8454,-1.2962e-11,-0.39216,0,0,0.5,-5.9212e-16,0,0.66667
0.023763,0.31514,0.047525,-0.2773,-1.3384,9.6253,0.035143,-0.011714,-1.7271,0.046857,-6.7777e-08,-0.86355,0,0,0.5,-0,-0,0.66667
0.28857,0.67346,0.57714,0.26019,1.1386,6.1515,-0.40044,0.13348,-1.7586,-0.53392,-1.494e-10,-0.87932,0,0,0.5,-0,-0,0.66667
0.2149,0.54192,0.42979,0.062874,0.28342,7.0794,-0.072061,0.02402,-1.9855,-0.096081,-2.1671e-10,-0.99276,0,0,0.5,-0,-0,0.66667
0.22151,0.077142,0.44302,-0.63429,-3.1115,7.0719,0.74934,-0.24978,-0.56899,0.99912,1.0739e-09,-0.2845,0,0,0.5,-0,-0,0.66667
0.19268,0.10631,0.38537,-0.59054,-2.9017,7.4284,0.60686,-0.20229,-0.75949,0.80915,2.651e-09,-0.37974,0,0,0.5,-0,-0,0.66667
0.83915,0.32154,1.6783,-0.26769,-0.28609,0.77035,1.198,-0.39935,-1.7449,1.5974,6.9796e-10,-0.87245,0,0,0.5,2.3685e-15,0,0.66667
0.46604,0.14617,0.93209,-0.53074,-2.0613,4.1294,1.3192,-0.43973,-0.99811,1.7589,1.1841e-11,-0.49906,0,0,0.5,-0,-0,0.66667
0.54314,0.98238,1.0863,0.72357,2.6914,3.4345,-2.096,0.69866,-0.13794,-2.7946,2.3448e-13,-0.068968,0,0,0.5,-0,5.8244e-16,0.66667
0.58082,0.14268,1.1616,-0.53598,-1.7412,2.9484,1.6603,-0.55343,-0.97808,2.2137,-3.5722e-11,-0.48904,0,0,0.5,-0,-0,0.66667
0.094346,0.70767,0.18869,0.31151,1.4962,8.6819,-0.15675,0.052248,-1.6547,-0.20899,-1.048e-09,-0.82736,0,0,0.5,-1.4803e-16,0,0.66667
0.064011,0.39216,0.12802,-0.16175,-0.76918,9.0827,0.055221,-0.018407,-1.9065,0.073628,-8.7267e-09,-0.95326,0,0,0.5,-0,-0,0.66667
0.98681,0.23433,1.9736,-0.39851,0.11114,0.17852,2.0974,-0.69912,-1.4348,2.7965,1.5854e-08,-0.71741,0,0,0.5,1.1842e-15,0,0.66667
0.28383,0.89667,0.56766,0.595,2.7891,6.2833,-0.9007,0.30023,-0.74095,-1.2009,-3.5087e-10,-0.37048,0,0,0.5,-0,-0,0.66667
0.1419,0.27554,0.2838,-0.33669,-1.6027,8.0532,0.25481,-0.084937,-1.5972,0.33975,-1.0536e-09,-0.79859,0,0,0.5,7.4015e-17,0,0.66667
0.018779,0.25641,0.037558,-0.36538,-1.7855,9.6932,0.036595,-0.012198,-1.5254,0.048793,9.5237e-09,-0.76268,0,0,0.5,3.7007e-17,0,0.66667
0.87071,0.11263,1.7414,-0.58105,-0.61403,0.79826,2.6983,-0.89942,-0.79903,3.5977,-6.9419e-09,-0.39952,0,0,0.5,-0,-0,0.66667
0.17375,0.67566,0.34749,0.26349,1.2281,7.6283,-0.24416,0.081388,-1.7528,-0.32555,4.4203e-10,-0.87638,0,0,0.5,-2.9606e-16,0,0.66667
0.17154,0.66201,0.34307,0.24301,1.131,7.6557,-0.22232,0.074107,-1.7903,-0.29643,5.4337e-10,-0.89516,0,0,0.5,-0,-0,0.66667
0.3727,0.75567,0.74539,0.38351,1.5961,5.1458,-0.76231,0.2541,-1.4772,-1.0164,-1.2202e-10,-0.73861,0,0,0.5,-0,-0,0.66667
0.18251,0.071959,0.36502,-0.64206,-3.2102,7.5691,0.62497,-0.20832,-0.53388,0.83329,2.843e-09,-0.26694,0,0,0.5,-0,-0,0.66667
0.44101,0.26331,0.88202,-0.35503,-1.3645,4.3452,0.83505,-0.27835,-1.5513,1.1134,4.1978e-11,-0.77565,0,0,0.5,-0,-0,0.66667
0.57868,0.74507,1.1574,0.36761,1.1411,2.8908,-1.1345,0.37818,-1.5199,-1.5127,5.9976e-11,-0.75996,0,0,0.5,-0,-0,0.66667
0.83616,0.99925,1.6723,0.74887,1.2002,1.1517,-3.3396,1.1132,-0.0068799,-4.4528,-1.158e-09,-0.00344,0,0,0.5,1.3323e-15,0,0.66667
0.58829,0.88145,1.1766,0.57217,1.8559,2.8976,-1.7952,0.59841,-0.83593,-2.3936,3.0375e-11,-0.41796,0,0,0.5,-0,-0,0.66667
0.92403,0.29377,1.8481,-0.30934,-0.091396,0.35384,1.5245,-0.50816,-1.6593,2.0326,7.48e-10,-0.82966,0,0,0.5,-0,-0,0.66667
0.48128,0.086455,0.96257,-0.62032,-2.4277,4.0081,1.5923,-0.53075,-0.63177,2.123,2.077e-12,-0.31588,0,0,0.5,-0,-0,0.66667
0.62184,0.13831,1.2437,-0.54254,-1.6238,2.5672,1.7993,-0.59978,-0.9529,2.3991,-7.5611e-11,-0.47645,0,0,0.5,-0,-0,0.66667
0.44171,0.99171,0.88341,0.73757,3.1521,4.5014,-1.7375,0.57918,-0.065514,-2.3167,-7.2498e-14,-0.032757,0,0,0.5,5.9212e-16,0,0.66667
0.91251,0.81749,1.825,0.47623,0.25919,0.51111,-2.3177,0.77256,-1.1937,-3.0902,-2.7715e-09,-0.59687,0,0,0.5,-0,-0,0.66667
0.71041,0.32137,1.4208,-0.26794,-0.57149,1.674,1.0152,-0.3384,-1.7444,1.3536,-1.5458e-10,-0.87219,0,0,0.5,-0,-0,0.66667
0.6028,0.34505,1.2056,-0.23242,-0.6666,2.6144,0.74721,-0.24907,-1.8087,0.99628,-6.85e-11,-0.90435,0,0,0.5,-0,-0,0.66667
0.84339,0.48622,1.6868,-0.020668,-0.019774,0.69201,0.092965,-0.030988,-1.9981,0.12395,-1.8277e-10,-0.99906,0,0,0.5,-1.1842e-15,0,0.66667
0.9065,0.013038,1.813,-0.73044,-0.67254,0.7852,3.5314,-1.1771,-0.10261,4.7086,-3.855e-08,-0.051307,0,0,0.5,-0,-0,0.66667
0.57799,0.65976,1.156,0.23964,0.72559,2.8577,-0.73871,0.24624,-1.7965,-0.98494,5.0671e-11,-0.89824,0,0,0.5,-2.3685e-15,0,0.66667
0.2076,0.6129,0.41519,0.16935,0.77053,7.179,-0.1875,0.0625,-1.8975,-0.25,-9.4788e-11,-0.94875,0,0,0.5,-0,-0,0.66667
0.33309,0.014867,0.66618,-0.7277,-3.4256,5.7359,1.2927,-0.43091,-0.11654,1.7237,4.6425e-12,-0.058268,0,0,0.5,-0,-0,0.66667
0.92001,0.49872,1.84,-0.0019155,-0.00044968,0.29306,0.0093989,-0.0031331,-2.0009,0.012532,-1.7776e-07,-1.0005,0,0,0.5,-1.6283e-15,0,0.66667
0.49116,0.22704,0.98232,-0.40944,-1.4893,3.8083,1.0725,-0.35751,-1.4036,1.4301,5.3183e-12,-0.70182,0,0,0.5,-1.1842e-15,0,0.66667
0.84515,0.33226,1.6903,-0.25161,-0.25315,0.72886,1.1341,-0.37803,-1.7746,1.5121,5.9397e-10,-0.88729,0,0,0.5,-1.1842e-15,0,0.66667
0.49158,0.99983,0.98315,0.74975,3.0321,3.9761,-1.9657,0.65522,-0.0023227,-2.6209,3.7192e-14,-0.0011614,0,0,0.5,-8.8818e-16,0,0.66667
0.048249,0.91957,0.096497,0.62936,3.2401,9.3105,-0.16195,0.053983,-0.59126,-0.21593,-7.5684e-08,-0.29563,0,0,0.5,-7.4015e-17,0,0.66667
0.58842,0.035467,1.1768,-0.6968,-2.3739,2.9791,2.1867,-0.72891,-0.27394,2.9156,-2.1159e-12,-0.13697,0,0,0.5,-0,-0,0.66667
0.97989,0.095195,1.9598,-0.60721,-0.0069198,0.38241,3.1733,-1.0578,-0.68985,4.2311,9.3642e-07,-0.34492,0,0,0.5,-2.3685e-15,0,0.66667
0.15147,0.91791,0.30293,0.62686,3.1563,7.9649,-0.50639,0.1688,-0.6023,-0.67519,-6.5922e-09,-0.30115,0,0,0.5,-0,-0,0.66667
0.62692,0.7816,1.2538,0.4224,1.1991,2.4565,-1.4123,0.47078,-1.3668,-1.8831,1.2266e-10,-0.68338,0,0,0.5,-0,-0,0.66667
0.64441,0.94021,1.2888,0.66032,1.9726,2.4461,-2.2694,0.75648,-0.45029,-3.0259,2.5958e-11,-0.22514,0,0,0.5,-0,-0,0.66667
0.10623,0.51827,0.21245,0.027401,0.12853,8.5147,-0.015524,0.0051745,-1.9968,-0.020698,-1.256e-08,-0.99841,0,0,0.5,-2.9606e-16,0,0.66667
0.29898,0.936,0.59795,0.654,3.0848,6.117,-1.0428,0.34761,-0.48012,-1.3904,-1.1337e-10,-0.24006,0,0,0.5,-2.2204e-16,0,0.66667
0.38954,0.42618,0.77907,-0.11073,-0.43777,4.9001,0.23005,-0.076683,-1.9561,0.30673,3.9557e-11,-0.97805,0,0,0.5,-0,-0,0.66667
0.95436,0.18962,1.9087,-0.46557,-0.054539,0.33506,2.3697,-0.7899,-1.2302,3.1596,3.4545e-08,-0.61508,0,0,0.5,-0,-0,0.66667
0.57675,0.84837,1.1535,0.52255,1.703,2.9804,-1.6074,0.53579,-1.0295,-2.1432,3.6197e-11,-0.51476,0,0,0.5,-0,-0,0.66667
0.087358,0.64723,0.17472,0.22084,1.0512,8.7713,-0.10289,0.034297,-1.8262,-0.13719,-1.3908e-09,-0.91312,0,0,0.5,-7.4015e-17,0,0.66667
0.10716,0.037267,0.21432,-0.6941,-3.6013,8.5481,0.39669,-0.13223,-0.28716,0.52892,2.9261e-08,-0.14358,0,0,0.5,-0,3.6824e-16,0.66667
0.95368,0.43728,1.9074,-0.094083,0.008613,0.16126,0.47854,-0.15951,-1.9698,0.63805,-2.8998e-07,-0.9849,0,0,0.5,-1.2953e-16,0,0.66667
0.80534,0.53954,1.6107,0.059309,0.076775,0.93199,-0.25474,0.084915,-1.9872,-0.33966,3.2222e-10,-0.9936,0,0,0.5,-0,-0,0.66667
0.4283,0.67811,0.8566,0.26717,1.0275,4.4689,-0.61029,0.20343,-1.7458,-0.81372,-4.8934e-11,-0.8729,0,0,0.5,-0,-0,0.66667
0.67249,0.83457,1.345,0.50186,1.3044,2.0977,-1.8,0.59999,-1.1044,-2.4,2.2685e-10,-0.55219,0,0,0.5,-0,-0,0.66667
0.21193,0.078488,0.42386,-0.63227,-3.1139,7.1926,0.71464,-0.23821,-0.57795,0.95286,1.3948e-09,-0.28897,0,0,0.5,4.5085e-17,0,0.66667
0.52016,0.56299,1.0403,0.09449,0.31335,3.4268,-0.26213,0.087378,-1.9692,-0.34951,5.6257e-12,-0.98462,0,0,0.5,2.3685e-15,0,0.66667
0.97554,0.0057962,1.9511,-0.74131,-0.18108,0.55215,3.8569,-1.2856,-0.04611,5.1426,-4.8393e-06,-0.023055,0,0,0.5,-0,-0,0.66667
0.83042,0.74754,1.6608,0.37132,0.45119,0.87163,-1.6445,0.54818,-1.5105,-2.1927,-4.5934e-10,-0.75524,0,0,0.5,-0,-0,0.66667
0.21598,0.68595,0.43196,0.27893,1.278,7.0795,-0.3213,0.1071,-1.7242,-0.42839,8.0175e-11,-0.86211,0,0,0.5,4.0708e-16,0,0.66667
0.44842,0.3499,0.89685,-0.22516,-0.83987,4.2315,0.53848,-0.17949,-1.8198,0.71798,3.073e-11,-0.90988,0,0,0.5,-0,-0,0.66667
0.57268,0.07627,1.1454,-0.63559,-2.1736,3.0867,1.9413,-0.6471,-0.563,2.5884,-9.0217e-12,-0.2815,0,0,0.5,-1.1842e-15,0,0.66667
0.5708,0.13038,1.1416,-0.55443,-1.8469,3.0558,1.6878,-0.56262,-0.90709,2.2505,-2.4754e-11,-0.45355,0,0,0.5,-0,-0,0.66667
0.93053,0.94964,1.8611,0.67447,0.4072,0.6234,-3.3472,1.1157,-0.38198,-4.463,5.4837e-08,-0.19099,0,0,0.5,-2.3685e-15,0,0.66667
0.2551,0.60925,0.51019,0.16388,0.72612,6.5658,-0.22296,0.07432,-1.9039,-0.29728,-1.1451e-10,-0.95194,0,0,0.5,-5.9212e-16,0,0.66667
0.65634,0.52892,1.3127,0.04338,0.10648,2.0903,-0.15185,0.050617,-1.9942,-0.20247,2.5028e-11,-0.99709,0,0,0.5,1.4803e-15,0,0.66667
0.78125,0.10612,1.5625,-0.59082,-1.097,1.3354,2.4617,-0.82058,-0.75861,3.2823,-1.5084e-09,-0.3793,0,0,0.5,-0,-0,0.66667
0.11597,0.14207,0.23194,-0.53689,-2.6722,8.4141,0.33208,-0.11069,-0.97444,0.44277,7.1699e-10,-0.48722,0,0,0.5,1.4803e-16,0,0.66667
0.52639,0.76906,1.0528,0.40359,1.3888,3.433,-1.1331,0.37768,-1.4203,-1.5107,1.6379e-11,-0.71015,0,0,0.5,5.9212e-16,0,0.66667
0.41234,0.50357,0.82469,0.0053589,0.020591,4.6271,-0.011785,0.0039283,-2.0003,-0.015713,-1.6545e-12,-1.0001,0,0,0.5,2.3685e-15,0,0.66667
0.50229,0.04608,1.0046,-0.68088,-2.6453,3.8211,1.824,-0.608,-0.35114,2.432,-9.1815e-14,-0.17557,0,0,0.5,-0,-0,0.66667
0.065315,0.70099,0.13063,0.30149,1.4536,9.069,-0.10502,0.035007,-1.6763,-0.14003,-4.7577e-09,-0.83815,0,0,0.5,-0,-0,0.66667
0.26954,0.92971,0.53907,0.64456,3.0897,6.4749,-0.92658,0.30886,-0.52263,-1.2354,-2.814e-10,-0.26131,0,0,0.5,-2.9606e-16,0,0.66667
0.25,0.74757,0.5,0.37135,1.6932,6.6556,-0.49514,0.16505,-1.5105,-0.66018,-3.1187e-10,-0.75527,0,0,0.5,1.4803e-16,0,0.66667
0.66868,0.45537,1.3374,-0.066951,-0.15867,1.983,0.23877,-0.079589,-1.9835,0.31835,-4.15e-11,-0.99177,0,0,0.5,-0,-0,0.66667
0.050074,0.06621,0.10015,-0.65069,-3.3678,9.2877,0.17377,-0.057925,-0.49504,0.2317,-1.4227e-08,-0.24752,0,0,0.5,-1.4803e-16,0,0.66667
0.97313,0.305,1.9463,-0.2925,0.061984,0.15775,1.5181,-0.50603,-1.6956,2.0241,5.6548e-08,-0.84782,0,0,0.5,1.7764e-15,0,0.66667
0.37569,0.52209,0.75137,0.033132,0.13248,5.0616,-0.066385,0.022128,-1.996,-0.088513,-1.4281e-11,-0.99799,0,0,0.5,-5.9212e-16,0,0.66667
0.87187,0.85284,1.7437,0.52926,0.52202,0.74777,-2.4611,0.82035,-1.0038,-3.2814,3.5935e-10,-0.50188,0,0,0.5,-0,-0,0.66667
0.69429,0.93895,1.3886,0.65843,1.7308,2.029,-2.4381,0.8127,-0.4593,-3.2508,8.8468e-11,-0.22965,0,0,0.5,-0,-0,0.66667
0.029579,0.41966,0.059158,-0.1205,-0.57364,9.5456,0.01901,-0.0063369,-1.9479,0.025347,-2.3137e-07,-0.97396,0,0,0.5,-0,-0,0.66667
0.087271,0.76168,0.17454,0.39252,1.9112,8.7806,-0.18269,0.060898,-1.4516,-0.24359,4.1781e-09,-0.72582,0,0,0.5,1.4803e-16,0,0.66667
0.094963,0.37423,0.18993,-0.18865,-0.89397,8.6685,0.095545,-0.031848,-1.8746,0.12739,-1.3606e-08,-0.93728,0,0,0.5,-5.5511e-17,0,0.66667
0.56423,0.50795,1.1285,0.011919,0.036375,2.9661,-0.035867,0.011956,-1.9994,-0.047823,2.4363e-12,-0.99971,0,0,0.5,-2.3685e-15,0,0.66667
0.56604,0.2336,1.1321,-0.39961,-1.2814,3.0281,1.2064,-0.40212,-1.4317,1.6085,-4.6336e-11,-0.71583,0,0,0.5,-1.1842e-15,0,0.66667
0.31061,0.384,0.62122,-0.174,-0.74243,5.8661,0.28824,-0.096081,-1.8922,0.38432,1.0419e-10,-0.94608,0,0,0.5,-0,-0,0.66667
0.11319,0.87245,0.22639,0.55867,2.7963,8.4529,-0.33727,0.11242,-0.89086,-0.44969,-6.4963e-10,-0.44543,0,0,0.5,1.4803e-16,0,0.66667
0.76861,0.52494,1.5372,0.037417,0.059901,1.1836,-0.15338,0.051127,-1.9951,-0.20451,9.751e-11,-0.99754,0,0,0.5,-0,-0,0.66667
0.1382,0.84383,0.2764,0.51574,2.5395,8.1208,-0.38013,0.12671,-1.0554,-0.50684,-1.8694e-09,-0.52772,0,0,0.5,-5.9212e-16,0,0.66667
0.58503,0.095523,1.1701,-0.60672,-2.006,2.9499,1.8931,-0.63102,-0.69186,2.5241,-1.8253e-11,-0.34593,0,0,0.5,2.3685e-15,0,0.66667
0.50868,0.97428,1.0174,0.71142,2.7709,3.7741,-1.93,0.64335,-0.2005,-2.5734,9.5923e-14,-0.10025,0,0,0.5,-1.1842e-15,0,0.66667
0.51012,0.013825,1.0202,-0.72926,-2.8541,3.7709,1.9841,-0.66136,-0.10845,2.6454,-9.226e-14,-0.054223,0,0,0.5,2.3685e-15,0,0.66667
0.35934,0.72806,0.71867,0.34209,1.4308,5.2957,-0.6556,0.21853,-1.5838,-0.87413,-1.3539e-10,-0.79192,0,0,0.5,-0,-0,0.66667
0.055479,0.14494,0.11096,-0.53259,-2.6778,9.2101,0.15759,-0.052529,-0.9909,0.21012,-4.4623e-09,-0.49545,0,0,0.5,7.4015e-17,0,0.66667
0.33619,0.049735,0.67239,-0.6754,-3.1205,5.6772,1.211,-0.40367,-0.37747,1.6147,3.1458e-11,-0.18874,0,0,0.5,-0,-0,0.66667
0.94985,0.013907,1.8997,-0.72914,-0.35692,0.61734,3.6937,-1.2312,-0.10916,4.925,3.4819e-08,-0.05458,0,0,0.5,4.737e-15,0,0.66667
0.94833,0.78205,1.8967,0.42308,0.058881,0.32526,-2.1398,0.71328,-1.3645,-2.8531,-5.2133e-09,-0.68224,0,0,0.5,-0,-0,0.66667
0.42932,0.44979,0.85864,-0.075315,-0.28416,4.4322,0.17245,-0.057483,-1.9792,0.22993,1.665e-11,-0.98962,0,0,0.5,-0,-0,0.66667
0.74205,0.14857,1.4841,-0.52714,-1.1078,1.5629,2.0862,-0.69541,-1.0117,2.7816,-7.4278e-10,-0.50587,0,0,0.5,-5.9212e-16,0,0.66667
0.55762,0.17284,1.1152,-0.49073,-1.6397,3.1525,1.4594,-0.48647,-1.1431,1.9459,-2.9064e-11,-0.57156,0,0,0.5,-0,-0,0.66667
0.914,0.87556,1.828,0.56334,0.35131,0.57811,-2.7461,0.91537,-0.87255,-3.6615,6.0401e-09,-0.43627,0,0,0.5,-0,-0,0.66667
0.73641,0.39326,1.4728,-0.16011,-0.3017,1.4396,0.62885,-0.20962,-1.9084,0.83846,-1.1431e-10,-0.9542,0,0,0.5,-0,-0,0.66667
0.39393,0.63678,0.78786,0.20517,0.81371,4.8585,-0.43106,0.14369,-1.8499,-0.57474,-6.4432e-11,-0.92493,0,0,0.5,-0,-0,0.66667
0.060535,0.75189,0.12107,0.37783,1.8433,9.1357,-0.12199,0.040662,-1.4932,-0.16265,1.0687e-09,-0.74662,0,0,0.5,-1.4803e-16,0,0.66667
0.81061,0.58738,1.6212,0.13107,0.16559,0.90741,-0.56666,0.18889,-1.939,-0.75554,3.2225e-10,-0.96951,0,0,0.5,-5.9212e-16,0,0.66667
0.31642,0.97422,0.63284,0.71133,3.3722,5.9277,-1.2004,0.40014,-0.20107,-1.6006,-1.1613e-11,-0.10054,0,0,0.5,-1.1842e-15,0,0.66667
0.49421,0.68121,0.98841,0.27181,0.95787,3.7343,-0.71643,0.23881,-1.7373,-0.95524,-3.6621e-12,-0.86863,0,0,0.5,-0,-0,0.66667
0.54153,0.6435,1.0831,0.21525,0.69612,3.2207,-0.62167,0.20722,-1.8347,-0.8289,2.3643e-11,-0.91734,0,0,0.5,-0,-0,0.66667
0.51753,0.78627,1.0351,0.42941,1.5084,3.5355,-1.1852,0.39508,-1.3447,-1.5803,1.0085e-11,-0.67234,0,0,0.5,-0,-0,0.66667
0.14619,0.13214,0.29238,-0.5518,-2.7324,8.0215,0.43023,-0.14341,-0.91726,0.57364,4.0816e-09,-0.45863,0,0,0.5,-0,-0,0.66667
0.35934,0.096238,0.71869,-0.60564,-2.6901,5.3754,1.1607,-0.38691,-0.69666,1.5476,6.1474e-11,-0.34833,0,0,0.5,1.1842e-15,1.7354e-16,0.66667
0.36131,0.63708,0.72262,0.20562,0.84253,5.2481,-0.39622,0.13207,-1.8493,-0.52829,-8.8133e-11,-0.92464,0,0,0.5,5.9212e-16,0,0.66667
0.2158,0.83074,0.43159,0.49611,2.36,7.1142,-0.57098,0.19033,-1.1244,-0.76131,-1.2405e-09,-0.56219,0,0,0.5,-2.9606e-16,0,0.66667
0.036849,0.61652,0.073699,0.17478,0.83448,9.4482,-0.034349,0.01145,-1.8911,-0.045799,2.3596e-08,-0.94554,0,0,0.5,-0,-0,0.66667
0.92418,0.69037,1.8484,0.28556,0.079765,0.34159,-1.4075,0.46917,-1.7107,-1.8767,1.4074e-08,-0.85534,0,0,0.5,-2.3685e-15,0,0.66667
0.35432,0.80691,0.70864,0.46037,1.9797,5.3861,-0.86996,0.28999,-1.2465,-1.1599,-1.5667e-10,-0.62325,0,0,0.5,-2.9606e-16,0,0.66667
0.1958,0.54138,0.3916,0.062064,0.28236,7.3285,-0.064811,0.021604,-1.9858,-0.086414,-3.1331e-10,-0.99292,0,0,0.5,-0,-0,0.66667
0.86409,0.83363,1.7282,0.50044,0.51423,0.76553,-2.3063,0.76875,-1.1091,-3.075,6.6259e-10,-0.55457,0,0,0.5,-1.1842e-15,0,0.66667
0.49805,0.99137,0.99611,0.73706,2.9412,3.9005,-1.9578,0.65261,-0.068288,-2.6104,-5.6621e-15,-0.034144,0,0,0.5,5.9212e-16,-4.7343e-16,0.66667
0.81993,0.12919,1.6399,-0.55622,-0.82619,1.0608,2.4323,-0.81077,-0.90022,3.2431,-3.1096e-09,-0.45011,0,0,0.5,-0,-0,0.66667
0.76332,0.76385,1.5266,0.39578,0.71436,1.3273,-1.6112,0.53708,-1.4426,-2.1483,4.1162e-10,-0.72128,0,0,0.5,-0,-0,0.66667
0.11672,0.11806,0.23345,-0.57291,-2.8747,8.4084,0.35666,-0.11889,-0.83282,0.47554,4.9434e-09,-0.41641,0,0,0.5,2.2204e-16,0,0.66667
0.51608,0.038475,1.0322,-0.69229,-2.6491,3.686,1.9055,-0.63516,-0.29606,2.5406,-2.7889e-13,-0.14803,0,0,0.5,-0,-0,0.66667
0.33424,0.051297,0.66848,-0.67305,-3.1122,5.6995,1.1998,-0.39993,-0.3888,1.5997,3.4681e-11,-0.1944,0,0,0.5,-0,-0,0.66667
0.68594,0.59465,1.3719,0.14198,0.32108,1.844,-0.51942,0.17314,-1.9294,-0.69256,8.9798e-11,-0.96469,0,0,0.5,-0,-0,0.66667
0.78722,0.7192,1.5744,0.3288,0.51194,1.1272,-1.3805,0.46016,-1.6166,-1.8406,-1.3554e-11,-0.80828,0,0,0.5,-0,-0,0.66667
0.28471,0.056333,0.56942,-0.6655,-3.1791,6.295,1.0105,-0.33684,-0.42533,1.3474,1.3425e-10,-0.21266,0,0,0.5,-0,-0,0.66667
0.42001,0.21253,0.84001,-0.4312,-1.7257,4.6072,0.96591,-0.32197,-1.339,1.2879,5.6674e-11,-0.66951,0,0,0.5,1.1369e-15,0,0.66667
0.88235,0.1231,1.7647,-0.56535,-0.52532,0.72585,2.6605,-0.88682,-0.86422,3.5473,-5.6174e-09,-0.43211,0,0,0.5,-1.4803e-15,0,0.66667
0.764,0.17385,1.528,-0.48922,-0.92225,1.3785,1.9934,-0.66448,-1.1486,2.6579,-9.2978e-10,-0.57429,0,0,0.5,-9.0476e-16,0,0.66667
0.2849,0.58467,0.5698,0.127,0.5504,6.1846,-0.19297,0.064324,-1.9424,-0.2573,-9.8364e-11,-0.97118,0,0,0.5,-2.9606e-16,0,0.66667
0.72388,0.24783,1.4478,-0.37826,-0.79573,1.6128,1.4603,-0.48678,-1.4919,1.9471,-3.1658e-10,-0.74595,0,0,0.5,-1.6283e-15,0,0.66667
0.02714,0.88026,0.054281,0.57039,2.8995,9.586,-0.082562,0.027521,-0.84338,-0.11008,-2.7841e-07,-0.42169,0,0,0.5,-0,-0,0.66667
0.5633,0.13067,1.1266,-0.554,-1.8703,3.1291,1.6644,-0.55478,-0.90902,2.2191,-2.1059e-11,-0.45451,0,0,0.5,-0,-0,0.66667
0.041077,0.30632,0.082155,-0.29052,-1.4028,9.3932,0.063647,-0.021216,-1.6999,0.084863,4.3654e-08,-0.84993,0,0,0.5,-3.7007e-17,0,0.66667
0.12608,0.92068,0.25216,0.63102,3.2044,8.2941,-0.42432,0.14144,-0.58382,-0.56575,-1.1519e-08,-0.29191,0,0,0.5,-0,-0,0.66667
0.8206,0.68309,1.6412,0.27464,0.33969,0.88609,-1.202,0.40065,-1.732,-1.6026,-4.4889e-10,-0.86601,0,0,0.5,2.9606e-16,0,0.66667
0.68161,0.36204,1.3632,-0.20694,-0.4794,1.8946,0.75228,-0.25076,-1.8471,1.003,-1.1539e-10,-0.92356,0,0,0.5,-0,-0,0.66667
0.43883,0.27458,0.87766,-0.33813,-1.2989,4.3653,0.79137,-0.26379,-1.5936,1.0552,4.401e-11,-0.7968,0,0,0.5,-0,-0,0.66667
0.39571,0.61688,0.79142,0.17532,0.69196,4.8335,-0.37001,0.12334,-1.8905,-0.49334,-5.5672e-11,-0.94523,0,0,0.5,-5.9212e-16,0,0.66667
0.8758,0.4865,1.7516,-0.02025,-0.013356,0.50997,0.094584,-0.031528,-1.9982,0.12611,2.4016e-09,-0.99908,0,0,0.5,-1.1842e-15,0,0.66667
0.23877,0.5567,0.47753,0.085047,0.37876,6.771,-0.1083,0.0361,-1.9743,-0.1444,-1.4856e-10,-0.98717,0,0,0.5,2.9606e-16,0,0.66667
0.39398,0.001837,0.78797,-0.74724,-3.3635,5.0387,1.5701,-0.52338,-0.015428,2.0935,-5.9297e-13,-0.0077139,0,0,0.5,-2.3685e-15,0,0.66667
0.14348,0.50665,0.28696,0.0099806,0.046308,8.018,-0.0076373,0.0025458,-1.9997,-0.010183,-1.3437e-09,-0.99983,0,0,0.5,-0,-0,0.66667
0.67243,0.68583,1.3449,0.27874,0.67429,1.9942,-0.99964,0.33321,-1.7247,-1.3329,1.4576e-10,-0.86236,0,0,0.5,2.9606e-16,0,0.66667
0.17561,0.1644,0.35122,-0.5034,-2.4407,7.6325,0.47148,-0.15716,-1.0988,0.62864,1.7499e-09,-0.54939,0,0,0.5,-5.9212e-16,0,0.66667
0.99975,0.58791,1.9995,0.13187,-0.074195,0.01615,-0.70314,0.23438,-1.9385,-0.93752,3.0957e-07,-0.96924,0,0,0.5,-0,-0,0.66667
0.96443,0.061345,1.9289,-0.65798,-0.15679,0.48526,3.3844,-1.1281,-0.4615,4.5126,-2.5168e-07,-0.23075,0,0,0.5,-1.3375e-15,8.0926e-19,0.66667
0.067754,0.62595,0.13551,0.18893,0.89976,9.033,-0.068269,0.022756,-1.874,-0.091025,-1.8052e-08,-0.93698,0,0,0.5,-2.9606e-16,0,0.66667
0.070849,0.68179,0.1417,0.27268,1.309,8.9939,-0.10304,0.034346,-1.7356,-0.13738,-6.1255e-09,-0.86782,0,0,0.5,-6.9071e-17,0,0.66667
0.24709,0.98977,0.49418,0.73466,3.6616,6.7809,-0.96814,0.32271,-0.080643,-1.2909,-2.6818e-11,-0.040321,0,0,0.5,-0,-0,0.66667
0.31125,0.94493,0.6225,0.66739,3.1335,5.973,-1.1079,0.36929,-0.41634,-1.4772,-6.715e-11,-0.20817,0,0,0.5,-0,-4.2913e-16,0.66667
0.79794,0.47305,1.5959,-0.040429,-0.054823,0.97985,0.17205,-0.05735,-1.9947,0.2294,-2.062e-10,-0.99733,0,0,0.5,-2.3685e-15,0,0.66667
0.75286,0.039929,1.5057,-0.69011,-1.5327,1.6167,2.771,-0.92366,-0.30647,3.6946,-1.8858e-10,-0.15323,0,0,0.5,-0,-0,0.66667
0.1789,0.62924,0.35781,0.19387,0.89533,7.5556,-0.18498,0.06166,-1.8666,-0.24664,2.0585e-10,-0.9333,0,0,0.5,-5.9212e-16,0,0.66667
0.74052,0.97561,1.481,0.71342,1.6788,1.7263,-2.8176,0.93921,-0.19021,-3.7568,5.4784e-11,-0.095105,0,0,0.5,-0,-0,0.66667
0.37683,0.39631,0.75366,-0.15553,-0.62489,5.0556,0.31258,-0.10419,-1.9137,0.41678,6.0828e-11,-0.95686,0,0,0.5,-2.9606e-16,0,0.66667
0.31534,0.70013,0.63068,0.30019,1.2947,5.8241,-0.50486,0.16829,-1.6791,-0.67315,-1.7088e-10,-0.83956,0,0,0.5,5.9212e-16,0,0.66667
0.20011,0.44566,0.40022,-0.081505,-0.37031,7.2726,0.086986,-0.028995,-1.9762,0.11598,3.6115e-10,-0.98811,0,0,0.5,-0,-0,0.66667
0.55685,0.91835,1.1137,0.62753,2.1992,3.2358,-1.8637,0.62122,-0.59929,-2.4849,7.1085e-12,-0.29964,0,0,0.5,-1.1842e-15,0,0.66667
0.50796,0.50437,1.0159,0.0065619,0.022135,3.553,-0.017777,0.0059257,-2.0001,-0.023703,1.0113e-13,-1,0,0,0.5,-0,-0,0.66667
0.90452,0.70466,1.809,0.30699,0.14866,0.44045,-1.481,0.49365,-1.6644,-1.9746,6.0692e-10,-0.83222,0,0,0.5,-0,-0,0.66667
0.16445,0.34793,0.3289,-0.22811,-1.0629,7.7478,0.20006,-0.066688,-1.8152,0.26675,-5.9246e-10,-0.90762,0,0,0.5,-5.9212e-16,0,0.66667
0.026083,0.59446,0.052165,0.14169,0.67546,9.5929,-0.01971,0.0065688,-1.9295,-0.02628,-1.6182e-06,-0.96477,0,0,0.5,-0,-0,0.66667
0.13921,0.95529,0.27841,0.68293,3.5036,8.1325,-0.50703,0.16901,-0.34129,-0.67604,-6.5157e-09,-0.17064,0,0,0.5,1.4803e-16,0,0.66667
0.036355,0.54886,0.07271,0.073286,0.348,9.454,-0.01421,0.0047367,-1.9803,-0.018946,1.9625e-07,-0.99015,0,0,0.5,-0,-0,0.66667
0.56867,0.14428,1.1373,-0.53358,-1.7717,3.0651,1.6183,-0.53943,-0.98714,2.1577,-2.8248e-11,-0.49357,0,0,0.5,-0,-0,0.66667
0.77158,0.8076,1.5432,0.4614,0.82853,1.3074,-1.8987,0.6329,-1.2432,-2.5316,8.3924e-10,-0.6216,0,0,0.5,1.9372e-15,0,0.66667
0.98718,0.43122,1.9744,-0.10317,0.045027,0.047417,0.54318,-0.18106,-1.9622,0.72424,-2.039e-06,-0.98111,0,0,0.5,-0,-0,0.66667
0.84725,0.28018,1.6945,-0.32974,-0.34106,0.7509,1.49,-0.49665,-1.6143,1.9866,6.8641e-10,-0.80716,0,0,0.5,1.3323e-15,0,0.66667
0.16958,0.98056,0.33915,0.72084,3.7019,7.7508,-0.65193,0.21731,-0.15209,-0.86924,-7.2529e-10,-0.076043,0,0,0.5,-0,-0,0.66667
0.97796,0.71129,1.9559,0.31693,-0.078167,0.15491,-1.653,0.55101,-1.6427,-2.204,-3.0291e-09,-0.82133,0,0,0.5,-5.9212e-16,0,0.66667
0.57851,0.90904,1.157,0.61356,2.0588,3.0166,-1.8931,0.63102,-0.66224,-2.5241,1.432e-11,-0.33112,0,0,0.5,-0,-0,0.66667
0.81024,0.79035,1.6205,0.43552,0.62951,1.0341,-1.882,0.62733,-1.3254,-2.5093,5.2787e-10,-0.66269,0,0,0.5,-0,-0,0.66667
0.011419,0.15292,0.022838,-0.52062,-2.6189,9.793,0.031707,-0.010569,-1.0367,0.042276,-1.55e-08,-0.51837,0,0,0.5,4.6259e-18,0,0.66667
0.19796,0.603,0.39591,0.15449,0.70538,7.3038,-0.16311,0.05437,-1.9148,-0.21748,-1.3194e-10,-0.95739,0,0,0.5,-0,-0,0.66667
0.92504,0.52199,1.8501,0.032981,0.0061855,0.27172,-0.16271,0.054238,-1.9959,-0.21695,1.597e-08,-0.99793,0,0,0.5,-0,-0,0.66667
0.24256,0.74135,0.48512,0.36202,1.6552,6.7489,-0.46833,0.15611,-1.5337,-0.62444,-2.7548e-10,-0.76684,0,0,0.5,-0,-0,0.66667
0.53957,0.25709,1.0791,-0.36437,-1.2152,3.2825,1.0485,-0.34952,-1.5278,1.3981,-2.6767e-11,-0.76389,0,0,0.5,-0,-0,0.66667
0.72603,0.70667,1.4521,0.31001,0.6319,1.5658,-1.2004,0.40014,-1.6577,-1.6005,1.937e-10,-0.82885,0,0,0.5,-0,-0,0.66667
0.10091,0.60359,0.20182,0.15539,0.73353,8.588,-0.083628,0.027876,-1.9137,-0.1115,9.5026e-09,-0.95685,0,0,0.5,-2.9606e-16,0,0.66667
0.57273,0.81592,1.1455,0.47388,1.5323,2.9949,-1.4475,0.4825,-1.2019,-1.93,4.3297e-11,-0.60097,0,0,0.5,-0,-0,0.66667
0.21267,0.59838,0.42534,0.14757,0.66871,7.1117,-0.16739,0.055795,-1.9227,-0.22318,-1.7677e-10,-0.96137,0,0,0.5,-5.9212e-16,0,0.66667
0.35815,0.26562,0.71629,-0.35157,-1.4745,5.3122,0.67155,-0.22385,-1.5601,0.8954,1.396e-10,-0.78003,0,0,0.5,-0,-0,0.66667
0.44382,0.0011254,0.88764,-0.74831,-3.2029,4.4846,1.7713,-0.59043,-0.0097981,2.3617,-2.7056e-13,-0.004899,0,0,0.5,-0,-0,0.66667
0.74936,0.8214,1.4987,0.48211,0.96237,1.4791,-1.9268,0.64225,-1.1735,-2.569,7.4474e-10,-0.58676,0,0,0.5,-0,-0,0.66667
0.91396,0.3715,1.8279,-0.19275,-0.064267,0.35064,0.93957,-0.31319,-1.8682,1.2528,2.0787e-08,-0.93412,0,0,0.5,2.9606e-16,0,0.66667
0.96955,0.19833,1.9391,-0.4525,0.023115,0.27254,2.3398,-0.77995,-1.2717,3.1198,-1.3901e-08,-0.63586,0,0,0.5,-0,-0,0.66667
0.38163,0.5754,0.76326,0.1131,0.45087,4.9944,-0.2302,0.076733,-1.9539,-0.30693,-4.3748e-11,-0.97695,0,0,0.5,-0,-0,0.66667
0.2518,0.72976,0.50359,0.34464,1.5629,6.6285,-0.46282,0.15427,-1.5774,-0.61709,-2.3715e-10,-0.78868,0,0,0.5,-0,-0,0.66667
0.27102,0.27498,0.54203,-0.33753,-1.5109,6.3839,0.48788,-0.16263,-1.5949,0.6505,2.3617e-10,-0.79744,0,0,0.5,-1.4803e-16,0,0.66667
0.76456,0.37618,1.5291,-0.18573,-0.30982,1.2354,0.75735,-0.25245,-1.8784,1.0098,-8.9362e-11,-0.93919,0,0,0.5,2.3685e-15,0,0.66667
0.84258,0.21958,1.6852,-0.42063,-0.48253,0.82901,1.8902,-0.63007,-1.372,2.5203,5.6183e-10,-0.686,0,0,0.5,-0,-0,0.66667
0.16474,0.29683,0.32949,-0.30476,-1.4329,7.7499,0.26778,-0.089258,-1.6691,0.35703,-5.8896e-10,-0.83454,0,0,0.5,-0,-0,0.66667
0.029941,0.43297,0.059882,-0.10055,-0.47817,9.5406,0.016056,-0.0053534,-1.9645,0.021408,-1.9015e-06,-0.98223,0,0,0.5,-3.7007e-17,0,0.66667
0.84738,0.81486,1.6948,0.4723,0.54394,0.83625,-2.1345,0.71149,-1.2075,-2.846,4.281e-10,-0.60377,0,0,0.5,2.3685e-15,0,0.66667
0.15971,0.19924,0.31941,-0.45114,-2.1768,7.8318,0.38426,-0.12809,-1.2759,0.51235,7.9447e-11,-0.63794,0,0,0.5,-0,-0,0.66667
0.94524,0.14806,1.8905,-0.5279,-0.14452,0.4207,2.6613,-0.8871,-1.0088,3.5484,1.8469e-08,-0.50442,0,0,0.5,-0,-0,0.66667
0.96751,0.35581,1.935,-0.21629,0.041937,0.14342,1.1161,-0.37202,-1.8333,1.4881,-3.7921e-08,-0.91666,0,0,0.5,-0,-0,0.66667
0.57819,0.83392,1.1564,0.50088,1.6165,2.9551,-1.5446,0.51485,-1.1078,-2.0594,4.2289e-11,-0.55392,0,0,0.5,-5.9212e-16,0,0.66667
0.48604,0.63591,0.97207,0.20386,0.72029,3.8092,-0.52845,0.17615,-1.8519,-0.70461,-7.5663e-12,-0.92595,0,0,0.5,-0,-0,0.66667
0.35393,0.35613,0.70786,-0.21581,-0.89134,5.3387,0.40736,-0.13579,-1.8338,0.54315,9.7135e-11,-0.91692,0,0,0.5,-5.9212e-16,0,0.66667
0.6594,0.29794,1.3188,-0.30309,-0.76569,2.1158,1.0659,-0.3553,-1.6728,1.4212,-1.458e-10,-0.83641,0,0,0.5,-1.1842e-15,0,0.66667
0.38436,0.38127,0.76872,-0.1781,-0.71151,4.9683,0.36509,-0.1217,-1.8872,0.48679,6.3528e-11,-0.94358,0,0,0.5,-1.1842e-15,0,0.66667
0.4349,0.90146,0.86979,0.60219,2.4795,4.506,-1.3968,0.46559,-0.71091,-1.8623,-1.2525e-11,-0.35545,0,0,0.5,-3.8549e-17,0,0.66667
0.6133,0.52098,1.2266,0.031468,0.086383,2.4857,-0.10293,0.03431,-1.9961,-0.13724,1.2058e-11,-0.99804,0,0,0.5,-0,-0,0.66667
0.034635,0.203,0.06927,-0.4455,-2.205,9.4831,0.082293,-0.027431,-1.2937,0.10972,-1.3119e-08,-0.64687,0,0,0.5,-0,-0,0.66667
0.2188,0.11224,0.43761,-0.58163,-2.8183,7.0936,0.67874,-0.22625,-0.79687,0.90499,1.5389e-09,-0.39843,0,0,0.5,-2.9606e-16,0,0.66667
0.020192,0.93538,0.040384,0.65307,3.3895,9.6795,-0.070328,0.023442,-0.4842,-0.093771,-1.0503e-06,-0.2421,0,0,0.5,-0,-0,0.66667
0.76313,0.32398,1.5263,-0.26403,-0.45315,1.2696,1.0746,-0.3582,-1.7517,1.4328,-5.2806e-11,-0.87587,0,0,0.5,-0,-0,0.66667
0.38987,0.84046,0.77974,0.51069,2.1499,4.9823,-1.0619,0.35396,-1.0733,-1.4158,-7.3505e-11,-0.53667,0,0,0.5,8.8818e-16,0,0.66667
0.42267,0.73317,0.84534,0.34975,1.3724,4.5528,-0.78842,0.26281,-1.5647,-1.0512,-5.8537e-11,-0.78233,0,0,0.5,5.9212e-16,0,0.66667
0.54968,0.94503,1.0994,0.66754,2.4036,3.332,-1.957,0.65233,-0.41551,-2.6093,2.3247e-12,-0.20775,0,0,0.5,-0,-0,0.66667
0.38846,0.4312,0.77692,-0.1032,-0.4083,4.9123,0.21382,-0.071273,-1.9622,0.28509,3.7544e-11,-0.98111,0,0,0.5,5.2607e-16,0,0.66667
0.81063,0.04767,1.6213,-0.67849,-1.1689,1.2266,2.9334,-0.9778,-0.3627,3.9112,-1.4177e-09,-0.18135,0,0,0.5,-0,5.9058e-16,0.66667
0.4359,0.39591,0.87181,-0.15614,-0.58736,4.3637,0.36299,-0.121,-1.913,0.48399,2.9276e-11,-0.95652,0,0,0.5,-0,-0,0.66667
0.58016,0.32005,1.1603,-0.26993,-0.81801,2.8442,0.8352,-0.2784,-1.7409,1.1136,-5.6064e-11,-0.87045,0,0,0.5,-0,-0,0.66667
0.97117,0.91384,1.9423,0.62076,0.074087,0.42311,-3.2153,1.0718,-0.62982,-4.287,-5.03e-07,-0.31491,0,0,0.5,-0,-0,0.66667
0.9921,0.033589,1.9842,-0.69962,-0.0057383,0.45469,3.7018,-1.2339,-0.26024,4.9357,4.0186e-06,-0.13012,0,0,0.5,-2.3685e-15,0,0.66667
0.20287,0.55308,0.40575,0.079624,0.36126,7.2365,-0.086153,0.028718,-1.9774,-0.11487,-3.3176e-10,-0.98868,0,0,0.5,-0,-0,0.66667
0.44452,0.55972,0.88904,0.089585,0.33187,4.2589,-0.21239,0.070795,-1.9719,-0.28318,-1.5311e-11,-0.98597,0,0,0.5,-0,-0,0.66667
0.47475,0.43021,0.9495,-0.10468,-0.37258,3.9204,0.26504,-0.088348,-1.9609,0.35339,7.8024e-12,-0.98043,0,0,0.5,5.9212e-16,0,0.66667
0.29764,0.31278,0.59528,-0.28082,-1.2242,6.0409,0.44578,-0.14859,-1.7208,0.59437,1.6251e-10,-0.86042,0,0,0.5,-0,-0,0.66667
0.2835,0.33054,0.56701,-0.25418,-1.1154,6.2144,0.38433,-0.12811,-1.7698,0.51244,1.4297e-10,-0.8849,0,0,0.5,2.9606e-16,0,0.66667
0.83962,0.2301,1.6792,-0.40485,-0.46969,0.83642,1.8129,-0.6043,-1.4168,2.4172,4.2564e-10,-0.70838,0,0,0.5,-0,-0,0.66667
0.96209,0.37044,1.9242,-0.19434,0.028669,0.15483,0.99718,-0.33239,-1.8659,1.3296,-8.4193e-08,-0.93295,0,0,0.5,-1.1842e-15,0,0.66667
0.21069,0.41499,0.42138,-0.12752,-0.57766,7.1364,0.14329,-0.047762,-1.9418,0.19105,2.1341e-10,-0.97092,0,0,0.5,-0,-0,0.66667
0.89173,0.15768,1.7835,-0.51348,-0.40176,0.63626,2.4421,-0.81402,-1.0635,3.2561,-4.8255e-10,-0.53176,0,0,0.5,-0,-0,0.66667
0.39198,0.69947,0.78395,0.2992,1.2038,4.8981,-0.62549,0.2085,-1.6813,-0.83398,-8.5802e-11,-0.84067,0,0,0.5,-0,-0,0.66667
0.65143,0.76837,1.3029,0.40255,1.0687,2.2269,-1.3986,0.46619,-1.4233,-1.8648,1.6914e-10,-0.71163,0,0,0.5,1.1842e-15,0,0.66667
0.28386,0.45812,0.56772,-0.062823,-0.27167,6.1947,0.09511,-0.031703,-1.9856,0.12681,6.0961e-11,-0.9928,0,0,0.5,-0,-0,0.66667
0.94108,0.78644,1.8822,0.42966,0.093687,0.35766,-2.1565,0.71884,-1.3438,-2.8753,-9.0642e-09,-0.6719,0,0,0.5,-0,-0,0.66667
0.78682,0.96331,1.5736,0.69497,1.3546,1.3921,-2.9163,0.97211,-0.28282,-3.8884,3.9718e-10,-0.14141,0,0,0.5,-1.1842e-15,0,0.66667
0.19277,0.17672,0.38555,-0.48492,-2.3255,7.4078,0.49855,-0.16618,-1.1635,0.66474,1.3219e-09,-0.58173,0,0,0.5,-2.9606e-16,0,0.66667
0.61504,0.38579,1.2301,-0.17132,-0.47336,2.4847,0.56197,-0.18732,-1.8952,0.74929,-6.105e-11,-0.94758,0,0,0.5,1.1842e-15,0,0.66667
0.9688,0.42481,1.9376,-0.11279,0.027353,0.10964,0.58278,-0.19426,-1.9545,0.77704,5.5206e-07,-0.97724,0,0,0.5,1.1842e-15,0,0.66667
0.28459,0.53069,0.56917,0.046028,0.19885,6.185,-0.06986,0.023287,-1.9935,-0.093147,-4.834e-11,-0.99674,0,0,0.5,-6.6613e-16,0,0.66667
0.36153,0.84654,0.72307,0.51981,2.2524,5.3186,-1.0023,0.33409,-1.0399,-1.3364,-1.1814e-10,-0.51996,0,0,0.5,-1.1842e-15,0,0.66667
0.20361,0.49983,0.40722,-0.00025463,-0.0011529,7.2257,0.00027651,-9.2169e-05,-2.0013,0.00036868,8.7505e-11,-1.0006,0,0,0.5,-5.7824e-16,0,0.66667
0.63877,0.44604,1.2775,-0.080933,-0.20887,2.2515,0.27572,-0.091907,-1.9766,0.36763,-3.8743e-11,-0.98829,0,0,0.5,-0,-0,0.66667
0.89282,0.80222,1.7856,0.45332,0.32267,0.58492,-2.1586,0.71953,-1.269,-2.8781,-5.2181e-09,-0.63451,0,0,0.5,-0,-0,0.66667
0.3417,0.99116,0.68339,0.73675,3.4555,5.6383,-1.3426,0.44754,-0.069889,-1.7902,-1.3715e-12,-0.034945,0,0,0.5,4.0465e-16,4.8035e-16,0.66667
0.1244,0.22631,0.2488,-0.41054,-1.9879,8.2905,0.27238,-0.090792,-1.4008,0.36317,-2.1785e-09,-0.7004,0,0,0.5,-0,-0,0.66667
0.34768,0.83832,0.69535,0.50749,2.2189,5.4798,-0.94102,0.31367,-1.0844,-1.2547,-1.5794e-10,-0.54221,0,0,0.5,1.4803e-16,0,0.66667
0.62672,0.4387,1.2534,-0.091952,-0.24496,2.3637,0.30735,-0.10245,-1.9709,0.4098,-3.9386e-11,-0.98546,0,0,0.5,-0,-0,0.66667
0.73484,0.11031,1.4697,-0.58453,-1.3002,1.6582,2.2909,-0.76362,-0.78476,3.0545,-5.6325e-10,-0.39238,0,0,0.5,-0,-0,0.66667
0.60653,0.35974,1.2131,-0.21039,-0.59621,2.5735,0.68056,-0.22685,-1.8421,0.90741,-6.5979e-11,-0.92104,0,0,0.5,1.1842e-15,0,0.66667
0.076207,0.20659,0.15241,-0.44012,-2.1653,8.9304,0.17888,-0.059627,-1.3109,0.23851,-3.5435e-09,-0.65543,0,0,0.5,-0,-0,0.66667
0.93982,0.37668,1.8796,-0.18498,-0.013829,0.23694,0.92721,-0.30907,-1.8792,1.2363,1.1071e-07,-0.93959,0,0,0.5,-2.3685e-15,0,0.66667
0.18939,0.16917,0.37878,-0.49625,-2.389,7.4533,0.50126,-0.16709,-1.124,0.66834,1.5499e-09,-0.56198,0,0,0.5,-2.9606e-16,0,0.66667
0.57409,0.40738,1.1482,-0.13893,-0.41849,2.8769,0.42536,-0.14179,-1.9322,0.56715,-3.1244e-11,-0.96612,0,0,0.5,2.3685e-15,0,0.66667
0.90683,0.96701,1.8137,0.70051,0.61157,0.74923,-3.388,1.1293,-0.2562,-4.5173,-1.1328e-08,-0.1281,0,0,0.5,-1.4803e-16,0,0.66667
0.97339,0.91148,1.9468,0.61722,0.05668,0.41251,-3.2042,1.0681,-0.64562,-4.2723,-7.025e-07,-0.32281,0,0,0.5,-0,-0,0.66667
0.85777,0.33699,1.7155,-0.24451,-0.21709,0.65411,1.1186,-0.37286,-1.7875,1.4915,1.0144e-09,-0.89375,0,0,0.5,-0,-0,0.66667
0.12909,0.67561,0.25818,0.26341,1.2467,8.2173,-0.18135,0.060451,-1.7528,-0.2418,1.3327e-09,-0.8764,0,0,0.5,-0,-0,0.66667
0.90702,0.55242,1.814,0.078634,0.029003,0.35779,-0.38039,0.1268,-1.9778,-0.50718,-1.1714e-08,-0.98891,0,0,0.5,-1.1842e-15,0,0.66667
0.32751,0.93172,0.65503,0.64759,2.9872,5.77,-1.1312,0.37705,-0.50919,-1.5082,-6.6433e-11,-0.25459,0,0,0.5,1.4803e-16,3.5684e-16,0.66667
0.58239,0.57344,1.1648,0.11016,0.32537,2.7908,-0.34216,0.11405,-1.9564,-0.45621,2.827e-11,-0.9782,0,0,0.5,-1.1842e-15,0,0.66667
0.14046,0.33923,0.28092,-0.24115,-1.1346,8.0654,0.18065,-0.060217,-1.7937,0.24087,-1.4177e-09,-0.89686,0,0,0.5,-0,-0,0.66667
0.51272,0.75428,1.0254,0.38142,1.3345,3.5682,-1.043,0.34767,-1.4831,-1.3907,8.1213e-12,-0.74154,0,0,0.5,-0,-0,0.66667
0.46733,0.73781,0.93466,0.35671,1.326,4.0512,-0.88907,0.29636,-1.5472,-1.1854,-2.1885e-11,-0.7736,0,0,0.5,-5.9212e-16,0,0.66667
0.005313,0.8455,0.010626,0.51825,2.6059,9.874,-0.014685,0.004895,-1.0458,-0.01958,-4.4785e-08,-0.52288,0,0,0.5,1.8504e-17,-1.3056e-15,0.66667
0.28621,0.26495,0.57242,-0.35258,-1.5662,6.1956,0.53819,-0.1794,-1.5574,0.71759,2.5687e-10,-0.77868,0,0,0.5,5.9212e-16,0,0.66667
0.14345,0.76977,0.2869,0.40465,1.9464,8.0393,-0.30958,0.10319,-1.4174,-0.41277,1.1704e-09,-0.70869,0,0,0.5,1.4803e-16,0,0.66667
0.35352,0.5611,0.70705,0.091657,0.37508,5.3316,-0.17282,0.057605,-1.9709,-0.23042,-4.6831e-11,-0.98544,0,0,0.5,2.2204e-16,0,0.66667
0.27167,0.78087,0.54334,0.42131,1.9129,6.391,-0.61044,0.20348,-1.3698,-0.81392,-4.3279e-10,-0.68492,0,0,0.5,9.2519e-17,0,0.66667
0.47113,0.40292,0.94225,-0.14562,-0.52252,3.9649,0.3659,-0.12197,-1.9251,0.48787,1.2033e-11,-0.96257,0,0,0.5,2.9606e-16,0,0.66667
0.77155,0.78178,1.5431,0.42266,0.74404,1.2841,-1.7392,0.57975,-1.3658,-2.319,5.6083e-10,-0.68288,0,0,0.5,-0,-0,0.66667
0.020636,0.78947,0.041273,0.43421,2.1464,9.6693,-0.04779,0.01593,-1.3294,-0.06372,-1.4657e-08,-0.66469,0,0,0.5,-0,-0,0.66667
0.22758,0.69633,0.45516,0.29449,1.344,6.9316,-0.35744,0.11915,-1.6913,-0.47658,-3.4228e-11,-0.84565,0,0,0.5,-0,-0,0.66667
0.98353,0.72375,1.9671,0.33562,-0.098104,0.14801,-1.7605,0.58683,-1.5999,-2.3473,2.8717e-08,-0.79994,0,0,0.5,-0,-0,0.66667
0.059609,0.94837,0.11922,0.67256,3.4974,9.1644,-0.21382,0.071272,-0.39129,-0.28509,-6.9243e-08,-0.19565,0,0,0.5,1.4803e-16,0,0.66667
0.59551,0.4806,1.191,-0.029103,-0.083225,2.6564,0.092433,-0.030811,-1.9966,0.12324,-9.1895e-12,-0.9983,0,0,0.5,-0,-0,0.66667
0.99828,0.55498,1.9966,0.082467,-0.046009,0.010933,-0.43907,0.14636,-1.9758,-0.58543,8.9191e-07,-0.98789,0,0,0.5,-0,-0,0.66667
0.60079,0.1093,1.2016,-0.58606,-1.8643,2.7883,1.8778,-0.62595,-0.77813,2.5038,-3.4127e-11,-0.38906,0,0,0.5,-0,-0,0.66667
0.052634,0.76507,0.10527,0.3976,1.9479,9.2418,-0.11161,0.037204,-1.4373,-0.14882,8.6862e-09,-0.71863,0,0,0.5,-0,-0,0.66667
0.12467,0.73391,0.24935,0.35087,1.6823,8.2819,-0.2333,0.077767,-1.5619,-0.31107,1.4269e-09,-0.78095,0,0,0.5,-0,-0,0.66667
0.89515,0.24952,1.7903,-0.37573,-0.23403,0.52258,1.7938,-0.59792,-1.499,2.3917,1.7101e-09,-0.74952,0,0,0.5,-1.2953e-15,0,0.66667
0.86842,0.58992,1.7368,0.13488,0.10073,0.56344,-0.62472,0.20824,-1.9356,-0.83296,-5.852e-10,-0.96781,0,0,0.5,2.9606e-16,0,0.66667
0.54878,0.017173,1.0976,-0.72424,-2.6708,3.3794,2.1197,-0.70657,-0.13455,2.8263,-2.8377e-13,-0.067275,0,0,0.5,-0,-0,0.66667
0.26258,0.71088,0.52516,0.31632,1.419,6.4873,-0.44299,0.14766,-1.6441,-0.59065,-1.9082e-10,-0.82205,0,0,0.5,-0,-0,0.66667
0.51035,0.25884,1.0207,-0.36175,-1.2649,3.5867,0.98462,-0.32821,-1.5344,1.3128,-6.7357e-12,-0.7672,0,0,0.5,-1.1842e-15,0,0.66667
0.25377,0.88673,0.50755,0.58009,2.7586,6.6525,-0.78513,0.26171,-0.80306,-1.0468,-7.3408e-10,-0.40153,0,0,0.5,-0,-0,0.66667
0.69013,0.83257,1.3803,0.49885,1.2311,1.949,-1.8361,0.61204,-1.1148,-2.4482,3.0626e-10,-0.5574,0,0,0.5,-5.9212e-16,0,0.66667
0.60412,0.32563,1.2082,-0.26155,-0.75181,2.6094,0.84271,-0.2809,-1.7562,1.1236,-7.5233e-11,-0.87809,0,0,0.5,-0,-0,0.66667
0.78798,0.0058695,1.576,-0.7412,-1.4885,1.4311,3.1149,-1.0383,-0.046675,4.1532,-2.6766e-11,-0.023337,0,0,0.5,-0,-0,0.66667
0.48764,0.90576,0.97528,0.60864,2.353,3.9342,-1.5829,0.52764,-0.68389,-2.1106,-1.5997e-12,-0.34195,0,0,0.5,1.6653e-16,0,0.66667
0.038361,0.48819,0.076721,-0.01771,-0.083985,9.4268,0.0036226,-0.0012065,-1.9983,0.0048307,1.5249e-06,-0.99916,0,0,0.5,-4.5428e-17,0,0.66667
0.79002,0.70615,1.58,0.30923,0.47016,1.0995,-1.3029,0.4343,-1.6594,-1.7372,-7.1711e-11,-0.8297,0,0,0.5,-1.1842e-15,0,0.66667
0.20938,0.27453,0.41875,-0.33821,-1.5675,7.1718,0.37767,-0.12589,-1.5932,0.50355,1.8436e-12,-0.79659,0,0,0.5,-0,-0,0.66667
0.22664,0.40856,0.45328,-0.13716,-0.61662,6.93,0.16579,-0.055264,-1.9337,0.22106,1.5774e-10,-0.96684,0,0,0.5,-0,-0,0.66667
0.54164,0.76662,1.0833,0.39992,1.3402,3.2743,-1.1553,0.38509,-1.4307,-1.5404,2.691e-11,-0.71535,0,0,0.5,1.1842e-15,0,0.66667
0.82259,0.0084223,1.6452,-0.73737,-1.2572,1.2161,3.235,-1.0783,-0.066523,4.3133,-2.2763e-10,-0.033262,0,0,0.5,-0,-0,0.66667
0.94909,0.71515,1.8982,0.32272,0.017383,0.25927,-1.6336,0.54452,-1.6301,-2.1781,-9.7429e-10,-0.81505,0,0,0.5,-1.1842e-15,0,0.66667
0.24077,0.50711,0.48155,0.010662,0.047344,6.7437,-0.013691,0.0045638,-1.9994,-0.018255,-2.1364e-11,-0.99972,0,0,0.5,-0,-0,0.66667
0.8962,0.13221,1.7924,-0.55168,-0.43145,0.64752,2.6369,-0.87896,-0.9177,3.5159,9.1301e-09,-0.45885,0,0,0.5,-0,-0,0.66667
0.91103,0.70208,1.8221,0.30312,0.12692,0.40841,-1.4728,0.49093,-1.6727,-1.9637,-3.5527e-09,-0.83635,0,0,0.5,-0,-0,0.66667
0.74442,0.56573,1.4888,0.0986,0.17792,1.368,-0.39146,0.13049,-1.9659,-0.52195,1.2164e-10,-0.98293,0,0,0.5,-2.3685e-15,0,0.66667
0.37426,0.45901,0.74852,-0.061478,-0.24633,5.0796,0.12271,-0.040905,-1.9864,0.16362,2.6354e-11,-0.9932,0,0,0.5,-0,-0,0.66667
0.54785,0.78507,1.0957,0.42761,1.4277,3.2221,-1.2494,0.41647,-1.3504,-1.6659,2.9828e-11,-0.67521,0,0,0.5,-0,-0,0.66667
0.13763,0.7112,0.27527,0.31681,1.5058,8.1079,-0.23255,0.077516,-1.643,-0.31007,1.1728e-09,-0.82152,0,0,0.5,-0,-0,0.66667
0.57527,0.60766,1.1505,0.16149,0.4864,2.8685,-0.49546,0.16515,-1.9068,-0.66061,3.5881e-11,-0.95338,0,0,0.5,-0,-0,0.66667
0.57561,0.7919,1.1512,0.43786,1.3931,2.9499,-1.3442,0.44806,-1.318,-1.7923,5.1423e-11,-0.65899,0,0,0.5,-1.1842e-15,0,0.66667
0.58347,0.96086,1.1669,0.69129,2.3711,3.0217,-2.1512,0.71706,-0.30064,-2.8683,2.7074e-12,-0.15032,0,0,0.5,5.9212e-16,0,0.66667
0.92023,0.62228,1.8405,0.18341,0.049248,0.3196,-0.90017,0.30006,-1.8811,-1.2002,2.0457e-08,-0.94054,0,0,0.5,1.1842e-15,0,0.66667
0.5331,0.60474,1.0662,0.15711,0.51215,3.298,-0.44669,0.1489,-1.9119,-0.59559,1.471e-11,-0.95595,0,0,0.5,-0,-0,0.66667
0.24089,0.49877,0.48179,-0.0018469,-0.0081994,6.7421,0.0023729,-0.00079096,-2.0008,0.0031638,2.4502e-12,-1.0004,0,0,0.5,6.2778e-16,0,0.66667
0.54523,0.50459,1.0905,0.0068881,0.021793,3.1601,-0.02003,0.0066767,-2.0002,-0.026707,9.586e-13,-1.0001,0,0,0.5,-0,-0,0.66667
0.12737,0.98434,0.25475,0.72651,3.7857,8.292,-0.49354,0.16451,-0.1228,-0.65805,-3.3974e-09,-0.061399,0,0,0.5,-2.9606e-16,0,0.66667
0.074781,0.44489,0.14956,-0.082665,-0.39078,8.9368,0.032969,-0.01099,-1.9756,0.043959,6.1501e-08,-0.9878,0,0,0.5,-0,-0,0.66667
0.83061,0.94063,1.6612,0.66094,1.0069,1.0912,-2.9279,0.97597,-0.44736,-3.9039,3.3921e-09,-0.22368,0,0,0.5,-0,-0,0.66667
0.72316,0.23692,1.4463,-0.39463,-0.83756,1.6266,1.522,-0.50734,-1.4457,2.0293,-3.5196e-10,-0.72286,0,0,0.5,1.1842e-15,0,0.66667
0.083912,0.90251,0.16782,0.60377,3.0735,8.8409,-0.2702,0.090068,-0.7042,-0.36027,2.0655e-08,-0.3521,0,0,0.5,-1.8504e-16,0,0.66667
0.55758,0.55523,1.1152,0.082841,0.25673,3.0368,-0.24635,0.082117,-1.9755,-0.32847,1.4682e-11,-0.98773,0,0,0.5,3.3015e-16,0,0.66667
0.52511,0.32076,1.0502,-0.26886,-0.90187,3.4041,0.75297,-0.25099,-1.7427,1.004,-1.6003e-11,-0.87135,0,0,0.5,-0,-0,0.66667
0.50731,0.95254,1.0146,0.67881,2.617,3.7677,-1.8366,0.61221,-0.361,-2.4488,2.266e-13,-0.1805,0,0,0.5,-0,-0,0.66667
0.032405,0.61453,0.064809,0.1718,0.82035,9.508,-0.029691,0.009897,-1.8948,-0.039588,1.0272e-07,-0.9474,0,0,0.5,3.7007e-17,0,0.66667
0.96037,0.12888,1.9207,-0.55668,-0.084827,0.39335,2.8513,-0.95043,-0.89846,3.8017,1.5181e-07,-0.44923,0,0,0.5,2.3685e-15,0,0.66667
0.92765,0.54602,1.8553,0.069027,0.011418,0.26341,-0.34151,0.11384,-1.9824,-0.45535,-2.1745e-08,-0.9912,0,0,0.5,1.1842e-15,0,0.66667
0.96441,0.47711,1.9288,-0.03433,0.0071799,0.11518,0.17658,-0.058859,-1.9956,0.23544,-4.3223e-07,-0.99778,0,0,0.5,-0,-0,0.66667
0.53338,0.30599,1.0668,-0.29102,-0.96631,3.3235,0.82785,-0.27595,-1.699,1.1038,-2.2133e-11,-0.84948,0,0,0.5,-5.9212e-16,0,0.66667
0.12664,0.59951,0.25328,0.14926,0.69966,8.2445,-0.10081,0.033604,-1.921,-0.13442,-5.5522e-10,-0.9605,0,0,0.5,-0,-0,0.66667
0.73229,0.44414,1.4646,-0.083789,-0.15898,1.4593,0.32724,-0.10908,-1.9751,0.43632,-9.3878e-11,-0.98755,0,0,0.5,-0,-0,0.66667
0.94973,0.71303,1.8995,0.31954,0.014469,0.25512,-1.6186,0.53952,-1.6371,-2.1581,-5.3973e-09,-0.81853,0,0,0.5,-1.7764e-15,0,0.66667
0.25927,0.054636,0.51853,-0.66805,-3.2429,6.6092,0.92374,-0.30791,-0.41296,1.2317,2.4671e-10,-0.20648,0,0,0.5,-0,-0,0.66667
0.28377,0.82477,0.56754,0.48716,2.2247,6.2547,-0.73729,0.24576,-1.1557,-0.98305,-4.6555e-10,-0.57786,0,0,0.5,-5.9212e-16,0,0.66667
0.44706,0.55404,0.89411,0.081064,0.2992,4.2295,-0.19328,0.064427,-1.9763,-0.25771,-1.3201e-11,-0.98817,0,0,0.5,-2.9606e-16,0,0.66667
0.15862,0.62229,0.31724,0.18343,0.85309,7.822,-0.15518,0.051726,-1.881,-0.2069,4.8747e-10,-0.94051,0,0,0.5,-7.4015e-17,0,0.66667
0.56858,0.50253,1.1372,0.0037911,0.011468,2.9222,-0.011496,0.0038321,-2.0005,-0.015328,8.5526e-13,-1.0002,0,0,0.5,-0,-0,0.66667
0.44953,0.50934,0.89907,0.014017,0.051473,4.1988,-0.033606,0.011202,-1.999,-0.044809,-2.2598e-12,-0.9995,0,0,0.5,-0,-0,0.66667
0.88742,0.349,1.7748,-0.2265,-0.1366,0.48954,1.072,-0.35733,-1.8178,1.4293,2.5077e-09,-0.90889,0,0,0.5,-0,-0,0.66667
0.21483,0.29622,0.42966,-0.30566,-1.4063,7.0973,0.35022,-0.11674,-1.6672,0.46696,-3.5911e-11,-0.8336,0,0,0.5,2.9606e-16,0,0.66667
0.16795,0.5515,0.3359,0.077251,0.3558,7.6949,-0.069196,0.023065,-1.9783,-0.092261,-8.8075e-10,-0.98917,0,0,0.5,1.4803e-16,0,0.66667
0.49563,0.8242,0.99127,0.4863,1.7921,3.7905,-1.2855,0.42849,-1.1586,-1.714,-1.9518e-12,-0.57932,0,0,0.5,-0,-0,0.66667
0.51663,0.25116,1.0333,-0.37326,-1.2956,3.5242,1.0285,-0.34282,-1.5057,1.3713,-1.0812e-11,-0.75283,0,0,0.5,-0,-0,0.66667
0.4062,0.61194,0.81239,0.16791,0.65472,4.7093,-0.36375,0.12125,-1.8994,-0.485,-4.7548e-11,-0.94972,0,0,0.5,-0,-0,0.66667
0.2368,0.32077,0.47359,-0.26885,-1.2168,6.8101,0.33953,-0.11318,-1.7429,0.4527,5.2852e-11,-0.87143,0,0,0.5,-0,-0,0.66667
0.53636,0.87708,1.0727,0.56562,2.0065,3.4047,-1.618,0.53934,-0.86314,-2.1574,9.1849e-12,-0.43157,0,0,0.5,-0,-0,0.66667
0.96214,0.73626,1.9243,0.35439,-0.020164,0.22977,-1.8185,0.60617,-1.5528,-2.4247,-9.0863e-09,-0.7764,0,0,0.5,1.1842e-15,0,0.66667
0.25644,0.95506,0.51287,0.68259,3.3327,6.6487,-0.93355,0.31118,-0.3427,-1.2447,-1.9124e-10,-0.17135,0,0,0.5,-2.9606e-16,0,0.66667
0.28319,0.24158,0.56638,-0.38763,-1.7359,6.24,0.58546,-0.19515,-1.4656,0.78061,3.2178e-10,-0.73281,0,0,0.5,2.9606e-16,0,0.66667
0.031465,0.052704,0.06293,-0.67094,-3.4967,9.5324,0.11259,-0.037531,-0.39927,0.15012,3.6711e-07,-0.19964,0,0,0.5,-3.7007e-17,0,0.66667
0.87611,0.46468,1.7522,-0.052978,-0.034922,0.51019,0.24754,-0.082515,-1.9905,0.33006,-1.038e-08,-0.99526,0,0,0.5,1.7764e-15,0,0.66667
0.27438,0.46598,0.54877,-0.051032,-0.22205,6.3143,0.07468,-0.024893,-1.9912,0.099573,5.9586e-11,-0.99561,0,0,0.5,7.4015e-16,0,0.66667
0.059762,0.85756,0.11952,0.53633,2.6974,9.1537,-0.17095,0.056983,-0.97671,-0.22793,1.314e-08,-0.48835,0,0,0.5,-0,-0,0.66667
0.75205,0.16012,1.5041,-0.50983,-1.0212,1.4778,2.0449,-0.68163,-1.0763,2.7265,-8.6666e-10,-0.53815,0,0,0.5,-0,-0,0.66667
0.92919,0.20933,1.8584,-0.436,-0.14927,0.40986,2.1607,-0.72023,-1.3237,2.8809,5.4292e-09,-0.66185,0,0,0.5,-0,-0,0.66667
0.42393,0.7859,0.84786,0.42884,1.7078,4.5616,-0.9696,0.3232,-1.3464,-1.2928,-5.3199e-11,-0.67322,0,0,0.5,1.1842e-15,0,0.66667
0.32511,0.2952,0.65021,-0.30719,-1.3161,5.705,0.53264,-0.17755,-1.6639,0.71019,1.66e-10,-0.83197,0,0,0.5,-0,-0,0.66667
0.68882,0.61071,1.3776,0.16606,0.37332,1.8243,-0.61007,0.20336,-1.9015,-0.81343,1.0068e-10,-0.95075,0,0,0.5,-0,-0,0.66667
0.20706,0.41949,0.41412,-0.12076,-0.54785,7.1834,0.13336,-0.044454,-1.9476,0.17782,2.3426e-10,-0.97379,0,0,0.5,-0,-0,0.66667
0.55152,0.052301,1.103,-0.67155,-2.4145,3.3165,1.9753,-0.65844,-0.39611,2.6337,-2.3073e-12,-0.19805,0,0,0.5,-0,-0,0.66667
0.49453,0.83767,0.98907,0.50651,1.88,3.811,-1.3359,0.44531,-1.0878,-1.7812,-2.1486e-12,-0.5439,0,0,0.5,5.9212e-16,0,0.66667
0.58736,0.97762,1.1747,0.71643,2.4662,3.0035,-2.2443,0.74809,-0.17468,-2.9924,8.7974e-13,-0.087341,0,0,0.5,1.1842e-15,0,0.66667
0.83524,0.090806,1.6705,-0.61379,-0.87159,1.0202,2.7342,-0.9114,-0.66094,3.6456,-5.3479e-09,-0.33047,0,0,0.5,-2.9606e-16,0,0.66667
0.68413,0.90375,1.3683,0.60562,1.5953,2.0702,-2.2097,0.73657,-0.69653,-2.9463,1.5841e-10,-0.34827,0,0,0.5,4.4409e-16,0,0.66667
0.88239,0.43633,1.7648,-0.095512,-0.057964,0.48215,0.44949,-0.14983,-1.9683,0.59932,3.7107e-09,-0.98417,0,0,0.5,1.1842e-15,0,0.66667
0.27936,0.75831,0.55871,0.38746,1.7395,6.2879,-0.57728,0.19243,-1.4661,-0.7697,-3.304e-10,-0.73305,0,0,0.5,-0,-0,0.66667
0.24996,0.66143,0.49991,0.24215,1.0842,6.6386,-0.3228,0.1076,-1.7919,-0.43041,-8.7115e-11,-0.89596,0,0,0.5,-5.9212e-16,0,0.66667
0.18811,0.33757,0.37622,-0.24365,-1.1263,7.4385,0.24444,-0.081481,-1.7892,0.32592,-2.6258e-10,-0.89458,0,0,0.5,1.4803e-16,0,0.66667
0.008355,0.78295,0.01671,0.42443,2.0952,9.833,-0.018913,0.0063042,-1.3602,-0.025217,1.1346e-08,-0.68009,0,0,0.5,-0,-0,0.66667
0.65746,0.6255,1.3149,0.18826,0.46714,2.0999,-0.66011,0.22004,-1.8751,-0.88014,9.3996e-11,-0.93757,0,0,0.5,-0,-0,0.66667
0.37182,0.28747,0.74363,-0.3188,-1.3129,5.1413,0.63219,-0.21073,-1.6387,0.84292,1.1271e-10,-0.81934,0,0,0.5,-0,-0,0.66667
0.16613,0.63802,0.33225,0.20704,0.96215,7.7244,-0.18344,0.061145,-1.847,-0.24458,2.5979e-10,-0.92349,0,0,0.5,2.9606e-16,0,0.66667
0.25918,0.63243,0.51836,0.19865,0.88052,6.5165,-0.27459,0.091528,-1.8595,-0.36611,-1.0798e-10,-0.92975,0,0,0.5,5.9212e-16,0,0.66667
0.1825,0.91907,0.365,0.62861,3.1318,7.5664,-0.61186,0.20395,-0.59444,-0.81581,-3.0437e-09,-0.29722,0,0,0.5,-2.9606e-16,0,0.66667
0.17807,0.60414,0.35614,0.15621,0.71952,7.5644,-0.14835,0.049451,-1.9128,-0.1978,-1.9029e-10,-0.95638,0,0,0.5,-2.9606e-16,0,0.66667
0.22777,0.66862,0.45554,0.25292,1.1482,6.9245,-0.30724,0.10241,-1.772,-0.40966,-9.5479e-12,-0.88598,0,0,0.5,5.9212e-16,0,0.66667
0.096411,0.63322,0.19282,0.19983,0.94757,8.6495,-0.10275,0.034251,-1.8579,-0.137,2.4202e-09,-0.92893,0,0,0.5,-0,-0,0.66667
0.54411,0.1649,1.0882,-0.50265,-1.7257,3.294,1.4586,-0.48621,-1.1015,1.9449,-1.956e-11,-0.55073,0,0,0.5,-0,-0,0.66667
0.8362,0.28579,1.6724,-0.32132,-0.36241,0.81143,1.433,-0.47766,-1.6331,1.9106,6.7353e-10,-0.81655,0,0,0.5,-0,-0,0.66667
0.34664,0.87965,0.69328,0.56948,2.5316,5.5128,-1.0528,0.35094,-0.8472,-1.4038,-1.1615e-10,-0.4236,0,0,0.5,-0,-0,0.66667
0.9126,0.72889,1.8252,0.34334,0.14778,0.42236,-1.6711,0.55703,-1.5804,-2.2281,2.0566e-09,-0.7902,0,0,0.5,2.3685e-15,0,0.66667
0.68392,0.50132,1.3678,0.0019736,0.0044492,1.849,-0.0071988,0.0023996,-2.0008,-0.0095984,1.5397e-12,-1.0004,0,0,0.5,4.737e-15,0,0.66667
0.82604,0.59318,1.6521,0.13978,0.15811,0.81133,-0.61579,0.20526,-1.9316,-0.82105,1.9034e-10,-0.96581,0,0,0.5,1.1842e-15,0,0.66667
0.92485,0.033422,1.8497,-0.69987,-0.48715,0.67431,3.4521,-1.1507,-0.25915,4.6028,-2.1135e-07,-0.12958,0,0,0.5,-0,-0,0.66667
0.71895,0.17543,1.4379,-0.48685,-1.0901,1.7114,1.8668,-0.62226,-1.157,2.489,-4.859e-10,-0.57848,0,0,0.5,-0,-0,0.66667
0.77043,0.47319,1.5409,-0.040215,-0.063787,1.1707,0.16524,-0.055081,-1.9945,0.22032,-1.0843e-10,-0.99725,0,0,0.5,-1.8247e-15,0,0.66667
0.074018,0.61092,0.14804,0.16638,0.79024,8.9485,-0.065682,0.021894,-1.901,-0.087575,1.0034e-08,-0.95049,0,0,0.5,-0,-0,0.66667
0.18869,0.72992,0.37737,0.34488,1.6152,7.441,-0.34706,0.11569,-1.5768,-0.46275,2.1545e-10,-0.78839,0,0,0.5,-2.9606e-16,0,0.66667
0.31405,0.81501,0.6281,0.47252,2.1053,5.8772,-0.79144,0.26381,-1.2069,-1.0553,-2.9279e-10,-0.60344,0,0,0.5,-1.1842e-15,0,0.66667
0.33439,0.44806,0.66878,-0.077912,-0.32411,5.5649,0.13895,-0.046316,-1.9779,0.18527,4.663e-11,-0.98897,0,0,0.5,-0,-0,0.66667
0.4653,0.025686,0.93061,-0.71147,-2.9314,4.2304,1.7656,-0.58854,-0.20034,2.3541,1.6231e-13,-0.10017,0,0,0.5,-0,3.4664e-16,0.66667
0.095259,0.88944,0.19052,0.58416,2.9532,8.6904,-0.29678,0.098927,-0.78624,-0.39571,-3.928e-09,-0.39312,0,0,0.5,-0,-0,0.66667
0.34423,0.71265,0.68845,0.31898,1.3472,5.4735,-0.58561,0.1952,-1.6385,-0.78081,-1.4876e-10,-0.81924,0,0,0.5,-0,-0,0.66667
0.073158,0.40136,0.14632,-0.14797,-0.70197,8.9596,0.057733,-0.019244,-1.9223,0.076977,-7.5539e-08,-0.96116,0,0,0.5,-1.1102e-16,0,0.66667
0.32341,0.54665,0.64683,0.06998,0.29372,5.7,-0.12071,0.040235,-1.982,-0.16094,-4.6165e-11,-0.99098,0,0,0.5,-0,-0,0.66667
0.6615,0.7247,1.323,0.33706,0.85411,2.1102,-1.1891,0.39638,-1.5961,-1.5855,1.6502e-10,-0.79804,0,0,0.5,-0,-0,0.66667
0.0029211,0.10146,0.0058422,-0.59781,-3.0612,9.9059,0.0093135,-0.0031053,-0.7292,0.012418,-1.2035e-06,-0.3646,0,0,0.5,-0,-0,0.66667
0.28436,0.25204,0.56873,-0.37194,-1.6597,6.2223,0.56409,-0.18803,-1.5088,0.75212,2.9082e-10,-0.75442,0,0,0.5,-0,-0,0.66667
0.072846,0.45065,0.14569,-0.074032,-0.34998,8.9627,0.028763,-0.0095875,-1.9799,0.03835,5.5391e-09,-0.98996,0,0,0.5,-0,-0,0.66667
0.71076,0.6475,1.4215,0.22125,0.46606,1.6568,-0.8387,0.27957,-1.8256,-1.1183,1.2688e-10,-0.9128,0,0,0.5,-0,-0,0.66667
0.84127,0.39577,1.6825,-0.15634,-0.15646,0.72255,0.70145,-0.23382,-1.9128,0.93527,-8.0496e-11,-0.95638,0,0,0.5,-1.1842e-15,0,0.66667
0.97833,0.89073,1.9567,0.5861,0.0009022,0.3651,-3.0581,1.0194,-0.77796,-4.0775,-6.4279e-07,-0.38898,0,0,0.5,-1.1842e-15,0,0.66667
0.61717,0.25578,1.2343,-0.36634,-1.0469,2.5221,1.2058,-0.40194,-1.5228,1.6078,-1.0544e-10,-0.76142,0,0,0.5,-0,-0,0.66667
0.2249,0.6899,0.4498,0.28486,1.3002,6.965,-0.34168,0.11389,-1.712,-0.45557,3.4349e-12,-0.85602,0,0,0.5,-0,-0,0.66667
0.22831,0.26414,0.45662,-0.35379,-1.6281,6.93,0.43079,-0.1436,-1.5543,0.57439,1.9755e-10,-0.77716,0,0,0.5,-0,-0,0.66667
0.49353,0.036673,0.98705,-0.69499,-2.7465,3.9211,1.8293,-0.60977,-0.28268,2.4391,3.3751e-14,-0.14134,0,0,0.5,-0,-0,0.66667
0.93135,0.709,1.8627,0.31351,0.070781,0.32501,-1.5572,0.51908,-1.6501,-2.0763,3.3944e-09,-0.82506,0,0,0.5,1.1842e-15,0,0.66667
0.62806,0.62162,1.2561,0.18244,0.48907,2.3651,-0.61109,0.2037,-1.8822,-0.81479,7.2944e-11,-0.94108,0,0,0.5,5.9212e-16,0,0.66667
0.1814,0.49029,0.3628,-0.01456,-0.066603,7.5168,0.014086,-0.0046954,-1.9988,0.018782,-3.1364e-11,-0.99941,0,0,0.5,-4.4409e-16,0,0.66667
0.51601,0.12173,1.032,-0.5674,-2.0788,3.6145,1.5615,-0.52051,-0.85599,2.082,-3.7714e-12,-0.42799,0,0,0.5,-1.4803e-16,0,0.66667
0.40912,0.8039,0.81825,0.45585,1.8566,4.7403,-0.99466,0.33155,-1.2609,-1.3262,-6.4351e-11,-0.63047,0,0,0.5,-0,-0,0.66667
0.86907,0.3015,1.7381,-0.29776,-0.24231,0.61434,1.3801,-0.46004,-1.6843,1.8402,6.3599e-10,-0.84213,0,0,0.5,1.1842e-15,0,0.66667
0.10442,0.9808,0.20883,0.7212,3.7728,8.5872,-0.40162,0.13387,-0.15011,-0.5355,-3.5291e-09,-0.075057,0,0,0.5,-0,-0,0.66667
0.21763,0.476,0.43525,-0.035993,-0.16193,7.0434,0.041777,-0.013926,-1.9954,0.055702,1.4532e-10,-0.99772,0,0,0.5,-0,-0,0.66667
0.75933,0.064672,1.5187,-0.65299,-1.3825,1.538,2.6445,-0.88148,-0.48452,3.5259,-5.1276e-10,-0.24226,0,0,0.5,-0,-0,0.66667
0.97325,0.54082,1.9465,0.061235,-0.018245,0.086611,-0.31785,0.10595,-1.9863,-0.4238,2.4618e-06,-0.99315,0,0,0.5,-0,-0,0.66667
0.80883,0.11109,1.6177,-0.58336,-0.94143,1.1513,2.5165,-0.83883,-0.78944,3.3553,-2.7147e-09,-0.39472,0,0,0.5,2.2639e-16,0,0.66667
0.57043,0.53734,1.1409,0.056008,0.16902,2.9052,-0.17039,0.056798,-1.9888,-0.22719,1.2436e-11,-0.9944,0,0,0.5,1.1842e-15,0,0.66667
0.80961,0.67375,1.6192,0.26062,0.34523,0.95045,-1.1253,0.37511,-1.758,-1.5004,-2.8968e-10,-0.87899,0,0,0.5,1.1842e-15,0,0.66667
0.37864,0.82315,0.75728,0.48473,2.0499,5.1049,-0.97887,0.32629,-1.1642,-1.3052,-9.9273e-11,-0.58208,0,0,0.5,-0,-0,0.66667
0.23981,0.65583,0.47962,0.23375,1.0519,6.7677,-0.29896,0.099653,-1.8067,-0.39861,-5.4304e-11,-0.90335,0,0,0.5,3.5157e-16,0,0.66667
0.44234,0.028268,0.88467,-0.7076,-2.9901,4.4775,1.6693,-0.55644,-0.22024,2.2257,3.2041e-13,-0.11012,0,0,0.5,5.9212e-16,0,0.66667
0.29305,0.53837,0.58609,0.05755,0.2472,6.0787,-0.089946,0.029982,-1.9881,-0.11993,-5.1339e-11,-0.99407,0,0,0.5,-5.9212e-16,0,0.66667
0.64436,0.15151,1.2887,-0.52273,-1.4736,2.3533,1.7964,-0.5988,-1.0287,2.3952,-1.2931e-10,-0.51435,0,0,0.5,-1.1842e-15,0,0.66667
0.91612,0.28807,1.8322,-0.3179,-0.12037,0.39289,1.5533,-0.51776,-1.6406,2.071,1.4273e-09,-0.82028,0,0,0.5,-2.3685e-15,0,0.66667
0.6714,0.85817,1.3428,0.53725,1.4211,2.1289,-1.9238,0.64126,-0.97335,-2.565,1.9854e-10,-0.48668,0,0,0.5,-0,-0,0.66667
0.78373,0.73189,1.5675,0.34784,0.55639,1.16,-1.4539,0.48464,-1.5693,-1.9386,1.006e-10,-0.78466,0,0,0.5,-0,-0,0.66667
0.9199,0.35328,1.8398,-0.22009,-0.063182,0.33316,1.0798,-0.35993,-1.8275,1.4397,1.086e-08,-0.91377,0,0,0.5,-0,-0,0.66667
0.73198,0.51299,1.464,0.019487,0.036883,1.4574,-0.076074,0.025358,-1.9982,-0.10143,2.5835e-11,-0.99909,0,0,0.5,-2.3685e-15,0,0.66667
0.45633,0.46793,0.91267,-0.048108,-0.1752,4.1228,0.11708,-0.039028,-1.9927,0.15611,6.4822e-12,-0.99637,0,0,0.5,-2.5905e-16,0,0.66667
0.7422,0.56875,1.4844,0.10312,0.18801,1.3855,-0.40821,0.13607,-1.9621,-0.54427,1.1785e-10,-0.98106,0,0,0.5,-0,-0,0.66667
0.99059,0.28398,1.9812,-0.32403,0.12136,0.12006,1.7119,-0.57064,-1.6272,2.2826,-1.2014e-08,-0.81359,0,0,0.5,2.3685e-15,0,0.66667
0.67386,0.21786,1.3477,-0.42322,-1.064,2.0426,1.521,-0.507,-1.3642,2.028,-2.3482e-10,-0.68209,0,0,0.5,-4.4409e-16,0,0.66667
0.72714,0.38533,1.4543,-0.17201,-0.33728,1.5142,0.66707,-0.22236,-1.8943,0.88942,-1.1257e-10,-0.94716,0,0,0.5,-0,-0,0.66667
0.13533,0.76684,0.27066,0.40027,1.9287,8.1455,-0.2889,0.0963,-1.4297,-0.3852,1.2013e-09,-0.71486,0,0,0.5,1.4803e-16,0,0.66667
0.81734,0.63433,1.6347,0.20149,0.24766,0.88122,-0.87834,0.29278,-1.8553,-1.1711,-2.0535e-10,-0.92765,0,0,0.5,-2.3685e-15,0,0.66667
0.92918,0.5976,1.8584,0.14641,0.02453,0.2706,-0.72553,0.24184,-1.9241,-0.96738,-6.9445e-08,-0.96204,0,0,0.5,-2.3685e-15,0,0.66667
0.082941,0.033855,0.16588,-0.69922,-3.6501,8.8628,0.3093,-0.1031,-0.26223,0.4124,3.7292e-08,-0.13111,0,0,0.5,-0,-0,0.66667
0.92221,0.87325,1.8444,0.55988,0.30188,0.54022,-2.7537,0.91791,-0.88644,-3.6716,-5.4379e-08,-0.44322,0,0,0.5,1.4803e-15,0,0.66667
0.76001,0.14426,1.52,-0.53361,-1.0484,1.4375,2.1629,-0.72098,-0.98704,2.8839,-1.0165e-09,-0.49352,0,0,0.5,-9.0004e-16,0,0.66667
0.25267,0.75756,0.50535,0.38634,1.7634,6.6242,-0.52063,0.17354,-1.4692,-0.69417,-3.6847e-10,-0.73461,0,0,0.5,-0,-0,0.66667
0.03478,0.67228,0.069559,0.25841,1.2437,9.4771,-0.047934,0.015978,-1.762,-0.063912,2.4437e-08,-0.88099,0,0,0.5,7.4015e-17,0,0.66667
0.59333,0.70625,1.1867,0.30937,0.91937,2.7276,-0.97899,0.32633,-1.6594,-1.3053,7.2126e-11,-0.82969,0,0,0.5,-7.0264e-16,0,0.66667
0.14,0.62224,0.27999,0.18336,0.85819,8.0684,-0.13691,0.045635,-1.8812,-0.18254,-5.0784e-10,-0.94061,0,0,0.5,7.4015e-17,0,0.66667
0.88064,0.77223,1.7613,0.40835,0.32129,0.61464,-1.9179,0.6393,-1.4068,-2.5572,-2.7951e-09,-0.70338,0,0,0.5,1.1842e-15,0,0.66667
0.64348,0.1922,1.287,-0.4617,-1.2755,2.3267,1.5845,-0.52816,-1.2424,2.1127,-1.5133e-10,-0.62119,0,0,0.5,-0,-0,0.66667
0.041189,0.84822,0.082379,0.52233,2.6241,9.3986,-0.11474,0.038248,-1.0302,-0.15299,-5.7668e-08,-0.51509,0,0,0.5,-0,-0,0.66667
0.19441,0.39428,0.38882,-0.15858,-0.72542,7.3503,0.16443,-0.054809,-1.91,0.21923,1.1898e-10,-0.955,0,0,0.5,-2.9606e-16,0,0.66667
0.62451,0.53799,1.249,0.056992,0.15235,2.3813,-0.18983,0.063275,-1.9886,-0.2531,2.4206e-11,-0.99431,0,0,0.5,1.1842e-15,0,0.66667
0.52665,0.45775,1.0533,-0.063379,-0.20756,3.3559,0.17802,-0.05934,-1.9852,0.23736,-5.1453e-12,-0.99262,0,0,0.5,-0,-0,0.66667
0.29026,0.019888,0.58051,-0.72017,-3.4845,6.2467,1.1148,-0.37162,-0.1554,1.4865,1.992e-11,-0.0777,0,0,0.5,-0,-0,0.66667
0.39512,0.075653,0.79024,-0.63652,-2.7609,4.972,1.3413,-0.44711,-0.55886,1.7884,1.8299e-11,-0.27943,0,0,0.5,5.9212e-16,0,0.66667
0.24657,0.21184,0.49314,-0.43224,-1.9967,6.71,0.5684,-0.18947,-1.3357,0.75787,5.7033e-10,-0.66784,0,0,0.5,-1.4803e-16,0,0.66667
0.99839,0.95592,1.9968,0.68388,-0.055491,0.41965,-3.6415,1.2138,-0.33664,-4.8554,-2.1603e-05,-0.16832,0,0,0.5,-0,-0,0.66667
0.88329,0.29313,1.7666,-0.3103,-0.21372,0.54589,1.4618,-0.48726,-1.6571,1.949,1.519e-09,-0.82854,0,0,0.5,-0,-0,0.66667
0.74097,0.82559,1.4819,0.48839,1.0106,1.5449,-1.93,0.64334,-1.1513,-2.5734,6.7518e-10,-0.57565,0,0,0.5,-1.1842e-15,0,0.66667
0.24654,0.84546,0.49308,0.51818,2.4377,6.7283,-0.68134,0.22711,-1.0461,-0.90846,-9.0791e-10,-0.52303,0,0,0.5,-0,-0,0.66667
0.088881,0.35991,0.17776,-0.21013,-0.99889,8.7505,0.099609,-0.033203,-1.8424,0.13281,-7.7733e-09,-0.92119,0,0,0.5,-0,-0,0.66667
0.096131,0.070874,0.19226,-0.64369,-3.3024,8.6852,0.33002,-0.11001,-0.52666,0.44003,2.9919e-08,-0.26333,0,0,0.5,-0,-0,0.66667
0.88147,0.090076,1.7629,-0.61489,-0.61372,0.77599,2.8907,-0.96357,-0.65603,3.8543,-8.7166e-09,-0.32801,0,0,0.5,-1.1842e-15,0,0.66667
0.22391,0.4644,0.44782,-0.053407,-0.23956,6.9621,0.063779,-0.02126,-1.9901,0.085038,1.5652e-10,-0.99505,0,0,0.5,3.7007e-16,0,0.66667
0.055036,0.94558,0.11007,0.66836,3.4735,9.2239,-0.19618,0.065393,-0.41142,-0.26157,-3.4797e-08,-0.20571,0,0,0.5,-0,-0,0.66667
0.60875,0.47549,1.2175,-0.036769,-0.10204,2.5292,0.11938,-0.039792,-1.9953,0.15917,-1.3478e-11,-0.99767,0,0,0.5,-0,-0,0.66667
0.75404,0.80218,1.5081,0.45328,0.87513,1.427,-1.8229,0.60762,-1.2691,-2.4305,6.7305e-10,-0.63454,0,0,0.5,5.9212e-16,0,0.66667
0.90554,0.18437,1.8111,-0.47345,-0.28839,0.54025,2.2865,-0.76217,-1.2037,3.0487,1.3675e-09,-0.60185,0,0,0.5,-1.1842e-15,-5.9424e-18,0.66667
0.48403,0.70618,0.96805,0.30927,1.1133,3.8544,-0.79836,0.26612,-1.6596,-1.0645,-1.0538e-11,-0.82981,0,0,0.5,-0,-0,0.66667
0.71854,0.10451,1.4371,-0.59323,-1.4008,1.7879,2.2734,-0.7578,-0.74852,3.0312,-3.7486e-10,-0.37426,0,0,0.5,-0,-0,0.66667
0.046842,0.66656,0.093684,0.24983,1.1999,9.315,-0.062414,0.020805,-1.7779,-0.083219,1.1896e-08,-0.88896,0,0,0.5,-0,-0,0.66667
0.30454,0.83813,0.60908,0.50719,2.2936,6.0032,-0.82379,0.2746,-1.0854,-1.0984,-3.3463e-10,-0.54268,0,0,0.5,-0,-0,0.66667
0.087153,0.047862,0.17431,-0.67821,-3.5175,8.8059,0.31524,-0.10508,-0.36391,0.42032,2.2248e-08,-0.18195,0,0,0.5,-2.5124e-16,0,0.66667
0.40034,0.78815,0.80067,0.43223,1.7674,4.8345,-0.92286,0.30762,-1.3356,-1.2305,-7.8934e-11,-0.66781,0,0,0.5,-0,-0,0.66667
0.19936,0.032605,0.39871,-0.70109,-3.539,7.3684,0.74542,-0.24847,-0.25317,0.9939,4.8526e-10,-0.12659,0,0,0.5,-0,-0,0.66667
0.49854,0.11921,0.99707,-0.57118,-2.1492,3.7993,1.5187,-0.50623,-0.84023,2.0249,2.5724e-13,-0.42011,0,0,0.5,2.9606e-16,-7.5049e-16,0.66667
0.24179,0.37391,0.48358,-0.18913,-0.84642,6.7382,0.2439,-0.081298,-1.8736,0.32519,9.109e-11,-0.93681,0,0,0.5,3.7007e-17,0,0.66667
0.19127,0.6201,0.38255,0.18014,0.8266,7.3927,-0.18377,0.061256,-1.8848,-0.24503,1.0474e-11,-0.94241,0,0,0.5,-3.7007e-16,0,0.66667
0.60179,0.17706,1.2036,-0.48441,-1.4832,2.7207,1.5547,-0.51824,-1.1652,2.073,-7.0672e-11,-0.58259,0,0,0.5,-5.9212e-16,0,0.66667
0.48061,0.05945,0.96121,-0.66083,-2.6241,4.0375,1.6938,-0.56462,-0.44784,2.2585,7.917e-13,-0.22392,0,0,0.5,8.8818e-16,0,0.66667
0.38153,0.7681,0.76306,0.40215,1.6654,5.0461,-0.81829,0.27276,-1.4244,-1.0911,-1.0802e-10,-0.71218,0,0,0.5,-0,-0,0.66667
0.41901,0.46244,0.83802,-0.056342,-0.21505,4.5505,0.12591,-0.041969,-1.9888,0.16788,1.4596e-11,-0.99439,0,0,0.5,-2.9606e-16,0,0.66667
0.94696,0.10093,1.8939,-0.5986,-0.20296,0.48138,3.0232,-1.0077,-0.72579,4.0309,1.9702e-07,-0.3629,0,0,0.5,-0,-0,0.66667
0.61125,0.60044,1.2225,0.15066,0.41897,2.5169,-0.49116,0.16372,-1.9194,-0.65488,5.2672e-11,-0.95968,0,0,0.5,-0,-0,0.66667
0.2018,0.14639,0.4036,-0.53041,-2.559,7.2999,0.57086,-0.19029,-0.99948,0.76114,1.8619e-09,-0.49974,0,0,0.5,-0,-0,0.66667
0.26679,0.73983,0.53357,0.35975,1.6205,6.441,-0.51187,0.17062,-1.5396,-0.6825,-2.8592e-10,-0.76981,0,0,0.5,-2.9606e-16,0,0.66667
0.29971,0.4323,0.59941,-0.10155,-0.43478,5.9969,0.16232,-0.054105,-1.9636,0.21642,7.7613e-11,-0.98178,0,0,0.5,-2.9606e-16,0,0.66667
0.71146,0.17728,1.4229,-0.48407,-1.1102,1.7683,1.8368,-0.61227,-1.1664,2.4491,-4.3072e-10,-0.58318,0,0,0.5,-5.9212e-16,0,0.66667
0.50952,0.084347,1.019,-0.62348,-2.3496,3.7123,1.6943,-0.56475,-0.61747,2.259,-1.0622e-12,-0.30873,0,0,0.5,5.9212e-16,0,0.66667
0.21262,0.44045,0.42524,-0.089324,-0.4035,7.1098,0.10129,-0.033763,-1.9721,0.13505,2.5028e-10,-0.98605,0,0,0.5,5.9212e-16,0,0.66667
0.58056,0.6026,1.1611,0.15389,0.45813,2.8148,-0.47651,0.15884,-1.9156,-0.63534,3.7167e-11,-0.95779,0,0,0.5,-0,-0,0.66667
0.87572,0.12346,1.7514,-0.5648,-0.55959,0.75837,2.6379,-0.87931,-0.86674,3.5172,-6.7789e-09,-0.43337,0,0,0.5,-1.3323e-15,0,0.66667
0.12633,0.85927,0.25266,0.5389,2.6762,8.2788,-0.36309,0.12103,-0.96695,-0.48412,-1.2229e-09,-0.48348,0,0,0.5,-2.9606e-16,0,0.66667
0.99245,0.1879,1.9849,-0.46814,0.12914,0.21532,2.4779,-0.82597,-1.2217,3.3039,-4.4788e-08,-0.61086,0,0,0.5,-2.3685e-15,0,0.66667
0.57331,0.26331,1.1466,-0.35504,-1.1105,2.939,1.0856,-0.36186,-1.5512,1.4474,-5.4647e-11,-0.77561,0,0,0.5,-0,-0,0.66667
0.075515,0.74022,0.15103,0.36033,1.7491,8.9352,-0.14512,0.048373,-1.5381,-0.19349,1.2167e-09,-0.76904,0,0,0.5,-7.4015e-17,0,0.66667
0.9247,0.52843,1.8494,0.04264,0.0081702,0.27381,-0.21029,0.070096,-1.9941,-0.28038,-9.8517e-08,-0.99707,0,0,0.5,-0,-0,0.66667
0.6613,0.52629,1.3226,0.039431,0.095397,2.0461,-0.13907,0.046356,-1.9946,-0.18543,2.3719e-11,-0.99732,0,0,0.5,-0,-0,0.66667
0.25836,0.64804,0.51673,0.22205,0.98706,6.5292,-0.30598,0.10199,-1.8244,-0.40797,-1.0316e-10,-0.9122,0,0,0.5,2.9606e-16,0,0.66667
0.011312,0.80925,0.022624,0.46387,2.3066,9.7939,-0.027985,0.0093283,-1.2354,-0.037313,-7.908e-08,-0.61769,0,0,0.5,-1.9781e-17,0,0.66667
0.82783,0.24416,1.6557,-0.38376,-0.47884,0.89422,1.6943,-0.56477,-1.4767,2.2591,3.3229e-10,-0.73834,0,0,0.5,-5.9212e-16,0,0.66667
0.19681,0.63224,0.39362,0.19836,0.90933,7.3215,-0.20821,0.069404,-1.8599,-0.27762,2.8239e-11,-0.92996,0,0,0.5,-5.9212e-16,0,0.66667
0.91039,0.78621,1.8208,0.42932,0.22359,0.48614,-2.0845,0.69484,-1.3448,-2.7794,-5.8372e-09,-0.67242,0,0,0.5,2.3685e-15,0,0.66667
0.26207,0.64751,0.52413,0.22127,0.98122,6.482,-0.30926,0.10309,-1.8257,-0.41235,-1.0817e-10,-0.91283,0,0,0.5,-0,-0,0.66667
0.30754,0.49221,0.61507,-0.011683,-0.049596,5.8962,0.019162,-0.0063873,-1.9993,0.025549,9.2852e-12,-0.99965,0,0,0.5,-0,-0,0.66667
0.429,0.64334,0.858,0.21501,0.82057,4.4513,-0.49195,0.16398,-1.835,-0.65593,-4.2136e-11,-0.9175,0,0,0.5,-0,-0,0.66667
0.84952,0.52675,1.699,0.04013,0.03623,0.657,-0.18182,0.060607,-1.9945,-0.24243,2.0336e-09,-0.99724,0,0,0.5,-0,-0,0.66667
0.37631,0.37417,0.75262,-0.18875,-0.76097,5.0657,0.37881,-0.12627,-1.8744,0.50509,7.2206e-11,-0.9372,0,0,0.5,-7.4015e-17,0,0.66667
0.66908,0.8686,1.3382,0.5529,1.4815,2.1586,-1.973,0.65766,-0.91312,-2.6307,1.7614e-10,-0.45656,0,0,0.5,3.9618e-16,0,0.66667
0.73119,0.59031,1.4624,0.13547,0.25978,1.4753,-0.52827,0.17609,-1.9352,-0.70436,1.1265e-10,-0.96761,0,0,0.5,1.7764e-15,0,0.66667
0.89467,0.62265,1.7893,0.18397,0.094956,0.43954,-0.87784,0.29261,-1.8803,-1.1705,7.1886e-09,-0.94014,0,0,0.5,5.9212e-16,0,0.66667
0.93853,0.92277,1.8771,0.63416,0.2976,0.54916,-3.1743,1.0581,-0.56968,-4.2324,1.6481e-08,-0.28484,0,0,0.5,1.1842e-15,0,0.66667
0.87235,0.034354,1.7447,-0.69847,-0.83627,0.90638,3.2497,-1.0832,-0.26595,4.3329,-5.8178e-09,-0.13298,0,0,0.5,-0,-0,0.66667
0.45255,0.87015,0.9051,0.55523,2.2084,4.2886,-1.3401,0.4467,-0.90432,-1.7868,-1.4108e-11,-0.45216,0,0,0.5,-0,-0,0.66667
0.55083,0.5097,1.1017,0.014555,0.045583,3.1025,-0.042761,0.014254,-1.9989,-0.057014,2.2619e-12,-0.99945,0,0,0.5,2.3685e-15,0,0.66667
0.57742,0.59246,1.1548,0.13869,0.41491,2.8436,-0.4271,0.14237,-1.9326,-0.56946,3.2674e-11,-0.96632,0,0,0.5,1.4918e-15,0,0.66667
0.48558,0.16027,0.97116,-0.5096,-1.917,3.9083,1.3197,-0.43991,-1.0771,1.7597,5.5589e-12,-0.53857,0,0,0.5,-1.1842e-15,0,0.66667
0.91406,0.59597,1.8281,0.14395,0.045413,0.33687,-0.70177,0.23392,-1.9269,-0.9357,2.2138e-08,-0.96345,0,0,0.5,2.3685e-15,0,0.66667
0.78635,0.18571,1.5727,-0.47144,-0.79328,1.2129,1.9771,-0.65905,-1.2105,2.6362,-1.0268e-09,-0.60523,0,0,0.5,-2.9606e-16,0,0.66667
0.093327,0.43908,0.18665,-0.091375,-0.43058,8.6881,0.045482,-0.015161,-1.9713,0.060642,-3.7558e-08,-0.98565,0,0,0.5,-0,-0,0.66667
0.99093,0.33241,1.9819,-0.25138,0.10597,0.082225,1.3285,-0.44285,-1.7748,1.7714,-2.5829e-08,-0.88739,0,0,0.5,-0,-0,0.66667
0.19126,0.7397,0.38252,0.35955,1.6859,7.4093,-0.36677,0.12226,-1.5399,-0.48902,1.1908e-10,-0.76997,0,0,0.5,2.9606e-16,0,0.66667
0.26939,0.24188,0.53878,-0.38717,-1.7494,6.4131,0.55627,-0.18542,-1.4668,0.7417,3.4985e-10,-0.73341,0,0,0.5,2.9606e-16,0,0.66667
0.15118,0.96321,0.30237,0.69481,3.5635,7.9806,-0.56024,0.18675,-0.28357,-0.74699,-2.5229e-09,-0.14178,0,0,0.5,-0,-0,0.66667
0.26352,0.17172,0.52704,-0.49243,-2.2805,6.5088,0.69207,-0.23069,-1.1373,0.92276,6.4036e-10,-0.56867,0,0,0.5,-0,-0,0.66667
0.37276,0.77219,0.74553,0.40828,1.7074,5.1515,-0.8117,0.27057,-1.4071,-1.0823,-1.2262e-10,-0.70355,0,0,0.5,2.9606e-16,0,0.66667
0.97389,0.51343,1.9478,0.02015,-0.0062083,0.081545,-0.10466,0.034885,-1.998,-0.13955,-3.7842e-06,-0.99898,0,0,0.5,-4.737e-15,0,0.66667
0.16693,0.92485,0.33386,0.63728,3.2008,7.7677,-0.56736,0.18912,-0.55544,-0.75648,-4.3027e-09,-0.27772,0,0,0.5,-0,-0,0.66667
0.61018,0.0055709,1.2204,-0.74164,-2.4732,2.8131,2.4135,-0.80451,-0.04461,3.2181,8.038e-14,-0.022305,0,0,0.5,-0,-0,0.66667
0.44789,0.90494,0.89577,0.6074,2.4677,4.3643,-1.4509,0.48364,-0.689,-1.9346,-8.229e-12,-0.3445,0,0,0.5,-0,-0,0.66667
0.58703,0.91303,1.1741,0.61954,2.0508,2.9391,-1.9397,0.64655,-0.63515,-2.5862,1.6182e-11,-0.31757,0,0,0.5,-1.1842e-15,0,0.66667
0.053649,0.45305,0.1073,-0.070432,-0.33383,9.221,0.020153,-0.0067175,-1.9817,0.026871,2.1281e-07,-0.99084,0,0,0.5,-7.4015e-17,0,0.66667
0.30933,0.17926,0.61866,-0.48111,-2.1552,5.9374,0.79372,-0.26457,-1.1768,1.0583,3.1199e-10,-0.58841,0,0,0.5,-0,-0,0.66667
0.090911,0.37388,0.18182,-0.18918,-0.89727,8.7227,0.091725,-0.030575,-1.8737,0.1223,-2.6975e-08,-0.93684,0,0,0.5,-1.8504e-16,0,0.66667
0.46345,0.02857,0.9269,-0.70715,-2.9156,4.2478,1.7479,-0.58262,-0.22256,2.3305,1.7386e-13,-0.11128,0,0,0.5,-5.9212e-16,0,0.66667
0.89199,0.63494,1.784,0.20241,0.11114,0.45849,-0.96293,0.32098,-1.8541,-1.2839,1.479e-09,-0.92705,0,0,0.5,-0,-0,0.66667
0.82138,0.32526,1.6428,-0.2621,-0.32055,0.87627,1.1482,-0.38273,-1.7551,1.5309,3.9604e-10,-0.87756,0,0,0.5,-1.1842e-15,0,0.66667
0.87215,0.678,1.7443,0.267,0.20482,0.58441,-1.2419,0.41398,-1.7462,-1.6559,-1.4277e-09,-0.87312,0,0,0.5,-1.1842e-15,0,0.66667
0.3996,0.87241,0.79919,0.55862,2.3585,4.8876,-1.1905,0.39684,-0.891,-1.5874,-4.3835e-11,-0.4455,0,0,0.5,-5.9212e-16,0,0.66667
0.50934,0.78161,1.0187,0.42241,1.5002,3.619,-1.1475,0.38249,-1.3665,-1.53,5.4385e-12,-0.68327,0,0,0.5,-0,-0,0.66667
0.25721,0.7528,0.51441,0.3792,1.724,6.5655,-0.52018,0.17339,-1.4892,-0.69357,-3.4022e-10,-0.7446,0,0,0.5,-0,-0,0.66667
0.60699,0.23631,1.214,-0.39554,-1.1657,2.6297,1.2805,-0.42682,-1.4432,1.7073,-9.1607e-11,-0.72162,0,0,0.5,-1.1842e-15,0,0.66667
0.44631,0.86443,0.89262,0.54665,2.1853,4.3539,-1.3012,0.43374,-0.93701,-1.7349,-1.7978e-11,-0.46851,0,0,0.5,-0,-0,0.66667
0.49641,0.1338,0.99281,-0.5493,-2.0592,3.811,1.4543,-0.48476,-0.92691,1.939,9.6123e-13,-0.46346,0,0,0.5,-0,-0,0.66667
0.54096,0.077607,1.0819,-0.63359,-2.2844,3.3973,1.828,-0.60933,-0.57202,2.4373,-4.1434e-12,-0.28601,0,0,0.5,-0,-0,0.66667
0.58046,0.78111,1.1609,0.42167,1.3229,2.8953,-1.3054,0.43513,-1.369,-1.7405,5.8692e-11,-0.68448,0,0,0.5,-3.0531e-16,0,0.66667
0.46466,0.17761,0.92932,-0.48359,-1.8574,4.1248,1.1984,-0.39947,-1.1681,1.5979,1.6856e-11,-0.58407,0,0,0.5,-5.9212e-16,0,0.66667
0.79849,0.22844,1.597,-0.40735,-0.61984,1.0928,1.7347,-0.57824,-1.4098,2.313,-3.5182e-10,-0.7049,0,0,0.5,-0,-0,0.66667
0.40923,0.14912,0.81847,-0.52633,-2.1811,4.7642,1.1488,-0.38292,-1.015,1.5317,4.6557e-11,-0.5075,0,0,0.5,-2.9606e-16,0,0.66667
0.043632,0.37543,0.087264,-0.18685,-0.8924,9.3571,0.04348,-0.014493,-1.8769,0.057974,2.248e-07,-0.93846,0,0,0.5,-0,-0,0.66667
0.83341,0.74806,1.6668,0.3721,0.44249,0.85415,-1.6539,0.55131,-1.5084,-2.2052,-5.2673e-10,-0.75419,0,0,0.5,1.4803e-15,0,0.66667
0.48479,0.98389,0.96958,0.72583,2.9345,4.0319,-1.8767,0.62556,-0.12643,-2.5022,-4.1744e-14,-0.063217,0,0,0.5,-5.9212e-16,0,0.66667
0.47847,0.9387,0.95695,0.65805,2.6178,4.0587,-1.6792,0.55975,-0.46115,-2.239,-1.0035e-12,-0.23058,0,0,0.5,1.1842e-15,0,0.66667
0.17683,0.54051,0.35367,0.060764,0.27872,7.5774,-0.057308,0.019103,-1.9865,-0.07641,-6.378e-10,-0.99326,0,0,0.5,-0,-0,0.66667
0.443,0.81566,0.88601,0.47349,1.8636,4.3613,-1.1187,0.3729,-1.2033,-1.4916,-3.1283e-11,-0.60166,0,0,0.5,-0,-0,0.66667
0.14347,0.67351,0.28694,0.26027,1.226,8.0267,-0.19915,0.066385,-1.7586,-0.26554,6.7714e-10,-0.87931,0,0,0.5,-0,-0,0.66667
0.041238,0.90283,0.082476,0.60425,3.0935,9.4014,-0.1329,0.044298,-0.7022,-0.17719,-1.6418e-07,-0.3511,0,0,0.5,-9.2519e-17,0,0.66667
0.96316,0.75195,1.9263,0.37792,-0.018719,0.24095,-1.9413,0.64711,-1.4928,-2.5885,4.5849e-09,-0.74642,0,0,0.5,-0,-0,0.66667
0.26195,0.74864,0.5239,0.37295,1.6888,6.5044,-0.52104,0.17368,-1.5063,-0.69472,-3.1894e-10,-0.75314,0,0,0.5,-6.2913e-16,0,0.66667
0.1361,0.86276,0.2722,0.54413,2.698,8.1519,-0.39497,0.13166,-0.94672,-0.52662,-2.4902e-09,-0.47336,0,0,0.5,1.4803e-16,0,0.66667
0.68806,0.48984,1.3761,-0.015242,-0.033914,1.814,0.055933,-0.018644,-1.999,0.074577,-1.1701e-11,-0.99949,0,0,0.5,-5.9212e-16,0,0.66667
0.37393,0.092253,0.74786,-0.61162,-2.6864,5.2066,1.2198,-0.40658,-0.6709,1.6263,4.1465e-11,-0.33545,0,0,0.5,2.2204e-16,0,0.66667
0.62308,0.2787,1.2462,-0.33195,-0.92739,2.454,1.1031,-0.36771,-1.6089,1.4708,-1.0917e-10,-0.80445,0,0,0.5,1.4803e-15,0,0.66667
0.70645,0.33904,1.4129,-0.24144,-0.51878,1.6976,0.90966,-0.30322,-1.793,1.2129,-1.3706e-10,-0.8965,0,0,0.5,-1.4803e-15,0,0.66667
0.66211,0.47136,1.3242,-0.042962,-0.10371,2.0391,0.15171,-0.05057,-1.994,0.20228,-2.6063e-11,-0.99698,0,0,0.5,-0,-0,0.66667
0.22691,0.73541,0.45383,0.35312,1.626,6.9478,-0.42735,0.14245,-1.556,-0.56979,-1.8802e-10,-0.77799,0,0,0.5,-2.9606e-16,0,0.66667
0.78337,0.81728,1.5667,0.47591,0.81474,1.2359,-1.9884,0.66279,-1.195,-2.6511,1.046e-09,-0.59751,0,0,0.5,-0,-0,0.66667
0.07097,0.90321,0.14194,0.60482,3.0861,9.0107,-0.22893,0.076309,-0.69978,-0.30524,-3.4229e-08,-0.34989,0,0,0.5,1.1102e-16,0,0.66667
0.78814,0.58143,1.5763,0.12214,0.17743,1.0557,-0.51342,0.17114,-1.9464,-0.68456,2.1635e-10,-0.97318,0,0,0.5,-0,-0,0.66667
0.16235,0.17138,0.32469,-0.49294,-2.3964,7.8031,0.4268,-0.14227,-1.1354,0.56907,1.3605e-09,-0.5677,0,0,0.5,2.9606e-16,0,0.66667
0.40501,0.55042,0.81002,0.075625,0.29351,4.7151,-0.16335,0.054451,-1.9793,-0.21781,-2.328e-11,-0.98965,0,0,0.5,-5.9212e-16,0,0.66667
0.0061978,0.37221,0.012396,-0.19169,-0.91777,9.861,0.0063363,-0.002112,-1.8698,0.0084484,5.9472e-08,-0.93492,0,0,0.5,1.8349e-18,0,0.66667
0.16285,0.26133,0.3257,-0.358,-1.6975,7.7798,0.31094,-0.10365,-1.5438,0.41459,-6.6526e-10,-0.77188,0,0,0.5,2.9606e-16,0,0.66667
0.67786,0.57348,1.3557,0.11022,0.25482,1.9081,-0.39847,0.13282,-1.9563,-0.5313,6.9412e-11,-0.97815,0,0,0.5,-0,-0,0.66667
0.75014,0.64889,1.5003,0.22334,0.40214,1.3516,-0.89352,0.29784,-1.8228,-1.1914,8.7535e-11,-0.91138,0,0,0.5,-1.1842e-15,0,0.66667
0.91019,0.70456,1.8204,0.30684,0.13171,0.41409,-1.4895,0.49651,-1.6647,-1.986,-2.0766e-09,-0.83233,0,0,0.5,-0,-0,0.66667
0.42023,0.48293,0.84045,-0.025606,-0.097531,4.5355,0.057388,-0.019129,-1.9972,0.076517,6.5085e-12,-0.9986,0,0,0.5,-0,-0,0.66667
0.61033,0.52186,1.2207,0.032795,0.090666,2.5139,-0.10675,0.035584,-1.996,-0.14234,1.2193e-11,-0.99801,0,0,0.5,-0,-0,0.66667
0.49204,0.39577,0.98409,-0.15634,-0.54472,3.7361,0.41028,-0.13676,-1.9126,0.54705,3.4629e-12,-0.9563,0,0,0.5,-0,-0,0.66667
0.025408,0.65798,0.050817,0.23697,1.1386,9.6028,-0.032113,0.010704,-1.801,-0.042817,-2.8232e-07,-0.90051,0,0,0.5,7.4015e-17,0,0.66667
0.44827,0.95793,0.89655,0.6869,2.8627,4.401,-1.6422,0.54741,-0.32191,-2.1897,-1.4685e-12,-0.16095,0,0,0.5,-0,-2.5316e-16,0.66667
0.68945,0.66929,1.3789,0.25393,0.5794,1.8416,-0.93373,0.31124,-1.7703,-1.245,1.4269e-10,-0.88514,0,0,0.5,-0,-0,0.66667
0.67687,0.89353,1.3537,0.59029,1.5748,2.1189,-2.1309,0.71031,-0.76052,-2.8413,1.5692e-10,-0.38026,0,0,0.5,1.1842e-15,0,0.66667
0.29344,0.72719,0.58687,0.34079,1.5033,6.1032,-0.53333,0.17778,-1.5869,-0.71111,-2.3133e-10,-0.79343,0,0,0.5,-0,-0,0.66667
0.87748,0.2359,1.755,-0.39615,-0.31941,0.62315,1.8539,-0.61798,-1.4415,2.4719,2.045e-09,-0.72075,0,0,0.5,1.1842e-15,0,0.66667
0.77122,0.94106,1.5424,0.66159,1.3442,1.464,-2.7212,0.90708,-0.44411,-3.6283,6.1989e-10,-0.22206,0,0,0.5,-0,-0,0.66667
0.85372,0.43231,1.7074,-0.10153,-0.088687,0.63939,0.46229,-0.1541,-1.9635,0.61639,-9.1595e-10,-0.98173,0,0,0.5,1.7764e-15,0,0.66667
0.93715,0.13402,1.8743,-0.54897,-0.2078,0.47037,2.7438,-0.91462,-0.92838,3.6585,7.1077e-10,-0.46419,0,0,0.5,-0,-5.3555e-16,0.66667
0.235,0.6695,0.47001,0.25426,1.1499,6.8315,-0.31867,0.10622,-1.7698,-0.4249,-4.2664e-11,-0.88489,0,0,0.5,-0,-0,0.66667
0.71728,0.81253,1.4346,0.4688,1.0473,1.7134,-1.7934,0.5978,-1.2198,-2.3912,4.6649e-10,-0.60992,0,0,0.5,-2.3685e-15,0,0.66667
0.043952,0.86911,0.087905,0.55367,2.8002,9.3634,-0.12979,0.043263,-0.91015,-0.17305,1.5334e-07,-0.45508,0,0,0.5,-0,-0,0.66667
0.30362,0.79505,0.60725,0.44257,1.9745,5.9979,-0.71667,0.23889,-1.3029,-0.95556,-3.2287e-10,-0.65147,0,0,0.5,-0,-0,0.66667
0.48305,0.92466,0.9661,0.63698,2.501,3.9983,-1.641,0.54701,-0.55694,-2.188,-1.436e-12,-0.27847,0,0,0.5,2.0075e-17,0,0.66667
0.36442,0.80167,0.72884,0.4525,1.925,5.2632,-0.87948,0.29316,-1.2715,-1.1726,-1.3455e-10,-0.63574,0,0,0.5,-0,-0,0.66667
0.19847,0.22597,0.39695,-0.41105,-1.9381,7.3227,0.4351,-0.14503,-1.3991,0.58014,3.5927e-10,-0.69956,0,0,0.5,-0,-0,0.66667
0.69868,0.42282,1.3974,-0.11577,-0.25011,1.7332,0.4314,-0.1438,-1.9517,0.57521,-8.3114e-11,-0.97587,0,0,0.5,-0,-0,0.66667
0.9253,0.78752,1.8506,0.43128,0.16241,0.42266,-2.1284,0.70945,-1.3387,-2.8378,-4.0151e-10,-0.66934,0,0,0.5,2.3685e-15,0,0.66667
0.099858,0.00096794,0.19972,-0.74855,-3.9508,8.6496,0.39866,-0.13289,-0.0085771,0.53154,-3.4089e-08,-0.0042886,0,0,0.5,5.9212e-16,0,0.66667
0.23014,0.6117,0.46028,0.16755,0.7534,6.8867,-0.20565,0.068549,-1.8996,-0.2742,-1.0908e-10,-0.94981,0,0,0.5,-0,-0,0.66667
0.28485,0.40123,0.56969,-0.14815,-0.64296,6.1867,0.22506,-0.075021,-1.9222,0.30009,1.063e-10,-0.96108,0,0,0.5,-0,-0,0.66667
0.66797,0.87084,1.3359,0.55626,1.497,2.1702,-1.9817,0.66057,-0.90013,-2.6423,1.6943e-10,-0.45007,0,0,0.5,8.8818e-16,0,0.66667
0.38662,0.087595,0.77323,-0.61861,-2.6907,5.0621,1.2755,-0.42518,-0.63941,1.7007,2.9017e-11,-0.3197,0,0,0.5,-0,-2.2967e-17,0.66667
0.7656,0.041936,1.5312,-0.6871,-1.4522,1.5257,2.8055,-0.93518,-0.32124,3.7407,-2.9946e-10,-0.16062,0,0,0.5,-0,-0,0.66667
0.095646,0.59141,0.19129,0.13712,0.64729,8.6579,-0.069945,0.023315,-1.9339,-0.09326,-9.2792e-09,-0.96695,0,0,0.5,-1.8504e-16,0,0.66667
0.46018,0.46724,0.92036,-0.049146,-0.17806,4.0795,0.12062,-0.040206,-1.9921,0.16083,5.9878e-12,-0.99607,0,0,0.5,7.4015e-16,0,0.66667
0.29262,0.89562,0.58523,0.59343,2.7645,6.1748,-0.92612,0.30871,-0.74743,-1.2348,-2.9264e-10,-0.37372,0,0,0.5,-0,-0,0.66667
0.51342,0.20598,1.0268,-0.44103,-1.5639,3.5833,1.2076,-0.40255,-1.3079,1.6102,-7.4102e-12,-0.65397,0,0,0.5,-1.2001e-15,0,0.66667
0.13575,0.89206,0.27149,0.58809,2.9465,8.1625,-0.42576,0.14192,-0.7697,-0.56768,-7.5136e-09,-0.38485,0,0,0.5,-1.4803e-16,0,0.66667
0.446,0.69126,0.89199,0.28688,1.0828,4.2715,-0.6824,0.22747,-1.7077,-0.90987,-3.6907e-11,-0.85384,0,0,0.5,-0,-0,0.66667
0.51639,0.36523,1.0328,-0.20216,-0.68132,3.4816,0.55677,-0.18559,-1.8545,0.74236,-8.796e-12,-0.92726,0,0,0.5,-0,-0,0.66667
0.34421,0.82876,0.68841,0.49314,2.1552,5.5171,-0.90529,0.30176,-1.1349,-1.2071,-1.7361e-10,-0.56747,0,0,0.5,-5.9212e-16,0,0.66667
0.55465,0.76869,1.1093,0.40304,1.3211,3.1434,-1.1923,0.39742,-1.4218,-1.5897,3.6547e-11,-0.71091,0,0,0.5,-0,-0,0.66667
0.71429,0.66933,1.4286,0.25399,0.5323,1.6383,-0.96758,0.32253,-1.7701,-1.2901,1.4399e-10,-0.88503,0,0,0.5,-0,-0,0.66667
0.66388,0.75389,1.3278,0.38083,0.97105,2.108,-1.3484,0.44947,-1.4846,-1.7979,1.9022e-10,-0.7423,0,0,0.5,-0,-0,0.66667
0.35567,0.59937,0.71134,0.14906,0.6109,5.3099,-0.28276,0.094252,-1.9211,-0.37701,-7.047e-11,-0.96056,0,0,0.5,-0,-0,0.66667
0.076579,0.96099,0.15316,0.69149,3.6058,8.9448,-0.28242,0.094139,-0.29985,-0.37656,-1.2257e-07,-0.14992,0,0,0.5,7.4015e-17,0,0.66667
0.83367,0.51761,1.6673,0.026408,0.027572,0.75051,-0.11742,0.039138,-1.9969,-0.15655,6.532e-10,-0.99845,0,0,0.5,2.3685e-15,0,0.66667
0.92624,0.11474,1.8525,-0.57789,-0.30091,0.54053,2.8548,-0.95159,-0.81218,3.8064,3.1903e-08,-0.40609,0,0,0.5,1.1842e-15,0,0.66667
0.23416,0.23332,0.46833,-0.40003,-1.8495,6.8622,0.49958,-0.16653,-1.4307,0.66611,4.3236e-10,-0.71534,0,0,0.5,-0,-0,0.66667
0.0015237,0.90798,0.0030475,0.61196,3.1445,9.9244,-0.0049728,0.0016587,-0.66933,-0.0066299,1.645e-06,-0.33467,0,0,0.5,-4.6259e-18,0,0.66667
0.47964,0.20775,0.95927,-0.43837,-1.6318,3.9436,1.1214,-0.37379,-1.3163,1.4952,1.1365e-11,-0.65813,0,0,0.5,-5.9212e-16,0,0.66667
0.61534,0.84279,1.2307,0.51418,1.545,2.6104,-1.6875,0.56249,-1.0608,-2.2499,7.9501e-11,-0.5304,0,0,0.5,1.4803e-15,0,0.66667
0.65285,0.19172,1.3057,-0.46241,-1.2479,2.2444,1.6101,-0.53669,-1.2401,2.1467,-1.7532e-10,-0.62003,0,0,0.5,2.3685e-15,0,0.66667
0.60356,0.52104,1.2071,0.031566,0.088648,2.5787,-0.10161,0.03387,-1.996,-0.13548,1.0879e-11,-0.998,0,0,0.5,-0,-0,0.66667
0.67867,0.19472,1.3573,-0.45792,-1.1498,2.0204,1.6575,-0.55248,-1.2543,2.2099,-2.5855e-10,-0.62713,0,0,0.5,-0,-0,0.66667
0.73325,0.6589,1.4665,0.23835,0.46274,1.4844,-0.9321,0.3107,-1.7987,-1.2428,1.1597e-10,-0.89937,0,0,0.5,-2.3685e-15,0,0.66667
0.84341,0.81726,1.6868,0.47589,0.5668,0.86135,-2.1406,0.71355,-1.1952,-2.8542,6.5081e-10,-0.59761,0,0,0.5,-2.3685e-15,0,0.66667
0.57512,0.82441,1.1502,0.48662,1.5725,2.9777,-1.4926,0.49754,-1.1576,-1.9902,4.2733e-11,-0.57879,0,0,0.5,1.1842e-15,0,0.66667
0.033325,0.7909,0.066651,0.43635,2.1562,9.5003,-0.077554,0.025851,-1.3228,-0.1034,8.918e-09,-0.66139,0,0,0.5,-0,-0,0.66667
0.93264,0.028532,1.8653,-0.7072,-0.4453,0.65279,3.5177,-1.1726,-0.22228,4.6902,-4.4181e-08,-0.11114,0,0,0.5,-0,6.8168e-16,0.66667
0.41723,0.58885,0.83446,0.13327,0.51176,4.5767,-0.29655,0.098851,-1.937,-0.3954,-3.3895e-11,-0.96852,0,0,0.5,-0,-0,0.66667
0.46721,0.33871,0.93442,-0.24194,-0.88224,4.024,0.60286,-0.20095,-1.7922,0.80382,1.9977e-11,-0.89609,0,0,0.5,-0,-0,0.66667
0.61906,0.97474,1.2381,0.7121,2.3015,2.7097,-2.3511,0.78371,-0.19699,-3.1348,2.1896e-12,-0.098497,0,0,0.5,-0,-0,0.66667
0.27646,0.49105,0.55292,-0.013427,-0.058304,6.2874,0.019798,-0.0065992,-1.999,0.026397,1.4935e-11,-0.99952,0,0,0.5,2.9606e-16,0,0.66667
0.90942,0.73548,1.8188,0.35323,0.16548,0.44237,-1.7132,0.57108,-1.5558,-2.2843,-1.7108e-10,-0.77791,0,0,0.5,1.1842e-15,0,0.66667
0.6579,0.68892,1.3158,0.28338,0.71549,2.1222,-0.99434,0.33145,-1.7154,-1.3258,1.348e-10,-0.8577,0,0,0.5,-0,-0,0.66667
0.13349,0.75606,0.26698,0.38408,1.8466,8.1683,-0.27345,0.091149,-1.4755,-0.3646,1.2801e-09,-0.73773,0,0,0.5,-0,-0,0.66667
0.37351,0.26203,0.74703,-0.35696,-1.4771,5.1296,0.71109,-0.23703,-1.5466,0.94811,1.1745e-10,-0.77329,0,0,0.5,-5.9212e-16,0,0.66667
0.21324,0.5171,0.42649,0.025649,0.11563,7.1003,-0.029171,0.0097236,-1.997,-0.038894,-9.8251e-11,-0.99851,0,0,0.5,-5.0506e-16,0,0.66667
0.44333,0.22543,0.88665,-0.41186,-1.5971,4.3362,0.9738,-0.3246,-1.3968,1.2984,3.7576e-11,-0.69839,0,0,0.5,1.1842e-15,0,0.66667
0.20627,0.73535,0.41255,0.35302,1.6424,7.2138,-0.38837,0.12946,-1.5563,-0.51782,-4.0123e-11,-0.77817,0,0,0.5,-0,-0,0.66667
0.097915,0.20319,0.19583,-0.44521,-2.1835,8.6432,0.2325,-0.077499,-1.2946,0.30999,-5.6822e-09,-0.64731,0,0,0.5,-0,-0,0.66667
0.32046,0.4094,0.64092,-0.13589,-0.57367,5.7405,0.23226,-0.07742,-1.9347,0.30968,8.3319e-11,-0.96737,0,0,0.5,-1.1842e-15,0,0.66667
0.13448,0.34687,0.26897,-0.22969,-1.0815,8.1439,0.16475,-0.054916,-1.8128,0.21966,-1.788e-09,-0.90642,0,0,0.5,-0,-0,0.66667
0.035025,0.019489,0.07005,-0.72077,-3.8072,9.4879,0.13464,-0.04488,-0.15239,0.17952,-6.9196e-07,-0.076193,0,0,0.5,-0,-0,0.66667
0.49839,0.64258,0.99679,0.21388,0.74272,3.6766,-0.5685,0.1895,-1.8369,-0.758,-9.2837e-13,-0.91846,0,0,0.5,5.9212e-16,0,0.66667
0.60463,0.69489,1.2093,0.29233,0.8445,2.6138,-0.94268,0.31423,-1.696,-1.2569,8.1227e-11,-0.848,0,0,0.5,-0,-0,0.66667
0.19647,0.84492,0.39294,0.51738,2.4947,7.3658,-0.54214,0.18071,-1.049,-0.72285,-1.8492e-09,-0.52451,0,0,0.5,-5.9212e-16,0,0.66667
0.35053,0.25142,0.70105,-0.37287,-1.5806,5.4088,0.69707,-0.23236,-1.5064,0.92943,1.5928e-10,-0.7532,0,0,0.5,-1.1842e-15,0,0.66667
0.45356,0.39422,0.90713,-0.15867,-0.58372,4.1632,0.38381,-0.12794,-1.9102,0.51175,2.109e-11,-0.9551,0,0,0.5,-5.9212e-16,0,0.66667
0.25284,0.94633,0.50568,0.66949,3.263,6.6893,-0.90279,0.30093,-0.40611,-1.2037,-2.8499e-10,-0.20305,0,0,0.5,-0,-0,0.66667
0.33803,0.19921,0.67606,-0.45119,-1.9634,5.5796,0.81341,-0.27114,-1.2756,1.0846,2.0086e-10,-0.63782,0,0,0.5,-5.9212e-16,0,0.66667
0.26085,0.77415,0.52169,0.41122,1.8762,6.5253,-0.57208,0.19069,-1.3986,-0.76278,-4.4206e-10,-0.69931,0,0,0.5,-4.4409e-16,0,0.66667
0.66262,0.034337,1.3252,-0.69849,-2.0356,2.3209,2.4684,-0.82282,-0.26569,3.2913,-1.1627e-11,-0.13285,0,0,0.5,-2.3685e-15,0,0.66667
0.38944,0.52973,0.77887,0.04459,0.17583,4.8978,-0.092613,0.030871,-1.9939,-0.12348,-1.6682e-11,-0.99694,0,0,0.5,-0,-0,0.66667
0.46579,0.52334,0.93157,0.035004,0.12582,4.0161,-0.086957,0.028986,-1.9955,-0.11594,-3.7694e-12,-0.99775,0,0,0.5,-0,-0,0.66667
0.25898,0.74408,0.51795,0.36611,1.659,6.5409,-0.50568,0.16856,-1.5234,-0.67424,-3.031e-10,-0.7617,0,0,0.5,3.0137e-16,0,0.66667
0.57889,0.11708,1.1578,-0.57438,-1.8982,2.9889,1.7734,-0.59112,-0.82697,2.3645,-2.444e-11,-0.41349,0,0,0.5,-0,-0,0.66667
0.41565,0.79434,0.83131,0.44151,1.7796,4.6605,-0.97875,0.32625,-1.3063,-1.305,-5.9477e-11,-0.65314,0,0,0.5,-5.9212e-16,0,0.66667
0.45718,0.89451,0.91437,0.59177,2.3661,4.2545,-1.4429,0.48097,-0.75439,-1.9239,-8.3551e-12,-0.37719,0,0,0.5,5.9212e-16,0,0.66667
0.20956,0.98251,0.41913,0.72377,3.6616,7.2456,-0.80894,0.26965,-0.1368,-1.0786,-1.8975e-10,-0.068402,0,0,0.5,4.9635e-16,0,0.66667
0.51169,0.50405,1.0234,0.006078,0.020379,3.513,-0.016587,0.005529,-2.0002,-0.022116,1.6415e-13,-1.0001,0,0,0.5,-0,-0,0.66667
0.42103,0.47639,0.84207,-0.035419,-0.13481,4.5263,0.079534,-0.026511,-1.9956,0.10605,8.9776e-12,-0.99778,0,0,0.5,-0,-0,0.66667
0.53816,0.18836,1.0763,-0.46746,-1.6043,3.338,1.3417,-0.44724,-1.2239,1.789,-2.0002e-11,-0.61194,0,0,0.5,2.3685e-15,0,0.66667
0.51553,0.88346,1.0311,0.5752,2.1142,3.6236,-1.5815,0.52716,-0.82364,-2.1087,3.3402e-12,-0.41182,0,0,0.5,-0,-0,0.66667
0.71232,0.1739,1.4246,-0.48915,-1.1212,1.7647,1.8583,-0.61943,-1.1486,2.4777,-4.3806e-10,-0.57431,0,0,0.5,3.4069e-16,0,0.66667
0.34543,0.73174,0.69086,0.34762,1.4735,5.4648,-0.64041,0.21347,-1.5699,-0.85388,-1.5875e-10,-0.78496,0,0,0.5,-0,-0,0.66667
0.22924,0.70296,0.45848,0.30444,1.39,6.9114,-0.37222,0.12407,-1.6698,-0.49629,-6.1706e-11,-0.8349,0,0,0.5,-2.9606e-16,0,0.66667
0.91895,0.74021,1.8379,0.36031,0.13722,0.40388,-1.7659,0.58864,-1.5381,-2.3545,9.5774e-10,-0.76904,0,0,0.5,-0,-0,0.66667
0.39408,0.018967,0.78817,-0.72155,-3.2193,5.0243,1.5165,-0.50551,-0.14836,2.0221,1.2216e-12,-0.074179,0,0,0.5,1.1842e-15,0,0.66667
0.81515,0.54034,1.6303,0.060503,0.073204,0.86844,-0.26303,0.087678,-1.9867,-0.35071,5.4926e-10,-0.99337,0,0,0.5,-2.3685e-15,0,0.66667
0.88049,0.10059,1.761,-0.59911,-0.59162,0.76581,2.8134,-0.9378,-0.72368,3.7512,-6.0383e-09,-0.36184,0,0,0.5,-0,-0,0.66667
0.65189,0.73021,1.3038,0.34532,0.9003,2.198,-1.2006,0.40019,-1.5755,-1.6008,1.5343e-10,-0.78777,0,0,0.5,-0,-0,0.66667
0.76748,0.18938,1.535,-0.46592,-0.85437,1.3389,1.9071,-0.63571,-1.229,2.5428,-8.4165e-10,-0.61449,0,0,0.5,-0,-0,0.66667
0.89753,0.70632,1.7951,0.30949,0.17114,0.47491,-1.4815,0.49382,-1.6588,-1.9753,-4.4974e-11,-0.82942,0,0,0.5,-0,-0,0.66667
0.49849,0.80594,0.99697,0.45891,1.6719,3.7486,-1.2201,0.40668,-1.2513,-1.6267,-7.8593e-13,-0.62566,0,0,0.5,-0,-0,0.66667
0.42176,0.59375,0.84352,0.14062,0.53744,4.5249,-0.31631,0.10544,-1.931,-0.42175,-3.3615e-11,-0.96552,0,0,0.5,-2.0217e-16,0,0.66667
0.72854,0.76544,1.4571,0.39816,0.82961,1.5867,-1.5471,0.51569,-1.4357,-2.0628,3.7411e-10,-0.71784,0,0,0.5,-1.1842e-15,0,0.66667
0.57844,0.42862,1.1569,-0.10707,-0.31878,2.8295,0.33031,-0.1101,-1.9592,0.44041,-2.6138e-11,-0.97959,0,0,0.5,-0,-0,0.66667
0.070112,0.92544,0.14022,0.63816,3.2841,9.0245,-0.23863,0.079543,-0.55141,-0.31817,2.8417e-08,-0.27571,0,0,0.5,-0,-0,0.66667
0.80706,0.25358,1.6141,-0.36963,-0.52409,1.0162,1.591,-0.53034,-1.5146,2.1214,5.2746e-11,-0.75729,0,0,0.5,-0,-0,0.66667
0.20204,0.24198,0.40409,-0.38703,-1.8142,7.2731,0.41705,-0.13902,-1.4674,0.55607,1.8569e-10,-0.73369,0,0,0.5,-0,-0,0.66667
0.21501,0.11833,0.43002,-0.57251,-2.7729,7.1398,0.6565,-0.21883,-0.83458,0.87534,1.6963e-09,-0.41729,0,0,0.5,-2.9606e-16,0,0.66667
0.87429,0.12618,1.7486,-0.56072,-0.56036,0.76202,2.6146,-0.87153,-0.88315,3.4861,-5.4417e-09,-0.44157,0,0,0.5,2.3685e-15,-8.7223e-17,0.66667
0.81023,0.13172,1.6205,-0.55242,-0.86468,1.1173,2.3871,-0.79571,-0.91501,3.1828,-2.5683e-09,-0.4575,0,0,0.5,-0,-0,0.66667
0.78716,0.30499,1.5743,-0.29251,-0.44875,1.1119,1.228,-0.40934,-1.6956,1.6374,7.988e-11,-0.84779,0,0,0.5,-5.9212e-16,0,0.66667
0.97848,0.71176,1.957,0.31764,-0.07991,0.15364,-1.6576,0.55253,-1.6411,-2.2101,-1.7052e-09,-0.82057,0,0,0.5,-0,-0,0.66667
0.93575,0.91383,1.8715,0.62074,0.29771,0.54564,-3.0979,1.0326,-0.62996,-4.1305,-9.545e-08,-0.31498,0,0,0.5,-0,-0,0.66667
0.12932,0.10887,0.25863,-0.5867,-2.9439,8.2459,0.40463,-0.13488,-0.77553,0.53951,7.7057e-09,-0.38776,0,0,0.5,-2.9606e-16,0,0.66667
0.46825,0.41579,0.9365,-0.12631,-0.45437,3.9947,0.31545,-0.10515,-1.9431,0.42059,1.168e-11,-0.97157,0,0,0.5,-0,-0,0.66667
0.30416,0.10865,0.60833,-0.58702,-2.7085,6.0314,0.95228,-0.31743,-0.77409,1.2697,2.4049e-10,-0.38705,0,0,0.5,-0,-0,0.66667
0.89049,0.0028373,1.781,-0.74574,-0.81851,0.87374,3.5417,-1.1806,-0.023415,4.7223,2.4694e-08,-0.011707,0,0,0.5,-0,-0,0.66667
0.13731,0.18525,0.27463,-0.47213,-2.3043,8.1271,0.34576,-0.11525,-1.2081,0.46101,-1.4639e-09,-0.60406,0,0,0.5,-3.7007e-17,0,0.66667
0.047972,0.52968,0.095945,0.04452,0.21102,9.2973,-0.01139,0.0037969,-1.9939,-0.015187,4.051e-07,-0.99695,0,0,0.5,-3.7007e-17,0,0.66667
0.97746,0.31795,1.9549,-0.27307,0.073258,0.13403,1.4236,-0.47452,-1.7349,1.8981,2.1489e-08,-0.86746,0,0,0.5,-0,-0,0.66667
0.56486,0.76435,1.1297,0.39653,1.2734,3.0386,-1.1946,0.39819,-1.4404,-1.5928,4.5521e-11,-0.72022,0,0,0.5,-0,-0,0.66667
0.28488,0.94533,0.56977,0.668,3.193,6.2937,-1.0149,0.33832,-0.41327,-1.3533,-1.2808e-10,-0.20663,0,0,0.5,-0,-0,0.66667
0.33181,0.20233,0.66361,-0.44651,-1.951,5.6538,0.79015,-0.26338,-1.2906,1.0535,2.1973e-10,-0.64528,0,0,0.5,5.9212e-16,0,0.66667
0.13838,0.077767,0.27677,-0.63335,-3.2072,8.135,0.46744,-0.15581,-0.57324,0.62325,9.2729e-09,-0.28662,0,0,0.5,2.9606e-16,-5.9181e-16,0.66667
0.99127,0.13503,1.9825,-0.54745,0.098416,0.28963,2.8942,-0.96475,-0.93393,3.859,-1.3122e-07,-0.46697,0,0,0.5,-0,-0,0.66667
0.87071,0.91708,1.7414,0.62562,0.69598,0.83985,-2.9053,0.96842,-0.6079,-3.8737,1.0494e-08,-0.30395,0,0,0.5,2.3685e-15,0,0.66667
0.24165,0.65454,0.48329,0.23181,1.0418,6.7439,-0.29876,0.099586,-1.8096,-0.39834,-6.2409e-11,-0.90481,0,0,0.5,4.4409e-16,0,0.66667
0.33244,0.2656,0.66488,-0.3516,-1.5079,5.6237,0.62339,-0.2078,-1.5598,0.83119,1.8236e-10,-0.77992,0,0,0.5,5.9212e-16,0,0.66667
0.16541,0.25694,0.33083,-0.36459,-1.7289,7.747,0.32165,-0.10722,-1.5272,0.42886,-5.8004e-10,-0.76362,0,0,0.5,-0,-0,0.66667
0.51303,0.97731,1.0261,0.71596,2.7764,3.7324,-1.959,0.653,-0.17722,-2.612,6.4393e-14,-0.088611,0,0,0.5,-0,-0,0.66667
0.97972,0.097678,1.9594,-0.60348,-0.0051283,0.37898,3.1533,-1.0511,-0.70543,4.2044,9.6006e-07,-0.35271,0,0,0.5,-0,-0,0.66667
0.59628,0.15725,1.1926,-0.51412,-1.6081,2.7886,1.635,-0.545,-1.0612,2.18,-5.5868e-11,-0.53058,0,0,0.5,2.3685e-15,0,0.66667
0.66446,0.059258,1.3289,-0.66111,-1.8832,2.2754,2.3429,-0.78095,-0.44637,3.1238,-4.1452e-11,-0.22318,0,0,0.5,1.4803e-15,0,0.66667
0.67117,0.20017,1.3423,-0.44975,-1.1501,2.0793,1.6099,-0.53664,-1.2805,2.1465,-2.3021e-10,-0.64023,0,0,0.5,-0,-0,0.66667
0.19112,0.94306,0.38224,0.66458,3.3317,7.4642,-0.67741,0.2258,-0.42974,-0.90321,-1.7717e-09,-0.21487,0,0,0.5,5.9212e-16,0,0.66667
0.24088,0.36424,0.48177,-0.20364,-0.91301,6.7511,0.26162,-0.087205,-1.8521,0.34882,8.1013e-11,-0.92603,0,0,0.5,-2.9606e-16,0,0.66667
0.50091,0.16016,1.0018,-0.50976,-1.8766,3.7447,1.3618,-0.45395,-1.0766,1.8158,-4.0323e-13,-0.5383,0,0,0.5,-0,-0,0.66667
0.46695,0.04271,0.93389,-0.68593,-2.7952,4.198,1.7082,-0.56941,-0.32672,2.2776,7.766e-13,-0.16336,0,0,0.5,1.1842e-15,-5.5005e-16,0.66667
0.32409,0.63384,0.64819,0.20076,0.84955,5.7018,-0.34702,0.11567,-1.8564,-0.46269,-1.0995e-10,-0.92821,0,0,0.5,-0,-0,0.66667
0.72003,0.15895,1.4401,-0.51157,-1.1543,1.7188,1.9645,-0.65485,-1.0702,2.6194,-5.1407e-10,-0.5351,0,0,0.5,-0,-0,0.66667
0.27597,0.20702,0.55193,-0.43946,-1.997,6.341,0.64681,-0.2156,-1.3128,0.86242,4.5013e-10,-0.65639,0,0,0.5,2.9606e-16,0,0.66667
0.89558,0.50801,1.7912,0.012018,0.0056728,0.4082,-0.057404,0.019135,-1.9993,-0.076539,4.1124e-08,-0.99963,0,0,0.5,-4.737e-15,0,0.66667
0.12274,0.80724,0.24548,0.46085,2.2535,8.3172,-0.30169,0.10056,-1.2451,-0.40225,1.2927e-09,-0.62254,0,0,0.5,-1.4803e-16,0,0.66667
0.92163,0.81815,1.8433,0.47722,0.21761,0.4724,-2.3457,0.7819,-1.1906,-3.1276,-1.6929e-08,-0.59529,0,0,0.5,-0,-0,0.66667
0.10352,0.98292,0.20703,0.72438,3.7936,8.5992,-0.39992,0.13331,-0.13366,-0.53323,3.2316e-09,-0.066832,0,0,0.5,9.7147e-17,0,0.66667
0.19298,0.15219,0.38596,-0.52172,-2.5218,7.4114,0.53697,-0.17899,-1.0325,0.71596,1.9521e-09,-0.51625,0,0,0.5,4.4409e-16,0,0.66667
0.45235,0.78545,0.90469,0.42817,1.648,4.2406,-1.033,0.34432,-1.3487,-1.3773,-2.9663e-11,-0.67433,0,0,0.5,1.1842e-15,0,0.66667
0.88235,0.31956,1.7647,-0.27066,-0.18237,0.53266,1.2737,-0.42457,-1.7394,1.6983,1.2956e-09,-0.86968,0,0,0.5,-0,-0,0.66667
0.30753,0.56002,0.61506,0.090036,0.38302,5.8984,-0.14767,0.049224,-1.9718,-0.1969,-6.6724e-11,-0.98588,0,0,0.5,2.2204e-16,0,0.66667
0.65742,0.57882,1.3148,0.11823,0.29077,2.0877,-0.41454,0.13818,-1.9499,-0.55271,6.3512e-11,-0.97493,0,0,0.5,-1.1842e-15,0,0.66667
0.33893,0.81709,0.67787,0.47563,2.0794,5.5754,-0.85978,0.28659,-1.1959,-1.1464,-1.9648e-10,-0.59793,0,0,0.5,-1.1842e-15,0,0.66667
0.016138,0.50406,0.032277,0.0060839,0.028886,9.7266,-0.00051971,0.00016281,-2.0004,-0.00069816,-1.564e-05,-1.0002,0,0,0.5,-7.4015e-17,0,0.66667
0.62443,0.33254,1.2489,-0.25119,-0.68722,2.4154,0.83652,-0.27884,-1.7754,1.1154,-9.1126e-11,-0.8877,0,0,0.5,5.9212e-16,0,0.66667
0.23807,0.99076,0.47614,0.73614,3.6878,6.8932,-0.93467,0.31156,-0.072953,-1.2462,-2.5054e-11,-0.036477,0,0,0.5,2.9606e-16,0,0.66667
0.19454,0.27031,0.38907,-0.34453,-1.6094,7.3649,0.35746,-0.11915,-1.5774,0.47661,-1.4009e-10,-0.78871,0,0,0.5,2.9606e-16,0,0.66667
0.80885,0.463,1.6177,-0.0555,-0.070141,0.9087,0.23942,-0.079807,-1.9891,0.31923,-3.9369e-10,-0.99457,0,0,0.5,5.9212e-16,0,0.66667
0.61735,0.18407,1.2347,-0.47389,-1.3981,2.57,1.5603,-0.5201,-1.2019,2.0804,-9.6366e-11,-0.60094,0,0,0.5,-1.4803e-15,0,0.66667
0.79544,0.85,1.5909,0.525,0.87219,1.1904,-2.2272,0.74241,-1.0202,-2.9696,1.7435e-09,-0.51008,0,0,0.5,-0,-0,0.66667
0.26534,0.7397,0.53069,0.35954,1.621,6.4592,-0.50881,0.1696,-1.5402,-0.67842,-2.8577e-10,-0.7701,0,0,0.5,-2.9606e-16,0,0.66667
0.047177,0.7115,0.094354,0.31725,1.5363,9.3121,-0.079823,0.026608,-1.6423,-0.10643,1.3471e-08,-0.82113,0,0,0.5,-3.7007e-17,0,0.66667
0.85345,0.52958,1.7069,0.044363,0.03848,0.6346,-0.20193,0.06731,-1.9937,-0.26924,2.1126e-09,-0.99685,0,0,0.5,2.9606e-16,0,0.66667
0.76433,0.44983,1.5287,-0.07525,-0.12342,1.2175,0.30675,-0.10225,-1.9795,0.409,-1.453e-10,-0.98975,0,0,0.5,-1.1842e-15,0,0.66667
0.0045005,0.36677,0.0090011,-0.19984,-0.95748,9.8838,0.0047967,-0.0015989,-1.8578,0.0063956,-7.8403e-09,-0.92889,0,0,0.5,4.6259e-18,0,0.66667
0.69985,0.38001,1.3997,-0.17998,-0.39081,1.7354,0.67178,-0.22393,-1.885,0.8957,-1.1023e-10,-0.94252,0,0,0.5,-0,-0,0.66667
0.24166,0.68772,0.48332,0.28158,1.273,6.7492,-0.36292,0.12097,-1.7191,-0.48389,-7.3538e-11,-0.85953,0,0,0.5,5.9212e-16,0,0.66667
0.35967,0.78951,0.71935,0.43426,1.8481,5.3146,-0.83303,0.27768,-1.3295,-1.1107,-1.4726e-10,-0.66474,0,0,0.5,-0,-0,0.66667
0.78074,0.57833,1.5615,0.1175,0.17781,1.1061,-0.48925,0.16308,-1.9505,-0.65233,2.0077e-10,-0.97526,0,0,0.5,-0,-0,0.66667
0.98652,0.59454,1.973,0.14181,-0.059508,0.057766,-0.74613,0.24871,-1.9295,-0.99484,-8.5705e-07,-0.96476,0,0,0.5,-0,-0,0.66667
0.24556,0.09409,0.49113,-0.60886,-2.9304,6.7629,0.79741,-0.2658,-0.68291,1.0632,7.6973e-10,-0.34146,0,0,0.5,-0,-0,0.66667
0.4675,0.46054,0.935,-0.059187,-0.21236,3.9979,0.14757,-0.049191,-1.9875,0.19677,5.8297e-12,-0.99374,0,0,0.5,-2.9606e-16,0,0.66667
0.40034,0.24305,0.80067,-0.38542,-1.5607,4.8209,0.82292,-0.27431,-1.4717,1.0972,8.2608e-11,-0.73585,0,0,0.5,-2.9606e-16,0,0.66667
0.55826,0.97012,1.1165,0.70518,2.5411,3.2733,-2.0996,0.69987,-0.23271,-2.7995,4.1256e-13,-0.11635,0,0,0.5,-0,6.4063e-16,0.66667
0.52926,0.33967,1.0585,-0.2405,-0.79749,3.3537,0.67887,-0.22629,-1.7948,0.90515,-1.7777e-11,-0.89739,0,0,0.5,8.8818e-16,0,0.66667
0.65803,0.67544,1.3161,0.26316,0.6612,2.1147,-0.92356,0.30785,-1.7534,-1.2314,1.2597e-10,-0.87668,0,0,0.5,-1.1842e-15,0,0.66667
0.49673,0.93022,0.99346,0.64534,2.4948,3.8583,-1.7096,0.56988,-0.51918,-2.2795,-1.7553e-13,-0.25959,0,0,0.5,-8.8818e-16,0,0.66667
0.68538,0.31345,1.3708,-0.27982,-0.65082,1.8842,1.0228,-0.34095,-1.7226,1.3638,-1.5564e-10,-0.8613,0,0,0.5,-0,-0,0.66667
0.31286,0.26721,0.62571,-0.34919,-1.5205,5.8637,0.58265,-0.19422,-1.5661,0.77687,2.1402e-10,-0.78304,0,0,0.5,-5.9212e-16,0,0.66667
0.21438,0.67299,0.42875,0.25948,1.1871,7.0982,-0.29668,0.098893,-1.76,-0.39557,6.8507e-11,-0.88,0,0,0.5,-2.9606e-16,0,0.66667
0.90718,0.53264,1.8144,0.048955,0.017784,0.35399,-0.23686,0.078952,-1.9925,-0.31581,7.4742e-08,-0.99624,0,0,0.5,-2.3685e-15,0,0.66667
0.5576,0.59978,1.1152,0.14967,0.46621,3.0443,-0.4451,0.14837,-1.9204,-0.59347,2.5226e-11,-0.96018,0,0,0.5,-0,-0,0.66667
0.029017,0.013314,0.058035,-0.73003,-3.8678,9.5665,0.11298,-0.037658,-0.10462,0.15064,3.0036e-06,-0.052309,0,0,0.5,-1.4803e-16,0,0.66667
0.12197,0.56446,0.24393,0.096696,0.45257,8.3054,-0.0629,0.020967,-1.9675,-0.083866,4.6558e-09,-0.98375,0,0,0.5,-0,-0,0.66667
0.6814,0.32724,1.3628,-0.25913,-0.60724,1.9111,0.94172,-0.31391,-1.7606,1.2556,-1.4175e-10,-0.88029,0,0,0.5,-0,-0,0.66667
0.80871,0.53475,1.6174,0.052121,0.065916,0.90936,-0.2248,0.074934,-1.9908,-0.29974,3.9449e-10,-0.99539,0,0,0.5,2.3685e-15,0,0.66667
0.82348,0.99343,1.647,0.74015,1.2593,1.2139,-3.2506,1.0835,-0.052157,-4.3342,9.2547e-11,-0.026079,0,0,0.5,3.5527e-15,0,0.66667
0.4331,0.96494,0.86619,0.69741,2.9668,4.5737,-1.6109,0.53697,-0.27102,-2.1479,-1.2274e-12,-0.13551,0,0,0.5,4.2428e-16,0,0.66667
0.58043,0.8931,1.1609,0.58965,1.954,2.9833,-1.8254,0.60845,-0.76329,-2.4338,2.1263e-11,-0.38164,0,0,0.5,-5.9212e-16,0,0.66667
0.80756,0.54538,1.6151,0.068067,0.086895,0.91822,-0.29317,0.097722,-1.9829,-0.39089,3.7135e-10,-0.99145,0,0,0.5,1.1842e-15,0,0.66667
0.95758,0.17055,1.9152,-0.49418,-0.055731,0.34697,2.5238,-0.84128,-1.1311,3.3651,-2.7178e-08,-0.56554,0,0,0.5,-0,-0,0.66667
0.87975,0.007039,1.7595,-0.73944,-0.87937,0.91634,3.4695,-1.1565,-0.055804,4.6259,-1.3583e-08,-0.027902,0,0,0.5,-0,-0,0.66667
0.38851,0.84028,0.77702,0.51042,2.1515,4.998,-1.0576,0.35254,-1.0742,-1.4102,-7.5385e-11,-0.53711,0,0,0.5,7.4015e-16,0,0.66667
0.96148,0.032333,1.923,-0.7015,-0.23144,0.54532,3.5972,-1.1991,-0.2511,4.7963,-4.8937e-07,-0.12555,0,0,0.5,-0,-0,0.66667
0.13705,0.30939,0.2741,-0.28591,-1.3537,8.1134,0.20898,-0.069659,-1.7099,0.27864,-2.6511e-10,-0.85493,0,0,0.5,-2.2204e-16,0,0.66667
0.90874,0.8535,1.8175,0.53024,0.33791,0.57182,-2.5699,0.85663,-1,-3.4265,-1.347e-08,-0.50002,0,0,0.5,-0,-0,0.66667
0.52131,0.26241,1.0426,-0.35639,-1.2232,3.4693,0.99088,-0.33029,-1.5478,1.3212,-1.4058e-11,-0.77391,0,0,0.5,-0,-0,0.66667
0.71489,0.51258,1.4298,0.018864,0.038192,1.5927,-0.071924,0.023975,-1.9982,-0.095899,1.9457e-11,-0.9991,0,0,0.5,-0,-0,0.66667
0.78467,0.85618,1.5693,0.53426,0.9415,1.2683,-2.2358,0.74528,-0.98461,-2.9811,1.5378e-09,-0.4923,0,0,0.5,-0,-0,0.66667
0.33468,0.95295,0.66936,0.67943,3.1467,5.6969,-1.2128,0.40425,-0.35799,-1.617,-2.9587e-11,-0.17899,0,0,0.5,-5.9212e-16,0,0.66667
0.87769,0.17375,1.7554,-0.48937,-0.4355,0.68647,2.2908,-0.76358,-1.148,3.0543,1.9125e-09,-0.57399,0,0,0.5,-1.1842e-15,0,0.66667
0.25801,0.39871,0.51602,-0.15194,-0.67141,6.5277,0.20908,-0.069694,-1.9177,0.27878,1.1805e-10,-0.95885,0,0,0.5,-1.4329e-16,0,0.66667
0.083575,0.99267,0.16715,0.73901,3.9013,8.8588,-0.3294,0.1098,-0.058038,-0.4392,-5.2557e-08,-0.029019,0,0,0.5,-1.4803e-16,0,0.66667
0.75937,0.67058,1.5187,0.25587,0.44584,1.2941,-1.0363,0.34542,-1.7666,-1.3817,6.6399e-11,-0.88329,0,0,0.5,1.1842e-15,0,0.66667
0.89508,0.6414,1.7902,0.2121,0.11108,0.44636,-1.0125,0.3375,-1.8394,-1.35,-9.3916e-11,-0.91972,0,0,0.5,1.1842e-15,0,0.66667
0.92645,0.20862,1.8529,-0.43707,-0.16192,0.422,2.1596,-0.71986,-1.3204,2.8794,4.2235e-09,-0.66019,0,0,0.5,-1.1842e-15,0,0.66667
0.37407,0.017349,0.74814,-0.72398,-3.2921,5.2549,1.4444,-0.48146,-0.13598,1.9258,1.7928e-12,-0.067992,0,0,0.5,-1.1842e-15,-5.8491e-16,0.66667
0.34146,0.90198,0.68292,0.60297,2.7165,5.5866,-1.0981,0.36603,-0.7077,-1.4641,-9.3363e-11,-0.35385,0,0,0.5,-0,2.9064e-16,0.66667
0.25569,0.40847,0.51137,-0.13729,-0.60694,6.5564,0.18721,-0.062405,-1.9336,0.24962,1.238e-10,-0.96679,0,0,0.5,5.9212e-16,0,0.66667
0.47079,0.10481,0.94158,-0.59278,-2.331,4.1068,1.4884,-0.49614,-0.75027,1.9845,5.1834e-12,-0.37513,0,0,0.5,-0,-0,0.66667
0.96717,0.76345,1.9343,0.39517,-0.030426,0.23863,-2.0384,0.67947,-1.4443,-2.7179,1.1241e-08,-0.72216,0,0,0.5,-0,-0,0.66667
0.49887,0.13493,0.99773,-0.5476,-2.0446,3.7842,1.457,-0.48565,-0.93359,1.9426,2.8455e-13,-0.46679,0,0,0.5,-0,-0,0.66667
0.23907,0.0486,0.47815,-0.6771,-3.3317,6.863,0.86334,-0.28778,-0.3693,1.1511,3.5098e-10,-0.18465,0,0,0.5,-0,-0,0.66667
0.20791,0.67548,0.41583,0.26322,1.2085,7.1824,-0.29188,0.097293,-1.7531,-0.38917,1.1719e-10,-0.87656,0,0,0.5,2.9606e-16,0,0.66667
0.92671,0.2321,1.8534,-0.40186,-0.13553,0.39658,1.9862,-0.66205,-1.4252,2.6482,-1.5503e-09,-0.71261,0,0,0.5,-0,-0,0.66667
0.68793,0.44692,1.3759,-0.079618,-0.17776,1.8188,0.29212,-0.097372,-1.9773,0.38949,-5.7224e-11,-0.98867,0,0,0.5,-0,-0,0.66667
0.70478,0.51191,1.4096,0.017863,0.037531,1.6748,-0.067145,0.022382,-1.9985,-0.089526,1.6489e-11,-0.99924,0,0,0.5,-2.3685e-15,0,0.66667
0.5889,0.30196,1.1778,-0.29706,-0.88876,2.7667,0.93299,-0.311,-1.6858,1.244,-6.656e-11,-0.8429,0,0,0.5,-0,-0,0.66667
0.61873,0.89418,1.2375,0.59128,1.8157,2.6261,-1.9511,0.65038,-0.75637,-2.6015,4.6517e-11,-0.37818,0,0,0.5,-0,-0,0.66667
0.045998,0.26669,0.091995,-0.34996,-1.7028,9.3288,0.085852,-0.028617,-1.5641,0.11447,2.0175e-09,-0.78207,0,0,0.5,-0,-0,0.66667
0.35616,0.15751,0.71232,-0.51374,-2.2333,5.3805,0.97586,-0.32529,-1.0625,1.3011,1.3366e-10,-0.53124,0,0,0.5,-0,-0,0.66667
0.079759,0.31915,0.15952,-0.27128,-1.3001,8.8747,0.1154,-0.038465,-1.7384,0.15386,7.0627e-09,-0.86922,0,0,0.5,-0,-0,0.66667
0.32577,0.26516,0.65154,-0.35227,-1.5192,5.7054,0.61204,-0.20401,-1.5583,0.81606,1.9453e-10,-0.77913,0,0,0.5,-0,-0,0.66667
0.71057,0.86564,1.4211,0.54846,1.2994,1.8174,-2.0785,0.69283,-0.93006,-2.7713,4.0034e-10,-0.46503,0,0,0.5,-0,-0,0.66667
0.072478,0.94864,0.14496,0.67296,3.4938,8.9965,-0.26013,0.086711,-0.38925,-0.34684,-2.5928e-08,-0.19463,0,0,0.5,-0,-0,0.66667
0.89901,0.46539,1.798,-0.051917,-0.022959,0.39343,0.24893,-0.082976,-1.9908,0.3319,3.0036e-09,-0.9954,0,0,0.5,1.1842e-15,0,0.66667
0.35431,0.52119,0.70862,0.031781,0.12972,5.3197,-0.060054,0.020018,-1.996,-0.080073,-1.6663e-11,-0.99799,0,0,0.5,-0,-0,0.66667
0.089774,0.16373,0.17955,-0.5044,-2.5073,8.7554,0.24151,-0.080502,-1.0953,0.32201,-1.8684e-08,-0.54763,0,0,0.5,-0,-0,0.66667
0.10048,0.3792,0.20095,-0.1812,-0.85712,8.5945,0.097102,-0.032367,-1.8835,0.12947,6.7758e-10,-0.94175,0,0,0.5,-2.9606e-16,0,0.66667
0.14697,0.39758,0.29395,-0.15364,-0.71583,7.9747,0.12043,-0.040143,-1.9157,0.16057,3.7178e-10,-0.95787,0,0,0.5,-1.4803e-16,0,0.66667
0.70481,0.67651,1.4096,0.26476,0.57543,1.7183,-0.99523,0.33174,-1.7504,-1.327,1.529e-10,-0.87522,0,0,0.5,-0,-0,0.66667
0.94314,0.62989,1.8863,0.19483,0.0088203,0.22676,-0.98003,0.32668,-1.8652,-1.3067,-1.033e-07,-0.93259,0,0,0.5,-0,-0,0.66667
0.76054,0.50738,1.5211,0.011072,0.018432,1.2414,-0.04491,0.01497,-1.9994,-0.05988,2.4289e-11,-0.9997,0,0,0.5,-0,-0,0.66667
0.39221,0.48698,0.78442,-0.019537,-0.076778,4.8643,0.040867,-0.013622,-1.9982,0.054489,7.0148e-12,-0.99911,0,0,0.5,-0,-0,0.66667
0.76781,0.75678,1.5356,0.38517,0.67775,1.2896,-1.5773,0.52575,-1.4726,-2.103,3.4803e-10,-0.73628,0,0,0.5,-0,-0,0.66667
0.83593,0.072058,1.6719,-0.64191,-0.9311,1.0425,2.8618,-0.95395,-0.5345,3.8158,-4.5522e-09,-0.26725,0,0,0.5,-0,-0,0.66667
0.061478,0.8206,0.12296,0.4809,2.3899,9.128,-0.15768,0.052559,-1.1777,-0.21024,-7.6644e-09,-0.58884,0,0,0.5,-0,-0,0.66667
0.31055,0.99724,0.62109,0.74587,3.5895,6.0121,-1.2353,0.41178,-0.022647,-1.6471,3.6566e-12,-0.011324,0,0,0.5,-8.8818e-16,0,0.66667
0.74228,0.9939,1.4846,0.74086,1.7637,1.74,-2.9329,0.97764,-0.048433,-3.9105,9.0261e-13,-0.024216,0,0,0.5,-0,-0,0.66667
0.26043,0.072377,0.52085,-0.64143,-3.0885,6.5867,0.89092,-0.29697,-0.5367,1.1879,3.688e-10,-0.26835,0,0,0.5,-0,-0,0.66667
0.91053,0.052706,1.8211,-0.67094,-0.5335,0.70068,3.2582,-1.0861,-0.39905,4.3443,-4.5833e-08,-0.19953,0,0,0.5,-0,-0,0.66667
0.24225,0.72889,0.4845,0.34334,1.5654,6.75,-0.44359,0.14786,-1.5804,-0.59146,-2.1307e-10,-0.7902,0,0,0.5,-0,-0,0.66667
0.78725,0.76106,1.5745,0.39159,0.62798,1.1587,-1.6442,0.54805,-1.4543,-2.1922,3.1092e-10,-0.72713,0,0,0.5,-0,-0,0.66667
0.39894,0.64504,0.79789,0.21756,0.85941,4.8013,-0.4629,0.1543,-1.8312,-0.6172,-6.3711e-11,-0.91559,0,0,0.5,5.9212e-16,0,0.66667
0.88796,0.10982,1.7759,-0.58527,-0.52677,0.71671,2.7717,-0.92391,-0.78153,3.6956,-4.5141e-09,-0.39076,0,0,0.5,-0,-0,0.66667
0.28813,0.41267,0.57626,-0.131,-0.56657,6.1442,0.2013,-0.0671,-1.9389,0.2684,9.8115e-11,-0.96945,0,0,0.5,-0,-0,0.66667
0.57639,0.28541,1.1528,-0.32189,-0.99322,2.8971,0.98952,-0.32984,-1.632,1.3194,-5.7106e-11,-0.81602,0,0,0.5,-0,-0,0.66667
0.015374,0.97498,0.030748,0.71246,3.7583,9.7438,-0.058425,0.019473,-0.19542,-0.077901,-2.8774e-06,-0.097709,0,0,0.5,-0,-0,0.66667
0.80519,0.4797,1.6104,-0.030446,-0.039377,0.93116,0.13074,-0.043581,-1.9962,0.17433,-2.2881e-10,-0.99809,0,0,0.5,-0,-0,0.66667
0.033564,0.84901,0.067128,0.52351,2.6323,9.4996,-0.093714,0.031238,-1.0258,-0.12495,6.0855e-08,-0.51289,0,0,0.5,-0,-0,0.66667
0.64091,0.62328,1.2818,0.18493,0.47983,2.2477,-0.63211,0.2107,-1.8794,-0.84282,8.2228e-11,-0.93969,0,0,0.5,1.4803e-16,0,0.66667
0.56365,0.89242,1.1273,0.58864,2.0102,3.1455,-1.7695,0.58984,-0.76761,-2.3594,1.4786e-11,-0.3838,0,0,0.5,-5.9212e-16,0,0.66667
0.92841,0.097254,1.8568,-0.60412,-0.32104,0.55737,2.9913,-0.9971,-0.70273,3.9884,-3.8799e-08,-0.35136,0,0,0.5,-0,-0,0.66667
0.91911,0.48623,1.8382,-0.020661,-0.0050606,0.29743,0.10128,-0.03376,-1.998,0.13504,-2.9834e-08,-0.99898,0,0,0.5,9.5789e-17,0,0.66667
0.24888,0.1898,0.49776,-0.4653,-2.1609,6.6873,0.61762,-0.20587,-1.231,0.82349,7.0907e-10,-0.61551,0,0,0.5,-0,-0,0.66667
0.26552,0.39479,0.53103,-0.15782,-0.69438,6.4324,0.22349,-0.074496,-1.9112,0.29798,1.1435e-10,-0.9556,0,0,0.5,-2.9606e-16,0,0.66667
0.65743,0.069376,1.3149,-0.64594,-1.8587,2.3233,2.2648,-0.75494,-0.5166,3.0198,-4.8706e-11,-0.2583,0,0,0.5,-0,-0,0.66667
0.28227,0.29315,0.56454,-0.31028,-1.373,6.2379,0.46711,-0.1557,-1.6574,0.62281,1.9641e-10,-0.82868,0,0,0.5,-0,-0,0.66667
0.17582,0.39995,0.35165,-0.15008,-0.69164,7.5937,0.14073,-0.046911,-1.9199,0.18764,2.08e-10,-0.95996,0,0,0.5,1.4803e-16,0,0.66667
0.17263,0.92572,0.34526,0.63858,3.2018,7.6948,-0.58793,0.19598,-0.5498,-0.78391,-3.7628e-09,-0.2749,0,0,0.5,-2.9606e-16,0,0.66667
0.027872,0.40841,0.055744,-0.13738,-0.65467,9.5687,0.020421,-0.0068062,-1.9336,0.027229,1.2764e-06,-0.9668,0,0,0.5,-0,-0,0.66667
0.46709,0.0049423,0.93417,-0.74259,-3.0879,4.23,1.8499,-0.61663,-0.039666,2.4665,-1.2434e-14,-0.019833,0,0,0.5,-0,-0,0.66667
0.48856,0.11444,0.97713,-0.57834,-2.2115,3.9087,1.507,-0.50232,-0.81034,2.0093,2.33e-12,-0.40517,0,0,0.5,5.9212e-16,0,0.66667
0.42371,0.52207,0.84742,0.033105,0.12559,4.4952,-0.07481,0.024937,-1.9959,-0.099747,-8.1536e-12,-0.99795,0,0,0.5,-0,-0,0.66667
0.98837,0.83094,1.9767,0.49641,-0.10147,0.2509,-2.6167,0.87225,-1.1233,-3.489,-7.6703e-08,-0.56163,0,0,0.5,-0,-0,0.66667
0.64354,0.43627,1.2871,-0.095602,-0.24386,2.2095,0.32813,-0.10938,-1.9684,0.4375,-4.7475e-11,-0.9842,0,0,0.5,-7.4015e-17,0,0.66667
0.56225,0.96832,1.1245,0.70247,2.5119,3.2326,-2.1065,0.70217,-0.24668,-2.8087,4.9005e-13,-0.12334,0,0,0.5,1.6653e-16,-3.2433e-17,0.66667
0.086457,0.071829,0.17291,-0.64226,-3.2999,8.8113,0.29615,-0.098715,-0.53296,0.39486,5.44e-08,-0.26648,0,0,0.5,-0,-0,0.66667
0.45235,0.17326,0.90471,-0.49011,-1.9152,4.2634,1.1824,-0.39413,-1.1455,1.5765,2.2989e-11,-0.57277,0,0,0.5,-5.9212e-16,-1.2289e-16,0.66667
0.069724,0.16381,0.13945,-0.50429,-2.5153,9.0201,0.18752,-0.062508,-1.0956,0.25003,5.7007e-09,-0.54779,0,0,0.5,-0,-0,0.66667
0.48716,0.80888,0.97431,0.46332,1.7175,3.8719,-1.2038,0.40126,-1.2372,-1.605,-6.4643e-12,-0.61861,0,0,0.5,-1.4803e-16,0,0.66667
0.01559,0.68949,0.031181,0.28424,1.3736,9.7351,-0.023634,0.0078782,-1.7137,-0.031512,6.9337e-08,-0.85684,0,0,0.5,-0,-0,0.66667
0.14153,0.99532,0.28305,0.74299,3.8752,8.1134,-0.56081,0.18694,-0.037643,-0.74775,2.0783e-09,-0.018821,0,0,0.5,4.4409e-16,0,0.66667
0.61893,0.79952,1.2379,0.44927,1.3102,2.543,-1.483,0.49434,-1.2817,-1.9774,1.0389e-10,-0.64086,0,0,0.5,1.1842e-15,0,0.66667
0.67615,0.453,1.3523,-0.070506,-0.16335,1.9185,0.25425,-0.084752,-1.9817,0.33901,-4.6264e-11,-0.99086,0,0,0.5,-0,-0,0.66667
0.60372,0.039058,1.2074,-0.69141,-2.2829,2.8331,2.2263,-0.74209,-0.30003,2.9683,-4.3872e-12,-0.15002,0,0,0.5,-0,-0,0.66667
0.25097,0.0015909,0.50195,-0.74761,-3.7334,6.7372,1.0007,-0.33357,-0.013657,1.3343,-2.6925e-11,-0.0068285,0,0,0.5,-0,-0,0.66667
0.066186,0.65806,0.13237,0.23709,1.1345,9.0553,-0.083692,0.027897,-1.8009,-0.11159,-2.0506e-09,-0.90044,0,0,0.5,1.4803e-16,0,0.66667
0.67727,0.69347,1.3545,0.29021,0.69387,1.9565,-1.0483,0.34943,-1.7005,-1.3977,1.5716e-10,-0.85027,0,0,0.5,-0,-0,0.66667
0.76834,0.83041,1.5367,0.49562,0.91998,1.3524,-2.031,0.67698,-1.1261,-2.7079,1.0211e-09,-0.56306,0,0,0.5,-0,-0,0.66667
0.11928,0.61932,0.23855,0.17898,0.84251,8.3437,-0.11385,0.037951,-1.8861,-0.1518,3.6428e-09,-0.94307,0,0,0.5,-7.4015e-17,0,0.66667
0.73956,0.43683,1.4791,-0.094753,-0.17456,1.4045,0.37374,-0.12458,-1.969,0.49831,-1.1465e-10,-0.9845,0,0,0.5,-1.1295e-15,0,0.66667
0.77319,0.22674,1.5464,-0.40989,-0.71153,1.2653,1.6903,-0.56342,-1.4023,2.2537,-4.8566e-10,-0.70117,0,0,0.5,-2.3685e-15,0,0.66667
0.10997,0.99691,0.21995,0.74537,3.9219,8.5189,-0.43717,0.14573,-0.025314,-0.5829,2.0792e-08,-0.012657,0,0,0.5,-4.4409e-16,0,0.66667
0.48647,0.34491,0.97294,-0.23263,-0.82445,3.8098,0.60357,-0.20119,-1.8085,0.80476,8.0153e-12,-0.90427,0,0,0.5,-1.1842e-15,0,0.66667
0.005725,0.5176,0.01145,0.026396,0.1254,9.8672,-0.0008061,0.00028069,-1.9969,-0.0010688,1.7986e-05,-0.99846,0,0,0.5,-0,-0,0.66667
0.62591,0.6763,1.2518,0.26446,0.72279,2.4054,-0.88281,0.29427,-1.751,-1.1771,9.6174e-11,-0.87552,0,0,0.5,-5.9212e-16,0,0.66667
0.85898,0.92844,1.718,0.64266,0.79888,0.91703,-2.9442,0.98139,-0.53145,-3.9256,8.6998e-09,-0.26572,0,0,0.5,-5.9212e-16,4.8767e-16,0.66667
0.86017,0.92623,1.7203,0.63934,0.78497,0.90754,-2.933,0.97768,-0.54635,-3.9107,8.8635e-09,-0.27318,0,0,0.5,-0,-0,0.66667
0.93728,0.49991,1.8746,-0.00014202,-9.0319e-06,0.2188,0.00070992,-0.00023623,-2.0013,0.00094676,6.1875e-07,-1.0007,0,0,0.5,-1.3878e-15,0,0.66667
0.78384,0.16209,1.5677,-0.50686,-0.88175,1.254,2.1189,-0.70631,-1.0867,2.8252,-1.3405e-09,-0.54334,0,0,0.5,-2.3685e-15,0,0.66667
0.43204,0.63106,0.86408,0.19659,0.74596,4.4135,-0.45298,0.15099,-1.8626,-0.60397,-3.7661e-11,-0.93129,0,0,0.5,-1.1842e-15,0,0.66667
0.77402,0.82197,1.548,0.48296,0.86772,1.3045,-1.9937,0.66457,-1.1702,-2.6583,1.0069e-09,-0.58512,0,0,0.5,-0,-0,0.66667
0.98356,0.79208,1.9671,0.43813,-0.092142,0.21728,-2.2983,0.76608,-1.3172,-3.0643,3.2513e-08,-0.65862,0,0,0.5,-0,-0,0.66667
0.36725,0.30389,0.7345,-0.29416,-1.2121,5.1909,0.57617,-0.19206,-1.692,0.76822,1.1152e-10,-0.846,0,0,0.5,2.9606e-16,0,0.66667
0.035895,0.38261,0.07179,-0.17608,-0.84084,9.461,0.033709,-0.011236,-1.8896,0.044945,-5.427e-08,-0.94479,0,0,0.5,-0,-0,0.66667
0.50774,0.93897,1.0155,0.65846,2.5184,3.751,-1.7831,0.59436,-0.45916,-2.3774,3.2574e-13,-0.22958,0,0,0.5,-0,-0,0.66667
0.3525,0.28517,0.705,-0.32224,-1.3518,5.374,0.60581,-0.20194,-1.6311,0.80774,1.3893e-10,-0.81554,0,0,0.5,-1.1842e-15,0,0.66667
0.17606,0.8255,0.35212,0.48825,2.3592,7.6243,-0.45847,0.15282,-1.1518,-0.61129,-1.3472e-09,-0.57592,0,0,0.5,-0,-0,0.66667
0.9343,0.093621,1.8686,-0.60957,-0.29245,0.53976,3.0374,-1.0125,-0.67996,4.0499,8.5606e-08,-0.33998,0,0,0.5,-1.6943e-15,-5.9698e-16,0.66667
0.11962,0.29154,0.23924,-0.31269,-1.4931,8.3461,0.19949,-0.066496,-1.6519,0.26598,-1.1531e-09,-0.82595,0,0,0.5,-0,-0,0.66667
0.65426,0.067241,1.3085,-0.64914,-1.8851,2.3528,2.2651,-0.75503,-0.50209,3.0201,-4.2027e-11,-0.25104,0,0,0.5,-0,-0,0.66667
0.16873,0.39863,0.33746,-0.15206,-0.70284,7.6871,0.13684,-0.045613,-1.9177,0.18245,-8.9707e-13,-0.95884,0,0,0.5,-1.4803e-16,0,0.66667
0.79644,0.5388,1.5929,0.058205,0.079765,0.99117,-0.24723,0.082411,-1.988,-0.32965,2.5991e-10,-0.99401,0,0,0.5,-0,-0,0.66667
0.25811,0.11011,0.51621,-0.58483,-2.7776,6.5996,0.80505,-0.26835,-0.78324,1.0734,6.5106e-10,-0.39162,0,0,0.5,-0,-0,0.66667
0.69801,0.40249,1.396,-0.14627,-0.31794,1.7438,0.54451,-0.1815,-1.9243,0.72601,-9.7498e-11,-0.96214,0,0,0.5,1.4803e-15,0,0.66667
0.62789,0.78602,1.2558,0.42902,1.2177,2.4508,-1.4367,0.4789,-1.3458,-1.9156,1.2316e-10,-0.67292,0,0,0.5,-2.3685e-15,0,0.66667
0.7158,0.76846,1.4316,0.40269,0.88011,1.6884,-1.5373,0.51244,-1.4229,-2.0498,3.476e-10,-0.71146,0,0,0.5,-1.1842e-15,0,0.66667
0.25083,0.34714,0.50166,-0.22928,-1.0247,6.6261,0.30673,-0.10224,-1.8137,0.40897,8.6797e-11,-0.90685,0,0,0.5,-0,-0,0.66667
0.50402,0.10931,1.008,-0.58603,-2.1984,3.7492,1.5753,-0.52511,-0.77829,2.1004,-7.9758e-13,-0.38915,0,0,0.5,-0,-0,0.66667
0.34213,0.071777,0.68427,-0.64233,-2.9249,5.5935,1.1721,-0.39069,-0.53281,1.5628,5.3055e-11,-0.26641,0,0,0.5,-0,4.9439e-16,0.66667
0.1803,0.45204,0.3606,-0.071934,-0.3296,7.5321,0.069171,-0.023057,-1.9809,0.092229,5.6618e-10,-0.99047,0,0,0.5,-2.9606e-16,0,0.66667
0.47551,0.66229,0.95101,0.24344,0.87774,3.9324,-0.61738,0.20579,-1.7893,-0.82317,-1.4864e-11,-0.89463,0,0,0.5,-1.1842e-15,0,0.66667
0.91212,0.0070378,1.8242,-0.73944,-0.65061,0.77225,3.5971,-1.199,-0.055764,4.7962,-1.1016e-07,-0.027882,0,0,0.5,-0,-0,0.66667
0.56794,0.72272,1.1359,0.33408,1.0508,2.9849,-1.0119,0.33731,-1.6035,-1.3492,4.9863e-11,-0.80174,0,0,0.5,1.1842e-15,0,0.66667
0.63089,0.86916,1.2618,0.55374,1.6309,2.4922,-1.8632,0.62106,-0.90979,-2.4842,8.3192e-11,-0.4549,0,0,0.5,-0,-0,0.66667
0.54925,0.27158,1.0985,-0.34263,-1.1179,3.176,1.0037,-0.33456,-1.5823,1.3382,-3.4331e-11,-0.79116,0,0,0.5,-5.9212e-16,0,0.66667
0.04503,0.67377,0.09006,0.26065,1.2536,9.3396,-0.062598,0.020866,-1.758,-0.083465,-3.9563e-09,-0.87899,0,0,0.5,7.4015e-17,0,0.66667
0.86867,0.98423,1.7373,0.72634,0.92439,0.9554,-3.3651,1.1217,-0.12352,-4.4868,1.3006e-09,-0.06176,0,0,0.5,2.0574e-15,0,0.66667
0.12479,0.15424,0.24959,-0.51864,-2.5651,8.2965,0.34519,-0.11506,-1.0445,0.46025,-2.5548e-09,-0.52227,0,0,0.5,-3.7007e-17,6.6088e-16,0.66667
0.73641,0.81132,1.4728,0.46697,0.97313,1.5656,-1.834,0.61135,-1.2256,-2.4454,5.9847e-10,-0.61281,0,0,0.5,-2.9606e-16,0,0.66667
0.45176,0.65296,0.90352,0.22943,0.85262,4.1947,-0.55279,0.18426,-1.8134,-0.73706,-2.9095e-11,-0.90672,0,0,0.5,-0,-0,0.66667
0.71027,0.3137,1.4205,-0.27946,-0.59814,1.6791,1.0586,-0.35287,-1.7231,1.4115,-1.617e-10,-0.86155,0,0,0.5,-0,-0,0.66667
0.86113,0.44997,1.7223,-0.075042,-0.060107,0.59396,0.34464,-0.11488,-1.9796,0.45952,-2.438e-09,-0.98978,0,0,0.5,-0,-0,0.66667
0.69657,0.46552,1.3931,-0.051721,-0.11197,1.7441,0.19215,-0.064049,-1.9909,0.25619,-4.2505e-11,-0.99545,0,0,0.5,-1.7764e-15,0,0.66667
0.8539,0.69472,1.7078,0.29208,0.27738,0.69528,-1.3302,0.44339,-1.6965,-1.7736,-1.0084e-09,-0.84826,0,0,0.5,-0,-0,0.66667
0.48707,0.91018,0.97414,0.61527,2.3856,3.9437,-1.5983,0.53276,-0.65444,-2.1311,-1.5189e-12,-0.32722,0,0,0.5,-0,-0,0.66667
0.091798,0.17658,0.1836,-0.48514,-2.401,8.7271,0.23752,-0.079172,-1.1628,0.31669,-5.044e-09,-0.58142,0,0,0.5,-1.4803e-16,0,0.66667
0.37859,0.86533,0.75718,0.54799,2.3547,5.1275,-1.1065,0.36882,-0.93197,-1.4753,-7.2206e-11,-0.46598,0,0,0.5,-5.9212e-16,0,0.66667
0.19142,0.84459,0.38284,0.51689,2.4974,7.4307,-0.52769,0.1759,-1.051,-0.70358,-1.9091e-09,-0.52549,0,0,0.5,-0,-0,0.66667
0.76352,0.74686,1.527,0.3703,0.66028,1.3126,-1.5079,0.50262,-1.5131,-2.0105,2.8601e-10,-0.75653,0,0,0.5,1.4803e-15,0,0.66667
0.69537,0.86598,1.3907,0.54896,1.3634,1.9387,-2.0359,0.67864,-0.92812,-2.7145,2.9785e-10,-0.46406,0,0,0.5,-0,-0,0.66667
0.57953,0.73197,1.1591,0.34795,1.0732,2.8752,-1.0755,0.35849,-1.5691,-1.434,6.0573e-11,-0.78455,0,0,0.5,-0,-0,0.66667
0.76884,0.2495,1.5377,-0.37575,-0.65524,1.2775,1.5408,-0.51359,-1.499,2.0544,-2.9025e-10,-0.74951,0,0,0.5,5.181e-16,0,0.66667
0.36936,0.33561,0.73873,-0.24659,-1.0074,5.1572,0.48576,-0.16192,-1.7835,0.64768,9.5306e-11,-0.89177,0,0,0.5,-2.9606e-16,0,0.66667
0.36918,0.26958,0.73835,-0.34564,-1.4333,5.1787,0.68054,-0.22685,-1.5747,0.90738,1.2162e-10,-0.78735,0,0,0.5,5.9212e-16,0,0.66667
0.70021,0.80624,1.4004,0.45936,1.0813,1.8436,-1.7154,0.57181,-1.2498,-2.2873,3.5481e-10,-0.62491,0,0,0.5,-0,-0,0.66667
0.4523,0.48638,0.90461,-0.020432,-0.074768,4.1675,0.049289,-0.01643,-1.9981,0.065718,3.0152e-12,-0.99906,0,0,0.5,-0,-0,0.66667
0.81192,0.41743,1.6238,-0.12386,-0.15485,0.89766,0.53634,-0.17878,-1.9452,0.71513,-3.6222e-10,-0.9726,0,0,0.5,2.3685e-15,0,0.66667
0.15461,0.13783,0.30922,-0.54326,-2.6775,7.9109,0.44796,-0.14932,-0.95024,0.59729,3.4279e-09,-0.47512,0,0,0.5,-0,-2.0573e-16,0.66667
0.58986,0.062843,1.1797,-0.65574,-2.1903,2.9365,2.0629,-0.68763,-0.47219,2.7505,-7.7005e-12,-0.23609,0,0,0.5,-0,-0,0.66667
0.37357,0.91616,0.74714,0.62424,2.7528,5.216,-1.2437,0.41457,-0.61426,-1.6583,-3.5948e-11,-0.30713,0,0,0.5,-0,-5.1289e-16,0.66667
0.24708,0.90333,0.49416,0.605,2.9064,6.7429,-0.79724,0.26575,-0.69917,-1.063,-7.5523e-10,-0.34958,0,0,0.5,7.4015e-17,0,0.66667
0.25433,0.54885,0.50866,0.073281,0.32322,6.5707,-0.099401,0.033134,-1.9803,-0.13253,-1.0119e-10,-0.99016,0,0,0.5,-0,-0,0.66667
0.74375,0.974,1.4875,0.711,1.6524,1.7009,-2.8203,0.94009,-0.20269,-3.7604,6.216e-11,-0.10135,0,0,0.5,-0,-0,0.66667
0.32886,0.76158,0.65773,0.39237,1.7001,5.6762,-0.68819,0.2294,-1.4523,-0.91758,-2.1154e-10,-0.72616,0,0,0.5,-0,-0,0.66667
0.22792,0.93173,0.45583,0.6476,3.1783,6.9946,-0.78719,0.2624,-0.50887,-1.0496,-7.719e-10,-0.25443,0,0,0.5,-3.0914e-16,0,0.66667
0.90536,0.10871,1.8107,-0.58694,-0.4318,0.63792,2.8341,-0.94469,-0.7747,3.7788,-2.4263e-09,-0.38735,0,0,0.5,-0,-0,0.66667
0.41629,0.82019,0.83259,0.48029,1.9523,4.6663,-1.0663,0.35545,-1.1796,-1.4218,-5.1883e-11,-0.58981,0,0,0.5,-0,-0,0.66667
0.5344,0.68411,1.0688,0.27616,0.913,3.3089,-0.7871,0.26237,-1.7293,-1.0495,2.2439e-11,-0.86466,0,0,0.5,-7.4015e-16,0,0.66667
0.37206,0.68099,0.74412,0.27149,1.1099,5.1291,-0.53872,0.17957,-1.738,-0.71829,-1.0024e-10,-0.86898,0,0,0.5,-2.9606e-16,0,0.66667
0.23386,0.78922,0.46771,0.43383,2.0188,6.872,-0.54108,0.18036,-1.3308,-0.72144,-6.2535e-10,-0.66542,0,0,0.5,-0,-0,0.66667
0.10234,0.046824,0.20469,-0.67976,-3.5166,8.6087,0.37104,-0.12368,-0.35638,0.49472,2.5371e-08,-0.17819,0,0,0.5,-1.4803e-16,0,0.66667
0.055182,0.11138,0.11036,-0.58293,-2.9648,9.2168,0.17156,-0.057186,-0.79116,0.22874,-1.0325e-07,-0.39558,0,0,0.5,-0,-0,0.66667
0.87287,0.84851,1.7457,0.52276,0.50703,0.73731,-2.4336,0.81121,-1.0287,-3.2448,-7.3196e-10,-0.51433,0,0,0.5,-2.3685e-15,0,0.66667
0.17297,0.49719,0.34594,-0.0042215,-0.019375,7.6278,0.0038943,-0.0012981,-2.0006,0.0051924,4.7621e-10,-1.0003,0,0,0.5,5.181e-16,0,0.66667
0.53895,0.14865,1.0779,-0.52702,-1.8387,3.3583,1.5149,-0.50496,-1.0122,2.0198,-1.4328e-11,-0.5061,0,0,0.5,-5.9212e-16,0,0.66667
0.97872,0.76989,1.9574,0.40483,-0.076447,0.20765,-2.1132,0.70439,-1.4168,-2.8176,-1.3464e-08,-0.70838,0,0,0.5,-0,-0,0.66667
0.16733,0.61453,0.33466,0.1718,0.79565,7.7065,-0.15332,0.051106,-1.8946,-0.20442,-1.6148e-11,-0.94731,0,0,0.5,-0,-0,0.66667
0.59576,0.51283,1.1915,0.019248,0.054997,2.6537,-0.061158,0.020386,-1.9982,-0.081545,6.0495e-12,-0.99912,0,0,0.5,-0,-0,0.66667
0.75137,0.4879,1.5027,-0.018156,-0.031577,1.3094,0.072755,-0.024252,-1.9985,0.097007,-3.1421e-11,-0.99923,0,0,0.5,1.1842e-15,0,0.66667
0.079887,0.045654,0.15977,-0.68152,-3.5423,8.9008,0.29037,-0.09679,-0.34809,0.38716,2.6917e-08,-0.17404,0,0,0.5,-0,-0,0.66667
0.45273,0.53329,0.90545,0.049934,0.18273,4.1636,-0.12057,0.04019,-1.992,-0.16076,-7.4258e-12,-0.99602,0,0,0.5,-0,-0,0.66667
0.79183,0.43959,1.5837,-0.090617,-0.12819,1.0258,0.38268,-0.12756,-1.9714,0.51024,-2.9664e-10,-0.98572,0,0,0.5,-0,-0,0.66667
0.72178,0.43784,1.4436,-0.093233,-0.18465,1.543,0.3589,-0.11963,-1.9702,0.47853,-9.0725e-11,-0.98509,0,0,0.5,-2.3685e-15,0,0.66667
0.67856,0.73304,1.3571,0.34957,0.8463,1.9684,-1.2651,0.42169,-1.5649,-1.6868,2.0003e-10,-0.78243,0,0,0.5,1.1842e-15,0,0.66667
0.76669,0.72132,1.5334,0.33197,0.57408,1.2716,-1.3574,0.45248,-1.6089,-1.8099,1.3257e-10,-0.80446,0,0,0.5,-2.3685e-15,0,0.66667
0.5821,0.8082,1.1642,0.4623,1.463,2.8979,-1.4352,0.47842,-1.2404,-1.9137,5.398e-11,-0.62019,0,0,0.5,2.9606e-16,0,0.66667
0.3749,0.9999,0.74979,0.74985,3.4369,5.2581,-1.4993,0.49976,-0.0021252,-1.9991,1.4893e-12,-0.0010626,0,0,0.5,-1.1681e-16,7.5476e-18,0.66667
0.44709,0.66049,0.89419,0.24073,0.90131,4.2495,-0.57403,0.19134,-1.7942,-0.76538,-3.2984e-11,-0.8971,0,0,0.5,-0,-0,0.66667
0.28043,0.33445,0.56085,-0.24833,-1.0913,6.2525,0.3714,-0.1238,-1.7806,0.4952,1.3707e-10,-0.8903,0,0,0.5,-2.9606e-16,0,0.66667
0.33926,0.57442,0.67851,0.11163,0.46318,5.5071,-0.20199,0.067329,-1.9552,-0.26932,-6.2034e-11,-0.97758,0,0,0.5,5.9212e-16,0,0.66667
0.88017,0.72153,1.7603,0.3323,0.24351,0.57298,-1.5599,0.51996,-1.6079,-2.0798,-3.613e-10,-0.80395,0,0,0.5,2.3685e-15,0,0.66667
0.53635,0.94941,1.0727,0.67411,2.4855,3.469,-1.9283,0.64277,-0.38371,-2.5711,1.374e-12,-0.19186,0,0,0.5,-0,-0,0.66667
0.073744,0.57596,0.14749,0.11395,0.53947,8.9512,-0.044815,0.014938,-1.9533,-0.059754,-1.7509e-08,-0.97663,0,0,0.5,-1.4803e-16,0,0.66667
0.67227,0.53905,1.3445,0.058574,0.13724,1.9512,-0.21001,0.070004,-1.9878,-0.28002,3.7873e-11,-0.99392,0,0,0.5,-0,-0,0.66667
0.72976,0.45935,1.4595,-0.060976,-0.11668,1.4769,0.23732,-0.079107,-1.9864,0.31643,-7.0598e-11,-0.99321,0,0,0.5,-1.1842e-15,0,0.66667
0.39561,0.54769,0.79122,0.071529,0.28044,4.8257,-0.15092,0.050307,-1.9812,-0.20123,-2.4557e-11,-0.99059,0,0,0.5,-0,-0,0.66667
0.34753,0.54108,0.69507,0.061626,0.25326,5.4032,-0.11422,0.038075,-1.9861,-0.1523,-3.3605e-11,-0.99307,0,0,0.5,-0,-0,0.66667
0.10753,0.50883,0.21507,0.013243,0.062087,8.4972,-0.0075951,0.0025317,-1.9992,-0.010127,-3.2273e-08,-0.99961,0,0,0.5,-0,-0,0.66667
0.54663,0.89977,1.0933,0.59965,2.1164,3.3204,-1.7482,0.58274,-0.72169,-2.3309,8.1827e-12,-0.36084,0,0,0.5,5.9212e-16,-3.8931e-16,0.66667
0.26282,0.012239,0.52564,-0.73164,-3.6119,6.5859,1.0256,-0.34185,-0.096251,1.3674,2.1513e-11,-0.048126,0,0,0.5,-0,-5.6432e-16,0.66667
0.91802,0.83585,1.836,0.50377,0.26121,0.50911,-2.4665,0.82217,-1.0975,-3.2887,-1.399e-08,-0.54874,0,0,0.5,-5.9212e-16,0,0.66667
0.85065,0.4232,1.7013,-0.1152,-0.10421,0.6593,0.52265,-0.17422,-1.9522,0.69686,-5.7533e-10,-0.97608,0,0,0.5,-1.1842e-15,0,0.66667
0.65361,0.49038,1.3072,-0.014427,-0.035655,2.1137,0.05029,-0.016763,-1.999,0.067053,-8.1262e-12,-0.99949,0,0,0.5,5.9212e-16,0,0.66667
0.87584,0.21553,1.7517,-0.42671,-0.36171,0.65118,1.9932,-0.66441,-1.3533,2.6576,2.6969e-09,-0.67663,0,0,0.5,-2.9606e-16,0,0.66667
0.96891,0.19836,1.9378,-0.45247,0.020157,0.27461,2.3381,-0.77938,-1.2719,3.1175,-8.5141e-09,-0.63594,0,0,0.5,-0,-0,0.66667
0.59079,0.73037,1.1816,0.34556,1.041,2.7647,-1.0888,0.36294,-1.575,-1.4518,7.1964e-11,-0.78749,0,0,0.5,-0,-0,0.66667
0.98013,0.033586,1.9603,-0.69962,-0.093815,0.48692,3.6572,-1.2191,-0.26028,4.8762,9.9596e-07,-0.13014,0,0,0.5,-0,-0,0.66667
0.54926,0.30971,1.0985,-0.28544,-0.92068,3.1584,0.83617,-0.27872,-1.7109,1.1149,-3.328e-11,-0.85547,0,0,0.5,-1.3323e-15,0,0.66667
0.2936,0.073799,0.58719,-0.6393,-3.0137,6.1775,1.001,-0.33368,-0.54639,1.3347,1.7192e-10,-0.27319,0,0,0.5,-0,2.4134e-16,0.66667
0.49124,0.8718,0.98247,0.55769,2.1112,3.87,-1.4611,0.48704,-0.89455,-1.9482,-2.2549e-12,-0.44727,0,0,0.5,-2.9606e-16,0,0.66667
0.40509,0.61358,0.81017,0.17038,0.66531,4.7226,-0.36809,0.1227,-1.8965,-0.49079,-4.8802e-11,-0.94823,0,0,0.5,5.9212e-16,0,0.66667
0.59978,0.57004,1.1996,0.10506,0.29868,2.6205,-0.33608,0.11203,-1.9605,-0.4481,3.3562e-11,-0.98027,0,0,0.5,-0,-0,0.66667
0.4807,0.31034,0.96139,-0.28449,-1.0246,3.8845,0.72936,-0.24312,-1.7129,0.97248,1.2515e-11,-0.85645,0,0,0.5,-1.4803e-16,0,0.66667
0.2867,0.94749,0.57341,0.67124,3.2077,6.2726,-1.0264,0.34212,-0.39759,-1.3685,-1.1522e-10,-0.1988,0,0,0.5,-0,-0,0.66667
0.62519,0.16494,1.2504,-0.50259,-1.4713,2.5136,1.6758,-0.5586,-1.1019,2.2344,-9.9564e-11,-0.55093,0,0,0.5,-0,-0,0.66667
0.8054,0.1257,1.6108,-0.56145,-0.90805,1.1548,2.4117,-0.8039,-0.88008,3.2156,-2.5031e-09,-0.44004,0,0,0.5,-0,-0,0.66667
0.078748,0.48361,0.1575,-0.024585,-0.11598,8.8831,0.010325,-0.0034417,-1.9975,0.013767,4.8556e-08,-0.99873,0,0,0.5,1.4803e-16,0,0.66667
0.42362,0.43576,0.84725,-0.096361,-0.36641,4.4993,0.21771,-0.072571,-1.9679,0.29028,2.3107e-11,-0.98393,0,0,0.5,-7.4015e-17,0,0.66667
0.645,0.31715,1.29,-0.27427,-0.71564,2.2341,0.94351,-0.3145,-1.7328,1.258,-1.1819e-10,-0.86638,0,0,0.5,-0,-0,0.66667
0.0072838,0.8853,0.014568,0.57796,2.9453,9.8483,-0.022452,0.0074839,-0.81185,-0.029935,1.3202e-07,-0.40592,0,0,0.5,-1.8504e-17,0,0.66667
0.87569,0.96509,1.7514,0.69764,0.81273,0.88906,-3.2582,1.0861,-0.2701,-4.3443,4.0603e-09,-0.13505,0,0,0.5,-2.9606e-16,0,0.66667
0.69402,0.26173,1.388,-0.3574,-0.82689,1.8425,1.3229,-0.44097,-1.5453,1.7639,-2.339e-10,-0.77263,0,0,0.5,-1.1842e-15,0,0.66667
0.74977,0.22196,1.4995,-0.41706,-0.80587,1.4371,1.6677,-0.55591,-1.3822,2.2236,-4.9294e-10,-0.69112,0,0,0.5,-2.3685e-15,0,0.66667
0.5233,0.5541,1.0466,0.081157,0.26753,3.3925,-0.2265,0.075501,-1.9763,-0.302,5.6593e-12,-0.98813,0,0,0.5,-5.9212e-16,0,0.66667
0.97547,0.29674,1.9509,-0.30489,0.069653,0.15648,1.5862,-0.52873,-1.6688,2.1149,3.1957e-08,-0.8344,0,0,0.5,1.1842e-15,0,0.66667
0.15309,0.88948,0.30617,0.58421,2.9088,7.937,-0.47699,0.159,-0.78591,-0.63598,-5.4285e-09,-0.39296,0,0,0.5,2.9606e-16,1.2706e-16,0.66667
0.95582,0.484,1.9116,-0.023994,0.0029236,0.14619,0.12232,-0.040773,-1.9974,0.16309,-9.8941e-07,-0.99871,0,0,0.5,1.1842e-15,0,0.66667
0.9956,0.87184,1.9912,0.55776,-0.11928,0.28799,-2.9616,0.98721,-0.89436,-3.9488,1.5105e-07,-0.44718,0,0,0.5,1.7764e-15,0,0.66667
0.078553,0.7022,0.15711,0.30331,1.4597,8.8921,-0.12707,0.042357,-1.6725,-0.16943,1.7204e-09,-0.83626,0,0,0.5,1.4803e-16,0,0.66667
0.33688,0.25567,0.67377,-0.36649,-1.5701,5.5727,0.65848,-0.21949,-1.5224,0.87798,1.823e-10,-0.76122,0,0,0.5,-0,-0,0.66667
0.99274,0.98649,1.9855,0.72974,0.033592,0.49103,-3.8637,1.2879,-0.10597,-5.1516,1.5905e-05,-0.052985,0,0,0.5,-1.1842e-15,0,0.66667
0.42676,0.4349,0.85352,-0.097643,-0.36992,4.4631,0.22224,-0.07408,-1.9667,0.29632,2.2304e-11,-0.98333,0,0,0.5,-1.4803e-16,0,0.66667
0.82335,0.29932,1.6467,-0.30102,-0.3698,0.88009,1.3218,-0.44061,-1.6772,1.7624,4.8849e-10,-0.83862,0,0,0.5,1.1842e-15,0,0.66667
0.28812,0.71248,0.57623,0.31872,1.4064,6.1659,-0.48975,0.16325,-1.6388,-0.65301,-2.0603e-10,-0.81938,0,0,0.5,-2.9606e-16,0,0.66667
0.51209,0.28474,1.0242,-0.32289,-1.117,3.5561,0.88186,-0.29395,-1.6298,1.1758,-8.0458e-12,-0.81488,0,0,0.5,-0,-0,0.66667
0.4661,0.86649,0.93221,0.54973,2.1465,4.1373,-1.3666,0.45552,-0.92532,-1.8221,-1.0027e-11,-0.46266,0,0,0.5,-0,-0,0.66667
0.33294,0.43147,0.66589,-0.1028,-0.42865,5.5841,0.18254,-0.060848,-1.9624,0.24339,6.074e-11,-0.98122,0,0,0.5,5.9212e-16,0,0.66667
0.52708,0.20816,1.0542,-0.43776,-1.5177,3.4393,1.2306,-0.4102,-1.3182,1.6408,-1.5425e-11,-0.6591,0,0,0.5,-0,-0,0.66667
0.080511,0.20781,0.16102,-0.43828,-2.154,8.8731,0.18819,-0.062732,-1.3167,0.25093,-1.2535e-09,-0.65833,0,0,0.5,7.4015e-17,0,0.66667
0.2212,0.53078,0.44239,0.046176,0.20739,6.9972,-0.054474,0.018158,-1.9935,-0.072632,-1.7004e-10,-0.99675,0,0,0.5,2.2204e-16,0,0.66667
0.33596,0.6173,0.67192,0.17594,0.73547,5.5531,-0.31525,0.10508,-1.8897,-0.42034,-9.2596e-11,-0.94485,0,0,0.5,2.9606e-16,0,0.66667
0.96887,0.9425,1.9377,0.66376,0.13301,0.47784,-3.4298,1.1433,-0.43395,-4.5731,1.0788e-06,-0.21698,0,0,0.5,-0,-0,0.66667
0.44075,0.56262,0.88151,0.09393,0.34971,4.3022,-0.2208,0.0736,-1.9697,-0.2944,-1.7225e-11,-0.98487,0,0,0.5,-1.1842e-15,0,0.66667
0.96131,0.79919,1.9226,0.44878,0.013559,0.29747,-2.3009,0.76697,-1.2833,-3.0679,-2.0743e-08,-0.64163,0,0,0.5,-0,-0,0.66667
0.57362,0.43295,1.1472,-0.10057,-0.30228,2.8768,0.30768,-0.10256,-1.9643,0.41024,-2.305e-11,-0.98214,0,0,0.5,-8.8818e-16,0,0.66667
0.046616,0.072969,0.093231,-0.64055,-3.3077,9.3325,0.15925,-0.053084,-0.54097,0.21233,-1.1671e-07,-0.27049,0,0,0.5,-0,-0,0.66667
0.65871,0.64037,1.3174,0.21056,0.52257,2.094,-0.73973,0.24658,-1.8418,-0.9863,1.0389e-10,-0.92092,0,0,0.5,-1.1842e-15,0,0.66667
0.014774,0.088352,0.029548,-0.61747,-3.1764,9.75,0.048656,-0.016218,-0.64468,0.064874,8.2969e-07,-0.32234,0,0,0.5,9.2519e-18,0,0.66667
0.74247,0.058514,1.4849,-0.66223,-1.4998,1.6658,2.6223,-0.87411,-0.44099,3.4964,-2.8437e-10,-0.2205,0,0,0.5,4.3963e-16,0,0.66667
0.4207,0.057161,0.84141,-0.66426,-2.8321,4.6947,1.4904,-0.49681,-0.43145,1.9872,5.1986e-12,-0.21572,0,0,0.5,-0,3.3553e-16,0.66667
0.53388,0.85369,1.0678,0.53053,1.8684,3.4116,-1.5106,0.50355,-0.99892,-2.0142,1.1879e-11,-0.49946,0,0,0.5,-0,-0,0.66667
0.78883,0.89574,1.5777,0.59361,1.0666,1.2876,-2.4974,0.83246,-0.74661,-3.3299,1.7597e-09,-0.37331,0,0,0.5,1.1842e-15,0,0.66667
0.9056,0.80456,1.8112,0.45685,0.27071,0.52756,-2.2065,0.7355,-1.2579,-2.942,-3.663e-09,-0.62897,0,0,0.5,-5.9212e-16,0,0.66667
0.98688,0.4475,1.9738,-0.078753,0.034478,0.044444,0.4145,-0.13817,-1.9776,0.55266,-1.4207e-06,-0.98882,0,0,0.5,-0,-0,0.66667
0.80208,0.46438,1.6042,-0.053425,-0.070618,0.9531,0.22854,-0.07618,-1.9901,0.30472,-2.6436e-10,-0.99505,0,0,0.5,-2.9606e-16,0,0.66667
0.0025426,0.083103,0.0050852,-0.62534,-3.224,9.911,0.0084797,-0.002825,-0.60923,0.011307,2.3533e-06,-0.30461,0,0,0.5,-2.313e-18,-2.6428e-15,0.66667
0.60009,0.70987,1.2002,0.31481,0.9231,2.6645,-1.0075,0.33584,-1.6473,-1.3434,7.9589e-11,-0.82364,0,0,0.5,-0,-0,0.66667
0.28885,0.91693,0.57769,0.62539,2.946,6.2311,-0.96342,0.32114,-0.60888,-1.2846,-2.3454e-10,-0.30444,0,0,0.5,5.9212e-16,0,0.66667
0.70972,0.14026,1.4194,-0.53962,-1.2765,1.818,2.0425,-0.68084,-0.96401,2.7234,-4.0261e-10,-0.482,0,0,0.5,-0,-0,0.66667
0.30554,0.87356,0.61109,0.56034,2.5651,6.0063,-0.91311,0.30437,-0.88437,-1.2175,-2.8194e-10,-0.44219,0,0,0.5,-7.4015e-16,0,0.66667
0.55587,0.94912,1.1117,0.67368,2.4069,3.2752,-1.9972,0.66574,-0.38576,-2.663,2.4756e-12,-0.19288,0,0,0.5,-0,-0,0.66667
0.91807,0.86761,1.8361,0.55142,0.31438,0.54992,-2.7,0.89999,-0.91876,-3.6,-1.0446e-08,-0.45938,0,0,0.5,-5.9212e-16,0,0.66667
0.24787,0.50561,0.49574,0.0084075,0.037176,6.6524,-0.011115,0.0037048,-1.9999,-0.014819,-1.1903e-11,-0.99997,0,0,0.5,-0,-0,0.66667
0.11184,0.14628,0.22368,-0.53058,-2.6398,8.4675,0.31648,-0.10549,-0.99876,0.42198,-2.7996e-10,-0.49938,0,0,0.5,1.4803e-16,0,0.66667
0.51354,0.80635,1.0271,0.45953,1.6371,3.5896,-1.2586,0.41953,-1.2493,-1.6781,6.9391e-12,-0.62465,0,0,0.5,3.0408e-16,0,0.66667
0.91372,0.69013,1.8274,0.2852,0.10885,0.38766,-1.3898,0.46328,-1.7113,-1.8531,-7.7793e-09,-0.85565,0,0,0.5,-0,-0,0.66667
0.17924,0.021707,0.35848,-0.71744,-3.6679,7.6272,0.68583,-0.22861,-0.16947,0.91444,6.6049e-10,-0.084735,0,0,0.5,-2.9606e-16,0,0.66667
0.25588,0.41531,0.51176,-0.12704,-0.56121,6.5533,0.17337,-0.05779,-1.9423,0.23116,1.2151e-10,-0.97113,0,0,0.5,-0,-0,0.66667
0.033996,0.77354,0.067992,0.4103,2.0181,9.4907,-0.074393,0.024798,-1.4013,-0.09919,-1.1547e-08,-0.70066,0,0,0.5,3.7007e-17,0,0.66667
0.015372,0.36256,0.030743,-0.20617,-0.98811,9.7375,0.016902,-0.0056341,-1.8486,0.022536,-2.5161e-07,-0.92429,0,0,0.5,-0,-0,0.66667
0.54222,0.41705,1.0844,-0.12443,-0.39792,3.1988,0.35982,-0.11994,-1.9445,0.47976,-1.5526e-11,-0.97225,0,0,0.5,-0,-0,0.66667
0.85536,0.16426,1.7107,-0.50362,-0.55949,0.81505,2.2975,-0.76582,-1.098,3.0633,-8.2451e-10,-0.54901,0,0,0.5,-0,-0,0.66667
0.44652,0.60834,0.89305,0.16251,0.60358,4.2434,-0.38702,0.12901,-1.9054,-0.51603,-2.4988e-11,-0.95272,0,0,0.5,-5.9212e-16,0,0.66667
0.23564,0.36975,0.47127,-0.19538,-0.87791,6.8179,0.24554,-0.081845,-1.8646,0.32738,7.9541e-11,-0.93229,0,0,0.5,-4.4409e-16,0,0.66667
0.93653,0.16722,1.8731,-0.49918,-0.16501,0.42931,2.4933,-0.8311,-1.1138,3.3244,1.4424e-08,-0.55688,0,0,0.5,2.3685e-15,0,0.66667
0.61921,0.32406,1.2384,-0.26391,-0.73295,2.4676,0.87153,-0.29051,-1.7518,1.162,-8.9627e-11,-0.87591,0,0,0.5,-0,-0,0.66667
0.86458,0.36069,1.7292,-0.20897,-0.16898,0.60405,0.96356,-0.32119,-1.8441,1.2847,4.3791e-10,-0.92205,0,0,0.5,-1.1842e-15,0,0.66667
0.12811,0.42107,0.25623,-0.11839,-0.5537,8.224,0.080891,-0.026964,-1.9496,0.10785,1.6727e-09,-0.97481,0,0,0.5,-0,-0,0.66667
0.44124,0.88525,0.88248,0.57787,2.345,4.4241,-1.3599,0.4533,-0.81228,-1.8132,-1.498e-11,-0.40614,0,0,0.5,1.1842e-15,0,0.66667
0.85755,0.79179,1.7151,0.43768,0.44929,0.75578,-2.0018,0.66726,-1.3186,-2.669,-7.7992e-10,-0.65929,0,0,0.5,-2.3685e-15,0,0.66667
0.89819,0.44224,1.7964,-0.086644,-0.039437,0.40125,0.41506,-0.13835,-1.9735,0.55341,-1.1686e-08,-0.98673,0,0,0.5,-0,-0,0.66667
0.87726,0.8731,1.7545,0.55965,0.54304,0.7461,-2.6185,0.87282,-0.88717,-3.4913,6.4581e-09,-0.44358,0,0,0.5,-2.9606e-16,0,0.66667
0.62547,0.15694,1.2509,-0.51459,-1.5119,2.5178,1.7166,-0.5722,-1.0596,2.2888,-9.5783e-11,-0.52982,0,0,0.5,-2.3685e-15,0,0.66667
0.75811,0.024344,1.5162,-0.71348,-1.5787,1.6022,2.8848,-0.9616,-0.18987,3.8464,-9.1112e-11,-0.094933,0,0,0.5,-1.1842e-15,0,0.66667
0.6755,0.68234,1.351,0.27351,0.65479,1.9661,-0.98538,0.32846,-1.7342,-1.3138,1.4562e-10,-0.8671,0,0,0.5,-1.1842e-15,0,0.66667
0.84516,0.259,1.6903,-0.3615,-0.38895,0.77941,1.6295,-0.54316,-1.5352,2.1726,8.1884e-10,-0.7676,0,0,0.5,-0,-0,0.66667
0.63245,0.49056,1.2649,-0.014166,-0.037068,2.306,0.047783,-0.015928,-1.9989,0.063711,-6.5534e-12,-0.99944,0,0,0.5,-1.7764e-15,0,0.66667
0.17189,0.57356,0.34378,0.11033,0.50809,7.6438,-0.10115,0.033716,-1.9565,-0.13486,-6.3102e-10,-0.97825,0,0,0.5,-0,-0,0.66667
0.65052,0.90597,1.301,0.60895,1.7523,2.3556,-2.1127,0.70424,-0.68252,-2.817,7.2869e-11,-0.34126,0,0,0.5,-5.3661e-16,0,0.66667
0.45534,0.8052,0.91068,0.4578,1.7678,4.2179,-1.1118,0.37058,-1.2548,-1.4823,-2.4817e-11,-0.6274,0,0,0.5,5.9212e-16,0,0.66667
0.058851,0.69431,0.1177,0.29147,1.4048,9.1551,-0.091482,0.030494,-1.6979,-0.12198,2.349e-08,-0.84895,0,0,0.5,-0,-0,0.66667
0.53586,0.73053,1.0717,0.3458,1.1559,3.3144,-0.98828,0.32943,-1.5743,-1.3177,2.4254e-11,-0.78716,0,0,0.5,-0,-0,0.66667
0.43929,0.37989,0.87858,-0.18017,-0.67643,4.3281,0.42211,-0.1407,-1.8849,0.56281,3.1142e-11,-0.94245,0,0,0.5,-0,-0,0.66667
0.87473,0.45892,1.7495,-0.061626,-0.04148,0.5183,0.2875,-0.095832,-1.9864,0.38333,-5.2306e-09,-0.99318,0,0,0.5,-1.1842e-15,0,0.66667
0.66072,0.46659,1.3214,-0.050122,-0.12151,2.0517,0.17662,-0.058874,-1.9917,0.2355,-2.9841e-11,-0.99586,0,0,0.5,1.3323e-15,0,0.66667
0.26079,0.53682,0.52158,0.055233,0.24249,6.4876,-0.076822,0.025607,-1.9892,-0.10243,-7.5376e-11,-0.99461,0,0,0.5,-0,-0,0.66667
0.21677,0.18658,0.43353,-0.47012,-2.223,7.0969,0.5435,-0.18117,-1.2152,0.72467,9.9493e-10,-0.60759,0,0,0.5,-3.7007e-16,0,0.66667
0.097323,0.65904,0.19465,0.23855,1.1352,8.6388,-0.12382,0.041274,-1.7982,-0.1651,5.6239e-12,-0.89912,0,0,0.5,2.9606e-16,0,0.66667
0.46914,0.55838,0.93829,0.087563,0.31384,3.9813,-0.21909,0.07303,-1.9733,-0.29212,-8.1851e-12,-0.98664,0,0,0.5,-0,-0,0.66667
0.3498,0.79795,0.6996,0.44692,1.9238,5.4364,-0.83378,0.27793,-1.2892,-1.1117,-1.6861e-10,-0.64458,0,0,0.5,-4.1425e-16,0,0.66667
0.57735,0.45172,1.1547,-0.07242,-0.21564,2.8372,0.22299,-0.074331,-1.981,0.29733,-1.7717e-11,-0.99048,0,0,0.5,-1.1842e-15,0,0.66667
0.056942,0.55061,0.11388,0.075913,0.35973,9.1767,-0.023054,0.0076847,-1.979,-0.030739,-4.2367e-08,-0.98948,0,0,0.5,-0,-0,0.66667
0.24992,0.80474,0.49983,0.45711,2.1181,6.6725,-0.60928,0.20309,-1.2571,-0.81238,-6.6389e-10,-0.62857,0,0,0.5,-1.4803e-16,0,0.66667
0.51229,0.63404,1.0246,0.20106,0.68202,3.5249,-0.54933,0.18311,-1.856,-0.73244,6.5128e-12,-0.928,0,0,0.5,-0,-0,0.66667
0.37596,0.96171,0.75192,0.69256,3.1121,5.2182,-1.3887,0.46289,-0.29468,-1.8516,-6.56e-12,-0.14734,0,0,0.5,-0,-0,0.66667
0.6269,0.60129,1.2538,0.15194,0.40687,2.3701,-0.508,0.16933,-1.9179,-0.67733,6.171e-11,-0.95894,0,0,0.5,-0,-0,0.66667
0.37322,0.20451,0.74644,-0.44324,-1.8664,5.156,0.88226,-0.29409,-1.301,1.1764,1.1865e-10,-0.65051,0,0,0.5,5.9212e-16,0,0.66667
0.46031,0.28821,0.92063,-0.31768,-1.1832,4.1183,0.7799,-0.25997,-1.641,1.0399,2.7052e-11,-0.82051,0,0,0.5,-0,-0,0.66667
0.23422,0.70824,0.46843,0.31236,1.4239,6.8485,-0.39019,0.13006,-1.6529,-0.52025,-9.7564e-11,-0.82645,0,0,0.5,2.9606e-16,0,0.66667
0.29959,0.60307,0.59918,0.15461,0.66421,6.002,-0.24704,0.082345,-1.9147,-0.32938,-1.0159e-10,-0.95737,0,0,0.5,5.9212e-16,0,0.66667
0.11528,0.094586,0.23057,-0.60812,-3.0787,8.4314,0.3739,-0.12463,-0.68599,0.49854,9.2862e-09,-0.34299,0,0,0.5,-0,-0,0.66667
0.77244,0.28268,1.5449,-0.32598,-0.547,1.2282,1.3429,-0.44764,-1.6229,1.7906,-8.3918e-11,-0.81146,0,0,0.5,2.3685e-15,0,0.66667
0.79388,0.78427,1.5878,0.4264,0.67253,1.1343,-1.8054,0.6018,-1.3541,-2.4072,5.4883e-10,-0.67705,0,0,0.5,2.3685e-15,0,0.66667
0.043936,0.23636,0.087872,-0.39546,-1.9385,9.3577,0.092666,-0.030889,-1.4434,0.12355,3.1722e-09,-0.72171,0,0,0.5,-0,-0,0.66667
0.16096,0.63162,0.32192,0.19743,0.91846,7.7919,-0.16948,0.056494,-1.8614,-0.22598,3.0739e-10,-0.93068,0,0,0.5,-0,-0,0.66667
0.80286,0.88437,1.6057,0.57656,0.95534,1.1831,-2.4688,0.82293,-0.81766,-3.2917,2.3839e-09,-0.40883,0,0,0.5,-0,-0,0.66667
0.91048,0.99515,1.821,0.74272,0.66912,0.78303,-3.6066,1.2022,-0.038841,-4.8087,1.2091e-07,-0.019421,0,0,0.5,-2.3685e-15,0,0.66667
0.36919,0.63703,0.73838,0.20554,0.8359,5.1532,-0.40471,0.1349,-1.8492,-0.53961,-8.24e-11,-0.92461,0,0,0.5,5.9212e-16,0,0.66667
0.67531,0.033632,1.3506,-0.69955,-1.9764,2.2165,2.5195,-0.83985,-0.26066,3.3594,-1.4621e-11,-0.13033,0,0,0.5,2.3685e-15,0,0.66667
0.18999,0.32843,0.37999,-0.25735,-1.1906,7.4151,0.26077,-0.086925,-1.764,0.3477,-2.8709e-10,-0.88199,0,0,0.5,-2.9606e-16,0,0.66667
0.87123,0.85711,1.7425,0.53567,0.5353,0.75633,-2.489,0.82967,-0.97921,-3.3187,1.1659e-09,-0.48961,0,0,0.5,1.1842e-15,0,0.66667
0.82471,0.78802,1.6494,0.43203,0.56861,0.94211,-1.9003,0.63342,-1.3363,-2.5337,2.5933e-10,-0.66816,0,0,0.5,2.3685e-15,0,0.66667
0.25001,0.37891,0.50003,-0.18163,-0.80842,6.6322,0.24219,-0.080729,-1.8833,0.32292,1.0339e-10,-0.94165,0,0,0.5,-0,-0,0.66667
0.59285,0.94613,1.1857,0.66919,2.235,2.9178,-2.1159,0.7053,-0.40767,-2.8212,6.6656e-12,-0.20384,0,0,0.5,-0,-0,0.66667
0.73576,0.090402,1.4715,-0.6144,-1.385,1.6747,2.4109,-0.80365,-0.65843,3.2146,-4.7255e-10,-0.32922,0,0,0.5,1.7764e-15,0,0.66667
0.88384,0.16515,1.7677,-0.50228,-0.4246,0.66566,2.3677,-0.78922,-1.1026,3.1569,4.0004e-09,-0.55132,0,0,0.5,-0,-0,0.66667
0.46773,0.82289,0.93546,0.48433,1.8533,4.0915,-1.2082,0.40273,-1.1657,-1.6109,-1.522e-11,-0.58286,0,0,0.5,-1.1842e-15,0,0.66667
0.13462,0.68661,0.26924,0.27991,1.3253,8.1451,-0.20097,0.06699,-1.7223,-0.26796,2.3567e-10,-0.86114,0,0,0.5,-3.7007e-16,0,0.66667
0.1094,0.23772,0.21879,-0.39342,-1.9068,8.4873,0.22954,-0.076513,-1.4494,0.30605,-2.5911e-09,-0.7247,0,0,0.5,1.4803e-16,0,0.66667
0.52968,0.01156,1.0594,-0.73266,-2.7917,3.5749,2.0697,-0.68991,-0.09106,2.7596,-4.774e-14,-0.04553,0,0,0.5,-0,5.5205e-16,0.66667
0.049289,0.51906,0.098577,0.028594,0.13548,9.2795,-0.0075156,0.0025052,-1.9967,-0.010021,-3.547e-08,-0.99833,0,0,0.5,-0,-0,0.66667
0.6209,0.66251,1.2418,0.24377,0.67172,2.4462,-0.80723,0.26908,-1.7887,-1.0763,8.6e-11,-0.89436,0,0,0.5,-0,-0,0.66667
0.033328,0.056907,0.066656,-0.66464,-3.4576,9.5077,0.11814,-0.03938,-0.42955,0.15752,5.6031e-07,-0.21477,0,0,0.5,-3.7007e-17,0,0.66667
0.021184,0.32907,0.042367,-0.2564,-1.2348,9.6597,0.028968,-0.009656,-1.7656,0.038624,1.4014e-07,-0.8828,0,0,0.5,3.7007e-17,0,0.66667
0.075209,0.42609,0.15042,-0.11087,-0.52468,8.9315,0.04447,-0.014823,-1.9559,0.059294,2.4611e-08,-0.97794,0,0,0.5,-0,-0,0.66667
0.36803,0.49041,0.73606,-0.01438,-0.057916,5.1534,0.028226,-0.0094085,-1.9988,0.037634,6.576e-12,-0.99942,0,0,0.5,-5.9212e-16,0,0.66667
0.38175,0.093219,0.7635,-0.61017,-2.6596,5.1149,1.2423,-0.41411,-0.67716,1.6564,3.5528e-11,-0.33858,0,0,0.5,1.2953e-16,0,0.66667
0.76697,0.43912,1.5339,-0.091327,-0.14808,1.2002,0.37357,-0.12452,-1.9713,0.4981,-1.8136e-10,-0.98563,0,0,0.5,2.3685e-15,0,0.66667
0.84595,0.37439,1.6919,-0.18842,-0.18279,0.70332,0.85008,-0.28336,-1.8748,1.1334,1.075e-09,-0.93742,0,0,0.5,4.4409e-16,0,0.66667
0.7272,0.097796,1.4544,-0.60331,-1.3919,1.7298,2.3399,-0.77995,-0.70612,3.1198,-4.2215e-10,-0.35306,0,0,0.5,-2.3685e-15,0,0.66667
0.88443,0.38569,1.7689,-0.17147,-0.10437,0.48753,0.80883,-0.26961,-1.895,1.0784,6.5037e-10,-0.94748,0,0,0.5,-0,-0,0.66667
0.5749,0.039434,1.1498,-0.69085,-2.4057,3.1028,2.1182,-0.70608,-0.30286,2.8243,-2.2089e-12,-0.15143,0,0,0.5,-1.1842e-15,-4.5785e-16,0.66667
0.93988,0.11588,1.8798,-0.57618,-0.22062,0.48546,2.8882,-0.96274,-0.81939,3.851,-8.6886e-10,-0.40969,0,0,0.5,-0,-0,0.66667
0.90679,0.31882,1.8136,-0.27176,-0.1199,0.41342,1.3143,-0.4381,-1.7376,1.7524,5.5957e-09,-0.86881,0,0,0.5,-2.3685e-15,0,0.66667
0.44844,0.65083,0.89687,0.22625,0.84403,4.2316,-0.5411,0.18037,-1.8181,-0.72147,-3.0828e-11,-0.90905,0,0,0.5,-8.8818e-16,0,0.66667
0.47973,0.64494,0.95945,0.21741,0.77652,3.8808,-0.55626,0.18542,-1.8314,-0.74168,-1.1454e-11,-0.91572,0,0,0.5,-0,-0,0.66667
0.85666,0.2846,1.7133,-0.3231,-0.30511,0.69432,1.4762,-0.49206,-1.6293,1.9683,1.0781e-09,-0.81467,0,0,0.5,-2.3685e-15,0,0.66667
0.39841,0.34605,0.79681,-0.23092,-0.91415,4.8097,0.49066,-0.16355,-1.811,0.65422,6.7166e-11,-0.90548,0,0,0.5,-1.1842e-15,0,0.66667
0.942,0.66282,1.884,0.24423,0.01935,0.24946,-1.227,0.409,-1.7879,-1.636,5.2369e-08,-0.89394,0,0,0.5,-0,-0,0.66667
0.29331,0.63861,0.58662,0.20792,0.90152,6.0857,-0.32525,0.10842,-1.8457,-0.43367,-1.225e-10,-0.92287,0,0,0.5,-0,-0,0.66667
0.25901,0.26035,0.51801,-0.35948,-1.6271,6.5394,0.49657,-0.16552,-1.5401,0.6621,2.8621e-10,-0.77003,0,0,0.5,5.9212e-16,0,0.66667
0.10893,0.16492,0.21786,-0.50262,-2.4873,8.503,0.292,-0.097333,-1.1017,0.38933,-2.4412e-09,-0.55086,0,0,0.5,-0,-0,0.66667
0.24704,0.2299,0.49409,-0.40515,-1.8616,6.699,0.53381,-0.17794,-1.416,0.71175,4.5141e-10,-0.70798,0,0,0.5,5.9212e-16,0,0.66667
0.53775,0.05872,1.0755,-0.66192,-2.424,3.4471,1.8984,-0.6328,-0.44249,2.5312,-1.8275e-12,-0.22124,0,0,0.5,5.9212e-16,0,0.66667
0.98024,0.80962,1.9605,0.46443,-0.070094,0.24807,-2.428,0.80933,-1.2336,-3.2373,9.5122e-08,-0.61681,0,0,0.5,2.9606e-16,0,0.66667
0.20773,0.99949,0.41546,0.74924,3.8226,7.2756,-0.83007,0.27669,-0.005052,-1.1068,1.1423e-10,-0.002526,0,0,0.5,-4.6259e-17,0,0.66667
0.54702,0.60911,1.094,0.16367,0.52077,3.1547,-0.47749,0.15916,-1.9044,-0.63665,2.1918e-11,-0.9522,0,0,0.5,-1.1842e-15,0,0.66667
0.87839,0.96393,1.7568,0.6959,0.79136,0.87403,-3.2601,1.0867,-0.27838,-4.3468,4.0313e-09,-0.13919,0,0,0.5,5.9212e-16,0,0.66667
0.58966,0.79035,1.1793,0.43552,1.3468,2.8124,-1.3697,0.45655,-1.3253,-1.8262,6.6271e-11,-0.66264,0,0,0.5,1.1842e-15,0,0.66667
0.83528,0.30487,1.6706,-0.29269,-0.32718,0.80386,1.3039,-0.43463,-1.6952,1.7385,5.5067e-10,-0.84758,0,0,0.5,-5.9212e-16,0,0.66667
0.23929,0.53627,0.47857,0.054402,0.24196,6.7634,-0.069427,0.023142,-1.9896,-0.092569,-1.1337e-10,-0.99482,0,0,0.5,-0,-0,0.66667
0.07308,0.85908,0.14616,0.53862,2.7052,8.9781,-0.20993,0.069978,-0.96784,-0.27991,2.8965e-08,-0.48392,0,0,0.5,-0,-0,0.66667
0.95297,0.91679,1.9059,0.62519,0.19499,0.48757,-3.1775,1.0592,-0.6101,-4.2367,1.1245e-07,-0.30505,0,0,0.5,-0,5.2942e-16,0.66667
0.11233,0.57609,0.22465,0.11413,0.536,8.4344,-0.068376,0.022792,-1.9532,-0.091167,8.4216e-10,-0.97658,0,0,0.5,-0,-0,0.66667
0.8024,0.95493,1.6048,0.68239,1.2277,1.2811,-2.9203,0.97342,-0.3437,-3.8937,1.0012e-09,-0.17185,0,0,0.5,-0,-0,0.66667
0.65102,0.20137,1.302,-0.44795,-1.2085,2.2529,1.5553,-0.51844,-1.2859,2.0738,-1.7063e-10,-0.64296,0,0,0.5,-1.1842e-15,0,0.66667
0.86511,0.54174,1.7302,0.062611,0.047736,0.57053,-0.28888,0.096295,-1.9856,-0.38518,8.2734e-10,-0.9928,0,0,0.5,2.3685e-15,0,0.66667
0.62975,0.28445,1.2595,-0.32333,-0.887,2.3893,1.086,-0.36199,-1.6287,1.4479,-1.159e-10,-0.81437,0,0,0.5,-0,-0,0.66667
0.29818,0.96827,0.59636,0.7024,3.3627,6.1441,-1.117,0.37234,-0.24697,-1.4894,-2.1526e-11,-0.12348,0,0,0.5,-2.4055e-16,0,0.66667
0.93148,0.26834,1.863,-0.3475,-0.086078,0.34305,1.7263,-0.57544,-1.57,2.3018,5.1669e-09,-0.78502,0,0,0.5,-1.1842e-15,0,0.66667
0.6923,0.4791,1.3846,-0.031351,-0.068814,1.7787,0.11576,-0.038585,-1.9961,0.15434,-2.5049e-11,-0.99804,0,0,0.5,-1.1842e-15,0,0.66667
0.87664,0.56446,1.7533,0.096688,0.063915,0.51247,-0.45205,0.15068,-1.9676,-0.60274,-3.8443e-09,-0.9838,0,0,0.5,-0,-0,0.66667
0.81549,0.062906,1.631,-0.65564,-1.0811,1.1752,2.8516,-0.95052,-0.47266,3.8021,-2.5465e-09,-0.23633,0,0,0.5,-0,-0,0.66667
0.136,0.45519,0.272,-0.067214,-0.31295,8.1179,0.048753,-0.016251,-1.9833,0.065004,1.3248e-09,-0.99167,0,0,0.5,-0,-0,0.66667
0.69941,0.6629,1.3988,0.24435,0.5383,1.756,-0.91149,0.30383,-1.7877,-1.2153,1.391e-10,-0.89384,0,0,0.5,-0,-0,0.66667
0.68101,0.63531,1.362,0.20296,0.47072,1.8987,-0.73716,0.24572,-1.8531,-0.98288,1.1331e-10,-0.92653,0,0,0.5,-0,-0,0.66667
0.7558,0.78704,1.5116,0.43056,0.81621,1.4008,-1.7356,0.57852,-1.3409,-2.3141,5.7165e-10,-0.67044,0,0,0.5,-0,-0,0.66667
0.79965,0.40427,1.5993,-0.14359,-0.19543,0.98187,0.61238,-0.20413,-1.9275,0.81651,-1.6492e-10,-0.96373,0,0,0.5,1.6283e-15,0,0.66667
0.94145,0.19147,1.8829,-0.4628,-0.11342,0.38099,2.3237,-0.77457,-1.2388,3.0983,-2.3177e-08,-0.61941,0,0,0.5,-2.3685e-15,0,0.66667
0.065147,0.88475,0.13029,0.57712,2.9276,9.0852,-0.20052,0.066841,-0.81545,-0.26736,2.9796e-09,-0.40772,0,0,0.5,-0,-0,0.66667
0.50862,0.23227,1.0172,-0.40159,-1.4207,3.6189,1.0894,-0.36312,-1.4259,1.4525,-5.3154e-12,-0.71296,0,0,0.5,-0,-0,0.66667
0.49966,0.59384,0.99931,0.14076,0.4841,3.6514,-0.37512,0.12504,-1.9309,-0.50015,-1.5113e-13,-0.96543,0,0,0.5,-0,-0,0.66667
0.70076,0.70143,1.4015,0.30215,0.67247,1.7645,-1.1292,0.37642,-1.6749,-1.5057,1.8381e-10,-0.83745,0,0,0.5,-0,-0,0.66667
0.9956,0.22599,1.9912,-0.41102,0.14851,0.16217,2.1825,-0.72749,-1.3992,2.91,-1.2699e-08,-0.6996,0,0,0.5,-0,-3.4967e-16,0.66667
0.90798,0.076073,1.816,-0.63589,-0.49115,0.67462,3.0793,-1.0264,-0.56184,4.1058,-2.9621e-08,-0.28092,0,0,0.5,-0,-0,0.66667
0.29689,0.17247,0.59377,-0.49129,-2.2256,6.0932,0.77791,-0.2593,-1.1415,1.0372,3.8014e-10,-0.57073,0,0,0.5,-0,-0,0.66667
0.33575,0.44506,0.67151,-0.082416,-0.34251,5.5484,0.14758,-0.049194,-1.9756,0.19677,4.87e-11,-0.98781,0,0,0.5,-0,-0,0.66667
0.82017,0.48657,1.6403,-0.020145,-0.023422,0.83408,0.088118,-0.029373,-1.9979,0.11749,-1.1434e-10,-0.99896,0,0,0.5,-1.1842e-15,0,0.66667
0.36161,0.93164,0.72323,0.64746,2.9054,5.3655,-1.2487,0.41623,-0.50964,-1.6649,-3.05e-11,-0.25482,0,0,0.5,-0,-0,0.66667
0.32537,0.59323,0.65075,0.13985,0.58814,5.68,-0.24268,0.080893,-1.9315,-0.32357,-8.2943e-11,-0.96576,0,0,0.5,-7.9566e-16,0,0.66667
0.4447,0.12857,0.88941,-0.55714,-2.2381,4.3763,1.3214,-0.44046,-0.89669,1.7619,1.6857e-11,-0.44834,0,0,0.5,-0,-0,0.66667
0.27712,0.74117,0.55424,0.36175,1.6193,6.3112,-0.53466,0.17822,-1.5344,-0.71288,-2.8323e-10,-0.76721,0,0,0.5,2.9606e-16,0,0.66667
0.74901,0.10613,1.498,-0.59081,-1.2525,1.5593,2.3601,-0.7867,-0.75855,3.1468,-7.4041e-10,-0.37927,0,0,0.5,-1.1842e-15,5.6651e-16,0.66667
0.45268,0.27907,0.90535,-0.33139,-1.2497,4.2073,0.80006,-0.26669,-1.6104,1.0667,3.3023e-11,-0.80521,0,0,0.5,-8.8818e-16,0,0.66667
0.16392,0.69707,0.32785,0.29561,1.3886,7.7599,-0.25844,0.086146,-1.6889,-0.34458,5.7157e-10,-0.84444,0,0,0.5,-0,-0,0.66667
0.99046,0.051395,1.9809,-0.67291,0.008409,0.42665,3.5546,-1.1849,-0.38951,4.7395,1.5789e-06,-0.19475,0,0,0.5,-0,-0,0.66667
0.338,0.93037,0.67599,0.64555,2.952,5.644,-1.1637,0.3879,-0.51811,-1.5516,-5.4639e-11,-0.25905,0,0,0.5,-0,-0,0.66667
0.30176,0.57693,0.60352,0.1154,0.49371,5.972,-0.18573,0.061908,-1.952,-0.24763,-8.2757e-11,-0.97601,0,0,0.5,-0,-0,0.66667
0.22533,0.64868,0.45065,0.22302,1.0105,6.9532,-0.26801,0.089338,-1.8229,-0.35735,-1.5463e-11,-0.91147,0,0,0.5,-2.9606e-16,0,0.66667
0.42574,0.23449,0.85149,-0.39826,-1.5722,4.5313,0.9043,-0.30143,-1.4355,1.2057,5.3945e-11,-0.71773,0,0,0.5,-0,-0,0.66667
0.69512,0.84104,1.3902,0.51156,1.2505,1.9162,-1.8965,0.63218,-1.07,-2.5287,3.3294e-10,-0.535,0,0,0.5,1.8341e-15,0,0.66667
0.60241,0.003976,1.2048,-0.74404,-2.5213,2.8857,2.3905,-0.79682,-0.031957,3.1873,1.9496e-13,-0.015978,0,0,0.5,-0,-0,0.66667
0.18146,0.58104,0.36292,0.12157,0.55796,7.5184,-0.11765,0.039217,-1.9469,-0.15687,-3.9039e-10,-0.97343,0,0,0.5,-2.1489e-16,0,0.66667
0.26456,0.74613,0.52912,0.36919,1.668,6.4708,-0.52093,0.17364,-1.5159,-0.69457,-3.0853e-10,-0.75795,0,0,0.5,7.8326e-17,0,0.66667
0.59825,0.35817,1.1965,-0.21275,-0.61444,2.6534,0.67881,-0.22627,-1.8385,0.90508,-6.054e-11,-0.91923,0,0,0.5,1.1842e-15,0,0.66667
0.85805,0.25402,1.7161,-0.36897,-0.35589,0.7108,1.6885,-0.56283,-1.5164,2.2513,1.0712e-09,-0.75822,0,0,0.5,-0,-0,0.66667
0.41292,0.66773,0.82583,0.2516,0.98281,4.6436,-0.55407,0.18469,-1.7744,-0.73876,-5.9161e-11,-0.88719,0,0,0.5,-0,-0,0.66667
0.21585,0.56912,0.4317,0.10368,0.46788,7.0683,-0.11936,0.039786,-1.9618,-0.15914,-2.2376e-10,-0.9809,0,0,0.5,-0,-0,0.66667
0.32339,0.9004,0.64678,0.6006,2.7425,5.8026,-1.0359,0.34529,-0.71747,-1.3812,-1.413e-10,-0.35874,0,0,0.5,-5.4866e-16,0,0.66667
0.69169,0.52444,1.3834,0.036663,0.080655,1.7841,-0.13525,0.045084,-1.9952,-0.18034,2.9196e-11,-0.99758,0,0,0.5,-0,-0,0.66667
0.70095,0.91847,1.4019,0.62771,1.5932,1.9517,-2.3466,0.78221,-0.59862,-3.1288,1.8021e-10,-0.29931,0,0,0.5,-0,-0,0.66667
0.22335,0.13333,0.4467,-0.55001,-2.6388,7.0289,0.65517,-0.21839,-0.92416,0.87356,1.4151e-09,-0.46208,0,0,0.5,-0,-0,0.66667
0.3965,0.12683,0.79299,-0.55976,-2.3714,4.9238,1.1837,-0.39456,-0.88662,1.5782,4.6193e-11,-0.44331,0,0,0.5,-0,-0,0.66667
0.69933,0.048643,1.3987,-0.67703,-1.7718,2.0045,2.5252,-0.84173,-0.36965,3.3669,-7.1601e-11,-0.18482,0,0,0.5,-0,7.6797e-16,0.66667
0.72057,0.2263,1.4411,-0.41056,-0.88499,1.6549,1.5778,-0.52593,-1.4007,2.1037,-3.7912e-10,-0.70033,0,0,0.5,-0,-0,0.66667
0.13052,0.82631,0.26103,0.48946,2.4021,8.2182,-0.3407,0.11357,-1.1476,-0.45427,5.034e-10,-0.57379,0,0,0.5,-0,-0,0.66667
0.60937,0.96806,1.2187,0.70209,2.3034,2.7895,-2.2818,0.7606,-0.24856,-3.0424,1.9298e-12,-0.12428,0,0,0.5,-2.9606e-16,0,0.66667
0.88607,0.62622,1.7721,0.18934,0.11358,0.48425,-0.89475,0.29825,-1.8734,-1.193,-2.2421e-09,-0.93668,0,0,0.5,-0,-0,0.66667
0.58236,0.70985,1.1647,0.31477,0.95817,2.8361,-0.97766,0.32589,-1.6474,-1.3035,6.2048e-11,-0.82371,0,0,0.5,-5.9212e-16,0,0.66667
0.30721,0.081108,0.61442,-0.62834,-2.9256,6.008,1.0295,-0.34317,-0.59566,1.3727,1.4796e-10,-0.29783,0,0,0.5,-0,-0,0.66667
0.74514,0.96178,1.4903,0.69267,1.5837,1.6739,-2.7527,0.91758,-0.29395,-3.6703,1.3822e-10,-0.14697,0,0,0.5,-1.1842e-15,3.5751e-16,0.66667
0.9777,0.55144,1.9554,0.077155,-0.026377,0.07363,-0.40231,0.1341,-1.9783,-0.53642,9.4569e-07,-0.98915,0,0,0.5,1.1842e-15,0,0.66667
0.90462,0.7658,1.8092,0.3987,0.21942,0.492,-1.9236,0.64119,-1.4343,-2.5648,-1.7349e-09,-0.71717,0,0,0.5,1.1842e-15,0,0.66667
0.8716,0.55652,1.7432,0.084787,0.059845,0.53768,-0.39414,0.13138,-1.9745,-0.52552,1.1923e-09,-0.98726,0,0,0.5,1.1842e-15,0,0.66667
0.00029225,0.37539,0.0005845,-0.18692,-0.89465,9.9405,0.00029092,-9.7215e-05,-1.877,0.00038777,-3.6382e-07,-0.93851,0,0,0.5,-0,-0,0.66667
0.58262,0.84825,1.1652,0.52237,1.6834,2.9236,-1.6232,0.54105,-1.03,-2.1642,4.0702e-11,-0.51502,0,0,0.5,-0,-0,0.66667
0.26272,0.06977,0.52544,-0.64535,-3.1066,6.5595,0.90424,-0.30141,-0.51915,1.2057,3.2794e-10,-0.25958,0,0,0.5,5.9212e-16,4.5485e-16,0.66667
0.81301,0.72228,1.626,0.33342,0.4468,0.95988,-1.4457,0.4819,-1.6054,-1.9276,-2.7765e-10,-0.80269,0,0,0.5,-0,-0,0.66667
0.52348,0.22613,1.047,-0.4108,-1.4228,3.466,1.1469,-0.38231,-1.3998,1.5292,-1.4324e-11,-0.69988,0,0,0.5,-0,-0,0.66667
0.8939,0.33131,1.7878,-0.25303,-0.14037,0.46731,1.2063,-0.4021,-1.7719,1.6084,3.0154e-09,-0.88593,0,0,0.5,1.1842e-15,0,0.66667
0.52374,0.36309,1.0475,-0.20536,-0.68402,3.4043,0.57365,-0.19122,-1.8495,0.76486,-1.2922e-11,-0.92473,0,0,0.5,5.9212e-16,0,0.66667
0.89114,0.12556,1.7823,-0.56165,-0.47281,0.68016,2.6694,-0.88979,-0.87958,3.5592,7.7416e-09,-0.43979,0,0,0.5,-2.3685e-15,0,0.66667
0.44972,0.2729,0.89944,-0.34065,-1.2916,4.243,0.81706,-0.27235,-1.5872,1.0894,3.5099e-11,-0.7936,0,0,0.5,5.9212e-16,0,0.66667
0.5615,0.42539,1.123,-0.11191,-0.34485,2.9999,0.33514,-0.11171,-1.9551,0.44685,-2.089e-11,-0.97756,0,0,0.5,-0,-0,0.66667
0.81248,0.84382,1.625,0.51573,0.77624,1.075,-2.2348,0.74493,-1.0556,-2.9797,1.9194e-09,-0.52782,0,0,0.5,2.3685e-15,0,0.66667
0.40317,0.14155,0.80634,-0.53767,-2.249,4.8382,1.1561,-0.38537,-0.97158,1.5415,4.8339e-11,-0.48579,0,0,0.5,-0,-0,0.66667
0.56867,0.74954,1.1373,0.37432,1.1868,2.9921,-1.1353,0.37842,-1.5028,-1.5137,5.0493e-11,-0.75138,0,0,0.5,4.4409e-16,0,0.66667
0.89846,0.012079,1.7969,-0.73188,-0.73207,0.82173,3.507,-1.169,-0.094874,4.676,1.5745e-08,-0.047437,0,0,0.5,-0,-0,0.66667
0.48462,0.68094,0.96925,0.27141,0.96997,3.8385,-0.7015,0.23383,-1.7383,-0.93533,-9.7892e-12,-0.86914,0,0,0.5,8.8818e-16,0,0.66667
0.59059,0.70032,1.1812,0.30048,0.89645,2.7513,-0.94646,0.31549,-1.6785,-1.2619,6.8486e-11,-0.83923,0,0,0.5,-0,-0,0.66667
0.93638,0.18917,1.8728,-0.46624,-0.13947,0.40345,2.3284,-0.77614,-1.228,3.1045,-7.1296e-09,-0.61401,0,0,0.5,-0,-0,0.66667
0.88325,0.71393,1.7665,0.3209,0.22338,0.55136,-1.5116,0.50388,-1.634,-2.0155,-9.6072e-10,-0.817,0,0,0.5,-5.9212e-16,0,0.66667
0.75772,0.44919,1.5154,-0.076217,-0.12911,1.2659,0.30801,-0.10267,-1.9788,0.41068,-1.272e-10,-0.98939,0,0,0.5,-1.1842e-15,0,0.66667
0.71123,0.3525,1.4225,-0.22125,-0.46527,1.653,0.83925,-0.27975,-1.8256,1.119,-1.2678e-10,-0.9128,0,0,0.5,-0,-0,0.66667
0.8192,0.10243,1.6384,-0.59635,-0.91822,1.0989,2.6055,-0.8685,-0.73518,3.474,-3.4116e-09,-0.36759,0,0,0.5,-0,-0,0.66667
0.10608,0.27711,0.21216,-0.33433,-1.6068,8.5271,0.18916,-0.063052,-1.6029,0.25221,-2.7226e-09,-0.80146,0,0,0.5,-3.7007e-17,0,0.66667
0.38103,0.26441,0.76207,-0.35338,-1.4507,5.0395,0.71814,-0.23938,-1.5553,0.95752,1.0627e-10,-0.77767,0,0,0.5,-0,-0,0.66667
0.54579,0.42325,1.0916,-0.11512,-0.36551,3.1608,0.3351,-0.1117,-1.9525,0.44681,-1.5732e-11,-0.97623,0,0,0.5,-0,-0,0.66667
0.85851,0.27145,1.717,-0.34283,-0.3226,0.69405,1.5697,-0.52324,-1.5819,2.093,1.0255e-09,-0.79096,0,0,0.5,1.1842e-15,0,0.66667
0.1464,0.84828,0.2928,0.52243,2.5697,8.0147,-0.40792,0.13597,-1.0298,-0.54389,-1.8587e-09,-0.51489,0,0,0.5,-5.9212e-16,0,0.66667
0.71404,0.54564,1.4281,0.06846,0.13936,1.6023,-0.26071,0.086903,-1.9827,-0.34761,6.3641e-11,-0.99136,0,0,0.5,-1.1842e-15,0,0.66667
0.59097,0.2553,1.1819,-0.36705,-1.1111,2.771,1.1569,-0.38563,-1.5212,1.5425,-7.2834e-11,-0.76059,0,0,0.5,-1.1842e-15,0,0.66667
0.60872,0.12504,1.2174,-0.56243,-1.7446,2.6999,1.8259,-0.60865,-0.87656,2.4346,-5.0242e-11,-0.43828,0,0,0.5,-0,3.3723e-18,0.66667
0.37262,0.0050429,0.74524,-0.74244,-3.4012,5.2806,1.4754,-0.49181,-0.040403,1.9673,-2.0528e-13,-0.020201,0,0,0.5,-0,3.2053e-16,0.66667
0.91582,0.18974,1.8316,-0.46539,-0.23334,0.48828,2.2732,-0.75772,-1.2305,3.0309,1.3822e-09,-0.61525,0,0,0.5,-2.3685e-15,0,0.66667
0.71391,0.00034991,1.4278,-0.74948,-1.9594,1.9569,2.8536,-0.95121,-0.0038004,3.8048,1.2845e-11,-0.0019002,0,0,0.5,-0,-0,0.66667
0.6683,0.3937,1.3366,-0.15944,-0.38176,1.9988,0.5683,-0.18943,-1.9091,0.75773,-8.7786e-11,-0.95455,0,0,0.5,-0,-0,0.66667
0.22147,0.53332,0.44293,0.049978,0.22445,6.9938,-0.059032,0.019677,-1.9919,-0.078709,-1.7128e-10,-0.99593,0,0,0.5,-5.9212e-16,0,0.66667
0.81288,0.28447,1.6258,-0.32329,-0.43137,0.95591,1.4016,-0.46719,-1.6291,1.8688,2.9756e-10,-0.81454,0,0,0.5,-0,-0,0.66667
0.49585,0.80812,0.99171,0.46219,1.6917,3.778,-1.2223,0.40743,-1.2408,-1.6297,-2.084e-12,-0.62038,0,0,0.5,-0,-0,0.66667
0.50837,0.49238,1.0167,-0.011432,-0.038542,3.5486,0.030996,-0.010332,-1.9993,0.041328,-3.1851e-13,-0.99965,0,0,0.5,-2.9606e-16,0,0.66667
0.084733,0.15079,0.16947,-0.52381,-2.6171,8.8234,0.23672,-0.078906,-1.0245,0.31562,-1.3723e-08,-0.51224,0,0,0.5,-7.4015e-17,0,0.66667
0.43727,0.60212,0.87454,0.15318,0.57513,4.3477,-0.35723,0.11908,-1.9166,-0.47631,-2.8296e-11,-0.95828,0,0,0.5,-0,-0,0.66667
0.8632,0.82505,1.7264,0.48757,0.49858,0.76051,-2.2447,0.74822,-1.1542,-2.9929,-2.7546e-10,-0.57711,0,0,0.5,-2.3685e-15,0,0.66667
0.68024,0.2775,1.3605,-0.33375,-0.80022,1.9478,1.2108,-0.40361,-1.6043,1.6144,-1.9063e-10,-0.80213,0,0,0.5,5.9212e-16,0,0.66667
0.18942,0.26118,0.37885,-0.35823,-1.6807,7.433,0.36191,-0.12064,-1.5434,0.48255,-1.5242e-10,-0.77168,0,0,0.5,-2.9606e-16,0,0.66667
0.58407,0.23967,1.1681,-0.3905,-1.2061,2.8471,1.2164,-0.40548,-1.4573,1.6219,-6.4425e-11,-0.72867,0,0,0.5,-0,-0,0.66667
0.94401,0.98578,1.888,0.72866,0.39918,0.637,-3.6686,1.2229,-0.11152,-4.8915,4.7941e-07,-0.055758,0,0,0.5,1.1842e-15,0,0.66667
0.50746,0.85823,1.0149,0.53735,1.9753,3.6886,-1.4543,0.48477,-0.97269,-1.9391,2.3548e-12,-0.48634,0,0,0.5,-0,-0,0.66667
0.9674,0.60625,1.9348,0.15938,-0.034261,0.12541,-0.8223,0.2741,-1.9093,-1.0964,2.2663e-07,-0.95465,0,0,0.5,-0,-0,0.66667
0.36627,0.70819,0.73253,0.31228,1.2915,5.2063,-0.61001,0.20334,-1.6528,-0.81335,-1.1784e-10,-0.82639,0,0,0.5,2.9606e-16,0,0.66667
0.29075,0.73922,0.5815,0.35882,1.5905,6.14,-0.55641,0.18547,-1.5417,-0.74188,-2.6073e-10,-0.77085,0,0,0.5,-0,-0,0.66667
0.83985,0.49044,1.6797,-0.014336,-0.014164,0.71288,0.064213,-0.021404,-1.9989,0.085617,-3.4843e-10,-0.99947,0,0,0.5,-0,-0,0.66667
0.86973,0.26113,1.7395,-0.3583,-0.30416,0.64153,1.662,-0.554,-1.543,2.216,1.5592e-09,-0.77152,0,0,0.5,-0,-0,0.66667
0.20167,0.75065,0.40333,0.37597,1.7594,7.2765,-0.40438,0.13479,-1.4985,-0.53917,-8.5862e-11,-0.74926,0,0,0.5,-0,-0,0.66667
0.71945,0.51063,1.4389,0.015949,0.031729,1.5561,-0.061197,0.020399,-1.9989,-0.081595,1.7193e-11,-0.99943,0,0,0.5,2.3685e-15,0,0.66667
0.59211,0.84253,1.1842,0.51379,1.6205,2.828,-1.6225,0.54084,-1.0624,-2.1633,5.1697e-11,-0.53118,0,0,0.5,-1.4063e-15,0,0.66667
0.89451,0.93034,1.789,0.64551,0.59042,0.74472,-3.0795,1.0265,-0.51837,-4.1061,1.2901e-08,-0.25919,0,0,0.5,1.1842e-15,0,0.66667
0.14945,0.91249,0.29889,0.61873,3.1109,7.9896,-0.49316,0.16439,-0.63876,-0.65754,-6.8538e-09,-0.31938,0,0,0.5,-0,-0,0.66667
0.76303,0.2317,1.5261,-0.40244,-0.72957,1.333,1.6377,-0.54591,-1.4237,2.1836,-4.4626e-10,-0.71183,0,0,0.5,-0,-0,0.66667
0.68996,0.26555,1.3799,-0.35167,-0.8227,1.8737,1.2941,-0.43136,-1.5597,1.7254,-2.211e-10,-0.77987,0,0,0.5,-0,-0,0.66667
0.79502,0.1713,1.59,-0.49305,-0.80426,1.1702,2.0906,-0.69686,-1.1351,2.7875,-1.3412e-09,-0.56757,0,0,0.5,-0,-0,0.66667
0.45329,0.7585,0.90657,0.38774,1.4773,4.2168,-0.93738,0.31246,-1.4654,-1.2498,-3.1374e-11,-0.73271,0,0,0.5,-0,-0,0.66667
0.22843,0.5811,0.45686,0.12165,0.54584,6.906,-0.1482,0.049401,-1.9468,-0.1976,-1.6654e-10,-0.97339,0,0,0.5,-0,-0,0.66667
0.28605,0.91735,0.57211,0.62602,2.9548,6.2656,-0.95507,0.31836,-0.60608,-1.2734,-2.4843e-10,-0.30304,0,0,0.5,-0,-0,0.66667
0.3043,0.45483,0.60861,-0.06775,-0.28868,5.9378,0.10996,-0.036652,-1.983,0.14661,5.2693e-11,-0.99151,0,0,0.5,-0,-0,0.66667
0.84027,0.44294,1.6805,-0.085587,-0.084908,0.71571,0.38355,-0.12785,-1.9741,0.5114,-8.885e-10,-0.98705,0,0,0.5,-0,-0,0.66667
0.53716,0.36892,1.0743,-0.19662,-0.63923,3.2624,0.56327,-0.18776,-1.8625,0.75103,-1.9869e-11,-0.93127,0,0,0.5,8.8818e-16,0,0.66667
0.56358,0.94969,1.1272,0.67454,2.3797,3.2005,-2.0275,0.67584,-0.38184,-2.7034,2.9476e-12,-0.19092,0,0,0.5,-1.1842e-15,0,0.66667
0.28417,0.072337,0.56834,-0.64149,-3.0446,6.2937,0.97222,-0.32407,-0.53652,1.2963,2.0771e-10,-0.26826,0,0,0.5,-0,-0,0.66667
0.83416,0.37351,1.6683,-0.18973,-0.2042,0.77373,0.84408,-0.28136,-1.8727,1.1254,2.8872e-11,-0.93637,0,0,0.5,1.4803e-15,0,0.66667
0.70493,0.97027,1.4099,0.7054,1.8451,1.9852,-2.652,0.88402,-0.23169,-3.5361,2.159e-11,-0.11585,0,0,0.5,-0,-0,0.66667
0.87814,0.99427,1.7563,0.7414,0.89514,0.9263,-3.4723,1.1574,-0.045707,-4.6297,1.2771e-08,-0.022853,0,0,0.5,-1.1842e-15,0,0.66667
0.13153,0.58815,0.26305,0.13222,0.61825,8.179,-0.092749,0.030916,-1.9379,-0.12367,1.9677e-10,-0.96894,0,0,0.5,-1.4803e-16,0,0.66667
0.8496,0.42671,1.6992,-0.10994,-0.10035,0.66446,0.49815,-0.16605,-1.9565,0.6642,-5.0031e-10,-0.97827,0,0,0.5,-0,-0,0.66667
0.052112,0.35642,0.10422,-0.21536,-1.0302,9.2436,0.059856,-0.019952,-1.8345,0.079809,-3.5129e-08,-0.91725,0,0,0.5,7.4015e-17,0,0.66667
0.87713,0.71102,1.7543,0.31654,0.23762,0.58069,-1.4808,0.49359,-1.6437,-1.9744,-6.8882e-10,-0.82184,0,0,0.5,5.9212e-16,0,0.66667
0.23974,0.65169,0.47948,0.22753,1.0233,6.768,-0.29093,0.096976,-1.8161,-0.3879,-5.9628e-11,-0.90807,0,0,0.5,-1.4803e-16,0,0.66667
0.88566,0.19819,1.7713,-0.45272,-0.35271,0.61943,2.1384,-0.71282,-1.2708,2.8513,2.3795e-09,-0.6354,0,0,0.5,-0,-0,0.66667
0.37931,0.60389,0.75862,0.15584,0.62457,5.026,-0.31526,0.10509,-1.9132,-0.42034,-5.9542e-11,-0.95662,0,0,0.5,-1.1842e-15,0,0.66667
0.84292,0.60335,1.6858,0.15503,0.15278,0.71249,-0.69695,0.23232,-1.9144,-0.92927,1.874e-10,-0.95719,0,0,0.5,-0,-0,0.66667
0.53961,0.25804,1.0792,-0.36294,-1.2099,3.2815,1.0445,-0.34817,-1.5314,1.3927,-2.6781e-11,-0.76569,0,0,0.5,-1.1842e-15,0,0.66667
0.56418,0.19308,1.1284,-0.46038,-1.5065,3.0728,1.3853,-0.46175,-1.2466,1.847,-3.8418e-11,-0.62331,0,0,0.5,1.1842e-15,0,0.66667
0.98402,0.10745,1.968,-0.58883,0.032202,0.35125,3.0903,-1.0301,-0.76685,4.1203,4.8425e-07,-0.38343,0,0,0.5,-2.3685e-15,5.8309e-16,0.66667
0.96375,0.83041,1.9275,0.49562,0.025324,0.327,-2.5475,0.84916,-1.126,-3.3967,3.2902e-08,-0.563,0,0,0.5,1.1842e-15,0,0.66667
0.11432,0.097176,0.22865,-0.60424,-3.0568,8.4435,0.36842,-0.12281,-0.70227,0.49123,9.3774e-09,-0.35113,0,0,0.5,2.9606e-16,0,0.66667
0.36415,0.51586,0.7283,0.023785,0.096173,5.2003,-0.046194,0.015398,-1.9974,-0.061592,-1.1435e-11,-0.99868,0,0,0.5,-0,-0,0.66667
0.25055,0.26194,0.50109,-0.35709,-1.6239,6.6464,0.47717,-0.15906,-1.5463,0.63622,2.7173e-10,-0.77315,0,0,0.5,-0,-0,0.66667
0.4483,0.24406,0.89659,-0.3839,-1.4707,4.2715,0.91788,-0.30596,-1.476,1.2238,3.5328e-11,-0.738,0,0,0.5,8.8818e-16,0,0.66667
0.12635,0.2501,0.25271,-0.37485,-1.8032,8.2616,0.25261,-0.084202,-1.5016,0.33681,-1.5672e-09,-0.75081,0,0,0.5,-0,-0,0.66667
0.51157,0.74802,1.0231,0.37203,1.3013,3.5772,-1.015,0.33834,-1.5086,-1.3534,7.4846e-12,-0.75429,0,0,0.5,-1.4803e-16,0,0.66667
0.86558,0.36385,1.7312,-0.20423,-0.16284,0.59703,0.94282,-0.31427,-1.8512,1.2571,1.3576e-10,-0.92559,0,0,0.5,-0,-0,0.66667
0.35235,0.12157,0.70471,-0.56765,-2.5102,5.4441,1.0667,-0.35558,-0.85466,1.4223,1.0482e-10,-0.42733,0,0,0.5,-7.4015e-16,0,0.66667
0.15564,0.32128,0.31128,-0.26808,-1.2587,7.8666,0.22253,-0.074175,-1.7444,0.2967,-8.617e-10,-0.8722,0,0,0.5,-0,-0,0.66667
0.30726,0.72654,0.61452,0.33981,1.4837,5.9311,-0.55686,0.18562,-1.5892,-0.74248,-2.1347e-10,-0.79461,0,0,0.5,-0,-0,0.66667
0.74287,0.56136,1.4857,0.092041,0.1671,1.3789,-0.36467,0.12156,-1.9707,-0.48622,1.1774e-10,-0.98534,0,0,0.5,-0,-0,0.66667
0.091276,0.13024,0.18255,-0.55464,-2.7868,8.7399,0.27,-0.090001,-0.90645,0.36,7.7381e-09,-0.45322,0,0,0.5,-2.9606e-16,0,0.66667
0.73558,0.53741,1.4712,0.056109,0.10478,1.4313,-0.22012,0.073374,-1.989,-0.2935,7.2293e-11,-0.99449,0,0,0.5,2.3685e-15,0,0.66667
0.61392,0.7415,1.2278,0.36226,1.0418,2.5508,-1.1861,0.39537,-1.5331,-1.5815,1.0052e-10,-0.76657,0,0,0.5,-0,-0,0.66667
0.74026,0.93412,1.4805,0.65118,1.4763,1.6723,-2.5709,0.85697,-0.4927,-3.4279,3.2018e-10,-0.24635,0,0,0.5,5.9212e-16,0,0.66667
0.0090497,0.26556,0.018099,-0.35167,-1.7154,9.8233,0.016973,-0.0056577,-1.5596,0.022631,1.1484e-08,-0.77981,0,0,0.5,1.8504e-17,0,0.66667
0.72047,0.90883,1.4409,0.61324,1.4543,1.7886,-2.3564,0.78546,-0.66361,-3.1418,3.343e-10,-0.3318,0,0,0.5,2.3685e-15,0,0.66667
0.32058,0.86544,0.64117,0.54817,2.4741,5.8193,-0.93724,0.31241,-0.93119,-1.2497,-2.1944e-10,-0.46559,0,0,0.5,-2.9606e-16,0,0.66667
0.63297,0.80922,1.2659,0.46383,1.3156,2.4221,-1.5658,0.52194,-1.2354,-2.0878,1.277e-10,-0.61772,0,0,0.5,1.874e-16,0,0.66667
0.053837,0.48802,0.10767,-0.017965,-0.085061,9.2182,0.0051578,-0.0017195,-1.9983,0.006877,-3.2015e-07,-0.99914,0,0,0.5,-7.4015e-17,0,0.66667
0.55643,0.78756,1.1129,0.43133,1.4198,3.1372,-1.28,0.42668,-1.3384,-1.7067,3.5788e-11,-0.66922,0,0,0.5,-0,-0,0.66667
0.9416,0.29454,1.8832,-0.30819,-0.036962,0.28064,1.5477,-0.51589,-1.6617,2.0636,4.3129e-09,-0.83086,0,0,0.5,-0,-0,0.66667
0.32009,0.57024,0.64017,0.10537,0.44412,5.743,-0.17987,0.059957,-1.9603,-0.23983,-6.819e-11,-0.98014,0,0,0.5,-0,-0,0.66667
0.52274,0.47237,1.0455,-0.041452,-0.13657,3.3962,0.11557,-0.038522,-1.9942,0.15409,-2.9342e-12,-0.99711,0,0,0.5,-0,-0,0.66667
0.40771,0.63552,0.81542,0.20328,0.79407,4.6963,-0.44203,0.14734,-1.8528,-0.58937,-5.4455e-11,-0.9264,0,0,0.5,-1.1842e-15,0,0.66667
0.56965,0.35774,1.1393,-0.21339,-0.65436,2.9344,0.6483,-0.2161,-1.8374,0.8644,-4.0991e-11,-0.91872,0,0,0.5,-1.1842e-15,0,0.66667
0.068319,0.51919,0.13664,0.028778,0.13601,9.0233,-0.010486,0.0034952,-1.9965,-0.013981,-1.0522e-07,-0.99824,0,0,0.5,1.4803e-16,0,0.66667
0.36188,0.86321,0.72376,0.54482,2.3751,5.323,-1.0515,0.3505,-0.94419,-1.402,-1.0158e-10,-0.4721,0,0,0.5,5.9212e-16,0,0.66667
0.52066,0.050126,1.0413,-0.67481,-2.5484,3.6281,1.8738,-0.62462,-0.38035,2.4985,-6.9367e-13,-0.19017,0,0,0.5,-1.2087e-15,0,0.66667
0.084824,0.046696,0.16965,-0.67996,-3.5297,8.8363,0.30761,-0.10254,-0.35545,0.41015,1.7414e-08,-0.17773,0,0,0.5,1.4803e-16,0,0.66667
0.46765,0.22172,0.93529,-0.41742,-1.5713,4.0673,1.0411,-0.34703,-1.3812,1.3881,1.9804e-11,-0.69058,0,0,0.5,1.1842e-15,0,0.66667
0.77223,0.17722,1.5445,-0.48416,-0.8776,1.3176,1.9941,-0.66469,-1.1661,2.6587,-9.9523e-10,-0.58303,0,0,0.5,1.1842e-15,0,0.66667
0.443,0.71653,0.88601,0.32479,1.2384,4.3146,-0.76739,0.2558,-1.6255,-1.0232,-4.0591e-11,-0.81276,0,0,0.5,7.4015e-16,0,0.66667
0.39093,0.36022,0.78185,-0.20967,-0.83459,4.8946,0.43715,-0.14572,-1.8433,0.58286,6.7626e-11,-0.92166,0,0,0.5,5.9212e-16,0,0.66667
0.27288,0.33928,0.54575,-0.24107,-1.0639,6.347,0.35084,-0.11695,-1.7936,0.46779,1.2611e-10,-0.89678,0,0,0.5,-4.4409e-16,0,0.66667
0.051852,0.1545,0.1037,-0.51826,-2.5986,9.2573,0.14332,-0.047773,-1.0457,0.19109,-2.7595e-08,-0.52286,0,0,0.5,9.2519e-17,0,0.66667
0.76182,0.7215,1.5236,0.33225,0.5878,1.3067,-1.3499,0.44998,-1.6081,-1.7999,1.571e-10,-0.80404,0,0,0.5,2.3685e-15,0,0.66667
0.48578,0.75677,0.97156,0.38515,1.404,3.8581,-0.99786,0.33262,-1.4727,-1.3305,-9.0483e-12,-0.73633,0,0,0.5,-0,-0,0.66667
0.16135,0.88404,0.32269,0.57606,2.8546,7.8288,-0.49571,0.16524,-0.81975,-0.66095,-4.5268e-09,-0.40988,0,0,0.5,-0,-0,0.66667
0.066079,0.95797,0.13216,0.68696,3.5833,9.0811,-0.2421,0.080699,-0.32166,-0.3228,-5.3015e-08,-0.16083,0,0,0.5,-7.4015e-17,0,0.66667
0.7579,0.037452,1.5158,-0.69382,-1.5165,1.585,2.8045,-0.93484,-0.28834,3.7394,-1.8551e-10,-0.14417,0,0,0.5,-0,-0,0.66667
0.58841,0.78504,1.1768,0.42755,1.3224,2.8208,-1.3418,0.44725,-1.3504,-1.789,6.6246e-11,-0.67518,0,0,0.5,-0,-0,0.66667
0.55876,0.074462,1.1175,-0.63831,-2.2388,3.2238,1.9022,-0.63407,-0.55085,2.5363,-6.0949e-12,-0.27542,0,0,0.5,1.1842e-15,2.2557e-16,0.66667
0.20632,0.73958,0.41265,0.35938,1.6736,7.214,-0.39546,0.13182,-1.5404,-0.52728,-6.7647e-11,-0.77021,0,0,0.5,-0,-0,0.66667
0.59434,0.29369,1.1887,-0.30947,-0.9177,2.7179,0.98097,-0.32699,-1.6591,1.308,-7.3121e-11,-0.82957,0,0,0.5,-0,-0,0.66667
0.93421,0.46812,1.8684,-0.047826,-0.004671,0.23345,0.23829,-0.07943,-1.9929,0.31772,-1.6516e-07,-0.99644,0,0,0.5,1.3323e-15,0,0.66667
0.72548,0.45783,1.451,-0.063254,-0.12316,1.5107,0.24474,-0.081581,-1.9853,0.32632,-6.8451e-11,-0.99263,0,0,0.5,-0,-0,0.66667
0.5866,0.51537,1.1732,0.023059,0.067224,2.7433,-0.072139,0.024046,-1.9974,-0.096186,6.4625e-12,-0.99872,0,0,0.5,-0,-0,0.66667
0.8653,0.82494,1.7306,0.48742,0.48893,0.74925,-2.2494,0.74979,-1.1547,-2.9992,-3.6656e-10,-0.57735,0,0,0.5,-0,-0,0.66667
0.99657,0.72698,1.9931,0.34047,-0.14524,0.11253,-1.8096,0.6032,-1.5876,-2.4128,-1.8696e-08,-0.79382,0,0,0.5,-0,-4.1064e-17,0.66667
0.86511,0.50145,1.7302,0.0021719,0.0016452,0.56756,-0.010021,0.0033404,-2.0007,-0.013362,7.3479e-09,-1.0004,0,0,0.5,-0,-0,0.66667
0.17918,0.052346,0.35837,-0.67148,-3.3885,7.6177,0.64169,-0.2139,-0.39638,0.85559,2.2354e-09,-0.19819,0,0,0.5,-0,-0,0.66667
0.69466,0.17494,1.3893,-0.48758,-1.1814,1.9052,1.8064,-0.60214,-1.1541,2.4086,-3.3082e-10,-0.57705,0,0,0.5,-1.1842e-15,0,0.66667
0.29623,0.45335,0.59246,-0.069972,-0.29997,6.039,0.11055,-0.036849,-1.9822,0.1474,5.8545e-11,-0.99109,0,0,0.5,5.9212e-16,0,0.66667
0.059534,0.045189,0.11907,-0.68222,-3.5569,9.1661,0.21661,-0.072204,-0.34464,0.28882,-1.026e-07,-0.17232,0,0,0.5,-0,-0,0.66667
0.10804,0.69653,0.21609,0.29479,1.4085,8.4987,-0.16987,0.056623,-1.6909,-0.22649,-5.2721e-10,-0.84543,0,0,0.5,-0,-0,0.66667
0.76279,0.29964,1.5256,-0.30054,-0.52306,1.286,1.2227,-0.40755,-1.6784,1.6302,-9.1988e-11,-0.83918,0,0,0.5,1.1842e-15,0,0.66667
